<?xml version="1.0"?>
<VTKFile type="UnstructuredGrid" version="0.1" byte_order="LittleEndian">
<UnstructuredGrid>
<Piece NumberOfPoints="31898" NumberOfCells="11152">
<Points>
<DataArray type="Float64" NumberOfComponents="3" format="ascii">
-0.5 -0.5 0 -0.47620991077874902 -0.44978878706170539 0 -0.49999999999999473 -0.42132396840504388 0 -0.5 -0.5 0 -0.47160970827802529 -0.4793630013852106 0 -0.47620991077874902 -0.44978878706170539 0 -0.5 -0.5 0 -0.47160970827802529 -0.4793630013852106 0 -0.44860394795025399 -0.5 0 -0.47160970827802529 -0.4793630013852106 0 -0.44860394795025399 -0.5 0 -0.4490820238307246 -0.45820516232899983 0 -0.44860394795025399 -0.5 0 -0.4490820238307246 -0.45820516232899983 0 -0.42881687682924802 -0.47781464288736519 0 -0.4490820238307246 -0.45820516232899983 0 -0.45555437223955858 -0.42914059360647611 0 -0.4490820238307246 -0.45820516232899983 0 -0.45555437223955858 -0.42914059360647611 0 -0.43867285131603428 -0.4271457417558665 0 -0.4490820238307246 -0.45820516232899983 0 -0.43867285131603428 -0.4271457417558665 0 -0.4263356171060747 -0.44269880333887462 0 -0.47160970827802529 -0.4793630013852106 0 -0.4490820238307246 -0.45820516232899983 0 -0.47620991077874902 -0.44978878706170539 0 -0.4490820238307246 -0.45820516232899983 0 -0.47620991077874902 -0.44978878706170539 0 -0.45555437223955858 -0.42914059360647611 0 -0.47620991077874902 -0.44978878706170539 0 -0.48101336032419229 -0.41069999664450008 0 -0.45555437223955858 -0.42914059360647611 0 -0.47620991077874902 -0.44978878706170539 0 -0.49999999999999473 -0.42132396840504388 0 -0.48101336032419229 -0.41069999664450008 0 -0.49999999999999473 -0.42132396840504388 0 -0.48101336032419229 -0.41069999664450008 0 -0.5 -0.393886241813306 0 -0.49999999999999473 -0.42132396840504388 0 -0.48101336032419229 -0.41069999664450008 0 -0.5 -0.393886241813306 0 -0.47854472220918332 -0.38978458738689759 0 -0.48422759779560409 -0.37130120630367158 0 -0.5 -0.393886241813306 0 -0.5 -0.36644851522156802 0 -0.48422759779560409 -0.37130120630367158 0 -0.48101336032419229 -0.41069999664450008 0 -0.5 -0.393886241813306 0 -0.47854472220918332 -0.38978458738689759 0 -0.48101336032419229 -0.41069999664450008 0 -0.47854472220918332 -0.38978458738689759 0 -0.46202672064839212 -0.40007602488395211 0 -0.48101336032419229 -0.41069999664450008 0 -0.46202672064839212 -0.40007602488395211 0 -0.47854472220918332 -0.38978458738689759 0 -0.46725442735267431 -0.37660061361585562 0 -0.46202672064839212 -0.40007602488395211 0 -0.47854472220918332 -0.38978458738689759 0 -0.46725442735267431 -0.37660061361585562 0 -0.48422759779560409 -0.37130120630367158 0 -0.46725442735267431 -0.37660061361585562 0 -0.46202672064839212 -0.40007602488395211 0 -0.46725442735267431 -0.37660061361585562 0 -0.45645674801697989 -0.38644133236760531 0 -0.46202672064839212 -0.40007602488395211 0 -0.46725442735267431 -0.37660061361585562 0 -0.45645674801697989 -0.38644133236760531 0 -0.4540003998136638 -0.37455519391687309 0 -0.45645674801697989 -0.38644133236760531 0 -0.46202672064839212 -0.40007602488395211 0 -0.44257020456291563 -0.38918913383950271 0 -0.46202672064839212 -0.40007602488395211 0 -0.44257020456291563 -0.38918913383950271 0 -0.44727608925983742 -0.41095911152778891 0 -0.46202672064839212 -0.40007602488395211 0 -0.44257020456291563 -0.38918913383950271 0 -0.44257020456291563 -0.38918913383950271 0 -0.44727608925983742 -0.41095911152778891 0 -0.43479358559901082 -0.4041454901736512 0 -0.44257020456291563 -0.38918913383950271 0 -0.4540003998136638 -0.37455519391687309 0 -0.44172858264042247 -0.37082207246888088 0 -0.45645674801697989 -0.38644133236760531 0 -0.44257020456291563 -0.38918913383950271 0 -0.4540003998136638 -0.37455519391687309 0 -0.46202672064839212 -0.40007602488395211 0 -0.45555437223955858 -0.42914059360647611 0 -0.44727608925983742 -0.41095911152778891 0 -0.46202672064839212 -0.40007602488395211 0 -0.45555437223955858 -0.42914059360647611 0 -0.48101336032419229 -0.41069999664450008 0 -0.46202672064839212 -0.40007602488395211 0 -0.45555437223955858 -0.42914059360647611 0 -0.44727608925983742 -0.41095911152778891 0 -0.43867285131603428 -0.4271457417558665 0 -0.43676601469929588 -0.41441201227470881 0 -0.44727608925983742 -0.41095911152778891 0 -0.43676601469929588 -0.41441201227470881 0 -0.43479358559901082 -0.4041454901736512 0 -0.45555437223955858 -0.42914059360647611 0 -0.44727608925983742 -0.41095911152778891 0 -0.43867285131603428 -0.4271457417558665 0 -0.43867285131603428 -0.4271457417558665 0 -0.42681803064840879 -0.42717069814352421 0 -0.4263356171060747 -0.44269880333887462 0 -0.42681803064840879 -0.42717069814352421 0 -0.41531815884496182 -0.42985383783075998 0 -0.4263356171060747 -0.44269880333887462 0 -0.42681803064840879 -0.42717069814352421 0 -0.42624289495594048 -0.42089725947505818 0 -0.42083332353326591 -0.42146747131641099 0 -0.42681803064840879 -0.42717069814352421 0 -0.43096994786351572 -0.41951492446283251 0 -0.42624289495594048 -0.42089725947505818 0 -0.43867285131603428 -0.4271457417558665 0 -0.42681803064840879 -0.42717069814352421 0 -0.43096994786351572 -0.41951492446283251 0 -0.43867285131603428 -0.4271457417558665 0 -0.43676601469929588 -0.41441201227470881 0 -0.43096994786351572 -0.41951492446283251 0 -0.43676601469929588 -0.41441201227470881 0 -0.43096994786351572 -0.41951492446283251 0 -0.42907264086257813 -0.41311715872526122 0 -0.43676601469929588 -0.41441201227470881 0 -0.42907264086257813 -0.41311715872526122 0 -0.43479358559901082 -0.4041454901736512 0 -0.42907264086257813 -0.41311715872526122 0 -0.43479358559901082 -0.4041454901736512 0 -0.42460885511582858 -0.40417321677700252 0 -0.42907264086257813 -0.41311715872526122 0 -0.41997834854398469 -0.41180534796019508 0 -0.42907264086257813 -0.41311715872526122 0 -0.42635027777857132 -0.41543594397746519 0 -0.41997834854398469 -0.41180534796019508 0 -0.42907264086257813 -0.41311715872526122 0 -0.41997834854398469 -0.41180534796019508 0 -0.42460885511582858 -0.40417321677700252 0 -0.42635027777857132 -0.41543594397746519 0 -0.41997834854398469 -0.41180534796019508 0 -0.42635027777857132 -0.41543594397746519 0 -0.42083332353326591 -0.42146747131641099 0 -0.41997834854398469 -0.41180534796019508 0 -0.43096994786351572 -0.41951492446283251 0 -0.42624289495594048 -0.42089725947505818 0 -0.42635027777857132 -0.41543594397746519 0 -0.43096994786351572 -0.41951492446283251 0 -0.42907264086257813 -0.41311715872526122 0 -0.42635027777857132 -0.41543594397746519 0 -0.42624289495594048 -0.42089725947505818 0 -0.42635027777857132 -0.41543594397746519 0 -0.42083332353326591 -0.42146747131641099 0 -0.42083332353326591 -0.42146747131641099 0 -0.41997834854398469 -0.41180534796019508 0 -0.40992282953163789 -0.42011435591993562 0 -0.41997834854398469 -0.41180534796019508 0 -0.39756877647335259 -0.40857286797681719 0 -0.41997834854398469 -0.41180534796019508 0 -0.40992282953163789 -0.42011435591993562 0 -0.39756877647335259 -0.40857286797681719 0 -0.40992282953163789 -0.42011435591993562 0 -0.41531815884496182 -0.42985383783075998 0 -0.39591554026262499 -0.42887225451549271 0 -0.41531815884496182 -0.42985383783075998 0 -0.39591554026262499 -0.42887225451549271 0 -0.41160927495564159 -0.44339431233754628 0 -0.42083332353326591 -0.42146747131641099 0 -0.40992282953163789 -0.42011435591993562 0 -0.41531815884496182 -0.42985383783075998 0 -0.42681803064840879 -0.42717069814352421 0 -0.42083332353326591 -0.42146747131641099 0 -0.41531815884496182 -0.42985383783075998 0 -0.44257020456291563 -0.38918913383950271 0 -0.42311368847744002 -0.37830224279505142 0 -0.42594061475171041 -0.39368797999533162 0 -0.44257020456291563 -0.38918913383950271 0 -0.42311368847744002 -0.37830224279505142 0 -0.44172858264042247 -0.37082207246888088 0 -0.44257020456291563 -0.38918913383950271 0 -0.42311368847744002 -0.37830224279505142 0 -0.42311368847744002 -0.37830224279505142 0 -0.42594061475171041 -0.39368797999533162 0 -0.416587075656149 -0.38785930376960043 0 -0.44257020456291563 -0.38918913383950271 0 -0.42594061475171041 -0.39368797999533162 0 -0.43479358559901082 -0.4041454901736512 0 -0.42594061475171041 -0.39368797999533162 0 -0.43479358559901082 -0.4041454901736512 0 -0.42460885511582858 -0.40417321677700252 0 -0.41997834854398469 -0.41180534796019508 0 -0.41325908582185972 -0.39811010703057192 0 -0.39770572831670092 -0.39911486077581648 0 -0.41997834854398469 -0.41180534796019508 0 -0.39770572831670092 -0.39911486077581648 0 -0.42594061475171041 -0.39368797999533162 0 -0.42460885511582858 -0.40417321677700252 0 -0.41325908582185972 -0.39811010703057192 0 -0.41997834854398469 -0.41180534796019508 0 -0.42460885511582858 -0.40417321677700252 0 -0.41325908582185972 -0.39811010703057192 0 -0.42594061475171041 -0.39368797999533162 0 -0.41325908582185972 -0.39811010703057192 0 -0.416587075656149 -0.38785930376960043 0 -0.41325908582185972 -0.39811010703057192 0 -0.416587075656149 -0.38785930376960043 0 -0.40403491357358612 -0.38133688525744702 0 -0.42311368847744002 -0.37830224279505142 0 -0.40403491357358612 -0.38133688525744702 0 -0.40365717239196519 -0.36741535175059892 0 -0.42311368847744002 -0.37830224279505142 0 -0.416587075656149 -0.38785930376960043 0 -0.40403491357358612 -0.38133688525744702 0 -0.40403491357358612 -0.38133688525744702 0 -0.39190790742475001 -0.38540387676521748 0 -0.39770572831670092 -0.39911486077581648 0 -0.40403491357358612 -0.38133688525744702 0 -0.39190790742475001 -0.38540387676521748 0 -0.3904578797192948 -0.37473938743617019 0 -0.41325908582185972 -0.39811010703057192 0 -0.40403491357358612 -0.38133688525744702 0 -0.39770572831670092 -0.39911486077581648 0 -0.39770572831670092 -0.39911486077581648 0 -0.37543310808941849 -0.38642437359143528 0 -0.39770572831670092 -0.39911486077581648 0 -0.37515920440272033 -0.40534038799344108 0 -0.37543310808941849 -0.38642437359143528 0 -0.39770572831670092 -0.39911486077581648 0 -0.37515920440272033 -0.40534038799344108 0 -0.39756877647335259 -0.40857286797681719 0 -0.37515920440272033 -0.40534038799344108 0 -0.37543310808941849 -0.38642437359143528 0 -0.37543310808941849 -0.38642437359143528 0 -0.3904578797192948 -0.37473938743617019 0 -0.37568304780698558 -0.36916333065311507 0 -0.39190790742475001 -0.38540387676521748 0 -0.37543310808941849 -0.38642437359143528 0 -0.3904578797192948 -0.37473938743617019 0 -0.37543310808941849 -0.38642437359143528 0 -0.37568304780698558 -0.36916333065311507 0 -0.39190790742475001 -0.38540387676521748 0 -0.39770572831670092 -0.39911486077581648 0 -0.37543310808941849 -0.38642437359143528 0 -0.41997834854398469 -0.41180534796019508 0 -0.39770572831670092 -0.39911486077581648 0 -0.39756877647335259 -0.40857286797681719 0 -0.40992282953163789 -0.42011435591993562 0 -0.39591554026262499 -0.42887225451549271 0 -0.39756877647335259 -0.40857286797681719 0 -0.37515920440272033 -0.40534038799344108 0 -0.39591554026262499 -0.42887225451549271 0 -0.39756877647335259 -0.40857286797681719 0 -0.37515920440272033 -0.40534038799344108 0 -0.39756877647335259 -0.40857286797681719 0 -0.37515920440272033 -0.40534038799344108 0 -0.39591554026262499 -0.42887225451549271 0 -0.37472313619600889 -0.43545561783144832 0 -0.39591554026262499 -0.42887225451549271 0 -0.39301703415267508 -0.44654444244683272 0 -0.37472313619600889 -0.43545561783144832 0 -0.39301703415267508 -0.44654444244683272 0 -0.37428706798929601 -0.46557084766945539 0 -0.37472313619600889 -0.43545561783144832 0 -0.39591554026262499 -0.42887225451549271 0 -0.39301703415267508 -0.44654444244683272 0 -0.41160927495564159 -0.44339431233754628 0 -0.39301703415267508 -0.44654444244683272 0 -0.40396056051613372 -0.45751466911048011 0 -0.41160927495564159 -0.44339431233754628 0 -0.40396056051613372 -0.45751466911048011 0 -0.39245383412573559 -0.47875733455523922 0 -0.41207507163844148 -0.46917161410542801 0 -0.40396056051613372 -0.45751466911048011 0 -0.38912381425271458 -0.46154275838996711 0 -0.39245383412573559 -0.47875733455523922 0 -0.40396056051613372 -0.45751466911048011 0 -0.39245383412573559 -0.47875733455523922 0 -0.40396056051613372 -0.45751466911048011 0 -0.40649676728151513 -0.45682610390212369 0 -0.40396056051613372 -0.45751466911048011 0 -0.38912381425271458 -0.46154275838996711 0 -0.39301703415267508 -0.44654444244683272 0 -0.40396056051613372 -0.45751466911048011 0 -0.38912381425271458 -0.46154275838996711 0 -0.39301703415267508 -0.44654444244683272 0 -0.38912381425271458 -0.46154275838996711 0 -0.37428706798929601 -0.46557084766945539 0 -0.38912381425271458 -0.46154275838996711 0 -0.37428706798929601 -0.46557084766945539 0 -0.38912381425271458 -0.46154275838996711 0 -0.38378714202547332 -0.47159002408209011 0 -0.37428706798929601 -0.46557084766945539 0 -0.38378714202547332 -0.47159002408209011 0 -0.39245383412573559 -0.47875733455523922 0 -0.37411677223754131 -0.47733161267270968 0 -0.39245383412573559 -0.47875733455523922 0 -0.37240076261097882 -0.48974555046165519 0 -0.37411677223754131 -0.47733161267270968 0 -0.38378714202547332 -0.47159002408209011 0 -0.37411677223754131 -0.47733161267270968 0 -0.37428706798929601 -0.46557084766945539 0 -0.38912381425271458 -0.46154275838996711 0 -0.38378714202547332 -0.47159002408209011 0 -0.39245383412573559 -0.47875733455523922 0 -0.38094710773533791 -0.49999999999999839 0 -0.39245383412573559 -0.47875733455523922 0 -0.38094710773533791 -0.49999999999999839 0 -0.39245383412573559 -0.47875733455523922 0 -0.37240076261097882 -0.48974555046165519 0 -0.38094710773533791 -0.49999999999999839 0 -0.39245383412573559 -0.47875733455523922 0 -0.40997732063196057 -0.5 0 -0.39245383412573559 -0.47875733455523922 0 -0.41207507163844148 -0.46917161410542801 0 -0.40997732063196057 -0.5 0 -0.41207507163844148 -0.46917161410542801 0 -0.40997732063196057 -0.5 0 -0.42881687682924802 -0.47781464288736519 0 -0.44860394795025399 -0.5 0 -0.40997732063196057 -0.5 0 -0.42881687682924802 -0.47781464288736519 0 -0.41207507163844148 -0.46917161410542801 0 -0.42881687682924802 -0.47781464288736519 0 -0.42627766738448791 -0.46032764904509182 0 -0.4490820238307246 -0.45820516232899983 0 -0.42881687682924802 -0.47781464288736519 0 -0.42627766738448791 -0.46032764904509182 0 -0.4490820238307246 -0.45820516232899983 0 -0.42627766738448791 -0.46032764904509182 0 -0.4263356171060747 -0.44269880333887462 0 -0.42627766738448791 -0.46032764904509182 0 -0.4263356171060747 -0.44269880333887462 0 -0.41655419253802572 -0.45404861160063659 0 -0.4263356171060747 -0.44269880333887462 0 -0.41160927495564159 -0.44339431233754628 0 -0.41655419253802572 -0.45404861160063659 0 -0.41531815884496182 -0.42985383783075998 0 -0.4263356171060747 -0.44269880333887462 0 -0.41160927495564159 -0.44339431233754628 0 -0.40396056051613372 -0.45751466911048011 0 -0.41160927495564159 -0.44339431233754628 0 -0.40649676728151513 -0.45682610390212369 0 -0.41160927495564159 -0.44339431233754628 0 -0.40649676728151513 -0.45682610390212369 0 -0.41655419253802572 -0.45404861160063659 0 -0.40396056051613372 -0.45751466911048011 0 -0.41160927495564159 -0.44339431233754628 0 -0.41207507163844148 -0.46917161410542801 0 -0.40649676728151513 -0.45682610390212369 0 -0.41655419253802572 -0.45404861160063659 0 -0.40396056051613372 -0.45751466911048011 0 -0.41207507163844148 -0.46917161410542801 0 -0.40649676728151513 -0.45682610390212369 0 -0.41207507163844148 -0.46917161410542801 0 -0.42627766738448791 -0.46032764904509182 0 -0.41655419253802572 -0.45404861160063659 0 -0.45662330498375908 -0.25656877445722759 0 -0.43445882011373449 -0.25478651907497341 0 -0.45662330498375908 -0.25656877445722759 0 -0.43445882011373449 -0.25478651907497341 0 -0.45034617445999431 -0.24335722649563979 0 -0.44999384684511368 -0.2755750489792308 0 -0.45662330498375908 -0.25656877445722759 0 -0.43445882011373449 -0.25478651907497341 0 -0.44999384684511368 -0.2755750489792308 0 -0.43077531442077321 -0.27459050524281542 0 -0.43445882011373449 -0.25478651907497341 0 -0.44999384684511368 -0.2755750489792308 0 -0.441361257405879 -0.29303276451920029 0 -0.43077531442077321 -0.27459050524281542 0 -0.44999384684511368 -0.2755750489792308 0 -0.4670541169931961 -0.26846056693166809 0 -0.46910519348062618 -0.28320526693770848 0 -0.44999384684511368 -0.2755750489792308 0 -0.4670541169931961 -0.26846056693166809 0 -0.45662330498375908 -0.25656877445722759 0 -0.45662330498375908 -0.25656877445722759 0 -0.47878778985378329 -0.25835102983948688 0 -0.4670541169931961 -0.26846056693166809 0 -0.45662330498375908 -0.25656877445722759 0 -0.47878778985378329 -0.25835102983948688 0 -0.45662330498375908 -0.25656877445722759 0 -0.47878778985378329 -0.25835102983948688 0 -0.47142395938804471 -0.23802335247430181 0 -0.47878778985378329 -0.25835102983948688 0 -0.5 -0.25669760885461612 0 -0.48361763707807442 -0.27426406281091331 0 -0.47878778985378329 -0.25835102983948688 0 -0.5 -0.25669760885461612 0 -0.4875835208682564 -0.24248539692068891 0 -0.5 -0.25669760885461612 0 -0.48361763707807442 -0.27426406281091331 0 -0.5 -0.28413533544635422 0 -0.4670541169931961 -0.26846056693166809 0 -0.47878778985378329 -0.25835102983948688 0 -0.48361763707807442 -0.27426406281091331 0 -0.4670541169931961 -0.26846056693166809 0 -0.48361763707807442 -0.27426406281091331 0 -0.46910519348062618 -0.28320526693770848 0 -0.46910519348062618 -0.28320526693770848 0 -0.48580896399913942 -0.29193665231809679 0 -0.47164434439118558 -0.29859902487093259 0 -0.48361763707807442 -0.27426406281091331 0 -0.46910519348062618 -0.28320526693770848 0 -0.48580896399913942 -0.29193665231809679 0 -0.5 -0.28413533544635422 0 -0.48580896399913942 -0.29193665231809679 0 -0.5 -0.3115730620380921 0 -0.48361763707807442 -0.27426406281091331 0 -0.5 -0.28413533544635422 0 -0.48580896399913942 -0.29193665231809679 0 -0.48580896399913942 -0.29193665231809679 0 -0.5 -0.3115730620380921 0 -0.48293754746551898 -0.30617437981156609 0 -0.48293754746551898 -0.30617437981156609 0 -0.47164434439118558 -0.29859902487093259 0 -0.47203566342767839 -0.31514771464943409 0 -0.48580896399913942 -0.29193665231809679 0 -0.48293754746551898 -0.30617437981156609 0 -0.47164434439118558 -0.29859902487093259 0 -0.47164434439118558 -0.29859902487093259 0 -0.46096111539772322 -0.3069557537098867 0 -0.47203566342767839 -0.31514771464943409 0 -0.46096111539772322 -0.3069557537098867 0 -0.44739706002137658 -0.30395698434733032 0 -0.45229582611609759 -0.31444164243390338 0 -0.46096111539772322 -0.3069557537098867 0 -0.45682111422556548 -0.29317658806621089 0 -0.44739706002137658 -0.30395698434733032 0 -0.47164434439118558 -0.29859902487093259 0 -0.46096111539772322 -0.3069557537098867 0 -0.45682111422556548 -0.29317658806621089 0 -0.44999384684511368 -0.2755750489792308 0 -0.46910519348062618 -0.28320526693770848 0 -0.45682111422556548 -0.29317658806621089 0 -0.46910519348062618 -0.28320526693770848 0 -0.47164434439118558 -0.29859902487093259 0 -0.45682111422556548 -0.29317658806621089 0 -0.44999384684511368 -0.2755750489792308 0 -0.45682111422556548 -0.29317658806621089 0 -0.441361257405879 -0.29303276451920029 0 -0.45682111422556548 -0.29317658806621089 0 -0.441361257405879 -0.29303276451920029 0 -0.44739706002137658 -0.30395698434733032 0 -0.441361257405879 -0.29303276451920029 0 -0.44739706002137658 -0.30395698434733032 0 -0.43527018611072049 -0.30465000121327751 0 -0.44739706002137658 -0.30395698434733032 0 -0.44024276041750632 -0.31887045497680111 0 -0.43527018611072049 -0.30465000121327751 0 -0.44739706002137658 -0.30395698434733032 0 -0.45229582611609759 -0.31444164243390338 0 -0.44024276041750632 -0.31887045497680111 0 -0.44024276041750632 -0.31887045497680111 0 -0.45653421084860168 -0.32646185290925811 0 -0.44024276041750632 -0.31887045497680111 0 -0.43930980958642257 -0.33554338078202212 0 -0.45653421084860168 -0.32646185290925811 0 -0.45229582611609759 -0.31444164243390338 0 -0.44024276041750632 -0.31887045497680111 0 -0.45653421084860168 -0.32646185290925811 0 -0.43930980958642257 -0.33554338078202212 0 -0.44966367396753332 -0.33841986907325933 0 -0.46855294336124231 -0.32873531729210143 0 -0.43930980958642257 -0.33554338078202212 0 -0.4507851133594416 -0.34910720111649318 0 -0.43930980958642257 -0.33554338078202212 0 -0.44966367396753332 -0.33841986907325933 0 -0.4507851133594416 -0.34910720111649318 0 -0.44966367396753332 -0.33841986907325933 0 -0.46855294336124231 -0.32873531729210143 0 -0.46386644800117471 -0.33586508895417932 0 -0.43930980958642257 -0.33554338078202212 0 -0.46855294336124231 -0.32873531729210143 0 -0.43930980958642257 -0.33554338078202212 0 -0.46855294336124231 -0.32873531729210143 0 -0.45653421084860168 -0.32646185290925811 0 -0.44966367396753332 -0.33841986907325933 0 -0.4586808436472537 -0.3401528003513713 0 -0.45711636988675219 -0.34547487934353349 0 -0.44966367396753332 -0.33841986907325933 0 -0.4586808436472537 -0.3401528003513713 0 -0.46386644800117471 -0.33586508895417932 0 -0.4586808436472537 -0.3401528003513713 0 -0.46472493826860672 -0.34236766697450172 0 -0.45711636988675219 -0.34547487934353349 0 -0.4586808436472537 -0.3401528003513713 0 -0.46472493826860672 -0.34236766697450172 0 -0.46386644800117471 -0.33586508895417932 0 -0.46855294336124231 -0.32873531729210143 0 -0.46207595183026873 -0.31834845619891672 0 -0.47203566342767839 -0.31514771464943409 0 -0.46855294336124231 -0.32873531729210143 0 -0.45653421084860168 -0.32646185290925811 0 -0.46207595183026873 -0.31834845619891672 0 -0.46096111539772322 -0.3069557537098867 0 -0.45229582611609759 -0.31444164243390338 0 -0.46207595183026873 -0.31834845619891672 0 -0.45229582611609759 -0.31444164243390338 0 -0.45653421084860168 -0.32646185290925811 0 -0.46207595183026873 -0.31834845619891672 0 -0.46096111539772322 -0.3069557537098867 0 -0.46207595183026873 -0.31834845619891672 0 -0.47203566342767839 -0.31514771464943409 0 -0.48293754746551898 -0.30617437981156609 0 -0.47203566342767839 -0.31514771464943409 0 -0.47770984076123751 -0.32964979107966252 0 -0.48293754746551898 -0.30617437981156609 0 -0.47770984076123751 -0.32964979107966252 0 -0.48293754746551898 -0.30617437981156609 0 -0.48763303240419292 -0.31981883507337211 0 -0.47770984076123751 -0.32964979107966252 0 -0.46855294336124231 -0.32873531729210143 0 -0.47203566342767839 -0.31514771464943409 0 -0.47770984076123751 -0.32964979107966252 0 -0.5 -0.3115730620380921 0 -0.5 -0.33901078862982997 0 -0.49048543526404831 -0.32960291085151988 0 -0.5 -0.3115730620380921 0 -0.48763303240419292 -0.31981883507337211 0 -0.49048543526404831 -0.32960291085151988 0 -0.5 -0.3115730620380921 0 -0.48293754746551898 -0.30617437981156609 0 -0.48763303240419292 -0.31981883507337211 0 -0.48763303240419292 -0.31981883507337211 0 -0.49048543526404831 -0.32960291085151988 0 -0.47770984076123751 -0.32964979107966252 0 -0.49048543526404831 -0.32960291085151988 0 -0.47770984076123751 -0.32964979107966252 0 -0.48708430315481122 -0.3479620774366432 0 -0.5 -0.33901078862982997 0 -0.49048543526404831 -0.32960291085151988 0 -0.48708430315481122 -0.3479620774366432 0 -0.47770984076123751 -0.32964979107966252 0 -0.47248213405695583 -0.35312520234775913 0 -0.47770984076123751 -0.32964979107966252 0 -0.47248213405695583 -0.35312520234775913 0 -0.48708430315481122 -0.3479620774366432 0 -0.46472493826860672 -0.34236766697450172 0 -0.47770984076123751 -0.32964979107966252 0 -0.47248213405695583 -0.35312520234775913 0 -0.46855294336124231 -0.32873531729210143 0 -0.46386644800117471 -0.33586508895417932 0 -0.47770984076123751 -0.32964979107966252 0 -0.46472493826860672 -0.34236766697450172 0 -0.46386644800117471 -0.33586508895417932 0 -0.47770984076123751 -0.32964979107966252 0 -0.47248213405695583 -0.35312520234775913 0 -0.48708430315481122 -0.3479620774366432 0 -0.48422759779560409 -0.37130120630367158 0 -0.5 -0.33901078862982997 0 -0.48708430315481122 -0.3479620774366432 0 -0.5 -0.36644851522156802 0 -0.48708430315481122 -0.3479620774366432 0 -0.5 -0.36644851522156802 0 -0.48422759779560409 -0.37130120630367158 0 -0.46725442735267431 -0.37660061361585562 0 -0.47248213405695583 -0.35312520234775913 0 -0.48422759779560409 -0.37130120630367158 0 -0.46725442735267431 -0.37660061361585562 0 -0.47248213405695583 -0.35312520234775913 0 -0.46725442735267431 -0.37660061361585562 0 -0.4540003998136638 -0.37455519391687309 0 -0.46226041713245919 -0.36267102145096558 0 -0.46725442735267431 -0.37660061361585562 0 -0.47248213405695583 -0.35312520234775913 0 -0.46226041713245919 -0.36267102145096558 0 -0.4540003998136638 -0.37455519391687309 0 -0.46226041713245919 -0.36267102145096558 0 -0.45167034254705118 -0.36337553476545958 0 -0.47248213405695583 -0.35312520234775913 0 -0.46226041713245919 -0.36267102145096558 0 -0.46130034509645268 -0.35111989715704561 0 -0.46472493826860672 -0.34236766697450172 0 -0.47248213405695583 -0.35312520234775913 0 -0.46130034509645268 -0.35111989715704561 0 -0.46472493826860672 -0.34236766697450172 0 -0.46130034509645268 -0.35111989715704561 0 -0.45711636988675219 -0.34547487934353349 0 -0.46130034509645268 -0.35111989715704561 0 -0.45711636988675219 -0.34547487934353349 0 -0.4507851133594416 -0.34910720111649318 0 -0.46226041713245919 -0.36267102145096558 0 -0.4507851133594416 -0.34910720111649318 0 -0.45167034254705118 -0.36337553476545958 0 -0.46226041713245919 -0.36267102145096558 0 -0.46130034509645268 -0.35111989715704561 0 -0.4507851133594416 -0.34910720111649318 0 -0.46226041713245919 -0.36267102145096558 0 -0.4507851133594416 -0.34910720111649318 0 -0.4507851133594416 -0.34910720111649318 0 -0.44504098357239391 -0.35771747353496869 0 -0.45167034254705118 -0.36337553476545958 0 -0.44966367396753332 -0.33841986907325933 0 -0.45711636988675219 -0.34547487934353349 0 -0.4507851133594416 -0.34910720111649318 0 -0.4507851133594416 -0.34910720111649318 0 -0.44408457896710762 -0.34741130507322732 0 -0.44504098357239391 -0.35771747353496869 0 -0.43930980958642257 -0.33554338078202212 0 -0.4507851133594416 -0.34910720111649318 0 -0.44408457896710762 -0.34741130507322732 0 -0.44408457896710762 -0.34741130507322732 0 -0.43834809566141358 -0.35386966642967582 0 -0.4310745521241639 -0.35060051531725012 0 -0.44408457896710762 -0.34741130507322732 0 -0.43834809566141358 -0.35386966642967582 0 -0.44504098357239391 -0.35771747353496869 0 -0.43834809566141358 -0.35386966642967582 0 -0.44504098357239391 -0.35771747353496869 0 -0.43256408976529492 -0.36260533289695268 0 -0.44504098357239391 -0.35771747353496869 0 -0.44172858264042247 -0.37082207246888088 0 -0.43256408976529492 -0.36260533289695268 0 -0.4540003998136638 -0.37455519391687309 0 -0.44172858264042247 -0.37082207246888088 0 -0.45167034254705118 -0.36337553476545958 0 -0.44504098357239391 -0.35771747353496869 0 -0.44172858264042247 -0.37082207246888088 0 -0.45167034254705118 -0.36337553476545958 0 -0.42311368847744002 -0.37830224279505142 0 -0.44172858264042247 -0.37082207246888088 0 -0.43256408976529492 -0.36260533289695268 0 -0.42311368847744002 -0.37830224279505142 0 -0.43256408976529492 -0.36260533289695268 0 -0.41867380740831611 -0.36398836527224071 0 -0.43256408976529492 -0.36260533289695268 0 -0.42210656065146929 -0.35476551363046099 0 -0.41867380740831611 -0.36398836527224071 0 -0.44408457896710762 -0.34741130507322732 0 -0.4310745521241639 -0.35060051531725012 0 -0.42443636388738298 -0.3390060521705498 0 -0.43834809566141358 -0.35386966642967582 0 -0.43256408976529492 -0.36260533289695268 0 -0.4310745521241639 -0.35060051531725012 0 -0.4310745521241639 -0.35060051531725012 0 -0.42266042161335821 -0.34652378860874011 0 -0.42210656065146929 -0.35476551363046099 0 -0.4310745521241639 -0.35060051531725012 0 -0.42266042161335821 -0.34652378860874011 0 -0.42443636388738298 -0.3390060521705498 0 -0.43256408976529492 -0.36260533289695268 0 -0.4310745521241639 -0.35060051531725012 0 -0.42210656065146929 -0.35476551363046099 0 -0.42210656065146929 -0.35476551363046099 0 -0.41243440171204931 -0.35621682403100541 0 -0.41867380740831611 -0.36398836527224071 0 -0.41243440171204931 -0.35621682403100541 0 -0.40365717239196519 -0.36741535175059892 0 -0.40302160193259851 -0.3439916005776541 0 -0.42210656065146929 -0.35476551363046099 0 -0.41714587076776338 -0.34786779488983011 0 -0.41243440171204931 -0.35621682403100541 0 -0.42266042161335821 -0.34652378860874011 0 -0.42210656065146929 -0.35476551363046099 0 -0.41714587076776338 -0.34786779488983011 0 -0.42266042161335821 -0.34652378860874011 0 -0.41714587076776338 -0.34786779488983011 0 -0.41853876063601031 -0.34037906703560689 0 -0.41714587076776338 -0.34786779488983011 0 -0.41853876063601031 -0.34037906703560689 0 -0.41714587076776338 -0.34786779488983011 0 -0.41243440171204931 -0.35621682403100541 0 -0.40302160193259851 -0.3439916005776541 0 -0.41714587076776338 -0.34786779488983011 0 -0.40302160193259851 -0.3439916005776541 0 -0.41853876063601031 -0.34037906703560689 0 -0.42311368847744002 -0.37830224279505142 0 -0.41867380740831611 -0.36398836527224071 0 -0.40365717239196519 -0.36741535175059892 0 -0.42311368847744002 -0.37830224279505142 0 -0.40365717239196519 -0.36741535175059892 0 -0.41243440171204931 -0.35621682403100541 0 -0.41867380740831611 -0.36398836527224071 0 -0.40365717239196519 -0.36741535175059892 0 -0.40403491357358612 -0.38133688525744702 0 -0.40365717239196519 -0.36741535175059892 0 -0.40403491357358612 -0.38133688525744702 0 -0.40365717239196519 -0.36741535175059892 0 -0.3904578797192948 -0.37473938743617019 0 -0.40365717239196519 -0.36741535175059892 0 -0.38979507995825918 -0.35965881973269581 0 -0.40365717239196519 -0.36741535175059892 0 -0.3904578797192948 -0.37473938743617019 0 -0.38979507995825918 -0.35965881973269581 0 -0.3904578797192948 -0.37473938743617019 0 -0.38979507995825918 -0.35965881973269581 0 -0.37568304780698558 -0.36916333065311507 0 -0.37568304780698558 -0.36916333065311507 0 -0.37593298752455201 -0.35190228771479481 0 -0.38979507995825918 -0.35965881973269581 0 -0.37568304780698558 -0.36916333065311507 0 -0.37593298752455201 -0.35190228771479481 0 -0.38979507995825918 -0.35965881973269581 0 -0.37595629511297179 -0.35029264644438168 0 -0.40302160193259851 -0.3439916005776541 0 -0.37595629511297179 -0.35029264644438168 0 -0.40302160193259851 -0.3439916005776541 0 -0.38842354837557669 -0.33756560667471242 0 -0.37595629511297179 -0.35029264644438168 0 -0.40302160193259851 -0.3439916005776541 0 -0.37595629511297179 -0.35029264644438168 0 -0.37607676276689278 -0.3419730509543204 0 -0.37390838074359528 -0.35076941925389299 0 -0.37595629511297179 -0.35029264644438168 0 -0.37607676276689278 -0.3419730509543204 0 -0.37595629511297179 -0.35029264644438168 0 -0.37593298752455201 -0.35190228771479481 0 -0.37390838074359528 -0.35076941925389299 0 -0.37595629511297179 -0.35029264644438168 0 -0.37593298752455201 -0.35190228771479481 0 -0.38979507995825918 -0.35965881973269581 0 -0.37595629511297179 -0.35029264644438168 0 -0.37593298752455201 -0.35190228771479481 0 -0.38979507995825918 -0.35965881973269581 0 -0.37593298752455201 -0.35190228771479481 0 -0.40365717239196519 -0.36741535175059892 0 -0.40302160193259851 -0.3439916005776541 0 -0.40365717239196519 -0.36741535175059892 0 -0.38979507995825918 -0.35965881973269581 0 -0.40302160193259851 -0.3439916005776541 0 -0.40302160193259851 -0.3439916005776541 0 -0.40263324863316441 -0.32967896077653092 0 -0.40263324863316441 -0.32967896077653092 0 -0.38842354837557669 -0.33756560667471242 0 -0.38442983343225828 -0.32189177462067481 0 -0.40302160193259851 -0.3439916005776541 0 -0.40263324863316441 -0.32967896077653092 0 -0.38842354837557669 -0.33756560667471242 0 -0.37607676276689278 -0.3419730509543204 0 -0.37641717267996733 -0.3184640617331177 0 -0.38842354837557669 -0.33756560667471242 0 -0.37607676276689278 -0.3419730509543204 0 -0.38442983343225828 -0.32189177462067481 0 -0.37607676276689278 -0.3419730509543204 0 -0.38442983343225828 -0.32189177462067481 0 -0.37595629511297179 -0.35029264644438168 0 -0.38842354837557669 -0.33756560667471242 0 -0.37607676276689278 -0.3419730509543204 0 -0.37607676276689278 -0.3419730509543204 0 -0.37641717267996733 -0.3184640617331177 0 -0.38442983343225828 -0.32189177462067481 0 -0.37641717267996733 -0.3184640617331177 0 -0.38442983343225828 -0.32189177462067481 0 -0.3841914044669909 -0.30132118344037401 0 -0.37641717267996733 -0.3184640617331177 0 -0.38442983343225828 -0.32189177462067481 0 -0.40263324863316441 -0.32967896077653092 0 -0.38442983343225828 -0.32189177462067481 0 -0.40185461233875269 -0.30098256284660307 0 -0.40263324863316441 -0.32967896077653092 0 -0.38442983343225828 -0.32189177462067481 0 -0.40263324863316441 -0.32967896077653092 0 -0.40185461233875269 -0.30098256284660307 0 -0.40263324863316441 -0.32967896077653092 0 -0.41242695344044827 -0.31820451366256841 0 -0.40185461233875269 -0.30098256284660307 0 -0.41242695344044827 -0.31820451366256841 0 -0.41920998916455232 -0.33677027649670849 0 -0.42301959421646518 -0.31628833020920039 0 -0.41920998916455232 -0.33677027649670849 0 -0.42301959421646518 -0.31628833020920039 0 -0.41242695344044827 -0.31820451366256841 0 -0.42301959421646518 -0.31628833020920039 0 -0.41541732284930832 -0.30730243798379953 0 -0.40302160193259851 -0.3439916005776541 0 -0.41920998916455232 -0.33677027649670849 0 -0.41853876063601031 -0.34037906703560689 0 -0.40302160193259851 -0.3439916005776541 0 -0.40263324863316441 -0.32967896077653092 0 -0.41920998916455232 -0.33677027649670849 0 -0.40263324863316441 -0.32967896077653092 0 -0.41920998916455232 -0.33677027649670849 0 -0.40263324863316441 -0.32967896077653092 0 -0.41242695344044827 -0.31820451366256841 0 -0.41920998916455232 -0.33677027649670849 0 -0.40302160193259851 -0.3439916005776541 0 -0.41853876063601031 -0.34037906703560689 0 -0.41853876063601031 -0.34037906703560689 0 -0.42443636388738298 -0.3390060521705498 0 -0.41920998916455232 -0.33677027649670849 0 -0.42443636388738298 -0.3390060521705498 0 -0.41920998916455232 -0.33677027649670849 0 -0.41853876063601031 -0.34037906703560689 0 -0.42443636388738298 -0.3390060521705498 0 -0.41920998916455232 -0.33677027649670849 0 -0.41853876063601031 -0.34037906703560689 0 -0.43930980958642257 -0.33554338078202212 0 -0.44408457896710762 -0.34741130507322732 0 -0.42443636388738298 -0.3390060521705498 0 -0.43930980958642257 -0.33554338078202212 0 -0.42443636388738298 -0.3390060521705498 0 -0.42301959421646518 -0.31628833020920039 0 -0.41920998916455232 -0.33677027649670849 0 -0.42443636388738298 -0.3390060521705498 0 -0.42301959421646518 -0.31628833020920039 0 -0.44408457896710762 -0.34741130507322732 0 -0.42443636388738298 -0.3390060521705498 0 -0.42266042161335821 -0.34652378860874011 0 -0.41853876063601031 -0.34037906703560689 0 -0.42443636388738298 -0.3390060521705498 0 -0.43930980958642257 -0.33554338078202212 0 -0.42443636388738298 -0.3390060521705498 0 -0.43930980958642257 -0.33554338078202212 0 -0.42301959421646518 -0.31628833020920039 0 -0.44024276041750632 -0.31887045497680111 0 -0.42395130998641067 -0.31127905704434472 0 -0.44024276041750632 -0.31887045497680111 0 -0.43930980958642257 -0.33554338078202212 0 -0.42301959421646518 -0.31628833020920039 0 -0.44024276041750632 -0.31887045497680111 0 -0.42301959421646518 -0.31628833020920039 0 -0.42395130998641067 -0.31127905704434472 0 -0.42301959421646518 -0.31628833020920039 0 -0.42395130998641067 -0.31127905704434472 0 -0.42395130998641067 -0.31127905704434472 0 -0.42709180872781188 -0.29439449141065738 0 -0.44024276041750632 -0.31887045497680111 0 -0.42395130998641067 -0.31127905704434472 0 -0.43527018611072049 -0.30465000121327751 0 -0.42395130998641067 -0.31127905704434472 0 -0.42709180872781188 -0.29439449141065738 0 -0.41541732284930832 -0.30730243798379953 0 -0.42395130998641067 -0.31127905704434472 0 -0.43527018611072049 -0.30465000121327751 0 -0.42709180872781188 -0.29439449141065738 0 -0.441361257405879 -0.29303276451920029 0 -0.43527018611072049 -0.30465000121327751 0 -0.42709180872781188 -0.29439449141065738 0 -0.42709180872781188 -0.29439449141065738 0 -0.43077531442077321 -0.27459050524281542 0 -0.42709180872781188 -0.29439449141065738 0 -0.41684225135067149 -0.28376244362903152 0 -0.43077531442077321 -0.27459050524281542 0 -0.441361257405879 -0.29303276451920029 0 -0.42709180872781188 -0.29439449141065738 0 -0.441361257405879 -0.29303276451920029 0 -0.42709180872781188 -0.29439449141065738 0 -0.43077531442077321 -0.27459050524281542 0 -0.42709180872781188 -0.29439449141065738 0 -0.41684225135067149 -0.28376244362903152 0 -0.40618483967714292 -0.29638963380315841 0 -0.42709180872781188 -0.29439449141065738 0 -0.40618483967714292 -0.29638963380315841 0 -0.41684225135067149 -0.28376244362903152 0 -0.40690107601488551 -0.28490397733270861 0 -0.40618483967714292 -0.29638963380315841 0 -0.41541732284930832 -0.30730243798379953 0 -0.40185461233875269 -0.30098256284660307 0 -0.40618483967714292 -0.29638963380315841 0 -0.42709180872781188 -0.29439449141065738 0 -0.41541732284930832 -0.30730243798379953 0 -0.40618483967714292 -0.29638963380315841 0 -0.41541732284930832 -0.30730243798379953 0 -0.40618483967714292 -0.29638963380315841 0 -0.41242695344044827 -0.31820451366256841 0 -0.41541732284930832 -0.30730243798379953 0 -0.40185461233875269 -0.30098256284660307 0 -0.41541732284930832 -0.30730243798379953 0 -0.40185461233875269 -0.30098256284660307 0 -0.42301959421646518 -0.31628833020920039 0 -0.41541732284930832 -0.30730243798379953 0 -0.42395130998641067 -0.31127905704434472 0 -0.41541732284930832 -0.30730243798379953 0 -0.42301959421646518 -0.31628833020920039 0 -0.42395130998641067 -0.31127905704434472 0 -0.41541732284930832 -0.30730243798379953 0 -0.38442983343225828 -0.32189177462067481 0 -0.40185461233875269 -0.30098256284660307 0 -0.39448508010510541 -0.297525044214214 0 -0.40185461233875269 -0.30098256284660307 0 -0.40174149504185092 -0.29681366012781812 0 -0.40618483967714292 -0.29638963380315841 0 -0.40185461233875269 -0.30098256284660307 0 -0.40174149504185092 -0.29681366012781812 0 -0.40185461233875269 -0.30098256284660307 0 -0.39448508010510541 -0.297525044214214 0 -0.40174149504185092 -0.29681366012781812 0 -0.40185461233875269 -0.30098256284660307 0 -0.39448508010510541 -0.297525044214214 0 -0.39448508010510541 -0.297525044214214 0 -0.40174149504185092 -0.29681366012781812 0 -0.37641717267996733 -0.3184640617331177 0 -0.37669606201677502 -0.29920373422444158 0 -0.38442983343225828 -0.32189177462067481 0 -0.39448508010510541 -0.297525044214214 0 -0.38442983343225828 -0.32189177462067481 0 -0.39448508010510541 -0.297525044214214 0 -0.3841914044669909 -0.30132118344037401 0 -0.37641717267996733 -0.3184640617331177 0 -0.3841914044669909 -0.30132118344037401 0 -0.37669606201677502 -0.29920373422444158 0 -0.39448508010510541 -0.297525044214214 0 -0.3841914044669909 -0.30132118344037401 0 -0.37928718982873688 -0.29895646409505849 0 -0.39448508010510541 -0.297525044214214 0 -0.37928718982873688 -0.29895646409505849 0 -0.3841914044669909 -0.30132118344037401 0 -0.37928718982873688 -0.29895646409505849 0 -0.3841914044669909 -0.30132118344037401 0 -0.37928718982873688 -0.29895646409505849 0 -0.37669606201677502 -0.29920373422444158 0 -0.37928718982873688 -0.29895646409505849 0 -0.37669606201677502 -0.29920373422444158 0 -0.37671758341694961 -0.29771744858697219 0 -0.37928718982873688 -0.29895646409505849 0 -0.37671758341694961 -0.29771744858697219 0 -0.37928718982873688 -0.29895646409505849 0 -0.37669606201677502 -0.29920373422444158 0 -0.37669606201677502 -0.29920373422444158 0 -0.37671758341694961 -0.29771744858697219 0 -0.37671758341694961 -0.29771744858697219 0 -0.38607699004493318 -0.28757386461908069 0 -0.38483052758877101 -0.28123782127595193 0 -0.37671758341694961 -0.29771744858697219 0 -0.3770412393053626 -0.27536550612006683 0 -0.37671758341694961 -0.29771744858697219 0 -0.38483052758877101 -0.28123782127595193 0 -0.3770412393053626 -0.27536550612006683 0 -0.37928718982873688 -0.29895646409505849 0 -0.37671758341694961 -0.29771744858697219 0 -0.38467000758835601 -0.29297497791584359 0 -0.37671758341694961 -0.29771744858697219 0 -0.38467000758835601 -0.29297497791584359 0 -0.38607699004493318 -0.28757386461908069 0 -0.39448508010510541 -0.297525044214214 0 -0.37928718982873688 -0.29895646409505849 0 -0.38467000758835601 -0.29297497791584359 0 -0.39448508010510541 -0.297525044214214 0 -0.38467000758835601 -0.29297497791584359 0 -0.39448508010510541 -0.297525044214214 0 -0.38467000758835601 -0.29297497791584359 0 -0.39217701296355612 -0.28987936211692023 0 -0.38467000758835601 -0.29297497791584359 0 -0.38607699004493318 -0.28757386461908069 0 -0.39217701296355612 -0.28987936211692023 0 -0.38607699004493318 -0.28757386461908069 0 -0.39049541959166939 -0.28414526237041138 0 -0.39217701296355612 -0.28987936211692023 0 -0.39049541959166939 -0.28414526237041138 0 -0.39420405367365152 -0.27853706101481662 0 -0.38483052758877101 -0.28123782127595193 0 -0.38607699004493318 -0.28757386461908069 0 -0.39049541959166939 -0.28414526237041138 0 -0.38483052758877101 -0.28123782127595193 0 -0.39597078832761667 -0.28551153658085893 0 -0.40174149504185092 -0.29681366012781812 0 -0.40123596036735593 -0.27818233727432817 0 -0.39049541959166939 -0.28414526237041138 0 -0.39597078832761667 -0.28551153658085893 0 -0.39420405367365152 -0.27853706101481662 0 -0.40174149504185092 -0.29681366012781812 0 -0.40123596036735593 -0.27818233727432817 0 -0.40174149504185092 -0.29681366012781812 0 -0.40322207619149192 -0.29288764445213411 0 -0.40123596036735593 -0.27818233727432817 0 -0.39049541959166939 -0.28414526237041138 0 -0.39597078832761667 -0.28551153658085893 0 -0.39217701296355612 -0.28987936211692023 0 -0.39597078832761667 -0.28551153658085893 0 -0.39217701296355612 -0.28987936211692023 0 -0.40174149504185092 -0.29681366012781812 0 -0.39448508010510541 -0.297525044214214 0 -0.39217701296355612 -0.28987936211692023 0 -0.40174149504185092 -0.29681366012781812 0 -0.40690107601488551 -0.28490397733270861 0 -0.40322207619149192 -0.29288764445213411 0 -0.40618483967714292 -0.29638963380315841 0 -0.40174149504185092 -0.29681366012781812 0 -0.40322207619149192 -0.29288764445213411 0 -0.40618483967714292 -0.29638963380315841 0 -0.40174149504185092 -0.29681366012781812 0 -0.40618483967714292 -0.29638963380315841 0 -0.40322207619149192 -0.29288764445213411 0 -0.40618483967714292 -0.29638963380315841 0 -0.40690107601488551 -0.28490397733270861 0 -0.40322207619149192 -0.29288764445213411 0 -0.40123596036735593 -0.27818233727432817 0 -0.39420405367365152 -0.27853706101481662 0 -0.37710287173325818 -0.2711091198417086 0 -0.40073042569286338 -0.25955101442083811 0 -0.40123596036735593 -0.27818233727432817 0 -0.39420405367365152 -0.27853706101481662 0 -0.40073042569286338 -0.25955101442083811 0 -0.40123596036735593 -0.27818233727432817 0 -0.40073042569286338 -0.25955101442083811 0 -0.40123596036735593 -0.27818233727432817 0 -0.40073042569286338 -0.25955101442083811 0 -0.41341650638623911 -0.27076301679274262 0 -0.39597078832761667 -0.28551153658085893 0 -0.40123596036735593 -0.27818233727432817 0 -0.39420405367365152 -0.27853706101481662 0 -0.39420405367365152 -0.27853706101481662 0 -0.37710287173325818 -0.2711091198417086 0 -0.3770412393053626 -0.27536550612006683 0 -0.39420405367365152 -0.27853706101481662 0 -0.3770412393053626 -0.27536550612006683 0 -0.39420405367365152 -0.27853706101481662 0 -0.38483052758877101 -0.28123782127595193 0 -0.3770412393053626 -0.27536550612006683 0 -0.37710287173325818 -0.2711091198417086 0 -0.3770412393053626 -0.27536550612006683 0 -0.37710287173325818 -0.2711091198417086 0 -0.38543722149146659 -0.25821727905458303 0 -0.40073042569286338 -0.25955101442083811 0 -0.37710287173325818 -0.2711091198417086 0 -0.37747963509906429 -0.24508953120583671 0 -0.37710287173325818 -0.2711091198417086 0 -0.40073042569286338 -0.25955101442083811 0 -0.37710287173325818 -0.2711091198417086 0 -0.38543722149146659 -0.25821727905458303 0 -0.37747963509906429 -0.24508953120583671 0 -0.38543722149146659 -0.25821727905458303 0 -0.3938256931015453 -0.25037754026629511 0 -0.37747963509906429 -0.24508953120583671 0 -0.38543722149146659 -0.25821727905458303 0 -0.3938256931015453 -0.25037754026629511 0 -0.40073042569286338 -0.25955101442083811 0 -0.40073042569286338 -0.25955101442083811 0 -0.40282532782868952 -0.25224285689579767 0 -0.40022281387448849 -0.24084313907701979 0 -0.40073042569286338 -0.25955101442083811 0 -0.40022281387448849 -0.24084313907701979 0 -0.3938256931015453 -0.25037754026629511 0 -0.40073042569286338 -0.25955101442083811 0 -0.40022281387448849 -0.24084313907701979 0 -0.40073042569286338 -0.25955101442083811 0 -0.40282532782868952 -0.25224285689579767 0 -0.41385673751816382 -0.25312989710486528 0 -0.40073042569286338 -0.25955101442083811 0 -0.41385673751816382 -0.25312989710486528 0 -0.40073042569286338 -0.25955101442083811 0 -0.41385673751816382 -0.25312989710486528 0 -0.41341650638623911 -0.27076301679274262 0 -0.41385673751816382 -0.25312989710486528 0 -0.41341650638623911 -0.27076301679274262 0 -0.42312684460972783 -0.26331748455384929 0 -0.41385673751816382 -0.25312989710486528 0 -0.41679144862722167 -0.25169429778568547 0 -0.43445882011373449 -0.25478651907497341 0 -0.40282532782868952 -0.25224285689579767 0 -0.41385673751816382 -0.25312989710486528 0 -0.4086566941719203 -0.24778871483445111 0 -0.40282532782868952 -0.25224285689579767 0 -0.41385673751816382 -0.25312989710486528 0 -0.41385673751816382 -0.25312989710486528 0 -0.41679144862722167 -0.25169429778568547 0 -0.41627810448972868 -0.24641300060905449 0 -0.41385673751816382 -0.25312989710486528 0 -0.41679144862722167 -0.25169429778568547 0 -0.41684225135067149 -0.28376244362903152 0 -0.41341650638623911 -0.27076301679274262 0 -0.43077531442077321 -0.27459050524281542 0 -0.40690107601488551 -0.28490397733270861 0 -0.40123596036735593 -0.27818233727432817 0 -0.41341650638623911 -0.27076301679274262 0 -0.41684225135067149 -0.28376244362903152 0 -0.40690107601488551 -0.28490397733270861 0 -0.41341650638623911 -0.27076301679274262 0 -0.41341650638623911 -0.27076301679274262 0 -0.43077531442077321 -0.27459050524281542 0 -0.42312684460972783 -0.26331748455384929 0 -0.43077531442077321 -0.27459050524281542 0 -0.42312684460972783 -0.26331748455384929 0 -0.43445882011373449 -0.25478651907497341 0 -0.41385673751816382 -0.25312989710486528 0 -0.43445882011373449 -0.25478651907497341 0 -0.43077531442077321 -0.27459050524281542 0 -0.43445882011373449 -0.25478651907497341 0 -0.41385673751816382 -0.25312989710486528 0 -0.42312684460972783 -0.26331748455384929 0 -0.43445882011373449 -0.25478651907497341 0 -0.41679144862722167 -0.25169429778568547 0 -0.43445882011373449 -0.25478651907497341 0 -0.42335340856967768 -0.24893549408922019 0 -0.32580796388430833 -0.26195871891040218 0 -0.34139866608006603 -0.2687790352098644 0 -0.31202674084989918 -0.26335133138269068 0 -0.32580796388430833 -0.26195871891040218 0 -0.33345250408021371 -0.25331871279766999 0 -0.32023222063025569 -0.2489608815952247 0 -0.32580796388430833 -0.26195871891040218 0 -0.31664960680882542 -0.25714232151458272 0 -0.32023222063025569 -0.2489608815952247 0 -0.31664960680882542 -0.25714232151458272 0 -0.30853150187083839 -0.25429835417001312 0 -0.32023222063025569 -0.2489608815952247 0 -0.32580796388430833 -0.26195871891040218 0 -0.31664960680882542 -0.25714232151458272 0 -0.31202674084989918 -0.26335133138269068 0 -0.33223611708196649 -0.27626932861073827 0 -0.31972670239926188 -0.28454160199560091 0 -0.31187737399160442 -0.27618124236115132 0 -0.34139866608006603 -0.2687790352098644 0 -0.31202674084989918 -0.26335133138269068 0 -0.33223611708196649 -0.27626932861073827 0 -0.31202674084989918 -0.26335133138269068 0 -0.3062135479255173 -0.26372173898871692 0 -0.33223611708196649 -0.27626932861073827 0 -0.31187737399160442 -0.27618124236115132 0 -0.3062135479255173 -0.26372173898871692 0 -0.33260241140844943 -0.2743168067351805 0 -0.33223611708196649 -0.27626932861073827 0 -0.31202674084989918 -0.26335133138269068 0 -0.33223611708196649 -0.27626932861073827 0 -0.3062135479255173 -0.26372173898871692 0 -0.33260241140844943 -0.2743168067351805 0 -0.34139866608006603 -0.2687790352098644 0 -0.31202674084989918 -0.26335133138269068 0 -0.33223611708196649 -0.27626932861073827 0 -0.34139866608006603 -0.2687790352098644 0 -0.34951875912658742 -0.28460269103381453 0 -0.33223611708196649 -0.27626932861073827 0 -0.34951875912658742 -0.28460269103381453 0 -0.33260241140844943 -0.2743168067351805 0 -0.33223611708196649 -0.27626932861073827 0 -0.34139866608006603 -0.2687790352098644 0 -0.33260241140844943 -0.2743168067351805 0 -0.33223611708196649 -0.27626932861073827 0 -0.34139866608006603 -0.2687790352098644 0 -0.3363084638556994 -0.26041051377605268 0 -0.34457472137820933 -0.25758558818627408 0 -0.32580796388430833 -0.26195871891040218 0 -0.34139866608006603 -0.2687790352098644 0 -0.3363084638556994 -0.26041051377605268 0 -0.32580796388430833 -0.26195871891040218 0 -0.3363084638556994 -0.26041051377605268 0 -0.33345250408021371 -0.25331871279766999 0 -0.3363084638556994 -0.26041051377605268 0 -0.33345250408021371 -0.25331871279766999 0 -0.34457472137820933 -0.25758558818627408 0 -0.33345250408021371 -0.25331871279766999 0 -0.34457472137820933 -0.25758558818627408 0 -0.34395992200845399 -0.24382677409400949 0 -0.34139866608006603 -0.2687790352098644 0 -0.34457472137820933 -0.25758558818627408 0 -0.35733732661955131 -0.26288598862094092 0 -0.34457472137820933 -0.25758558818627408 0 -0.35872453044413888 -0.25078889886649508 0 -0.34395992200845399 -0.24382677409400949 0 -0.34457472137820933 -0.25758558818627408 0 -0.35733732661955131 -0.26288598862094092 0 -0.35872453044413888 -0.25078889886649508 0 -0.37710287173325818 -0.2711091198417086 0 -0.36828299104124951 -0.26081605551440462 0 -0.37747963509906429 -0.24508953120583671 0 -0.35872453044413888 -0.25078889886649508 0 -0.36828299104124951 -0.26081605551440462 0 -0.37747963509906429 -0.24508953120583671 0 -0.35733732661955131 -0.26288598862094092 0 -0.35872453044413888 -0.25078889886649508 0 -0.36828299104124951 -0.26081605551440462 0 -0.37077059131023282 -0.27420673903703829 0 -0.34951875912658742 -0.28460269103381453 0 -0.37710287173325818 -0.2711091198417086 0 -0.3770412393053626 -0.27536550612006683 0 -0.37077059131023282 -0.27420673903703829 0 -0.3770412393053626 -0.27536550612006683 0 -0.37077059131023282 -0.27420673903703829 0 -0.37710287173325818 -0.2711091198417086 0 -0.36828299104124951 -0.26081605551440462 0 -0.37077059131023282 -0.27420673903703829 0 -0.37710287173325818 -0.2711091198417086 0 -0.37077059131023282 -0.27420673903703829 0 -0.35733732661955131 -0.26288598862094092 0 -0.36828299104124951 -0.26081605551440462 0 -0.37077059131023282 -0.27420673903703829 0 -0.34139866608006603 -0.2687790352098644 0 -0.35733732661955131 -0.26288598862094092 0 -0.37077059131023282 -0.27420673903703829 0 -0.34139866608006603 -0.2687790352098644 0 -0.37077059131023282 -0.27420673903703829 0 -0.34951875912658742 -0.28460269103381453 0 -0.34139866608006603 -0.2687790352098644 0 -0.37077059131023282 -0.27420673903703829 0 -0.34951875912658742 -0.28460269103381453 0 -0.3581763596052473 -0.30097106086504849 0 -0.34010739644885768 -0.2892065328944351 0 -0.34951875912658742 -0.28460269103381453 0 -0.34010739644885768 -0.2892065328944351 0 -0.37671758341694961 -0.29771744858697219 0 -0.37077059131023282 -0.27420673903703829 0 -0.34951875912658742 -0.28460269103381453 0 -0.37671758341694961 -0.29771744858697219 0 -0.34951875912658742 -0.28460269103381453 0 -0.37671758341694961 -0.29771744858697219 0 -0.3770412393053626 -0.27536550612006683 0 -0.37077059131023282 -0.27420673903703829 0 -0.37671758341694961 -0.29771744858697219 0 -0.34951875912658742 -0.28460269103381453 0 -0.3581763596052473 -0.30097106086504849 0 -0.37669606201677502 -0.29920373422444158 0 -0.37671758341694961 -0.29771744858697219 0 -0.3581763596052473 -0.30097106086504849 0 -0.37641717267996733 -0.3184640617331177 0 -0.37669606201677502 -0.29920373422444158 0 -0.36799370156123501 -0.30592930732763762 0 -0.37641717267996733 -0.3184640617331177 0 -0.36799370156123501 -0.30592930732763762 0 -0.35803691493684492 -0.31060122461938489 0 -0.37669606201677502 -0.29920373422444158 0 -0.36799370156123501 -0.30592930732763762 0 -0.3581763596052473 -0.30097106086504849 0 -0.37669606201677502 -0.29920373422444158 0 -0.3581763596052473 -0.30097106086504849 0 -0.36799370156123501 -0.30592930732763762 0 -0.35803691493684492 -0.31060122461938489 0 -0.3581763596052473 -0.30097106086504849 0 -0.35803691493684492 -0.31060122461938489 0 -0.33965665719371979 -0.30273838750565862 0 -0.35803691493684492 -0.31060122461938489 0 -0.33965665719371979 -0.30273838750565862 0 -0.34514704515453298 -0.31300544250539297 0 -0.3581763596052473 -0.30097106086504849 0 -0.33965665719371979 -0.30273838750565862 0 -0.34010739644885768 -0.2892065328944351 0 -0.35803691493684492 -0.31060122461938489 0 -0.3581763596052473 -0.30097106086504849 0 -0.33965665719371979 -0.30273838750565862 0 -0.3581763596052473 -0.30097106086504849 0 -0.33965665719371979 -0.30273838750565862 0 -0.33676996251121621 -0.31158184422573892 0 -0.33965665719371979 -0.30273838750565862 0 -0.34514704515453298 -0.31300544250539297 0 -0.33676996251121621 -0.31158184422573892 0 -0.33965665719371979 -0.30273838750565862 0 -0.32704471803945162 -0.30394193902942662 0 -0.33676996251121621 -0.31158184422573892 0 -0.32594772137393307 -0.30978944971135602 0 -0.32704471803945162 -0.30394193902942662 0 -0.33965665719371979 -0.30273838750565862 0 -0.32704471803945162 -0.30394193902942662 0 -0.32819068517220462 -0.29783339261299951 0 -0.33965665719371979 -0.30273838750565862 0 -0.32704471803945162 -0.30394193902942662 0 -0.32819068517220462 -0.29783339261299951 0 -0.33965665719371979 -0.30273838750565862 0 -0.33223611708196649 -0.27626932861073827 0 -0.32819068517220462 -0.29783339261299951 0 -0.33223611708196649 -0.27626932861073827 0 -0.32819068517220462 -0.29783339261299951 0 -0.34010739644885768 -0.2892065328944351 0 -0.33223611708196649 -0.27626932861073827 0 -0.34951875912658742 -0.28460269103381453 0 -0.34010739644885768 -0.2892065328944351 0 -0.32819068517220462 -0.29783339261299951 0 -0.33965665719371979 -0.30273838750565862 0 -0.34010739644885768 -0.2892065328944351 0 -0.32819068517220462 -0.29783339261299951 0 -0.31972670239926188 -0.28454160199560091 0 -0.31332574866090718 -0.291474364566292 0 -0.32819068517220462 -0.29783339261299951 0 -0.31332574866090718 -0.291474364566292 0 -0.33223611708196649 -0.27626932861073827 0 -0.32819068517220462 -0.29783339261299951 0 -0.31972670239926188 -0.28454160199560091 0 -0.31972670239926188 -0.28454160199560091 0 -0.31332574866090718 -0.291474364566292 0 -0.30937392239009109 -0.28339120160471948 0 -0.31972670239926188 -0.28454160199560091 0 -0.30937392239009109 -0.28339120160471948 0 -0.31187737399160442 -0.27618124236115132 0 -0.31992409361072222 -0.30462145692723192 0 -0.32594772137393307 -0.30978944971135602 0 -0.31307430431717392 -0.31869978567557272 0 -0.31992409361072222 -0.30462145692723192 0 -0.32594772137393307 -0.30978944971135602 0 -0.32594772137393307 -0.30978944971135602 0 -0.32704471803945162 -0.30394193902942662 0 -0.31992409361072222 -0.30462145692723192 0 -0.32594772137393307 -0.30978944971135602 0 -0.32704471803945162 -0.30394193902942662 0 -0.32819068517220462 -0.29783339261299951 0 -0.31332574866090718 -0.291474364566292 0 -0.31992409361072222 -0.30462145692723192 0 -0.32819068517220462 -0.29783339261299951 0 -0.32704471803945162 -0.30394193902942662 0 -0.32819068517220462 -0.29783339261299951 0 -0.31992409361072222 -0.30462145692723192 0 -0.32704471803945162 -0.30394193902942662 0 -0.31992409361072222 -0.30462145692723192 0 -0.32704471803945162 -0.30394193902942662 0 -0.32594772137393307 -0.30978944971135602 0 -0.31307430431717392 -0.31869978567557272 0 -0.32184288384298337 -0.33167017375041419 0 -0.32594772137393307 -0.30978944971135602 0 -0.32184288384298337 -0.33167017375041419 0 -0.32184288384298337 -0.33167017375041419 0 -0.31773804631203251 -0.35355089778947202 0 -0.32184288384298337 -0.33167017375041419 0 -0.34475024534571441 -0.34586667392980902 0 -0.31773804631203251 -0.35355089778947202 0 -0.32184288384298337 -0.33167017375041419 0 -0.34612464597635118 -0.32710031367078812 0 -0.34475024534571441 -0.34586667392980902 0 -0.33676996251121621 -0.31158184422573892 0 -0.32594772137393307 -0.30978944971135602 0 -0.34612464597635118 -0.32710031367078812 0 -0.32594772137393307 -0.30978944971135602 0 -0.34612464597635118 -0.32710031367078812 0 -0.32594772137393307 -0.30978944971135602 0 -0.32184288384298337 -0.33167017375041419 0 -0.34612464597635118 -0.32710031367078812 0 -0.33676996251121621 -0.31158184422573892 0 -0.34514704515453298 -0.31300544250539297 0 -0.34612464597635118 -0.32710031367078812 0 -0.35803691493684492 -0.31060122461938489 0 -0.34514704515453298 -0.31300544250539297 0 -0.34612464597635118 -0.32710031367078812 0 -0.35803691493684492 -0.31060122461938489 0 -0.34612464597635118 -0.32710031367078812 0 -0.35600230731325749 -0.33324145173106873 0 -0.37641717267996733 -0.3184640617331177 0 -0.35803691493684492 -0.31060122461938489 0 -0.37641717267996733 -0.3184640617331177 0 -0.35803691493684492 -0.31060122461938489 0 -0.36719759625642318 -0.33008752154143739 0 -0.35803691493684492 -0.31060122461938489 0 -0.36719759625642318 -0.33008752154143739 0 -0.35600230731325749 -0.33324145173106873 0 -0.37607676276689278 -0.3419730509543204 0 -0.37641717267996733 -0.3184640617331177 0 -0.36719759625642318 -0.33008752154143739 0 -0.37607676276689278 -0.3419730509543204 0 -0.3688763256213185 -0.34309961767568647 0 -0.36719759625642318 -0.33008752154143739 0 -0.36719759625642318 -0.33008752154143739 0 -0.36118874601324108 -0.3436521492952741 0 -0.35600230731325749 -0.33324145173106873 0 -0.3688763256213185 -0.34309961767568647 0 -0.36719759625642318 -0.33008752154143739 0 -0.36118874601324108 -0.3436521492952741 0 -0.34612464597635118 -0.32710031367078812 0 -0.35600230731325749 -0.33324145173106873 0 -0.34475024534571441 -0.34586667392980902 0 -0.36118874601324108 -0.3436521492952741 0 -0.35600230731325749 -0.33324145173106873 0 -0.34475024534571441 -0.34586667392980902 0 -0.36118874601324108 -0.3436521492952741 0 -0.34475024534571441 -0.34586667392980902 0 -0.35925477447714671 -0.35134479444962452 0 -0.34475024534571441 -0.34586667392980902 0 -0.35480891830463612 -0.3592101017575729 0 -0.33937201587241012 -0.36587749477948078 0 -0.34475024534571441 -0.34586667392980902 0 -0.35480891830463612 -0.3592101017575729 0 -0.35925477447714671 -0.35134479444962452 0 -0.36118874601324108 -0.3436521492952741 0 -0.37225797237559449 -0.35115364910559932 0 -0.36118874601324108 -0.3436521492952741 0 -0.35925477447714671 -0.35134479444962452 0 -0.36985982957495511 -0.35171195823109852 0 -0.37568304780698558 -0.36916333065311507 0 -0.37593298752455201 -0.35190228771479481 0 -0.37225797237559449 -0.35115364910559932 0 -0.35480891830463612 -0.3592101017575729 0 -0.35925477447714671 -0.35134479444962452 0 -0.36985982957495511 -0.35171195823109852 0 -0.37607676276689278 -0.3419730509543204 0 -0.3688763256213185 -0.34309961767568647 0 -0.37225797237559449 -0.35115364910559932 0 -0.37607676276689278 -0.3419730509543204 0 -0.37225797237559449 -0.35115364910559932 0 -0.37607676276689278 -0.3419730509543204 0 -0.37390838074359528 -0.35076941925389299 0 -0.37225797237559449 -0.35115364910559932 0 -0.37593298752455201 -0.35190228771479481 0 -0.37390838074359528 -0.35076941925389299 0 -0.37225797237559449 -0.35115364910559932 0 -0.3688763256213185 -0.34309961767568647 0 -0.36118874601324108 -0.3436521492952741 0 -0.37225797237559449 -0.35115364910559932 0 -0.37593298752455201 -0.35190228771479481 0 -0.37390838074359528 -0.35076941925389299 0 -0.36118874601324108 -0.3436521492952741 0 -0.36985982957495511 -0.35171195823109852 0 -0.37225797237559449 -0.35115364910559932 0 -0.37595629511297179 -0.35029264644438168 0 -0.37390838074359528 -0.35076941925389299 0 -0.37390838074359528 -0.35076941925389299 0 -0.37225797237559449 -0.35115364910559932 0 -0.36985982957495511 -0.35171195823109852 0 -0.37225797237559449 -0.35115364910559932 0 -0.37568304780698558 -0.36916333065311507 0 -0.37225797237559449 -0.35115364910559932 0 -0.36100598543278789 -0.37820409176948921 0 -0.35480891830463612 -0.3592101017575729 0 -0.36985982957495511 -0.35171195823109852 0 -0.36100598543278789 -0.37820409176948921 0 -0.36985982957495511 -0.35171195823109852 0 -0.37225797237559449 -0.35115364910559932 0 -0.36100598543278789 -0.37820409176948921 0 -0.37225797237559449 -0.35115364910559932 0 -0.36100598543278789 -0.37820409176948921 0 -0.33937201587241012 -0.36587749477948078 0 -0.36100598543278789 -0.37820409176948921 0 -0.35480891830463612 -0.3592101017575729 0 -0.33937201587241012 -0.36587749477948078 0 -0.36100598543278789 -0.37820409176948921 0 -0.33937201587241012 -0.36587749477948078 0 -0.31773804631203251 -0.35355089778947202 0 -0.33937201587241012 -0.36587749477948078 0 -0.31773804631203251 -0.35355089778947202 0 -0.32803705280137402 -0.37447550275240871 0 -0.34475024534571441 -0.34586667392980902 0 -0.33937201587241012 -0.36587749477948078 0 -0.31773804631203251 -0.35355089778947202 0 -0.31773804631203251 -0.35355089778947202 0 -0.31381007312398762 -0.37448885129246268 0 -0.31773804631203251 -0.35355089778947202 0 -0.31381007312398762 -0.37448885129246268 0 -0.32803705280137402 -0.37447550275240871 0 -0.31381007312398762 -0.37448885129246268 0 -0.29871455833571747 -0.36148408621311728 0 -0.29196992941862432 -0.3825632544476108 0 -0.31773804631203251 -0.35355089778947202 0 -0.31381007312398762 -0.37448885129246268 0 -0.29871455833571747 -0.36148408621311728 0 -0.31773804631203251 -0.35355089778947202 0 -0.29871455833571747 -0.36148408621311728 0 -0.29282778547957722 -0.33935753649529382 0 -0.31773804631203251 -0.35355089778947202 0 -0.29282778547957722 -0.33935753649529382 0 -0.29871455833571747 -0.36148408621311728 0 -0.27675503022224163 -0.36681377825091099 0 -0.29282778547957722 -0.33935753649529382 0 -0.29871455833571747 -0.36148408621311728 0 -0.27675503022224163 -0.36681377825091099 0 -0.29196992941862432 -0.3825632544476108 0 -0.27675503022224163 -0.36681377825091099 0 -0.25757508569408222 -0.36424633604315798 0 -0.26546808025963542 -0.34847395767735678 0 -0.27675503022224163 -0.36681377825091099 0 -0.25757508569408222 -0.36424633604315798 0 -0.25812358553267323 -0.37605355791306738 0 -0.25757508569408222 -0.36424633604315798 0 -0.24839247009954951 -0.37292447016044328 0 -0.24532753696728959 -0.36501789644951049 0 -0.25757508569408222 -0.36424633604315798 0 -0.25812358553267323 -0.37605355791306738 0 -0.24839247009954951 -0.37292447016044328 0 -0.25757508569408222 -0.36424633604315798 0 -0.26546808025963542 -0.34847395767735678 0 -0.24650166737573331 -0.3569693529562265 0 -0.26546808025963542 -0.34847395767735678 0 -0.24650166737573331 -0.3569693529562265 0 -0.24881121389389799 -0.33838995723746451 0 -0.27675503022224163 -0.36681377825091099 0 -0.26546808025963542 -0.34847395767735678 0 -0.29282778547957722 -0.33935753649529382 0 -0.26791752464712137 -0.32516417520111718 0 -0.27544300416693679 -0.31995488319631832 0 -0.29282778547957722 -0.33935753649529382 0 -0.26546808025963542 -0.34847395767735678 0 -0.26791752464712137 -0.32516417520111718 0 -0.29282778547957722 -0.33935753649529382 0 -0.26791752464712137 -0.32516417520111718 0 -0.29282778547957722 -0.33935753649529382 0 -0.26791752464712137 -0.32516417520111718 0 -0.24881121389389799 -0.33838995723746451 0 -0.26546808025963542 -0.34847395767735678 0 -0.26791752464712137 -0.32516417520111718 0 -0.24881121389389799 -0.33838995723746451 0 -0.26791752464712137 -0.32516417520111718 0 -0.24881121389389799 -0.33838995723746451 0 -0.2441082332202735 -0.32380704628422963 0 -0.26791752464712137 -0.32516417520111718 0 -0.2444966906846206 -0.31181945912301329 0 -0.26791752464712137 -0.32516417520111718 0 -0.26963915832665503 -0.30942012505775762 0 -0.2444966906846206 -0.31181945912301329 0 -0.26791752464712137 -0.32516417520111718 0 -0.2441082332202735 -0.32380704628422963 0 -0.2444966906846206 -0.31181945912301329 0 -0.26791752464712137 -0.32516417520111718 0 -0.27544300416693679 -0.31995488319631832 0 -0.26963915832665503 -0.30942012505775762 0 -0.26791752464712137 -0.32516417520111718 0 -0.27544300416693679 -0.31995488319631832 0 -0.27544300416693679 -0.31995488319631832 0 -0.29403167998309421 -0.32125824908992018 0 -0.29478162596868879 -0.30702079099249591 0 -0.27544300416693679 -0.31995488319631832 0 -0.29403167998309421 -0.32125824908992018 0 -0.29282778547957722 -0.33935753649529382 0 -0.31307430431717392 -0.31869978567557272 0 -0.32184288384298337 -0.33167017375041419 0 -0.29282778547957722 -0.33935753649529382 0 -0.32184288384298337 -0.33167017375041419 0 -0.31773804631203251 -0.35355089778947202 0 -0.29282778547957722 -0.33935753649529382 0 -0.31307430431717392 -0.31869978567557272 0 -0.29403167998309421 -0.32125824908992018 0 -0.29282778547957722 -0.33935753649529382 0 -0.31307430431717392 -0.31869978567557272 0 -0.29403167998309421 -0.32125824908992018 0 -0.29478162596868879 -0.30702079099249591 0 -0.31992409361072222 -0.30462145692723192 0 -0.29478162596868879 -0.30702079099249591 0 -0.31992409361072222 -0.30462145692723192 0 -0.31307430431717392 -0.31869978567557272 0 -0.29478162596868879 -0.30702079099249591 0 -0.31992409361072222 -0.30462145692723192 0 -0.30687808727867438 -0.29770175581860719 0 -0.29478162596868879 -0.30702079099249591 0 -0.30687808727867438 -0.29770175581860719 0 -0.29813438661480679 -0.29530641477552327 0 -0.29478162596868879 -0.30702079099249591 0 -0.31992409361072222 -0.30462145692723192 0 -0.2984608121496099 -0.28511533651958437 0 -0.31992409361072222 -0.30462145692723192 0 -0.30687808727867438 -0.29770175581860719 0 -0.2984608121496099 -0.28511533651958437 0 -0.31332574866090718 -0.291474364566292 0 -0.31992409361072222 -0.30462145692723192 0 -0.2984608121496099 -0.28511533651958437 0 -0.31332574866090718 -0.291474364566292 0 -0.30937392239009109 -0.28339120160471948 0 -0.2984608121496099 -0.28511533651958437 0 -0.31332574866090718 -0.291474364566292 0 -0.2984608121496099 -0.28511533651958437 0 -0.30937392239009109 -0.28339120160471948 0 -0.2984608121496099 -0.28511533651958437 0 -0.30347897474907187 -0.279643462580969 0 -0.30687808727867438 -0.29770175581860719 0 -0.29951482580247829 -0.29240083595456018 0 -0.29813438661480679 -0.29530641477552327 0 -0.30687808727867438 -0.29770175581860719 0 -0.2984608121496099 -0.28511533651958437 0 -0.29951482580247829 -0.29240083595456018 0 -0.29951482580247829 -0.29240083595456018 0 -0.29813438661480679 -0.29530641477552327 0 -0.29499124589990039 -0.29073588210889412 0 -0.2984608121496099 -0.28511533651958437 0 -0.29951482580247829 -0.29240083595456018 0 -0.29499124589990039 -0.29073588210889412 0 -0.29499124589990039 -0.29073588210889412 0 -0.29148170063899659 -0.29460773718781319 0 -0.28586576089235322 -0.28577101837165192 0 -0.29813438661480679 -0.29530641477552327 0 -0.29499124589990039 -0.29073588210889412 0 -0.29148170063899659 -0.29460773718781319 0 -0.2984608121496099 -0.28511533651958437 0 -0.29499124589990039 -0.29073588210889412 0 -0.28586576089235322 -0.28577101837165192 0 -0.29148170063899659 -0.29460773718781319 0 -0.28586576089235322 -0.28577101837165192 0 -0.2798353156189245 -0.29508903771003908 0 -0.29148170063899659 -0.29460773718781319 0 -0.29478162596868879 -0.30702079099249591 0 -0.2798353156189245 -0.29508903771003908 0 -0.29478162596868879 -0.30702079099249591 0 -0.26963915832665503 -0.30942012505775762 0 -0.2798353156189245 -0.29508903771003908 0 -0.29478162596868879 -0.30702079099249591 0 -0.26963915832665503 -0.30942012505775762 0 -0.29813438661480679 -0.29530641477552327 0 -0.29148170063899659 -0.29460773718781319 0 -0.29478162596868879 -0.30702079099249591 0 -0.27544300416693679 -0.31995488319631832 0 -0.29478162596868879 -0.30702079099249591 0 -0.26963915832665503 -0.30942012505775762 0 -0.26963915832665503 -0.30942012505775762 0 -0.26057201890547982 -0.29344093798311832 0 -0.2798353156189245 -0.29508903771003908 0 -0.26963915832665503 -0.30942012505775762 0 -0.2444966906846206 -0.31181945912301329 0 -0.26963915832665503 -0.30942012505775762 0 -0.26057201890547982 -0.29344093798311832 0 -0.2444966906846206 -0.31181945912301329 0 -0.26057201890547982 -0.29344093798311832 0 -0.27108878797196961 -0.28331686931735522 0 -0.25298377122075039 -0.27518622721876451 0 -0.26057201890547982 -0.29344093798311832 0 -0.25298377122075039 -0.27518622721876451 0 -0.2435111179254994 -0.29490773243705071 0 -0.26057201890547982 -0.29344093798311832 0 -0.27108878797196961 -0.28331686931735522 0 -0.2798353156189245 -0.29508903771003908 0 -0.28586576089235322 -0.28577101837165192 0 -0.27108878797196961 -0.28331686931735522 0 -0.2798353156189245 -0.29508903771003908 0 -0.27108878797196961 -0.28331686931735522 0 -0.27618707322233982 -0.26709712530320262 0 -0.25298377122075039 -0.27518622721876451 0 -0.28586576089235322 -0.28577101837165192 0 -0.27108878797196961 -0.28331686931735522 0 -0.27618707322233982 -0.26709712530320262 0 -0.27618707322233982 -0.26709712530320262 0 -0.25431856302814809 -0.24833495949118861 0 -0.27618707322233982 -0.26709712530320262 0 -0.25298377122075039 -0.27518622721876451 0 -0.25431856302814809 -0.24833495949118861 0 -0.27618707322233982 -0.26709712530320262 0 -0.27309361240676189 -0.24179026653703889 0 -0.25431856302814809 -0.24833495949118861 0 -0.27618707322233982 -0.26709712530320262 0 -0.2907170577323625 -0.25177677077710309 0 -0.27309361240676189 -0.24179026653703889 0 -0.27618707322233982 -0.26709712530320262 0 -0.2907170577323625 -0.25177677077710309 0 -0.29477899871119112 -0.26293378760569941 0 -0.2984608121496099 -0.28511533651958437 0 -0.28586576089235322 -0.28577101837165192 0 -0.27618707322233982 -0.26709712530320262 0 -0.2984608121496099 -0.28511533651958437 0 -0.27618707322233982 -0.26709712530320262 0 -0.27618707322233982 -0.26709712530320262 0 -0.29477899871119112 -0.26293378760569941 0 -0.29948479845841441 -0.27338487519771032 0 -0.2984608121496099 -0.28511533651958437 0 -0.27618707322233982 -0.26709712530320262 0 -0.29948479845841441 -0.27338487519771032 0 -0.29477899871119112 -0.26293378760569941 0 -0.29948479845841441 -0.27338487519771032 0 -0.30156079933714469 -0.26765617134954151 0 -0.30156079933714469 -0.26765617134954151 0 -0.30403476516136241 -0.27459464834518948 0 -0.30588444940973558 -0.27063474712059482 0 -0.29948479845841441 -0.27338487519771032 0 -0.30156079933714469 -0.26765617134954151 0 -0.30403476516136241 -0.27459464834518948 0 -0.30156079933714469 -0.26765617134954151 0 -0.30588444940973558 -0.27063474712059482 0 -0.3062135479255173 -0.26372173898871692 0 -0.2984608121496099 -0.28511533651958437 0 -0.29948479845841441 -0.27338487519771032 0 -0.30347897474907187 -0.279643462580969 0 -0.29948479845841441 -0.27338487519771032 0 -0.30403476516136241 -0.27459464834518948 0 -0.30347897474907187 -0.279643462580969 0 -0.30937392239009109 -0.28339120160471948 0 -0.30347897474907187 -0.279643462580969 0 -0.31187737399160442 -0.27618124236115132 0 -0.30403476516136241 -0.27459464834518948 0 -0.30347897474907187 -0.279643462580969 0 -0.31187737399160442 -0.27618124236115132 0 -0.30403476516136241 -0.27459464834518948 0 -0.31187737399160442 -0.27618124236115132 0 -0.30588444940973558 -0.27063474712059482 0 -0.31187737399160442 -0.27618124236115132 0 -0.30588444940973558 -0.27063474712059482 0 -0.3062135479255173 -0.26372173898871692 0 -0.31664960680882542 -0.25714232151458272 0 -0.31202674084989918 -0.26335133138269068 0 -0.30853150187083839 -0.25429835417001312 0 -0.2907170577323625 -0.25177677077710309 0 -0.29477899871119112 -0.26293378760569941 0 -0.30853150187083839 -0.25429835417001312 0 -0.31202674084989918 -0.26335133138269068 0 -0.3062135479255173 -0.26372173898871692 0 -0.30853150187083839 -0.25429835417001312 0 -0.29477899871119112 -0.26293378760569941 0 -0.30156079933714469 -0.26765617134954151 0 -0.3062135479255173 -0.26372173898871692 0 -0.29477899871119112 -0.26293378760569941 0 -0.3062135479255173 -0.26372173898871692 0 -0.30853150187083839 -0.25429835417001312 0 -0.33709504481289931 -0.46474263175187808 0 -0.33075086723682939 -0.45093918684289991 0 -0.35302422329502631 -0.44785824460859458 0 -0.33709504481289931 -0.46474263175187808 0 -0.33075086723682939 -0.45093918684289991 0 -0.32054712240525829 -0.47546959342145068 0 -0.33075086723682939 -0.45093918684289991 0 -0.34095461206840061 -0.42640878026434909 0 -0.33075086723682939 -0.45093918684289991 0 -0.35302422329502631 -0.44785824460859458 0 -0.34095461206840061 -0.42640878026434909 0 -0.33075086723682939 -0.45093918684289991 0 -0.32054706720266329 -0.44859283512714471 0 -0.3206124180200437 -0.43193612962395289 0 -0.33075086723682939 -0.45093918684289991 0 -0.32054706720266329 -0.44859283512714471 0 -0.31571728338184601 -0.45752087103574601 0 -0.32054706720266329 -0.44859283512714471 0 -0.31571728338184601 -0.45752087103574601 0 -0.30706080135445341 -0.45057148265483188 0 -0.33075086723682939 -0.45093918684289991 0 -0.32054712240525829 -0.47546959342145068 0 -0.33075086723682939 -0.45093918684289991 0 -0.31571728338184601 -0.45752087103574601 0 -0.32054712240525829 -0.47546959342145068 0 -0.32054712240525829 -0.47546959342145068 0 -0.32750579650535672 -0.48798687004089669 0 -0.32933965142182292 -0.47777380670114528 0 -0.32054712240525829 -0.47546959342145068 0 -0.31034337757368669 -0.50000000000000133 0 -0.32750579650535672 -0.48798687004089669 0 -0.33387795429423722 -0.5 0 -0.31034337757368669 -0.50000000000000133 0 -0.32054712240525829 -0.47546959342145068 0 -0.32750579650535672 -0.48798687004089669 0 -0.31034337757368669 -0.50000000000000133 0 -0.32750579650535672 -0.48798687004089669 0 -0.34342087683177741 -0.48669095008188618 0 -0.33387795429423722 -0.5 0 -0.33709504481289931 -0.46474263175187808 0 -0.32933965142182292 -0.47777380670114528 0 -0.35181335970555933 -0.47167232718529989 0 -0.34342087683177741 -0.48669095008188618 0 -0.32933965142182292 -0.47777380670114528 0 -0.35181335970555933 -0.47167232718529989 0 -0.32750579650535672 -0.48798687004089669 0 -0.34342087683177741 -0.48669095008188618 0 -0.32933965142182292 -0.47777380670114528 0 -0.33709504481289931 -0.46474263175187808 0 -0.32054712240525829 -0.47546959342145068 0 -0.32933965142182292 -0.47777380670114528 0 -0.32933965142182292 -0.47777380670114528 0 -0.35181335970555933 -0.47167232718529989 0 -0.34342087683177741 -0.48669095008188618 0 -0.35181335970555933 -0.47167232718529989 0 -0.35979455825166368 -0.48519290092039941 0 -0.34342087683177741 -0.48669095008188618 0 -0.35741253101478748 -0.5 0 -0.35979455825166368 -0.48519290092039941 0 -0.34342087683177741 -0.48669095008188618 0 -0.33387795429423722 -0.5 0 -0.35741253101478748 -0.5 0 -0.38094710773533791 -0.49999999999999839 0 -0.35741253101478748 -0.5 0 -0.37240076261097882 -0.48974555046165519 0 -0.35741253101478748 -0.5 0 -0.35979455825166368 -0.48519290092039941 0 -0.37240076261097882 -0.48974555046165519 0 -0.35181335970555933 -0.47167232718529989 0 -0.35979455825166368 -0.48519290092039941 0 -0.37411677223754131 -0.47733161267270968 0 -0.35181335970555933 -0.47167232718529989 0 -0.37411677223754131 -0.47733161267270968 0 -0.37428706798929601 -0.46557084766945539 0 -0.35979455825166368 -0.48519290092039941 0 -0.37240076261097882 -0.48974555046165519 0 -0.37411677223754131 -0.47733161267270968 0 -0.37411677223754131 -0.47733161267270968 0 -0.37428706798929601 -0.46557084766945539 0 -0.35181335970555933 -0.47167232718529989 0 -0.37428706798929601 -0.46557084766945539 0 -0.35302422329502631 -0.44785824460859458 0 -0.35181335970555933 -0.47167232718529989 0 -0.37428706798929601 -0.46557084766945539 0 -0.33709504481289931 -0.46474263175187808 0 -0.35181335970555933 -0.47167232718529989 0 -0.35302422329502631 -0.44785824460859458 0 -0.37428706798929601 -0.46557084766945539 0 -0.35302422329502631 -0.44785824460859458 0 -0.37472313619600889 -0.43545561783144832 0 -0.37428706798929601 -0.46557084766945539 0 -0.37472313619600889 -0.43545561783144832 0 -0.35302422329502631 -0.44785824460859458 0 -0.37472313619600889 -0.43545561783144832 0 -0.36076670325611282 -0.42019275678090617 0 -0.37515920440272033 -0.40534038799344108 0 -0.37472313619600889 -0.43545561783144832 0 -0.36076670325611282 -0.42019275678090617 0 -0.37515920440272033 -0.40534038799344108 0 -0.36076670325611282 -0.42019275678090617 0 -0.35115835689997099 -0.40187837368579798 0 -0.37515920440272033 -0.40534038799344108 0 -0.37472313619600889 -0.43545561783144832 0 -0.36076670325611282 -0.42019275678090617 0 -0.35115835689997099 -0.40187837368579798 0 -0.34095461206840061 -0.42640878026434909 0 -0.34815033243380111 -0.40144447968524521 0 -0.35115835689997099 -0.40187837368579798 0 -0.34095461206840061 -0.42640878026434909 0 -0.35115835689997099 -0.40187837368579798 0 -0.34095461206840061 -0.42640878026434909 0 -0.35302422329502631 -0.44785824460859458 0 -0.36076670325611282 -0.42019275678090617 0 -0.34095461206840061 -0.42640878026434909 0 -0.37543310808941849 -0.38642437359143528 0 -0.36100598543278789 -0.37820409176948921 0 -0.35115835689997099 -0.40187837368579798 0 -0.37543310808941849 -0.38642437359143528 0 -0.37568304780698558 -0.36916333065311507 0 -0.36100598543278789 -0.37820409176948921 0 -0.37543310808941849 -0.38642437359143528 0 -0.36100598543278789 -0.37820409176948921 0 -0.37515920440272033 -0.40534038799344108 0 -0.37543310808941849 -0.38642437359143528 0 -0.35115835689997099 -0.40187837368579798 0 -0.37515920440272033 -0.40534038799344108 0 -0.35115835689997099 -0.40187837368579798 0 -0.35115835689997099 -0.40187837368579798 0 -0.34646966066369161 -0.38533898881774881 0 -0.34316085436749 -0.39382471367395527 0 -0.34815033243380111 -0.40144447968524521 0 -0.35115835689997099 -0.40187837368579798 0 -0.34316085436749 -0.39382471367395527 0 -0.34815033243380111 -0.40144447968524521 0 -0.35115835689997099 -0.40187837368579798 0 -0.33937201587241012 -0.36587749477948078 0 -0.36100598543278789 -0.37820409176948921 0 -0.34646966066369161 -0.38533898881774881 0 -0.36100598543278789 -0.37820409176948921 0 -0.35115835689997099 -0.40187837368579798 0 -0.36100598543278789 -0.37820409176948921 0 -0.35115835689997099 -0.40187837368579798 0 -0.34646966066369161 -0.38533898881774881 0 -0.33937201587241012 -0.36587749477948078 0 -0.32803705280137402 -0.37447550275240871 0 -0.34646966066369161 -0.38533898881774881 0 -0.32803705280137402 -0.37447550275240871 0 -0.34646966066369161 -0.38533898881774881 0 -0.32931529664348408 -0.38869437358142001 0 -0.34646966066369161 -0.38533898881774881 0 -0.32931529664348408 -0.38869437358142001 0 -0.34316085436749 -0.39382471367395527 0 -0.34815033243380111 -0.40144447968524521 0 -0.33486919938690762 -0.39884665705885908 0 -0.32944617452305069 -0.41182817437998842 0 -0.32931529664348408 -0.38869437358142001 0 -0.34316085436749 -0.39382471367395527 0 -0.33486919938690762 -0.39884665705885908 0 -0.32931529664348408 -0.38869437358142001 0 -0.33486919938690762 -0.39884665705885908 0 -0.32365381597648563 -0.39942827076698811 0 -0.34815033243380111 -0.40144447968524521 0 -0.34316085436749 -0.39382471367395527 0 -0.33486919938690762 -0.39884665705885908 0 -0.33486919938690762 -0.39884665705885908 0 -0.32365381597648563 -0.39942827076698811 0 -0.32944617452305069 -0.41182817437998842 0 -0.32931529664348408 -0.38869437358142001 0 -0.32365381597648563 -0.39942827076698811 0 -0.30988209993594379 -0.39542680479545339 0 -0.32365381597648563 -0.39942827076698811 0 -0.30595412674790001 -0.41636475829844438 0 -0.30988209993594379 -0.39542680479545339 0 -0.31381007312398762 -0.37448885129246268 0 -0.32931529664348408 -0.38869437358142001 0 -0.30988209993594379 -0.39542680479545339 0 -0.31381007312398762 -0.37448885129246268 0 -0.32803705280137402 -0.37447550275240871 0 -0.32931529664348408 -0.38869437358142001 0 -0.34095461206840061 -0.42640878026434909 0 -0.32944617452305069 -0.41182817437998842 0 -0.3206124180200437 -0.43193612962395289 0 -0.33075086723682939 -0.45093918684289991 0 -0.34095461206840061 -0.42640878026434909 0 -0.3206124180200437 -0.43193612962395289 0 -0.34815033243380111 -0.40144447968524521 0 -0.34095461206840061 -0.42640878026434909 0 -0.32944617452305069 -0.41182817437998842 0 -0.32944617452305069 -0.41182817437998842 0 -0.3206124180200437 -0.43193612962395289 0 -0.30595412674790001 -0.41636475829844438 0 -0.32365381597648563 -0.39942827076698811 0 -0.32944617452305069 -0.41182817437998842 0 -0.30595412674790001 -0.41636475829844438 0 -0.3206124180200437 -0.43193612962395289 0 -0.30595412674790001 -0.41636475829844438 0 -0.29602166034141808 -0.43748304283089118 0 -0.30595412674790001 -0.41636475829844438 0 -0.28680587137917263 -0.41476105187328532 0 -0.29502227998321778 -0.40112933436643161 0 -0.30595412674790001 -0.41636475829844438 0 -0.28680587137917263 -0.41476105187328532 0 -0.29602166034141808 -0.43748304283089118 0 -0.28680587137917263 -0.41476105187328532 0 -0.29602166034141808 -0.43748304283089118 0 -0.27149625348017281 -0.42637325053463759 0 -0.29602166034141808 -0.43748304283089118 0 -0.27149625348017281 -0.42637325053463759 0 -0.29602166034141808 -0.43748304283089118 0 -0.27149625348017281 -0.42637325053463759 0 -0.27906578537949278 -0.44687665772048962 0 -0.31381007312398762 -0.37448885129246268 0 -0.30988209993594379 -0.39542680479545339 0 -0.31381007312398762 -0.37448885129246268 0 -0.30988209993594379 -0.39542680479545339 0 -0.29196992941862432 -0.3825632544476108 0 -0.30595412674790001 -0.41636475829844438 0 -0.30988209993594379 -0.39542680479545339 0 -0.30595412674790001 -0.41636475829844438 0 -0.30988209993594379 -0.39542680479545339 0 -0.29502227998321778 -0.40112933436643161 0 -0.30988209993594379 -0.39542680479545339 0 -0.29502227998321778 -0.40112933436643161 0 -0.29196992941862432 -0.3825632544476108 0 -0.28680587137917263 -0.41476105187328532 0 -0.29502227998321778 -0.40112933436643161 0 -0.2806661672136338 -0.39648987600255969 0 -0.29502227998321778 -0.40112933436643161 0 -0.29196992941862432 -0.3825632544476108 0 -0.2806661672136338 -0.39648987600255969 0 -0.27675503022224163 -0.36681377825091099 0 -0.29196992941862432 -0.3825632544476108 0 -0.26924588117792803 -0.38334910629271668 0 -0.29196992941862432 -0.3825632544476108 0 -0.26924588117792803 -0.38334910629271668 0 -0.2806661672136338 -0.39648987600255969 0 -0.27675503022224163 -0.36681377825091099 0 -0.26924588117792803 -0.38334910629271668 0 -0.25812358553267323 -0.37605355791306738 0 -0.28680587137917263 -0.41476105187328532 0 -0.2806661672136338 -0.39648987600255969 0 -0.26326431180229581 -0.40282557300305732 0 -0.26924588117792803 -0.38334910629271668 0 -0.2806661672136338 -0.39648987600255969 0 -0.26326431180229581 -0.40282557300305732 0 -0.26326431180229581 -0.40282557300305732 0 -0.2504897110532438 -0.38524934403489181 0 -0.24394706363899241 -0.39877073912243299 0 -0.26326431180229581 -0.40282557300305732 0 -0.24697084661892749 -0.41526345823838401 0 -0.24394706363899241 -0.39877073912243299 0 -0.26924588117792803 -0.38334910629271668 0 -0.26326431180229581 -0.40282557300305732 0 -0.2504897110532438 -0.38524934403489181 0 -0.26924588117792803 -0.38334910629271668 0 -0.2504897110532438 -0.38524934403489181 0 -0.25812358553267323 -0.37605355791306738 0 -0.2504897110532438 -0.38524934403489181 0 -0.25812358553267323 -0.37605355791306738 0 -0.24839247009954951 -0.37292447016044328 0 -0.28680587137917263 -0.41476105187328532 0 -0.26326431180229581 -0.40282557300305732 0 -0.27149625348017281 -0.42637325053463759 0 -0.27149625348017281 -0.42637325053463759 0 -0.24697084661892749 -0.41526345823838401 0 -0.26326431180229581 -0.40282557300305732 0 -0.27149625348017281 -0.42637325053463759 0 -0.24697084661892749 -0.41526345823838401 0 -0.27149625348017281 -0.42637325053463759 0 -0.25687425522332558 -0.44642006451091643 0 -0.24697084661892749 -0.41526345823838401 0 -0.25687425522332558 -0.44642006451091643 0 -0.27607931301277078 -0.46657199895299017 0 -0.25409384940020791 -0.47271975939701871 0 -0.25687425522332558 -0.44642006451091643 0 -0.27607931301277078 -0.46657199895299017 0 -0.27906578537949278 -0.44687665772048962 0 -0.27149625348017281 -0.42637325053463759 0 -0.25687425522332558 -0.44642006451091643 0 -0.27906578537949278 -0.44687665772048962 0 -0.29602166034141808 -0.43748304283089118 0 -0.27906578537949278 -0.44687665772048962 0 -0.29968055871002541 -0.46203125713240301 0 -0.27607931301277078 -0.46657199895299017 0 -0.27906578537949278 -0.44687665772048962 0 -0.29968055871002541 -0.46203125713240301 0 -0.31571728338184601 -0.45752087103574601 0 -0.29968055871002541 -0.46203125713240301 0 -0.30706080135445341 -0.45057148265483188 0 -0.31571728338184601 -0.45752087103574601 0 -0.32054712240525829 -0.47546959342145068 0 -0.29968055871002541 -0.46203125713240301 0 -0.32054706720266329 -0.44859283512714471 0 -0.29602166034141808 -0.43748304283089118 0 -0.32054706720266329 -0.44859283512714471 0 -0.3206124180200437 -0.43193612962395289 0 -0.29602166034141808 -0.43748304283089118 0 -0.32054706720266329 -0.44859283512714471 0 -0.29602166034141808 -0.43748304283089118 0 -0.30706080135445341 -0.45057148265483188 0 -0.29602166034141808 -0.43748304283089118 0 -0.29968055871002541 -0.46203125713240301 0 -0.30706080135445341 -0.45057148265483188 0 -0.32054712240525829 -0.47546959342145068 0 -0.31034337757368669 -0.50000000000000133 0 -0.2941570887960146 -0.48201569375099518 0 -0.32054712240525829 -0.47546959342145068 0 -0.29968055871002541 -0.46203125713240301 0 -0.2941570887960146 -0.48201569375099518 0 -0.27607931301277078 -0.46657199895299017 0 -0.29968055871002541 -0.46203125713240301 0 -0.2941570887960146 -0.48201569375099518 0 -0.2941570887960146 -0.48201569375099518 0 -0.28248249767631262 -0.5 0 -0.27039562620846602 -0.48462576079096858 0 -0.31034337757368669 -0.50000000000000133 0 -0.2941570887960146 -0.48201569375099518 0 -0.28248249767631262 -0.5 0 -0.28248249767631262 -0.5 0 -0.27039562620846602 -0.48462576079096858 0 -0.25462161777893849 -0.5 0 -0.27607931301277078 -0.46657199895299017 0 -0.2941570887960146 -0.48201569375099518 0 -0.27039562620846602 -0.48462576079096858 0 -0.27607931301277078 -0.46657199895299017 0 -0.27039562620846602 -0.48462576079096858 0 -0.25409384940020791 -0.47271975939701871 0 -0.27039562620846602 -0.48462576079096858 0 -0.25409384940020791 -0.47271975939701871 0 -0.25462161777893849 -0.5 0 -0.25462161777893849 -0.5 0 -0.23155232774708009 -0.47932355884050398 0 -0.22676073788156451 -0.5 0 -0.25409384940020791 -0.47271975939701871 0 -0.25462161777893849 -0.5 0 -0.23155232774708009 -0.47932355884050398 0 -0.25409384940020791 -0.47271975939701871 0 -0.23155232774708009 -0.47932355884050398 0 -0.2350399564306665 -0.45937717328673289 0 -0.23155232774708009 -0.47932355884050398 0 -0.2350399564306665 -0.45937717328673289 0 -0.2080224731694312 -0.47403962225972662 0 -0.23155232774708009 -0.47932355884050398 0 -0.22676073788156451 -0.5 0 -0.2080224731694312 -0.47403962225972662 0 -0.25687425522332558 -0.44642006451091643 0 -0.2350399564306665 -0.45937717328673289 0 -0.23180750449586429 -0.4343742486430574 0 -0.25687425522332558 -0.44642006451091643 0 -0.25409384940020791 -0.47271975939701871 0 -0.2350399564306665 -0.45937717328673289 0 -0.2350399564306665 -0.45937717328673289 0 -0.21590660946663959 -0.44883644739355771 0 -0.2080224731694312 -0.47403962225972662 0 -0.2350399564306665 -0.45937717328673289 0 -0.21590660946663959 -0.44883644739355771 0 -0.23180750449586429 -0.4343742486430574 0 -0.21590660946663959 -0.44883644739355771 0 -0.1943898331460783 -0.4473597119794826 0 -0.20910912931781811 -0.42543372189632289 0 -0.21590660946663959 -0.44883644739355771 0 -0.1943898331460783 -0.4473597119794826 0 -0.2080224731694312 -0.47403962225972662 0 -0.1943898331460783 -0.4473597119794826 0 -0.2080224731694312 -0.47403962225972662 0 -0.17967053697433849 -0.46928570206264231 0 -0.22676073788156451 -0.5 0 -0.2080224731694312 -0.47403962225972662 0 -0.19889985798419041 -0.5 0 -0.2080224731694312 -0.47403962225972662 0 -0.1821948971586228 -0.48648437486529872 0 -0.17967053697433849 -0.46928570206264231 0 -0.2080224731694312 -0.47403962225972662 0 -0.19889985798419041 -0.5 0 -0.1821948971586228 -0.48648437486529872 0 -0.19889985798419041 -0.5 0 -0.1821948971586228 -0.48648437486529872 0 -0.17103897808681609 -0.49999999999999778 0 -0.1821948971586228 -0.48648437486529872 0 -0.17103897808681609 -0.49999999999999778 0 -0.16495124080259491 -0.49121169214579941 0 -0.17103897808681609 -0.49999999999999778 0 -0.16495124080259491 -0.49121169214579941 0 -0.17103897808681609 -0.49999999999999778 0 -0.16495124080259491 -0.49121169214579941 0 -0.15905149781887321 -0.49999999999999961 0 -0.16495124080259491 -0.49121169214579941 0 -0.15905149781887321 -0.49999999999999961 0 -0.1545750311736096 -0.49062041690426861 0 -0.16495124080259491 -0.49121169214579941 0 -0.15905149781887321 -0.49999999999999961 0 -0.16495124080259491 -0.49121169214579941 0 -0.16530166315622061 -0.47155300009798301 0 -0.17967053697433849 -0.46928570206264231 0 -0.16495124080259491 -0.49121169214579941 0 -0.16530166315622061 -0.47155300009798301 0 -0.15083103946930049 -0.47082765280793248 0 -0.16495124080259491 -0.49121169214579941 0 -0.1545750311736096 -0.49062041690426861 0 -0.15083103946930049 -0.47082765280793248 0 -0.16495124080259491 -0.49121169214579941 0 -0.15083103946930049 -0.47082765280793248 0 -0.16495124080259491 -0.49121169214579941 0 -0.17967053697433849 -0.46928570206264231 0 -0.1821948971586228 -0.48648437486529872 0 -0.16495124080259491 -0.49121169214579941 0 -0.17967053697433849 -0.46928570206264231 0 -0.1943898331460783 -0.4473597119794826 0 -0.17967053697433849 -0.46928570206264231 0 -0.1943898331460783 -0.4473597119794826 0 -0.17967053697433849 -0.46928570206264231 0 -0.1657538353786501 -0.45488695337555668 0 -0.1943898331460783 -0.4473597119794826 0 -0.1657538353786501 -0.45488695337555668 0 -0.1755027511393909 -0.43471579892562301 0 -0.1657538353786501 -0.45488695337555668 0 -0.15761868306950341 -0.43586407366366631 0 -0.1755027511393909 -0.43471579892562301 0 -0.16530166315622061 -0.47155300009798301 0 -0.1657538353786501 -0.45488695337555668 0 -0.15083103946930049 -0.47082765280793248 0 -0.16530166315622061 -0.47155300009798301 0 -0.17967053697433849 -0.46928570206264231 0 -0.1657538353786501 -0.45488695337555668 0 -0.13671083813600751 -0.45044361347006462 0 -0.15083103946930049 -0.47082765280793248 0 -0.13671083813600751 -0.45044361347006462 0 -0.13441782301728619 -0.47175980973682791 0 -0.15083103946930049 -0.47082765280793248 0 -0.1657538353786501 -0.45488695337555668 0 -0.13671083813600751 -0.45044361347006462 0 -0.15083103946930049 -0.47082765280793248 0 -0.13671083813600751 -0.45044361347006462 0 -0.13816776916695811 -0.432543871779144 0 -0.15761868306950341 -0.43586407366366631 0 -0.1657538353786501 -0.45488695337555668 0 -0.13671083813600751 -0.45044361347006462 0 -0.15761868306950341 -0.43586407366366631 0 -0.13671083813600751 -0.45044361347006462 0 -0.13816776916695811 -0.432543871779144 0 -0.1225906368027144 -0.43005957413219659 0 -0.13671083813600751 -0.45044361347006462 0 -0.1225906368027144 -0.43005957413219659 0 -0.13671083813600751 -0.45044361347006462 0 -0.13441782301728619 -0.47175980973682791 0 -0.1201929706126502 -0.46127799294672761 0 -0.13441782301728619 -0.47175980973682791 0 -0.12605423818426559 -0.48707922202292669 0 -0.14429533434837091 -0.48908967660720287 0 -0.13441782301728619 -0.47175980973682791 0 -0.12605423818426559 -0.48707922202292669 0 -0.1201929706126502 -0.46127799294672761 0 -0.1295391708778694 -0.5 0 -0.12605423818426559 -0.48707922202292669 0 -0.14429533434837091 -0.48908967660720287 0 -0.15905149781887321 -0.49999999999999961 0 -0.1295391708778694 -0.5 0 -0.14429533434837091 -0.48908967660720287 0 -0.15905149781887321 -0.49999999999999961 0 -0.14429533434837091 -0.48908967660720287 0 -0.1545750311736096 -0.49062041690426861 0 -0.14429533434837091 -0.48908967660720287 0 -0.1545750311736096 -0.49062041690426861 0 -0.15083103946930049 -0.47082765280793248 0 -0.13441782301728619 -0.47175980973682791 0 -0.14429533434837091 -0.48908967660720287 0 -0.15083103946930049 -0.47082765280793248 0 -0.15345949684661231 -0.4053237642064671 0 -0.15136585988972451 -0.39002590355483568 0 -0.13982663417143551 -0.39933000433158738 0 -0.15136585988972451 -0.39002590355483568 0 -0.1368738238800834 -0.3880397179408614 0 -0.13982663417143551 -0.39933000433158738 0 -0.15345949684661231 -0.4053237642064671 0 -0.13982663417143551 -0.39933000433158738 0 -0.1398029654186671 -0.41064466143528439 0 -0.15136585988972451 -0.39002590355483568 0 -0.1368738238800834 -0.3880397179408614 0 -0.13959568407155781 -0.37291875636350952 0 -0.15136585988972451 -0.39002590355483568 0 -0.15951650330528561 -0.37856285477961621 0 -0.13959568407155781 -0.37291875636350952 0 -0.1368738238800834 -0.3880397179408614 0 -0.12625141541498519 -0.38197991289387551 0 -0.13959568407155781 -0.37291875636350952 0 -0.1368738238800834 -0.3880397179408614 0 -0.12625141541498519 -0.38197991289387551 0 -0.1273295258527142 -0.39594401256049883 0 -0.1368738238800834 -0.3880397179408614 0 -0.1273295258527142 -0.39594401256049883 0 -0.13982663417143551 -0.39933000433158738 0 -0.13982663417143551 -0.39933000433158738 0 -0.1295768038857959 -0.40463739140698729 0 -0.1398029654186671 -0.41064466143528439 0 -0.1273295258527142 -0.39594401256049883 0 -0.13982663417143551 -0.39933000433158738 0 -0.1295768038857959 -0.40463739140698729 0 -0.1273295258527142 -0.39594401256049883 0 -0.1295768038857959 -0.40463739140698729 0 -0.1219584454402414 -0.40406961642135292 0 -0.1295768038857959 -0.40463739140698729 0 -0.1296119374269841 -0.41417592727859581 0 -0.1225700411049412 -0.40994677461386392 0 -0.1296119374269841 -0.41417592727859581 0 -0.12315425937001 -0.41747458531602638 0 -0.1225700411049412 -0.40994677461386392 0 -0.1296119374269841 -0.41417592727859581 0 -0.13713184062407599 -0.42036644340313623 0 -0.12908399078123631 -0.42243277819987513 0 -0.1296119374269841 -0.41417592727859581 0 -0.12908399078123631 -0.42243277819987513 0 -0.12315425937001 -0.41747458531602638 0 -0.1296119374269841 -0.41417592727859581 0 -0.13713184062407599 -0.42036644340313623 0 -0.1398029654186671 -0.41064466143528439 0 -0.1295768038857959 -0.40463739140698729 0 -0.1296119374269841 -0.41417592727859581 0 -0.1398029654186671 -0.41064466143528439 0 -0.12908399078123631 -0.42243277819987513 0 -0.13816776916695811 -0.432543871779144 0 -0.1225906368027144 -0.43005957413219659 0 -0.13713184062407599 -0.42036644340313623 0 -0.12908399078123631 -0.42243277819987513 0 -0.13816776916695811 -0.432543871779144 0 -0.13816776916695811 -0.432543871779144 0 -0.14921107955709881 -0.42003443798493328 0 -0.15761868306950341 -0.43586407366366631 0 -0.13713184062407599 -0.42036644340313623 0 -0.13816776916695811 -0.432543871779144 0 -0.14921107955709881 -0.42003443798493328 0 -0.15345949684661231 -0.4053237642064671 0 -0.1398029654186671 -0.41064466143528439 0 -0.14921107955709881 -0.42003443798493328 0 -0.13713184062407599 -0.42036644340313623 0 -0.1398029654186671 -0.41064466143528439 0 -0.14921107955709881 -0.42003443798493328 0 -0.15345949684661231 -0.4053237642064671 0 -0.14921107955709881 -0.42003443798493328 0 -0.17009787391258249 -0.41611158199907422 0 -0.14921107955709881 -0.42003443798493328 0 -0.17009787391258249 -0.41611158199907422 0 -0.15761868306950341 -0.43586407366366631 0 -0.17009787391258249 -0.41611158199907422 0 -0.15761868306950341 -0.43586407366366631 0 -0.1755027511393909 -0.43471579892562301 0 -0.1943898331460783 -0.4473597119794826 0 -0.1755027511393909 -0.43471579892562301 0 -0.18951413900105801 -0.42212105940109063 0 -0.17009787391258249 -0.41611158199907422 0 -0.1755027511393909 -0.43471579892562301 0 -0.18951413900105801 -0.42212105940109063 0 -0.17009787391258249 -0.41611158199907422 0 -0.18562609472684241 -0.40161550393767448 0 -0.18951413900105801 -0.42212105940109063 0 -0.18562609472684241 -0.40161550393767448 0 -0.16863204450281991 -0.39380366607865908 0 -0.18254917963999329 -0.38971973427100182 0 -0.17009787391258249 -0.41611158199907422 0 -0.18562609472684241 -0.40161550393767448 0 -0.16863204450281991 -0.39380366607865908 0 -0.18562609472684241 -0.40161550393767448 0 -0.18254917963999329 -0.38971973427100182 0 -0.19364364155811911 -0.391297223908462 0 -0.15345949684661231 -0.4053237642064671 0 -0.17009787391258249 -0.41611158199907422 0 -0.16863204450281991 -0.39380366607865908 0 -0.15345949684661231 -0.4053237642064671 0 -0.15136585988972451 -0.39002590355483568 0 -0.16863204450281991 -0.39380366607865908 0 -0.15951650330528561 -0.37856285477961621 0 -0.17625218554490921 -0.38180729220612769 0 -0.1663610822414904 -0.3702523776444529 0 -0.16863204450281991 -0.39380366607865908 0 -0.15951650330528561 -0.37856285477961621 0 -0.17625218554490921 -0.38180729220612769 0 -0.15136585988972451 -0.39002590355483568 0 -0.16863204450281991 -0.39380366607865908 0 -0.15951650330528561 -0.37856285477961621 0 -0.17625218554490921 -0.38180729220612769 0 -0.1663610822414904 -0.3702523776444529 0 -0.18579747934449059 -0.37379744869579251 0 -0.16863204450281991 -0.39380366607865908 0 -0.17625218554490921 -0.38180729220612769 0 -0.18254917963999329 -0.38971973427100182 0 -0.17625218554490921 -0.38180729220612769 0 -0.18254917963999329 -0.38971973427100182 0 -0.18859193186727599 -0.38007498522408562 0 -0.17625218554490921 -0.38180729220612769 0 -0.18859193186727599 -0.38007498522408562 0 -0.18579747934449059 -0.37379744869579251 0 -0.18859193186727599 -0.38007498522408562 0 -0.2014200033848125 -0.37119512976538899 0 -0.18859193186727599 -0.38007498522408562 0 -0.2014200033848125 -0.37119512976538899 0 -0.18579747934449059 -0.37379744869579251 0 -0.18859193186727599 -0.38007498522408562 0 -0.1989719328316337 -0.38216032023399737 0 -0.2014200033848125 -0.37119512976538899 0 -0.1989719328316337 -0.38216032023399737 0 -0.20694960464083431 -0.38128159833907621 0 -0.2014200033848125 -0.37119512976538899 0 -0.1989719328316337 -0.38216032023399737 0 -0.19364364155811911 -0.391297223908462 0 -0.20620014074293039 -0.39180645285032889 0 -0.18859193186727599 -0.38007498522408562 0 -0.1989719328316337 -0.38216032023399737 0 -0.19364364155811911 -0.391297223908462 0 -0.18254917963999329 -0.38971973427100182 0 -0.18859193186727599 -0.38007498522408562 0 -0.19364364155811911 -0.391297223908462 0 -0.18562609472684241 -0.40161550393767448 0 -0.19364364155811911 -0.391297223908462 0 -0.20208872018367391 -0.4070926974887904 0 -0.19364364155811911 -0.391297223908462 0 -0.20620014074293039 -0.39180645285032889 0 -0.20208872018367391 -0.4070926974887904 0 -0.20620014074293039 -0.39180645285032889 0 -0.21479853281951461 -0.38638530273916921 0 -0.22382842548955789 -0.4035077318131633 0 -0.20620014074293039 -0.39180645285032889 0 -0.20208872018367391 -0.4070926974887904 0 -0.22382842548955789 -0.4035077318131633 0 -0.21479853281951461 -0.38638530273916921 0 -0.20694960464083431 -0.38128159833907621 0 -0.21335741342528061 -0.3748607861064962 0 -0.21479853281951461 -0.38638530273916921 0 -0.22412886374227589 -0.38235217247817599 0 -0.21335741342528061 -0.3748607861064962 0 -0.20694960464083431 -0.38128159833907621 0 -0.2014200033848125 -0.37119512976538899 0 -0.21335741342528061 -0.3748607861064962 0 -0.20620014074293039 -0.39180645285032889 0 -0.21479853281951461 -0.38638530273916921 0 -0.20694960464083431 -0.38128159833907621 0 -0.1989719328316337 -0.38216032023399737 0 -0.20620014074293039 -0.39180645285032889 0 -0.20694960464083431 -0.38128159833907621 0 -0.1943898331460783 -0.4473597119794826 0 -0.20910912931781811 -0.42543372189632289 0 -0.1943898331460783 -0.4473597119794826 0 -0.18951413900105801 -0.42212105940109063 0 -0.20910912931781811 -0.42543372189632289 0 -0.18951413900105801 -0.42212105940109063 0 -0.20208872018367391 -0.4070926974887904 0 -0.20910912931781811 -0.42543372189632289 0 -0.18562609472684241 -0.40161550393767448 0 -0.18951413900105801 -0.42212105940109063 0 -0.20208872018367391 -0.4070926974887904 0 -0.20208872018367391 -0.4070926974887904 0 -0.20910912931781811 -0.42543372189632289 0 -0.22382842548955789 -0.4035077318131633 0 -0.20910912931781811 -0.42543372189632289 0 -0.22382842548955789 -0.4035077318131633 0 -0.21590660946663959 -0.44883644739355771 0 -0.20910912931781811 -0.42543372189632289 0 -0.23180750449586429 -0.4343742486430574 0 -0.20910912931781811 -0.42543372189632289 0 -0.23180750449586429 -0.4343742486430574 0 -0.22382842548955789 -0.4035077318131633 0 -0.23180750449586429 -0.4343742486430574 0 -0.24697084661892749 -0.41526345823838401 0 -0.22382842548955789 -0.4035077318131633 0 -0.25687425522332558 -0.44642006451091643 0 -0.23180750449586429 -0.4343742486430574 0 -0.24697084661892749 -0.41526345823838401 0 -0.22412886374227589 -0.38235217247817599 0 -0.2351820232309369 -0.38700758852266848 0 -0.22952037500089251 -0.37311519752493849 0 -0.22412886374227589 -0.38235217247817599 0 -0.22186900287429051 -0.37074082218821958 0 -0.21335741342528061 -0.3748607861064962 0 -0.22412886374227589 -0.38235217247817599 0 -0.22952037500089251 -0.37311519752493849 0 -0.22186900287429051 -0.37074082218821958 0 -0.22382842548955789 -0.4035077318131633 0 -0.24394706363899241 -0.39877073912243299 0 -0.2351820232309369 -0.38700758852266848 0 -0.21479853281951461 -0.38638530273916921 0 -0.22412886374227589 -0.38235217247817599 0 -0.22382842548955789 -0.4035077318131633 0 -0.22412886374227589 -0.38235217247817599 0 -0.22382842548955789 -0.4035077318131633 0 -0.2351820232309369 -0.38700758852266848 0 -0.24697084661892749 -0.41526345823838401 0 -0.22382842548955789 -0.4035077318131633 0 -0.24394706363899241 -0.39877073912243299 0 -0.2504897110532438 -0.38524934403489181 0 -0.24394706363899241 -0.39877073912243299 0 -0.2351820232309369 -0.38700758852266848 0 -0.2504897110532438 -0.38524934403489181 0 -0.2351820232309369 -0.38700758852266848 0 -0.24036284435674521 -0.37772398595485779 0 -0.2351820232309369 -0.38700758852266848 0 -0.24036284435674521 -0.37772398595485779 0 -0.22952037500089251 -0.37311519752493849 0 -0.2504897110532438 -0.38524934403489181 0 -0.24036284435674521 -0.37772398595485779 0 -0.24839247009954951 -0.37292447016044328 0 -0.24839247009954951 -0.37292447016044328 0 -0.24532753696728959 -0.36501789644951049 0 -0.23861636880082099 -0.36955921174380651 0 -0.24036284435674521 -0.37772398595485779 0 -0.24839247009954951 -0.37292447016044328 0 -0.23861636880082099 -0.36955921174380651 0 -0.25757508569408222 -0.36424633604315798 0 -0.24532753696728959 -0.36501789644951049 0 -0.24650166737573331 -0.3569693529562265 0 -0.24532753696728959 -0.36501789644951049 0 -0.24234943749700691 -0.36154613291017651 0 -0.24650166737573331 -0.3569693529562265 0 -0.24532753696728959 -0.36501789644951049 0 -0.24234943749700691 -0.36154613291017651 0 -0.23928568589256061 -0.36455139619594779 0 -0.24234943749700691 -0.36154613291017651 0 -0.23928568589256061 -0.36455139619594779 0 -0.23696933381926599 -0.3585493042599866 0 -0.24532753696728959 -0.36501789644951049 0 -0.23928568589256061 -0.36455139619594779 0 -0.23861636880082099 -0.36955921174380651 0 -0.23928568589256061 -0.36455139619594779 0 -0.23861636880082099 -0.36955921174380651 0 -0.23345080570298909 -0.36409891217005902 0 -0.23928568589256061 -0.36455139619594779 0 -0.23345080570298909 -0.36409891217005902 0 -0.23696933381926599 -0.3585493042599866 0 -0.24036284435674521 -0.37772398595485779 0 -0.23861636880082099 -0.36955921174380651 0 -0.22952037500089251 -0.37311519752493849 0 -0.23345080570298909 -0.36409891217005902 0 -0.22186900287429051 -0.37074082218821958 0 -0.21424807490234879 -0.36231527430669241 0 -0.22952037500089251 -0.37311519752493849 0 -0.23345080570298909 -0.36409891217005902 0 -0.22186900287429051 -0.37074082218821958 0 -0.23696933381926599 -0.3585493042599866 0 -0.21424807490234879 -0.36231527430669241 0 -0.23861636880082099 -0.36955921174380651 0 -0.22952037500089251 -0.37311519752493849 0 -0.23345080570298909 -0.36409891217005902 0 -0.23345080570298909 -0.36409891217005902 0 -0.23696933381926599 -0.3585493042599866 0 -0.21424807490234879 -0.36231527430669241 0 -0.22913587473404851 -0.35200963246311751 0 -0.2097464541822805 -0.33582260124732738 0 -0.22913587473404851 -0.35200963246311751 0 -0.23696933381926599 -0.3585493042599866 0 -0.21424807490234879 -0.36231527430669241 0 -0.22913587473404851 -0.35200963246311751 0 -0.21998707993494029 -0.33959044394559312 0 -0.22913587473404851 -0.35200963246311751 0 -0.21424807490234879 -0.36231527430669241 0 -0.22913587473404851 -0.35200963246311751 0 -0.23696933381926599 -0.3585493042599866 0 -0.22913587473404851 -0.35200963246311751 0 -0.24881121389389799 -0.33838995723746451 0 -0.22913587473404851 -0.35200963246311751 0 -0.23696933381926599 -0.3585493042599866 0 -0.24650166737573331 -0.3569693529562265 0 -0.22913587473404851 -0.35200963246311751 0 -0.24650166737573331 -0.3569693529562265 0 -0.24881121389389799 -0.33838995723746451 0 -0.23696933381926599 -0.3585493042599866 0 -0.24650166737573331 -0.3569693529562265 0 -0.24234943749700691 -0.36154613291017651 0 -0.23696933381926599 -0.3585493042599866 0 -0.24650166737573331 -0.3569693529562265 0 -0.22913587473404851 -0.35200963246311751 0 -0.24881121389389799 -0.33838995723746451 0 -0.2325545649384867 -0.33453283978227571 0 -0.24881121389389799 -0.33838995723746451 0 -0.2441082332202735 -0.32380704628422963 0 -0.2325545649384867 -0.33453283978227571 0 -0.23613058105125781 -0.31890710479075163 0 -0.2279063026952847 -0.3135077128279592 0 -0.2444966906846206 -0.31181945912301329 0 -0.2441082332202735 -0.32380704628422963 0 -0.23498207165859719 -0.32537142019391418 0 -0.23613058105125781 -0.31890710479075163 0 -0.2441082332202735 -0.32380704628422963 0 -0.23498207165859719 -0.32537142019391418 0 -0.2325545649384867 -0.33453283978227571 0 -0.2441082332202735 -0.32380704628422963 0 -0.23613058105125781 -0.31890710479075163 0 -0.2444966906846206 -0.31181945912301329 0 -0.2279063026952847 -0.3135077128279592 0 -0.2193464910840433 -0.31976030368968739 0 -0.21134622408423179 -0.310554889255794 0 -0.23613058105125781 -0.31890710479075163 0 -0.2279063026952847 -0.3135077128279592 0 -0.22829430606921119 -0.32293804105388452 0 -0.23498207165859719 -0.32537142019391418 0 -0.22829430606921119 -0.32293804105388452 0 -0.2325545649384867 -0.33453283978227571 0 -0.23498207165859719 -0.32537142019391418 0 -0.23613058105125781 -0.31890710479075163 0 -0.22829430606921119 -0.32293804105388452 0 -0.22829430606921119 -0.32293804105388452 0 -0.2193464910840433 -0.31976030368968739 0 -0.22209033975117781 -0.32887735541776358 0 -0.2279063026952847 -0.3135077128279592 0 -0.22829430606921119 -0.32293804105388452 0 -0.2193464910840433 -0.31976030368968739 0 -0.22913587473404851 -0.35200963246311751 0 -0.2325545649384867 -0.33453283978227571 0 -0.21998707993494029 -0.33959044394559312 0 -0.22913587473404851 -0.35200963246311751 0 -0.21998707993494029 -0.33959044394559312 0 -0.2097464541822805 -0.33582260124732738 0 -0.22829430606921119 -0.32293804105388452 0 -0.2325545649384867 -0.33453283978227571 0 -0.22209033975117781 -0.32887735541776358 0 -0.2325545649384867 -0.33453283978227571 0 -0.22209033975117781 -0.32887735541776358 0 -0.21998707993494029 -0.33959044394559312 0 -0.21998707993494029 -0.33959044394559312 0 -0.21026925672920721 -0.32756514861737779 0 -0.22209033975117781 -0.32887735541776358 0 -0.21998707993494029 -0.33959044394559312 0 -0.21026925672920721 -0.32756514861737779 0 -0.21998707993494029 -0.33959044394559312 0 -0.2097464541822805 -0.33582260124732738 0 -0.21026925672920721 -0.32756514861737779 0 -0.2097464541822805 -0.33582260124732738 0 -0.21026925672920721 -0.32756514861737779 0 -0.21026925672920721 -0.32756514861737779 0 -0.21134622408423179 -0.310554889255794 0 -0.19267178705524021 -0.30578920503631912 0 -0.21026925672920721 -0.32756514861737779 0 -0.21134622408423179 -0.310554889255794 0 -0.2097464541822805 -0.33582260124732738 0 -0.21026925672920721 -0.32756514861737779 0 -0.19254159852174429 -0.31996122112867409 0 -0.2193464910840433 -0.31976030368968739 0 -0.21026925672920721 -0.32756514861737779 0 -0.21134622408423179 -0.310554889255794 0 -0.2193464910840433 -0.31976030368968739 0 -0.22209033975117781 -0.32887735541776358 0 -0.21026925672920721 -0.32756514861737779 0 -0.2097464541822805 -0.33582260124732738 0 -0.1943588054861482 -0.32297640251143073 0 -0.19254159852174429 -0.31996122112867409 0 -0.21026925672920721 -0.32756514861737779 0 -0.19267178705524021 -0.30578920503631912 0 -0.21026925672920721 -0.32756514861737779 0 -0.19254159852174429 -0.31996122112867409 0 -0.19267178705524021 -0.30578920503631912 0 -0.2097464541822805 -0.33582260124732738 0 -0.19254159852174429 -0.31996122112867409 0 -0.1943588054861482 -0.32297640251143073 0 -0.18737083868624629 -0.33075534874643497 0 -0.18479650728396149 -0.32227615663527998 0 -0.1943588054861482 -0.32297640251143073 0 -0.19254159852174429 -0.31996122112867409 0 -0.1789711567900161 -0.3101302037755338 0 -0.2097464541822805 -0.33582260124732738 0 -0.19466829689393059 -0.33824472710720138 0 -0.19565175395430129 -0.3512554891803924 0 -0.2097464541822805 -0.33582260124732738 0 -0.1943588054861482 -0.32297640251143073 0 -0.19466829689393059 -0.33824472710720138 0 -0.2097464541822805 -0.33582260124732738 0 -0.1943588054861482 -0.32297640251143073 0 -0.1943588054861482 -0.32297640251143073 0 -0.19466829689393059 -0.33824472710720138 0 -0.18737083868624629 -0.33075534874643497 0 -0.19466829689393059 -0.33824472710720138 0 -0.18164424501215659 -0.34621916084723381 0 -0.18737083868624629 -0.33075534874643497 0 -0.19466829689393059 -0.33824472710720138 0 -0.19565175395430129 -0.3512554891803924 0 -0.18164424501215659 -0.34621916084723381 0 -0.20800359978069241 -0.36335027445133922 0 -0.18480326185087809 -0.36719565018674682 0 -0.19565175395430129 -0.3512554891803924 0 -0.20800359978069241 -0.36335027445133922 0 -0.18480326185087809 -0.36719565018674682 0 -0.2014200033848125 -0.37119512976538899 0 -0.18480326185087809 -0.36719565018674682 0 -0.18579747934449059 -0.37379744869579251 0 -0.2014200033848125 -0.37119512976538899 0 -0.20800359978069241 -0.36335027445133922 0 -0.18480326185087809 -0.36719565018674682 0 -0.2014200033848125 -0.37119512976538899 0 -0.20800359978069241 -0.36335027445133922 0 -0.20803809997708481 -0.36661394692190907 0 -0.20800359978069241 -0.36335027445133922 0 -0.20803809997708481 -0.36661394692190907 0 -0.21424807490234879 -0.36231527430669241 0 -0.20800359978069241 -0.36335027445133922 0 -0.20803809997708481 -0.36661394692190907 0 -0.2014200033848125 -0.37119512976538899 0 -0.20803809997708481 -0.36661394692190907 0 -0.21335741342528061 -0.3748607861064962 0 -0.2014200033848125 -0.37119512976538899 0 -0.20803809997708481 -0.36661394692190907 0 -0.20803809997708481 -0.36661394692190907 0 -0.21335741342528061 -0.3748607861064962 0 -0.21424807490234879 -0.36231527430669241 0 -0.22186900287429051 -0.37074082218821958 0 -0.21335741342528061 -0.3748607861064962 0 -0.21424807490234879 -0.36231527430669241 0 -0.20800359978069241 -0.36335027445133922 0 -0.21424807490234879 -0.36231527430669241 0 -0.20803809997708481 -0.36661394692190907 0 -0.21424807490234879 -0.36231527430669241 0 -0.2097464541822805 -0.33582260124732738 0 -0.19565175395430129 -0.3512554891803924 0 -0.20800359978069241 -0.36335027445133922 0 -0.2097464541822805 -0.33582260124732738 0 -0.20800359978069241 -0.36335027445133922 0 -0.2097464541822805 -0.33582260124732738 0 -0.20800359978069241 -0.36335027445133922 0 -0.21424807490234879 -0.36231527430669241 0 -0.22913587473404851 -0.35200963246311751 0 -0.2097464541822805 -0.33582260124732738 0 -0.21424807490234879 -0.36231527430669241 0 -0.2335542019388327 -0.26090262277066528 0 -0.21472073189145299 -0.25725591714607071 0 -0.22837296648480071 -0.23789375384220129 0 -0.2335542019388327 -0.26090262277066528 0 -0.21357196166535461 -0.27540027352014051 0 -0.21472073189145299 -0.25725591714607071 0 -0.25298377122075039 -0.27518622721876451 0 -0.2335542019388327 -0.26090262277066528 0 -0.25431856302814809 -0.24833495949118861 0 -0.25298377122075039 -0.27518622721876451 0 -0.2335542019388327 -0.26090262277066528 0 -0.23093648268818689 -0.28342115129973 0 -0.2335542019388327 -0.26090262277066528 0 -0.23093648268818689 -0.28342115129973 0 -0.21357196166535461 -0.27540027352014051 0 -0.23093648268818689 -0.28342115129973 0 -0.21242319143925911 -0.29354462989421048 0 -0.21357196166535461 -0.27540027352014051 0 -0.23093648268818689 -0.28342115129973 0 -0.2435111179254994 -0.29490773243705071 0 -0.2284599410619414 -0.30268204450860919 0 -0.23093648268818689 -0.28342115129973 0 -0.2284599410619414 -0.30268204450860919 0 -0.21242319143925911 -0.29354462989421048 0 -0.25298377122075039 -0.27518622721876451 0 -0.23093648268818689 -0.28342115129973 0 -0.2435111179254994 -0.29490773243705071 0 -0.2444966906846206 -0.31181945912301329 0 -0.2284599410619414 -0.30268204450860919 0 -0.2435111179254994 -0.29490773243705071 0 -0.2444966906846206 -0.31181945912301329 0 -0.2284599410619414 -0.30268204450860919 0 -0.26057201890547982 -0.29344093798311832 0 -0.2435111179254994 -0.29490773243705071 0 -0.2444966906846206 -0.31181945912301329 0 -0.2279063026952847 -0.3135077128279592 0 -0.2444966906846206 -0.31181945912301329 0 -0.2284599410619414 -0.30268204450860919 0 -0.2284599410619414 -0.30268204450860919 0 -0.21242319143925911 -0.29354462989421048 0 -0.2279063026952847 -0.3135077128279592 0 -0.2284599410619414 -0.30268204450860919 0 -0.21134622408423179 -0.310554889255794 0 -0.2284599410619414 -0.30268204450860919 0 -0.21134622408423179 -0.310554889255794 0 -0.21242319143925911 -0.29354462989421048 0 -0.21134622408423179 -0.310554889255794 0 -0.19267178705524021 -0.30578920503631912 0 -0.21242319143925911 -0.29354462989421048 0 -0.21134622408423179 -0.310554889255794 0 -0.21242319143925911 -0.29354462989421048 0 -0.19267178705524021 -0.30578920503631912 0 -0.19410774352861071 -0.2831088592208712 0 -0.21242319143925911 -0.29354462989421048 0 -0.19410774352861071 -0.2831088592208712 0 -0.21242319143925911 -0.29354462989421048 0 -0.21357196166535461 -0.27540027352014051 0 -0.19410774352861071 -0.2831088592208712 0 -0.21242319143925911 -0.29354462989421048 0 -0.21242319143925911 -0.29354462989421048 0 -0.21357196166535461 -0.27540027352014051 0 -0.21357196166535461 -0.27540027352014051 0 -0.21472073189145299 -0.25725591714607071 0 -0.19410774352861071 -0.2831088592208712 0 -0.21357196166535461 -0.27540027352014051 0 -0.1965391795889786 -0.26204425282134669 0 -0.19410774352861071 -0.2831088592208712 0 -0.1965391795889786 -0.26204425282134669 0 -0.17579229561796161 -0.27267308854753308 0 -0.1965391795889786 -0.26204425282134669 0 -0.20565562739327201 -0.24334207984173631 0 -0.18863044441395099 -0.24733650333174401 0 -0.1965391795889786 -0.26204425282134669 0 -0.18340152769721799 -0.25642831405215172 0 -0.18863044441395099 -0.24733650333174401 0 -0.1965391795889786 -0.26204425282134669 0 -0.21472073189145299 -0.25725591714607071 0 -0.20565562739327201 -0.24334207984173631 0 -0.21357196166535461 -0.27540027352014051 0 -0.1965391795889786 -0.26204425282134669 0 -0.21472073189145299 -0.25725591714607071 0 -0.15747684770731041 -0.26223731787419863 0 -0.16344648285301799 -0.25937253054906129 0 -0.17579229561796161 -0.27267308854753308 0 -0.1593809120407062 -0.25278805690175971 0 -0.16344648285301799 -0.25937253054906129 0 -0.1534429259631987 -0.25724555178864622 0 -0.1593809120407062 -0.25278805690175971 0 -0.16344648285301799 -0.25937253054906129 0 -0.16709258238786229 -0.25188408856254202 0 -0.1593809120407062 -0.25278805690175971 0 -0.16709258238786229 -0.25188408856254202 0 -0.1601832428566283 -0.24550858739866141 0 -0.15747684770731041 -0.26223731787419863 0 -0.16344648285301799 -0.25937253054906129 0 -0.1534429259631987 -0.25724555178864622 0 -0.16344648285301799 -0.25937253054906129 0 -0.1534429259631987 -0.25724555178864622 0 -0.16344648285301799 -0.25937253054906129 0 -0.17379217291466831 -0.25992581321180469 0 -0.17579229561796161 -0.27267308854753308 0 -0.16344648285301799 -0.25937253054906129 0 -0.16709258238786229 -0.25188408856254202 0 -0.17379217291466831 -0.25992581321180469 0 -0.16709258238786229 -0.25188408856254202 0 -0.17679077873490559 -0.25046109420941731 0 -0.17379217291466831 -0.25992581321180469 0 -0.1965391795889786 -0.26204425282134669 0 -0.18340152769721799 -0.25642831405215172 0 -0.17579229561796161 -0.27267308854753308 0 -0.17679077873490559 -0.25046109420941731 0 -0.18340152769721799 -0.25642831405215172 0 -0.17379217291466831 -0.25992581321180469 0 -0.18340152769721799 -0.25642831405215172 0 -0.17379217291466831 -0.25992581321180469 0 -0.17579229561796161 -0.27267308854753308 0 -0.17679077873490559 -0.25046109420941731 0 -0.18340152769721799 -0.25642831405215172 0 -0.18863044441395099 -0.24733650333174401 0 -0.19410774352861071 -0.2831088592208712 0 -0.17579229561796161 -0.27267308854753308 0 -0.17507431738127369 -0.28401326145526029 0 -0.19410774352861071 -0.2831088592208712 0 -0.17579229561796161 -0.27267308854753308 0 -0.15747684770731041 -0.26223731787419863 0 -0.17507431738127369 -0.28401326145526029 0 -0.15747684770731041 -0.26223731787419863 0 -0.17579229561796161 -0.27267308854753308 0 -0.15747684770731041 -0.26223731787419863 0 -0.17579229561796161 -0.27267308854753308 0 -0.17507431738127369 -0.28401326145526029 0 -0.15747684770731041 -0.26223731787419863 0 -0.1596399504195592 -0.27820623095404468 0 -0.17507431738127369 -0.28401326145526029 0 -0.1596399504195592 -0.27820623095404468 0 -0.1624028041075358 -0.29248408411088062 0 -0.1494793968803598 -0.28070198605355251 0 -0.1624028041075358 -0.29248408411088062 0 -0.15973767967650701 -0.30493196891575292 0 -0.15108397830665751 -0.29236825921418419 0 -0.1624028041075358 -0.29248408411088062 0 -0.17507431738127369 -0.28401326145526029 0 -0.17391538329452061 -0.29489800819007239 0 -0.1596399504195592 -0.27820623095404468 0 -0.1624028041075358 -0.29248408411088062 0 -0.17507431738127369 -0.28401326145526029 0 -0.19267178705524021 -0.30578920503631912 0 -0.19410774352861071 -0.2831088592208712 0 -0.17507431738127369 -0.28401326145526029 0 -0.19267178705524021 -0.30578920503631912 0 -0.17507431738127369 -0.28401326145526029 0 -0.17391538329452061 -0.29489800819007239 0 -0.19267178705524021 -0.30578920503631912 0 -0.17507431738127369 -0.28401326145526029 0 -0.17391538329452061 -0.29489800819007239 0 -0.17532621133471249 -0.30426618216820789 0 -0.19254159852174429 -0.31996122112867409 0 -0.19267178705524021 -0.30578920503631912 0 -0.17532621133471249 -0.30426618216820789 0 -0.19267178705524021 -0.30578920503631912 0 -0.17391538329452061 -0.29489800819007239 0 -0.17532621133471249 -0.30426618216820789 0 -0.19254159852174429 -0.31996122112867409 0 -0.17532621133471249 -0.30426618216820789 0 -0.1789711567900161 -0.3101302037755338 0 -0.19254159852174429 -0.31996122112867409 0 -0.17532621133471249 -0.30426618216820789 0 -0.17532621133471249 -0.30426618216820789 0 -0.15973767967650701 -0.30493196891575292 0 -0.16582550601247259 -0.31644195918285489 0 -0.1624028041075358 -0.29248408411088062 0 -0.17532621133471249 -0.30426618216820789 0 -0.15973767967650701 -0.30493196891575292 0 -0.1624028041075358 -0.29248408411088062 0 -0.17532621133471249 -0.30426618216820789 0 -0.1624028041075358 -0.29248408411088062 0 -0.17391538329452061 -0.29489800819007239 0 -0.17532621133471249 -0.30426618216820789 0 -0.144593184228827 -0.30237793828586917 0 -0.15261731536399281 -0.31699983390472031 0 -0.1327552185807534 -0.31482398186879779 0 -0.15973767967650701 -0.30493196891575292 0 -0.144593184228827 -0.30237793828586917 0 -0.15261731536399281 -0.31699983390472031 0 -0.15973767967650701 -0.30493196891575292 0 -0.144593184228827 -0.30237793828586917 0 -0.15108397830665751 -0.29236825921418419 0 -0.144593184228827 -0.30237793828586917 0 -0.1304175251842298 -0.30012492429455973 0 -0.1327552185807534 -0.31482398186879779 0 -0.1304175251842298 -0.30012492429455973 0 -0.1327552185807534 -0.31482398186879779 0 -0.11567190875339491 -0.3081878681979589 0 -0.1304175251842298 -0.30012492429455973 0 -0.13697378053928061 -0.28594316463020741 0 -0.11725087491461519 -0.29108504565108578 0 -0.144593184228827 -0.30237793828586917 0 -0.1304175251842298 -0.30012492429455973 0 -0.13697378053928061 -0.28594316463020741 0 -0.13697378053928061 -0.28594316463020741 0 -0.15108397830665751 -0.29236825921418419 0 -0.1494793968803598 -0.28070198605355251 0 -0.144593184228827 -0.30237793828586917 0 -0.13697378053928061 -0.28594316463020741 0 -0.15108397830665751 -0.29236825921418419 0 -0.1624028041075358 -0.29248408411088062 0 -0.15108397830665751 -0.29236825921418419 0 -0.1494793968803598 -0.28070198605355251 0 -0.1624028041075358 -0.29248408411088062 0 -0.1494793968803598 -0.28070198605355251 0 -0.15747684770731041 -0.26223731787419863 0 -0.1596399504195592 -0.27820623095404468 0 -0.1503927610565664 -0.27179087804580171 0 -0.1596399504195592 -0.27820623095404468 0 -0.1494793968803598 -0.28070198605355251 0 -0.1503927610565664 -0.27179087804580171 0 -0.15747684770731041 -0.26223731787419863 0 -0.1503927610565664 -0.27179087804580171 0 -0.1469785187108 -0.2635474229235048 0 -0.1503927610565664 -0.27179087804580171 0 -0.13966748117377659 -0.26847157538705668 0 -0.1469785187108 -0.2635474229235048 0 -0.1503927610565664 -0.27179087804580171 0 -0.14153524490660671 -0.2763029116229278 0 -0.13966748117377659 -0.26847157538705668 0 -0.1494793968803598 -0.28070198605355251 0 -0.1503927610565664 -0.27179087804580171 0 -0.14153524490660671 -0.2763029116229278 0 -0.13697378053928061 -0.28594316463020741 0 -0.1494793968803598 -0.28070198605355251 0 -0.14153524490660671 -0.2763029116229278 0 -0.13697378053928061 -0.28594316463020741 0 -0.14153524490660671 -0.2763029116229278 0 -0.13219795163187159 -0.27110871778552531 0 -0.13697378053928061 -0.28594316463020741 0 -0.1173011125765811 -0.2721428964285707 0 -0.13697378053928061 -0.28594316463020741 0 -0.13219795163187159 -0.27110871778552531 0 -0.1173011125765811 -0.2721428964285707 0 -0.13219795163187159 -0.27110871778552531 0 -0.1333337708168415 -0.26377523499205202 0 -0.12600056203783161 -0.26301541000095829 0 -0.13219795163187159 -0.27110871778552531 0 -0.12600056203783161 -0.26301541000095829 0 -0.1173011125765811 -0.2721428964285707 0 -0.13219795163187159 -0.27110871778552531 0 -0.13966748117377659 -0.26847157538705668 0 -0.1333337708168415 -0.26377523499205202 0 -0.14153524490660671 -0.2763029116229278 0 -0.13219795163187159 -0.27110871778552531 0 -0.13966748117377659 -0.26847157538705668 0 -0.13966748117377659 -0.26847157538705668 0 -0.13807993829988649 -0.25979154560904222 0 -0.1333337708168415 -0.26377523499205202 0 -0.13807993829988649 -0.25979154560904222 0 -0.1333337708168415 -0.26377523499205202 0 -0.13072292094084129 -0.25648892617767749 0 -0.12600056203783161 -0.26301541000095829 0 -0.13072292094084129 -0.25648892617767749 0 -0.1187556211832122 -0.25814451816493872 0 -0.1333337708168415 -0.26377523499205202 0 -0.12600056203783161 -0.26301541000095829 0 -0.13072292094084129 -0.25648892617767749 0 -0.13072292094084129 -0.25648892617767749 0 -0.13218950310710981 -0.25272660122947088 0 -0.1187556211832122 -0.25814451816493872 0 -0.13072292094084129 -0.25648892617767749 0 -0.13218950310710981 -0.25272660122947088 0 -0.13218950310710981 -0.25272660122947088 0 -0.1459019403517107 -0.25564217047089421 0 -0.13375162957080131 -0.24871916986845621 0 -0.13218950310710981 -0.25272660122947088 0 -0.1459019403517107 -0.25564217047089421 0 -0.13218950310710981 -0.25272660122947088 0 -0.13375162957080131 -0.24871916986845621 0 -0.1459019403517107 -0.25564217047089421 0 -0.13375162957080131 -0.24871916986845621 0 -0.13807993829988649 -0.25979154560904222 0 -0.13218950310710981 -0.25272660122947088 0 -0.1459019403517107 -0.25564217047089421 0 -0.13807993829988649 -0.25979154560904222 0 -0.13072292094084129 -0.25648892617767749 0 -0.13218950310710981 -0.25272660122947088 0 -0.1459019403517107 -0.25564217047089421 0 -0.1534429259631987 -0.25724555178864622 0 -0.1378886282313006 -0.2381062402767252 0 -0.13966748117377659 -0.26847157538705668 0 -0.13807993829988649 -0.25979154560904222 0 -0.1469785187108 -0.2635474229235048 0 -0.13807993829988649 -0.25979154560904222 0 -0.1459019403517107 -0.25564217047089421 0 -0.1469785187108 -0.2635474229235048 0 -0.15747684770731041 -0.26223731787419863 0 -0.1459019403517107 -0.25564217047089421 0 -0.1534429259631987 -0.25724555178864622 0 -0.15747684770731041 -0.26223731787419863 0 -0.1459019403517107 -0.25564217047089421 0 -0.1469785187108 -0.2635474229235048 0 -0.15747684770731041 -0.26223731787419863 0 -0.1459019403517107 -0.25564217047089421 0 -0.15747684770731041 -0.26223731787419863 0 -0.1534429259631987 -0.25724555178864622 0 -0.1593809120407062 -0.25278805690175971 0 -0.1534429259631987 -0.25724555178864622 0 -0.15289321433053751 -0.246830478479277 0 -0.1459019403517107 -0.25564217047089421 0 -0.1534429259631987 -0.25724555178864622 0 -0.17143624801538501 -0.35840063883308271 0 -0.1580141783998408 -0.34710035810185619 0 -0.15489216358121211 -0.36256913283011211 0 -0.17143624801538501 -0.35840063883308271 0 -0.1580141783998408 -0.34710035810185619 0 -0.18164424501215659 -0.34621916084723381 0 -0.17143624801538501 -0.35840063883308271 0 -0.1663610822414904 -0.3702523776444529 0 -0.15489216358121211 -0.36256913283011211 0 -0.15951650330528561 -0.37856285477961621 0 -0.1663610822414904 -0.3702523776444529 0 -0.15489216358121211 -0.36256913283011211 0 -0.17143624801538501 -0.35840063883308271 0 -0.1663610822414904 -0.3702523776444529 0 -0.18480326185087809 -0.36719565018674682 0 -0.1663610822414904 -0.3702523776444529 0 -0.18480326185087809 -0.36719565018674682 0 -0.1663610822414904 -0.3702523776444529 0 -0.18480326185087809 -0.36719565018674682 0 -0.18579747934449059 -0.37379744869579251 0 -0.18480326185087809 -0.36719565018674682 0 -0.18579747934449059 -0.37379744869579251 0 -0.18480326185087809 -0.36719565018674682 0 -0.18164424501215659 -0.34621916084723381 0 -0.19565175395430129 -0.3512554891803924 0 -0.18480326185087809 -0.36719565018674682 0 -0.18164424501215659 -0.34621916084723381 0 -0.17143624801538501 -0.35840063883308271 0 -0.18480326185087809 -0.36719565018674682 0 -0.18164424501215659 -0.34621916084723381 0 -0.18164424501215659 -0.34621916084723381 0 -0.17848522817343529 -0.32524267150772068 0 -0.1629610955137164 -0.33076913941787212 0 -0.18164424501215659 -0.34621916084723381 0 -0.17848522817343529 -0.32524267150772068 0 -0.18164424501215659 -0.34621916084723381 0 -0.18737083868624629 -0.33075534874643497 0 -0.17848522817343529 -0.32524267150772068 0 -0.17532621133471249 -0.30426618216820789 0 -0.17848522817343529 -0.32524267150772068 0 -0.17532621133471249 -0.30426618216820789 0 -0.1789711567900161 -0.3101302037755338 0 -0.17848522817343529 -0.32524267150772068 0 -0.17532621133471249 -0.30426618216820789 0 -0.17848522817343529 -0.32524267150772068 0 -0.16582550601247259 -0.31644195918285489 0 -0.1943588054861482 -0.32297640251143073 0 -0.1789711567900161 -0.3101302037755338 0 -0.18479650728396149 -0.32227615663527998 0 -0.1789711567900161 -0.3101302037755338 0 -0.18479650728396149 -0.32227615663527998 0 -0.17848522817343529 -0.32524267150772068 0 -0.1943588054861482 -0.32297640251143073 0 -0.1789711567900161 -0.3101302037755338 0 -0.18737083868624629 -0.33075534874643497 0 -0.18479650728396149 -0.32227615663527998 0 -0.17848522817343529 -0.32524267150772068 0 -0.17848522817343529 -0.32524267150772068 0 -0.16582550601247259 -0.31644195918285489 0 -0.1629610955137164 -0.33076913941787212 0 -0.16582550601247259 -0.31644195918285489 0 -0.1629610955137164 -0.33076913941787212 0 -0.15261731536399281 -0.31699983390472031 0 -0.15973767967650701 -0.30493196891575292 0 -0.16582550601247259 -0.31644195918285489 0 -0.15261731536399281 -0.31699983390472031 0 -0.1580141783998408 -0.34710035810185619 0 -0.18164424501215659 -0.34621916084723381 0 -0.1629610955137164 -0.33076913941787212 0 -0.1580141783998408 -0.34710035810185619 0 -0.1629610955137164 -0.33076913941787212 0 -0.14559484309128301 -0.3331209990743299 0 -0.14559484309128301 -0.3331209990743299 0 -0.15261731536399281 -0.31699983390472031 0 -0.1327552185807534 -0.31482398186879779 0 -0.1629610955137164 -0.33076913941787212 0 -0.14559484309128301 -0.3331209990743299 0 -0.15261731536399281 -0.31699983390472031 0 -0.14559484309128301 -0.3331209990743299 0 -0.1327552185807534 -0.31482398186879779 0 -0.12678352480283511 -0.3369129194106073 0 -0.14559484309128301 -0.3331209990743299 0 -0.12678352480283511 -0.3369129194106073 0 -0.14043772588655989 -0.35211976174212622 0 -0.12678352480283511 -0.3369129194106073 0 -0.14043772588655989 -0.35211976174212622 0 -0.1203130985899742 -0.35955571918490481 0 -0.1580141783998408 -0.34710035810185619 0 -0.14043772588655989 -0.35211976174212622 0 -0.15489216358121211 -0.36256913283011211 0 -0.1580141783998408 -0.34710035810185619 0 -0.14559484309128301 -0.3331209990743299 0 -0.14043772588655989 -0.35211976174212622 0 -0.14043772588655989 -0.35211976174212622 0 -0.15489216358121211 -0.36256913283011211 0 -0.13959568407155781 -0.37291875636350952 0 -0.15951650330528561 -0.37856285477961621 0 -0.15489216358121211 -0.36256913283011211 0 -0.13959568407155781 -0.37291875636350952 0 -0.12625141541498519 -0.38197991289387551 0 -0.13959568407155781 -0.37291875636350952 0 -0.1203130985899742 -0.35955571918490481 0 -0.14043772588655989 -0.35211976174212622 0 -0.13959568407155781 -0.37291875636350952 0 -0.1203130985899742 -0.35955571918490481 0 -0.1203130985899742 -0.35955571918490481 0 -0.11384267237711319 -0.38219851895920232 0 -0.1203130985899742 -0.35955571918490481 0 -0.10849363524981311 -0.36442991456039969 0 -0.11384267237711319 -0.38219851895920232 0 -0.12625141541498519 -0.38197991289387551 0 -0.1203130985899742 -0.35955571918490481 0 -0.11384267237711319 -0.38219851895920232 0 -0.10849363524981311 -0.36442991456039969 0 -0.096157591159299352 -0.35547454281719221 0 -0.10176491866177829 -0.38015793077534599 0 -0.096157591159299352 -0.35547454281719221 0 -0.10176491866177829 -0.38015793077534599 0 -0.096157591159299352 -0.35547454281719221 0 -0.10176491866177829 -0.38015793077534599 0 -0.085276019388031976 -0.37619188405436782 0 -0.096157591159299352 -0.35547454281719221 0 -0.10964553082547281 -0.34513317088572909 0 -0.090550263656820479 -0.33079115485903843 0 -0.10849363524981311 -0.36442991456039969 0 -0.096157591159299352 -0.35547454281719221 0 -0.10964553082547281 -0.34513317088572909 0 -0.1203130985899742 -0.35955571918490481 0 -0.10849363524981311 -0.36442991456039969 0 -0.10964553082547281 -0.34513317088572909 0 -0.12678352480283511 -0.3369129194106073 0 -0.1203130985899742 -0.35955571918490481 0 -0.10964553082547281 -0.34513317088572909 0 -0.12678352480283511 -0.3369129194106073 0 -0.1203130985899742 -0.35955571918490481 0 -0.12678352480283511 -0.3369129194106073 0 -0.10964553082547281 -0.34513317088572909 0 -0.1112875311940303 -0.32576775904759792 0 -0.1327552185807534 -0.31482398186879779 0 -0.12678352480283511 -0.3369129194106073 0 -0.1112875311940303 -0.32576775904759792 0 -0.1327552185807534 -0.31482398186879779 0 -0.1112875311940303 -0.32576775904759792 0 -0.11567190875339491 -0.3081878681979589 0 -0.1112875311940303 -0.32576775904759792 0 -0.1011365257202933 -0.31403431577096802 0 -0.11567190875339491 -0.3081878681979589 0 -0.1112875311940303 -0.32576775904759792 0 -0.1011365257202933 -0.31403431577096802 0 -0.090550263656820479 -0.33079115485903843 0 -0.10964553082547281 -0.34513317088572909 0 -0.1112875311940303 -0.32576775904759792 0 -0.090550263656820479 -0.33079115485903843 0 -0.096157591159299352 -0.35547454281719221 0 -0.090550263656820479 -0.33079115485903843 0 -0.096157591159299352 -0.35547454281719221 0 -0.090550263656820479 -0.33079115485903843 0 -0.073144777225565616 -0.33606175945158517 0 -0.090550263656820479 -0.33079115485903843 0 -0.084942936154341619 -0.30610776690088481 0 -0.090550263656820479 -0.33079115485903843 0 -0.073144777225565616 -0.33606175945158517 0 -0.084942936154341619 -0.30610776690088481 0 -0.1011365257202933 -0.31403431577096802 0 -0.090550263656820479 -0.33079115485903843 0 -0.084942936154341619 -0.30610776690088481 0 -0.073144777225565616 -0.33606175945158517 0 -0.084942936154341619 -0.30610776690088481 0 -0.060613113796085999 -0.32288269869712272 0 -0.073144777225565616 -0.33606175945158517 0 -0.076755031766953086 -0.35884624094615858 0 -0.063306301319701316 -0.35299520754669739 0 -0.076755031766953086 -0.35884624094615858 0 -0.063306301319701316 -0.35299520754669739 0 -0.065890469742167113 -0.37350781086095058 0 -0.076755031766953086 -0.35884624094615858 0 -0.065890469742167113 -0.37350781086095058 0 -0.085276019388031976 -0.37619188405436782 0 -0.096157591159299352 -0.35547454281719221 0 -0.076755031766953086 -0.35884624094615858 0 -0.085276019388031976 -0.37619188405436782 0 -0.096157591159299352 -0.35547454281719221 0 -0.073144777225565616 -0.33606175945158517 0 -0.076755031766953086 -0.35884624094615858 0 -0.097628444613881649 -0.25834262822693399 0 -0.1173011125765811 -0.2721428964285707 0 -0.097628444613881649 -0.25834262822693399 0 -0.1187556211832122 -0.25814451816493872 0 -0.1098930818979398 -0.24798588601512411 0 -0.13218950310710981 -0.25272660122947088 0 -0.1187556211832122 -0.25814451816493872 0 -0.1098930818979398 -0.24798588601512411 0 -0.097628444613881649 -0.25834262822693399 0 -0.1187556211832122 -0.25814451816493872 0 -0.1173011125765811 -0.2721428964285707 0 -0.13218950310710981 -0.25272660122947088 0 -0.1098930818979398 -0.24798588601512411 0 -0.12600056203783161 -0.26301541000095829 0 -0.1187556211832122 -0.25814451816493872 0 -0.1173011125765811 -0.2721428964285707 0 -0.097628444613881649 -0.25834262822693399 0 -0.1173011125765811 -0.2721428964285707 0 -0.090762408808148426 -0.27102181932101072 0 -0.1173011125765811 -0.2721428964285707 0 -0.096655829275762523 -0.28444542957314378 0 -0.090762408808148426 -0.27102181932101072 0 -0.096655829275762523 -0.28444542957314378 0 -0.10322998884287909 -0.29931702984935987 0 -0.084942936154341619 -0.30610776690088481 0 -0.096655829275762523 -0.28444542957314378 0 -0.11725087491461519 -0.29108504565108578 0 -0.10322998884287909 -0.29931702984935987 0 -0.13697378053928061 -0.28594316463020741 0 -0.1173011125765811 -0.2721428964285707 0 -0.11725087491461519 -0.29108504565108578 0 -0.1173011125765811 -0.2721428964285707 0 -0.096655829275762523 -0.28444542957314378 0 -0.11725087491461519 -0.29108504565108578 0 -0.11725087491461519 -0.29108504565108578 0 -0.11567190875339491 -0.3081878681979589 0 -0.10322998884287909 -0.29931702984935987 0 -0.1304175251842298 -0.30012492429455973 0 -0.11725087491461519 -0.29108504565108578 0 -0.11567190875339491 -0.3081878681979589 0 -0.1011365257202933 -0.31403431577096802 0 -0.10322998884287909 -0.29931702984935987 0 -0.084942936154341619 -0.30610776690088481 0 -0.1011365257202933 -0.31403431577096802 0 -0.11567190875339491 -0.3081878681979589 0 -0.10322998884287909 -0.29931702984935987 0 -0.084942936154341619 -0.30610776690088481 0 -0.066237696895848033 -0.30175990202967712 0 -0.078368201618682937 -0.28822753231137022 0 -0.084942936154341619 -0.30610776690088481 0 -0.066237696895848033 -0.30175990202967712 0 -0.060613113796085999 -0.32288269869712272 0 -0.066237696895848033 -0.30175990202967712 0 -0.078368201618682937 -0.28822753231137022 0 -0.057136779716869042 -0.28712205926022771 0 -0.078368201618682937 -0.28822753231137022 0 -0.072744725061100565 -0.27289296274949931 0 -0.057136779716869042 -0.28712205926022771 0 -0.096655829275762523 -0.28444542957314378 0 -0.084942936154341619 -0.30610776690088481 0 -0.078368201618682937 -0.28822753231137022 0 -0.096655829275762523 -0.28444542957314378 0 -0.078368201618682937 -0.28822753231137022 0 -0.090762408808148426 -0.27102181932101072 0 -0.078368201618682937 -0.28822753231137022 0 -0.090762408808148426 -0.27102181932101072 0 -0.072744725061100565 -0.27289296274949931 0 -0.090762408808148426 -0.27102181932101072 0 -0.072744725061100565 -0.27289296274949931 0 -0.081281336266817772 -0.26097832242812891 0 -0.072744725061100565 -0.27289296274949931 0 -0.067161912638977472 -0.25903173736147111 0 -0.055745381016590281 -0.2682223094504298 0 -0.072744725061100565 -0.27289296274949931 0 -0.067161912638977472 -0.25903173736147111 0 -0.081281336266817772 -0.26097832242812891 0 -0.067161912638977472 -0.25903173736147111 0 -0.081281336266817772 -0.26097832242812891 0 -0.077955776651182085 -0.24454236002529731 0 -0.067161912638977472 -0.25903173736147111 0 -0.056939497423126581 -0.24878681181634871 0 -0.077955776651182085 -0.24454236002529731 0 -0.097628444613881649 -0.25834262822693399 0 -0.081281336266817772 -0.26097832242812891 0 -0.077955776651182085 -0.24454236002529731 0 -0.097628444613881649 -0.25834262822693399 0 -0.090762408808148426 -0.27102181932101072 0 -0.081281336266817772 -0.26097832242812891 0 -0.097628444613881649 -0.25834262822693399 0 -0.077955776651182085 -0.24454236002529731 0 -0.025857267464119819 -0.25506418495113531 0 -0.050191684441297867 -0.2485850187836515 0 -0.034199021844566052 -0.25740496373097072 0 -0.056939497423126581 -0.24878681181634871 0 -0.034199021844566052 -0.25740496373097072 0 -0.041398382443623198 -0.25192549838374201 0 -0.056939497423126581 -0.24878681181634871 0 -0.041398382443623198 -0.25192549838374201 0 -0.025857267464119819 -0.25506418495113531 0 -0.050191684441297867 -0.2485850187836515 0 -0.034199021844566052 -0.25740496373097072 0 -0.048255079716108998 -0.25800015923011232 0 -0.056939497423126581 -0.24878681181634871 0 -0.034199021844566052 -0.25740496373097072 0 -0.041398382443623198 -0.25192549838374201 0 -0.025857267464119819 -0.25506418495113531 0 -0.041398382443623198 -0.25192549838374201 0 -0.025857267464119819 -0.25506418495113531 0 -0.034199021844566052 -0.25740496373097072 0 -0.037307574571523318 -0.26201401924185519 0 -0.024854767991187229 -0.26705994663832661 0 -0.037307574571523318 -0.26201401924185519 0 -0.048255079716108998 -0.25800015923011232 0 -0.046606779304586107 -0.26584835010199509 0 -0.034199021844566052 -0.25740496373097072 0 -0.037307574571523318 -0.26201401924185519 0 -0.048255079716108998 -0.25800015923011232 0 -0.05702546769870083 -0.25851025446459042 0 -0.048255079716108998 -0.25800015923011232 0 -0.056939497423126581 -0.24878681181634871 0 -0.041398382443623198 -0.25192549838374201 0 -0.056939497423126581 -0.24878681181634871 0 -0.067161912638977472 -0.25903173736147111 0 -0.05702546769870083 -0.25851025446459042 0 -0.056939497423126581 -0.24878681181634871 0 -0.067161912638977472 -0.25903173736147111 0 -0.05702546769870083 -0.25851025446459042 0 -0.055745381016590281 -0.2682223094504298 0 -0.05702546769870083 -0.25851025446459042 0 -0.048255079716108998 -0.25800015923011232 0 -0.055745381016590281 -0.2682223094504298 0 -0.048255079716108998 -0.25800015923011232 0 -0.055745381016590281 -0.2682223094504298 0 -0.046606779304586107 -0.26584835010199509 0 -0.055745381016590281 -0.2682223094504298 0 -0.045119081914121867 -0.27515691248558288 0 -0.046606779304586107 -0.26584835010199509 0 -0.055745381016590281 -0.2682223094504298 0 -0.045119081914121867 -0.27515691248558288 0 -0.057136779716869042 -0.28712205926022771 0 -0.072744725061100565 -0.27289296274949931 0 -0.055745381016590281 -0.2682223094504298 0 -0.057136779716869042 -0.28712205926022771 0 -0.037307574571523318 -0.26201401924185519 0 -0.034478529498429812 -0.28951379058442123 0 -0.037307574571523318 -0.26201401924185519 0 -0.034478529498429812 -0.28951379058442123 0 -0.024854767991187229 -0.26705994663832661 0 -0.037307574571523318 -0.26201401924185519 0 -0.045119081914121867 -0.27515691248558288 0 -0.034478529498429812 -0.28951379058442123 0 -0.037307574571523318 -0.26201401924185519 0 -0.045119081914121867 -0.27515691248558288 0 -0.046606779304586107 -0.26584835010199509 0 -0.045119081914121867 -0.27515691248558288 0 -0.034478529498429812 -0.28951379058442123 0 -0.057136779716869042 -0.28712205926022771 0 -0.034478529498429812 -0.28951379058442123 0 -0.057136779716869042 -0.28712205926022771 0 -0.05012745319326059 -0.30445945297878008 0 -0.066237696895848033 -0.30175990202967712 0 -0.05012745319326059 -0.30445945297878008 0 -0.060613113796085999 -0.32288269869712272 0 -0.066237696895848033 -0.30175990202967712 0 -0.057136779716869042 -0.28712205926022771 0 -0.05012745319326059 -0.30445945297878008 0 -0.034478529498429812 -0.28951379058442123 0 -0.05012745319326059 -0.30445945297878008 0 -0.031649484425336299 -0.31701356192698721 0 -0.034478529498429812 -0.28951379058442123 0 -0.031649484425336299 -0.31701356192698721 0 -0.034478529498429812 -0.28951379058442123 0 -0.020284114256294641 -0.29759304008048471 0 -0.031649484425336299 -0.31701356192698721 0 -0.020284114256294641 -0.29759304008048471 0 -0.01007927323019326 -0.3103345258507364 0 -0.031649484425336299 -0.31701356192698721 0 -0.020284114256294641 -0.29759304008048471 0 -0.01007927323019326 -0.3103345258507364 0 -0.0080748459131490501 -0.2914060437848453 0 -0.01007927323019326 -0.3103345258507364 0 -0.0080748459131490501 -0.2914060437848453 0 0.0017563221397047381 -0.2997067901486577 0 -0.020284114256294641 -0.29759304008048471 0 -0.0080748459131490501 -0.2914060437848453 0 -0.017138438214364771 -0.27969727825543328 0 -0.0080748459131490501 -0.2914060437848453 0 -0.002848760243290064 -0.27761611820401882 0 0.0066437179820165657 -0.2861171845936395 0 -0.0080748459131490501 -0.2914060437848453 0 -0.017138438214364771 -0.27969727825543328 0 -0.002848760243290064 -0.27761611820401882 0 -0.034478529498429812 -0.28951379058442123 0 -0.020284114256294641 -0.29759304008048471 0 -0.017138438214364771 -0.27969727825543328 0 -0.034478529498429812 -0.28951379058442123 0 -0.024854767991187229 -0.26705994663832661 0 -0.017138438214364771 -0.27969727825543328 0 -0.024854767991187229 -0.26705994663832661 0 -0.01588915841142927 -0.27169793716392882 0 -0.01145854626600548 -0.26602311564559261 0 -0.024854767991187229 -0.26705994663832661 0 -0.01588915841142927 -0.27169793716392882 0 -0.017138438214364771 -0.27969727825543328 0 -0.017138438214364771 -0.27969727825543328 0 -0.011833725783772399 -0.27375861231724341 0 -0.002848760243290064 -0.27761611820401882 0 -0.01145854626600548 -0.26602311564559261 0 0.01128192931255503 -0.27464126756021451 0 -0.002848760243290064 -0.27761611820401882 0 -0.01145854626600548 -0.26602311564559261 0 0.01128192931255503 -0.27464126756021451 0 -0.01588915841142927 -0.27169793716392882 0 -0.017138438214364771 -0.27969727825543328 0 -0.011833725783772399 -0.27375861231724341 0 -0.011833725783772399 -0.27375861231724341 0 -0.002848760243290064 -0.27761611820401882 0 -0.01145854626600548 -0.26602311564559261 0 -0.01588915841142927 -0.27169793716392882 0 -0.011833725783772399 -0.27375861231724341 0 -0.01145854626600548 -0.26602311564559261 0 -0.01269776775011346 -0.25850600500130039 0 -0.0051360078472848583 -0.25701396995817721 0 0.0057158633005241696 -0.26337829885565528 0 -0.01145854626600548 -0.26602311564559261 0 -0.01269776775011346 -0.25850600500130039 0 0.0057158633005241696 -0.26337829885565528 0 -0.01269776775011346 -0.25850600500130039 0 0.0057158633005241696 -0.26337829885565528 0 -0.0009620894167222515 -0.25496392916579452 0 -0.0051360078472848583 -0.25701396995817721 0 0.0057158633005241696 -0.26337829885565528 0 -0.0071971320314794382 -0.2528457057960789 0 -0.01082738352359053 -0.24876902592697839 0 -0.0029313858115674811 -0.24854412401401971 0 -0.0009620894167222515 -0.25496392916579452 0 -0.0071971320314794382 -0.2528457057960789 0 -0.0029313858115674811 -0.24854412401401971 0 -0.0009620894167222515 -0.25496392916579452 0 -0.0051360078472848583 -0.25701396995817721 0 -0.0071971320314794382 -0.2528457057960789 0 -0.0051360078472848583 -0.25701396995817721 0 -0.0071971320314794382 -0.2528457057960789 0 -0.0094143843739788544 -0.25459574361389747 0 -0.0071971320314794382 -0.2528457057960789 0 -0.0094143843739788544 -0.25459574361389747 0 -0.01082738352359053 -0.24876902592697839 0 -0.01269776775011346 -0.25850600500130039 0 -0.0094143843739788544 -0.25459574361389747 0 -0.01082738352359053 -0.24876902592697839 0 -0.01269776775011346 -0.25850600500130039 0 -0.0051360078472848583 -0.25701396995817721 0 -0.0094143843739788544 -0.25459574361389747 0 -0.01269776775011346 -0.25850600500130039 0 -0.025857267464119819 -0.25506418495113531 0 -0.034199021844566052 -0.25740496373097072 0 -0.01145854626600548 -0.26602311564559261 0 -0.025857267464119819 -0.25506418495113531 0 -0.01269776775011346 -0.25850600500130039 0 -0.025857267464119819 -0.25506418495113531 0 -0.02368513365757598 -0.23851275990414511 0 -0.034199021844566052 -0.25740496373097072 0 -0.024854767991187229 -0.26705994663832661 0 -0.01145854626600548 -0.26602311564559261 0 -0.034199021844566052 -0.25740496373097072 0 -0.01145854626600548 -0.26602311564559261 0 -0.01145854626600548 -0.26602311564559261 0 -0.01269776775011346 -0.25850600500130039 0 -0.025857267464119819 -0.25506418495113531 0 -0.046940286889098168 -0.35955036210978841 0 -0.050269733973634309 -0.3392354021108881 0 -0.02882043935224279 -0.34451333326955308 0 -0.046940286889098168 -0.35955036210978841 0 -0.02882043935224279 -0.34451333326955308 0 -0.026419717968229769 -0.36867473508972981 0 -0.046940286889098168 -0.35955036210978841 0 -0.026419717968229769 -0.36867473508972981 0 -0.046935058978613817 -0.3783756837809118 0 -0.065890469742167113 -0.37350781086095058 0 -0.046940286889098168 -0.35955036210978841 0 -0.046935058978613817 -0.3783756837809118 0 -0.063306301319701316 -0.35299520754669739 0 -0.065890469742167113 -0.37350781086095058 0 -0.046940286889098168 -0.35955036210978841 0 -0.063306301319701316 -0.35299520754669739 0 -0.046940286889098168 -0.35955036210978841 0 -0.050269733973634309 -0.3392354021108881 0 -0.073144777225565616 -0.33606175945158517 0 -0.063306301319701316 -0.35299520754669739 0 -0.050269733973634309 -0.3392354021108881 0 -0.073144777225565616 -0.33606175945158517 0 -0.050269733973634309 -0.3392354021108881 0 -0.060613113796085999 -0.32288269869712272 0 -0.050269733973634309 -0.3392354021108881 0 -0.060613113796085999 -0.32288269869712272 0 -0.031649484425336299 -0.31701356192698721 0 -0.05012745319326059 -0.30445945297878008 0 -0.060613113796085999 -0.32288269869712272 0 -0.031649484425336299 -0.31701356192698721 0 -0.050269733973634309 -0.3392354021108881 0 -0.031649484425336299 -0.31701356192698721 0 -0.02882043935224279 -0.34451333326955308 0 -0.031649484425336299 -0.31701356192698721 0 -0.02882043935224279 -0.34451333326955308 0 -0.031649484425336299 -0.31701356192698721 0 -0.0038616663111063101 -0.33241552487502413 0 -0.02882043935224279 -0.34451333326955308 0 -0.01007927323019326 -0.3103345258507364 0 -0.031649484425336299 -0.31701356192698721 0 -0.0038616663111063101 -0.33241552487502413 0 -0.01007927323019326 -0.3103345258507364 0 -0.0038616663111063101 -0.33241552487502413 0 0.0094652366165251054 -0.31053241408104548 0 -0.0038616663111063101 -0.33241552487502413 0 -0.0043130761299947744 -0.35643483176966217 0 -0.02882043935224279 -0.34451333326955308 0 -0.0043130761299947744 -0.35643483176966217 0 -0.02882043935224279 -0.34451333326955308 0 -0.026419717968229769 -0.36867473508972981 0 -0.0043130761299947744 -0.35643483176966217 0 -0.026419717968229769 -0.36867473508972981 0 -0.0064694903547723136 -0.38059021958606692 0 -0.0064694903547723136 -0.38059021958606692 0 -0.0080625817845775948 -0.40608726553411861 0 -0.026496984295852101 -0.39226102623928111 0 -0.0064694903547723136 -0.38059021958606692 0 -0.0080625817845775948 -0.40608726553411861 0 0.009690974369139977 -0.39295199195252922 0 -0.0080625817845775948 -0.40608726553411861 0 -0.026496984295852101 -0.39226102623928111 0 -0.029852467816379728 -0.41236872525256307 0 -0.026419717968229769 -0.36867473508972981 0 -0.0064694903547723136 -0.38059021958606692 0 -0.026496984295852101 -0.39226102623928111 0 -0.026496984295852101 -0.39226102623928111 0 -0.048213792324517578 -0.39768762776665978 0 -0.046935058978613817 -0.3783756837809118 0 -0.026419717968229769 -0.36867473508972981 0 -0.026496984295852101 -0.39226102623928111 0 -0.046935058978613817 -0.3783756837809118 0 -0.026496984295852101 -0.39226102623928111 0 -0.048213792324517578 -0.39768762776665978 0 -0.029852467816379728 -0.41236872525256307 0 -0.048213792324517578 -0.39768762776665978 0 -0.065379196062645584 -0.39052657147488062 0 -0.06528413140028641 -0.40548789039177052 0 -0.048213792324517578 -0.39768762776665978 0 -0.046935058978613817 -0.3783756837809118 0 -0.065379196062645584 -0.39052657147488062 0 -0.065890469742167113 -0.37350781086095058 0 -0.046935058978613817 -0.3783756837809118 0 -0.065379196062645584 -0.39052657147488062 0 -0.052630130657334448 -0.42871109396582502 0 -0.036803499053157718 -0.43392585985635063 0 -0.055908543568221357 -0.44353945242809251 0 -0.052630130657334448 -0.42871109396582502 0 -0.048282499091199083 -0.41684649723306111 0 -0.065713266975248902 -0.42040157794015642 0 -0.052630130657334448 -0.42871109396582502 0 -0.055908543568221357 -0.44353945242809251 0 -0.077753046024815156 -0.43509142098737241 0 -0.048282499091199083 -0.41684649723306111 0 -0.06528413140028641 -0.40548789039177052 0 -0.065713266975248902 -0.42040157794015642 0 -0.048213792324517578 -0.39768762776665978 0 -0.048282499091199083 -0.41684649723306111 0 -0.06528413140028641 -0.40548789039177052 0 -0.048213792324517578 -0.39768762776665978 0 -0.048282499091199083 -0.41684649723306111 0 -0.029852467816379728 -0.41236872525256307 0 -0.048282499091199083 -0.41684649723306111 0 -0.036803499053157718 -0.43392585985635063 0 -0.029852467816379728 -0.41236872525256307 0 -0.052630130657334448 -0.42871109396582502 0 -0.048282499091199083 -0.41684649723306111 0 -0.036803499053157718 -0.43392585985635063 0 -0.036803499053157718 -0.43392585985635063 0 -0.01686747062211669 -0.42668809062348251 0 -0.022482277956740859 -0.44034230556013138 0 -0.036803499053157718 -0.43392585985635063 0 -0.01686747062211669 -0.42668809062348251 0 -0.029852467816379728 -0.41236872525256307 0 -0.0080625817845775948 -0.40608726553411861 0 -0.01686747062211669 -0.42668809062348251 0 -0.029852467816379728 -0.41236872525256307 0 -0.0080625817845775948 -0.40608726553411861 0 -0.01686747062211669 -0.42668809062348251 0 0.01224976062295041 -0.42183763890738629 0 -0.01686747062211669 -0.42668809062348251 0 -0.008216644178786571 -0.4466179140804285 0 0.01224976062295041 -0.42183763890738629 0 -0.008216644178786571 -0.4466179140804285 0 -0.0021957942935651631 -0.46571035637089769 0 -0.016151777162071251 -0.46269316979172348 0 -0.0021957942935651631 -0.46571035637089769 0 -0.016151777162071251 -0.46269316979172348 0 -0.01292321871024151 -0.47600360382280887 0 -0.008216644178786571 -0.4466179140804285 0 -0.016151777162071251 -0.46269316979172348 0 -0.028753682251359231 -0.45370767630375852 0 -0.016151777162071251 -0.46269316979172348 0 -0.030722049445265721 -0.46513815794063051 0 -0.025757536927686689 -0.47561542944709773 0 -0.016151777162071251 -0.46269316979172348 0 -0.030722049445265721 -0.46513815794063051 0 -0.028753682251359231 -0.45370767630375852 0 -0.036803499053157718 -0.43392585985635063 0 -0.028753682251359231 -0.45370767630375852 0 -0.022482277956740859 -0.44034230556013138 0 -0.01686747062211669 -0.42668809062348251 0 -0.008216644178786571 -0.4466179140804285 0 -0.022482277956740859 -0.44034230556013138 0 -0.008216644178786571 -0.4466179140804285 0 -0.028753682251359231 -0.45370767630375852 0 -0.022482277956740859 -0.44034230556013138 0 -0.011489863113854141 -0.5 0 -0.010144146689038991 -0.48941639725935437 0 0.012735562036971701 -0.48508522326900949 0 -0.010144146689038991 -0.48941639725935437 0 -0.00065605929082254884 -0.47874224407546379 0 -0.01292321871024151 -0.47600360382280887 0 -0.010144146689038991 -0.48941639725935437 0 -0.01292321871024151 -0.47600360382280887 0 -0.022633997898264431 -0.48384402599231691 0 -0.0021957942935651631 -0.46571035637089769 0 -0.00065605929082254884 -0.47874224407546379 0 -0.01292321871024151 -0.47600360382280887 0 -0.016151777162071251 -0.46269316979172348 0 -0.01292321871024151 -0.47600360382280887 0 -0.025757536927686689 -0.47561542944709773 0 -0.025757536927686689 -0.47561542944709773 0 -0.022633997898264431 -0.48384402599231691 0 -0.032724513000240443 -0.48384135401243772 0 -0.01292321871024151 -0.47600360382280887 0 -0.025757536927686689 -0.47561542944709773 0 -0.022633997898264431 -0.48384402599231691 0 -0.011489863113854141 -0.5 0 -0.010144146689038991 -0.48941639725935437 0 -0.033023855415049652 -0.49374757124969931 0 -0.010144146689038991 -0.48941639725935437 0 -0.022633997898264431 -0.48384402599231691 0 -0.033023855415049652 -0.49374757124969931 0 -0.011489863113854141 -0.5 0 -0.041002190054857779 -0.5 0 -0.033023855415049652 -0.49374757124969931 0 -0.010144146689038991 -0.48941639725935437 0 -0.033023855415049652 -0.49374757124969931 0 -0.022633997898264431 -0.48384402599231691 0 -0.033023855415049652 -0.49374757124969931 0 -0.032724513000240443 -0.48384135401243772 0 -0.041002190054857779 -0.5 0 -0.040644419244316249 -0.48874723383863622 0 -0.055758353525359711 -0.48944453406372251 0 -0.041002190054857779 -0.5 0 -0.033023855415049652 -0.49374757124969931 0 -0.040644419244316249 -0.48874723383863622 0 -0.033023855415049652 -0.49374757124969931 0 -0.040644419244316249 -0.48874723383863622 0 -0.032724513000240443 -0.48384135401243772 0 -0.040644419244316249 -0.48874723383863622 0 -0.040713184226073652 -0.47670270986732172 0 -0.055758353525359711 -0.48944453406372251 0 -0.040644419244316249 -0.48874723383863622 0 -0.040713184226073652 -0.47670270986732172 0 -0.032724513000240443 -0.48384135401243772 0 -0.025757536927686689 -0.47561542944709773 0 -0.040713184226073652 -0.47670270986732172 0 -0.032724513000240443 -0.48384135401243772 0 -0.030722049445265721 -0.46513815794063051 0 -0.025757536927686689 -0.47561542944709773 0 -0.040713184226073652 -0.47670270986732172 0 -0.040713184226073652 -0.47670270986732172 0 -0.05604151524233808 -0.47085547185542692 0 -0.042137987481662489 -0.46199998676314519 0 -0.040713184226073652 -0.47670270986732172 0 -0.05604151524233808 -0.47085547185542692 0 -0.055758353525359711 -0.48944453406372251 0 -0.05604151524233808 -0.47085547185542692 0 -0.055758353525359711 -0.48944453406372251 0 -0.068357021366280857 -0.47830767763467641 0 -0.041002190054857779 -0.5 0 -0.055758353525359711 -0.48944453406372251 0 -0.070514516995861642 -0.5 0 -0.036803499053157718 -0.43392585985635063 0 -0.028753682251359231 -0.45370767630375852 0 -0.042591220718736618 -0.44931976272637059 0 -0.036803499053157718 -0.43392585985635063 0 -0.042591220718736618 -0.44931976272637059 0 -0.055908543568221357 -0.44353945242809251 0 -0.028753682251359231 -0.45370767630375852 0 -0.042591220718736618 -0.44931976272637059 0 -0.042137987481662489 -0.46199998676314519 0 -0.030722049445265721 -0.46513815794063051 0 -0.028753682251359231 -0.45370767630375852 0 -0.042137987481662489 -0.46199998676314519 0 -0.030722049445265721 -0.46513815794063051 0 -0.040713184226073652 -0.47670270986732172 0 -0.042137987481662489 -0.46199998676314519 0 -0.042591220718736618 -0.44931976272637059 0 -0.042137987481662489 -0.46199998676314519 0 -0.054601469153056192 -0.45704509188174619 0 -0.05604151524233808 -0.47085547185542692 0 -0.054601469153056192 -0.45704509188174619 0 -0.071896784036839162 -0.45711427830285839 0 -0.05604151524233808 -0.47085547185542692 0 -0.042137987481662489 -0.46199998676314519 0 -0.054601469153056192 -0.45704509188174619 0 -0.054601469153056192 -0.45704509188174619 0 -0.055908543568221357 -0.44353945242809251 0 -0.071896784036839162 -0.45711427830285839 0 -0.042591220718736618 -0.44931976272637059 0 -0.054601469153056192 -0.45704509188174619 0 -0.055908543568221357 -0.44353945242809251 0 -0.055908543568221357 -0.44353945242809251 0 -0.071896784036839162 -0.45711427830285839 0 -0.077753046024815156 -0.43509142098737241 0 -0.071896784036839162 -0.45711427830285839 0 -0.087573937031005744 -0.47412410395137422 0 -0.093954286744555499 -0.45179652052777369 0 -0.087573937031005744 -0.47412410395137422 0 -0.093954286744555499 -0.45179652052777369 0 -0.071896784036839162 -0.45711427830285839 0 -0.093954286744555499 -0.45179652052777369 0 -0.077753046024815156 -0.43509142098737241 0 -0.093954286744555499 -0.45179652052777369 0 -0.10033463645810529 -0.42946893710417328 0 -0.077753046024815156 -0.43509142098737241 0 -0.055758353525359711 -0.48944453406372251 0 -0.070514516995861642 -0.5 0 -0.068357021366280857 -0.47830767763467641 0 -0.05604151524233808 -0.47085547185542692 0 -0.071896784036839162 -0.45711427830285839 0 -0.068357021366280857 -0.47830767763467641 0 -0.071896784036839162 -0.45711427830285839 0 -0.068357021366280857 -0.47830767763467641 0 -0.087573937031005744 -0.47412410395137422 0 -0.070514516995861642 -0.5 0 -0.068357021366280857 -0.47830767763467641 0 -0.087573937031005744 -0.47412410395137422 0 -0.070514516995861642 -0.5 0 -0.087573937031005744 -0.47412410395137422 0 -0.10002684393686551 -0.5 0 -0.087573937031005744 -0.47412410395137422 0 -0.10002684393686551 -0.5 0 -0.10780494223314389 -0.47765854937150709 0 -0.087573937031005744 -0.47412410395137422 0 -0.10780494223314389 -0.47765854937150709 0 -0.1029954147344513 -0.46359439800738522 0 -0.12605423818426559 -0.48707922202292669 0 -0.10780494223314389 -0.47765854937150709 0 -0.1201929706126502 -0.46127799294672761 0 -0.12605423818426559 -0.48707922202292669 0 -0.1201929706126502 -0.46127799294672761 0 -0.12605423818426559 -0.48707922202292669 0 -0.10002684393686551 -0.5 0 -0.10780494223314389 -0.47765854937150709 0 -0.1295391708778694 -0.5 0 -0.12605423818426559 -0.48707922202292669 0 -0.10002684393686551 -0.5 0 -0.093954286744555499 -0.45179652052777369 0 -0.10033463645810529 -0.42946893710417328 0 -0.10636180231815941 -0.44832292249131772 0 -0.11433170304103479 -0.43547676387052858 0 -0.10033463645810529 -0.42946893710417328 0 -0.10636180231815941 -0.44832292249131772 0 -0.093954286744555499 -0.45179652052777369 0 -0.10033463645810529 -0.42946893710417328 0 -0.087573937031005744 -0.47412410395137422 0 -0.093954286744555499 -0.45179652052777369 0 -0.1029954147344513 -0.46359439800738522 0 -0.10636180231815941 -0.44832292249131772 0 -0.093954286744555499 -0.45179652052777369 0 -0.1029954147344513 -0.46359439800738522 0 -0.10780494223314389 -0.47765854937150709 0 -0.1029954147344513 -0.46359439800738522 0 -0.1201929706126502 -0.46127799294672761 0 -0.10636180231815941 -0.44832292249131772 0 -0.1029954147344513 -0.46359439800738522 0 -0.1201929706126502 -0.46127799294672761 0 -0.13671083813600751 -0.45044361347006462 0 -0.1201929706126502 -0.46127799294672761 0 -0.11433170304103479 -0.43547676387052858 0 -0.10636180231815941 -0.44832292249131772 0 -0.1201929706126502 -0.46127799294672761 0 -0.11433170304103479 -0.43547676387052858 0 -0.13671083813600751 -0.45044361347006462 0 -0.1225906368027144 -0.43005957413219659 0 -0.11433170304103479 -0.43547676387052858 0 -0.1201929706126502 -0.46127799294672761 0 -0.11433170304103479 -0.43547676387052858 0 -0.1225906368027144 -0.43005957413219659 0 -0.11433170304103479 -0.43547676387052858 0 -0.10847043546942051 -0.40967553479432928 0 -0.11433170304103479 -0.43547676387052858 0 -0.10847043546942051 -0.40967553479432928 0 -0.12908399078123631 -0.42243277819987513 0 -0.1225906368027144 -0.43005957413219659 0 -0.12315425937001 -0.41747458531602638 0 -0.11433170304103479 -0.43547676387052858 0 -0.10033463645810529 -0.42946893710417328 0 -0.10847043546942051 -0.40967553479432928 0 -0.10033463645810529 -0.42946893710417328 0 -0.094107383989168333 -0.41562629379671062 0 -0.1067149861716557 -0.40714135368057303 0 -0.10033463645810529 -0.42946893710417328 0 -0.1067149861716557 -0.40714135368057303 0 -0.10847043546942051 -0.40967553479432928 0 -0.10033463645810529 -0.42946893710417328 0 -0.1067149861716557 -0.40714135368057303 0 -0.094107383989168333 -0.41562629379671062 0 -0.1067149861716557 -0.40714135368057303 0 -0.093615658715422545 -0.40476526464288082 0 -0.10847043546942051 -0.40967553479432928 0 -0.1105756132387118 -0.40676785322215941 0 -0.1073722461642546 -0.40484131873350049 0 -0.10847043546942051 -0.40967553479432928 0 -0.1073722461642546 -0.40484131873350049 0 -0.1067149861716557 -0.40714135368057303 0 -0.10847043546942051 -0.40967553479432928 0 -0.1073722461642546 -0.40484131873350049 0 -0.1067149861716557 -0.40714135368057303 0 -0.10847043546942051 -0.40967553479432928 0 -0.1225906368027144 -0.43005957413219659 0 -0.1163272184937543 -0.41351727508190028 0 -0.12315425937001 -0.41747458531602638 0 -0.10847043546942051 -0.40967553479432928 0 -0.1125412123036873 -0.40894162881917728 0 -0.1163272184937543 -0.41351727508190028 0 -0.1125412123036873 -0.40894162881917728 0 -0.1105756132387118 -0.40676785322215941 0 -0.1147915820128618 -0.40580585217832088 0 -0.1225906368027144 -0.43005957413219659 0 -0.10847043546942051 -0.40967553479432928 0 -0.1163272184937543 -0.41351727508190028 0 -0.10847043546942051 -0.40967553479432928 0 -0.1125412123036873 -0.40894162881917728 0 -0.1105756132387118 -0.40676785322215941 0 -0.1225906368027144 -0.43005957413219659 0 -0.10847043546942051 -0.40967553479432928 0 -0.1125412123036873 -0.40894162881917728 0 -0.1163272184937543 -0.41351727508190028 0 -0.1147915820128618 -0.40580585217832088 0 -0.1225700411049412 -0.40994677461386392 0 -0.1219584454402414 -0.40406961642135292 0 -0.1147915820128618 -0.40580585217832088 0 -0.1163272184937543 -0.41351727508190028 0 -0.1225700411049412 -0.40994677461386392 0 -0.1147915820128618 -0.40580585217832088 0 -0.1163272184937543 -0.41351727508190028 0 -0.12315425937001 -0.41747458531602638 0 -0.1225700411049412 -0.40994677461386392 0 -0.1273295258527142 -0.39594401256049883 0 -0.1219584454402414 -0.40406961642135292 0 -0.1190781430676657 -0.39944145851713192 0 -0.11305295545189779 -0.39895005080087959 0 -0.11384267237711319 -0.38219851895920232 0 -0.1073722461642546 -0.40484131873350049 0 -0.1295768038857959 -0.40463739140698729 0 -0.1225700411049412 -0.40994677461386392 0 -0.1219584454402414 -0.40406961642135292 0 -0.1182582065806136 -0.392437760624607 0 -0.11305295545189779 -0.39895005080087959 0 -0.11384267237711319 -0.38219851895920232 0 -0.11384267237711319 -0.38219851895920232 0 -0.1073722461642546 -0.40484131873350049 0 -0.1219584454402414 -0.40406961642135292 0 -0.1190781430676657 -0.39944145851713192 0 -0.1147915820128618 -0.40580585217832088 0 -0.1273295258527142 -0.39594401256049883 0 -0.1190781430676657 -0.39944145851713192 0 -0.1182582065806136 -0.392437760624607 0 -0.1190781430676657 -0.39944145851713192 0 -0.1182582065806136 -0.392437760624607 0 -0.11305295545189779 -0.39895005080087959 0 -0.1105756132387118 -0.40676785322215941 0 -0.1114480992169309 -0.40409126873371493 0 -0.1073722461642546 -0.40484131873350049 0 -0.1105756132387118 -0.40676785322215941 0 -0.1114480992169309 -0.40409126873371493 0 -0.1147915820128618 -0.40580585217832088 0 -0.11305295545189779 -0.39895005080087959 0 -0.1114480992169309 -0.40409126873371493 0 -0.1147915820128618 -0.40580585217832088 0 -0.11305295545189779 -0.39895005080087959 0 -0.1114480992169309 -0.40409126873371493 0 -0.1073722461642546 -0.40484131873350049 0 -0.1190781430676657 -0.39944145851713192 0 -0.11305295545189779 -0.39895005080087959 0 -0.1147915820128618 -0.40580585217832088 0 -0.12625141541498519 -0.38197991289387551 0 -0.1182582065806136 -0.392437760624607 0 -0.11384267237711319 -0.38219851895920232 0 -0.12625141541498519 -0.38197991289387551 0 -0.1273295258527142 -0.39594401256049883 0 -0.1182582065806136 -0.392437760624607 0 -0.11384267237711319 -0.38219851895920232 0 -0.10176491866177829 -0.38015793077534599 0 -0.1073722461642546 -0.40484131873350049 0 -0.10176491866177829 -0.38015793077534599 0 -0.095995502779844255 -0.39166661886747001 0 -0.085276019388031976 -0.37619188405436782 0 -0.10849363524981311 -0.36442991456039969 0 -0.11384267237711319 -0.38219851895920232 0 -0.10176491866177829 -0.38015793077534599 0 -0.10176491866177829 -0.38015793077534599 0 -0.1073722461642546 -0.40484131873350049 0 -0.095995502779844255 -0.39166661886747001 0 -0.10176491866177829 -0.38015793077534599 0 -0.1073722461642546 -0.40484131873350049 0 -0.1067149861716557 -0.40714135368057303 0 -0.1073722461642546 -0.40484131873350049 0 -0.095995502779844255 -0.39166661886747001 0 -0.1067149861716557 -0.40714135368057303 0 -0.1073722461642546 -0.40484131873350049 0 -0.1067149861716557 -0.40714135368057303 0 -0.095995502779844255 -0.39166661886747001 0 -0.1067149861716557 -0.40714135368057303 0 -0.095995502779844255 -0.39166661886747001 0 -0.093615658715422545 -0.40476526464288082 0 -0.093615658715422545 -0.40476526464288082 0 -0.081664681120336771 -0.39582842074610342 0 -0.082451352827770552 -0.41163664718976212 0 -0.095995502779844255 -0.39166661886747001 0 -0.093615658715422545 -0.40476526464288082 0 -0.081664681120336771 -0.39582842074610342 0 -0.095995502779844255 -0.39166661886747001 0 -0.081664681120336771 -0.39582842074610342 0 -0.085276019388031976 -0.37619188405436782 0 -0.081664681120336771 -0.39582842074610342 0 -0.085276019388031976 -0.37619188405436782 0 -0.074552591578295357 -0.38401367178407558 0 -0.095995502779844255 -0.39166661886747001 0 -0.085276019388031976 -0.37619188405436782 0 -0.081664681120336771 -0.39582842074610342 0 -0.065379196062645584 -0.39052657147488062 0 -0.074552591578295357 -0.38401367178407558 0 -0.065890469742167113 -0.37350781086095058 0 -0.085276019388031976 -0.37619188405436782 0 -0.074552591578295357 -0.38401367178407558 0 -0.065890469742167113 -0.37350781086095058 0 -0.065379196062645584 -0.39052657147488062 0 -0.074552591578295357 -0.38401367178407558 0 -0.081664681120336771 -0.39582842074610342 0 -0.06528413140028641 -0.40548789039177052 0 -0.082451352827770552 -0.41163664718976212 0 -0.081664681120336771 -0.39582842074610342 0 -0.065379196062645584 -0.39052657147488062 0 -0.06528413140028641 -0.40548789039177052 0 -0.065713266975248902 -0.42040157794015642 0 -0.085028608260126398 -0.42320905853578622 0 -0.082451352827770552 -0.41163664718976212 0 -0.06528413140028641 -0.40548789039177052 0 -0.065713266975248902 -0.42040157794015642 0 -0.082451352827770552 -0.41163664718976212 0 -0.065713266975248902 -0.42040157794015642 0 -0.077753046024815156 -0.43509142098737241 0 -0.085028608260126398 -0.42320905853578622 0 -0.052630130657334448 -0.42871109396582502 0 -0.065713266975248902 -0.42040157794015642 0 -0.077753046024815156 -0.43509142098737241 0 -0.10033463645810529 -0.42946893710417328 0 -0.077753046024815156 -0.43509142098737241 0 -0.085028608260126398 -0.42320905853578622 0 -0.10033463645810529 -0.42946893710417328 0 -0.094107383989168333 -0.41562629379671062 0 -0.085028608260126398 -0.42320905853578622 0 -0.094107383989168333 -0.41562629379671062 0 -0.085028608260126398 -0.42320905853578622 0 -0.082451352827770552 -0.41163664718976212 0 -0.094107383989168333 -0.41562629379671062 0 -0.093615658715422545 -0.40476526464288082 0 -0.082451352827770552 -0.41163664718976212 0 -0.080832567710134945 -0.085265223789800185 0 -0.09573268077664969 -0.090624673380050064 0 -0.094924188455715333 -0.074372309221374736 0 -0.080832567710134945 -0.085265223789800185 0 -0.0944050220014645 -0.1050702242089397 0 -0.09573268077664969 -0.090624673380050064 0 -0.094924188455715333 -0.074372309221374736 0 -0.077079431972146645 -0.050953682142663811 0 -0.080832567710134945 -0.085265223789800185 0 -0.077460787511610923 -0.070469280456870842 0 -0.094924188455715333 -0.074372309221374736 0 -0.077460787511610923 -0.070469280456870842 0 -0.094924188455715333 -0.074372309221374736 0 -0.078535685693175539 -0.061573663464548622 0 -0.080832567710134945 -0.085265223789800185 0 -0.072736864716213656 -0.076885636419884412 0 -0.077460787511610923 -0.070469280456870842 0 -0.072736864716213656 -0.076885636419884412 0 -0.077460787511610923 -0.070469280456870842 0 -0.067174029152377468 -0.071022972744677337 0 -0.077460787511610923 -0.070469280456870842 0 -0.067174029152377468 -0.071022972744677337 0 -0.070308423821052124 -0.061023041189074957 0 -0.077460787511610923 -0.070469280456870842 0 -0.078535685693175539 -0.061573663464548622 0 -0.070308423821052124 -0.061023041189074957 0 -0.067174029152377468 -0.071022972744677337 0 -0.070308423821052124 -0.061023041189074957 0 -0.060830035872249492 -0.064558057335980773 0 -0.072736864716213656 -0.076885636419884412 0 -0.067174029152377468 -0.071022972744677337 0 -0.063732237529271596 -0.080733089011810297 0 -0.067174029152377468 -0.071022972744677337 0 -0.063732237529271596 -0.080733089011810297 0 -0.058000192015007383 -0.073011667883306972 0 -0.080832567710134945 -0.085265223789800185 0 -0.063732237529271596 -0.080733089011810297 0 -0.066023591375222151 -0.09957098179305135 0 -0.080832567710134945 -0.085265223789800185 0 -0.072736864716213656 -0.076885636419884412 0 -0.063732237529271596 -0.080733089011810297 0 -0.066023591375222151 -0.09957098179305135 0 -0.069466171350113709 -0.1135628440840601 0 -0.0944050220014645 -0.1050702242089397 0 -0.066023591375222151 -0.09957098179305135 0 -0.069466171350113709 -0.1135628440840601 0 -0.054384952187449757 -0.110609208962567 0 -0.077516787342341589 -0.1242022911324857 0 -0.069466171350113709 -0.1135628440840601 0 -0.059238207921678762 -0.13024384051707169 0 -0.077516787342341589 -0.1242022911324857 0 -0.093262550211769629 -0.1231040070079162 0 -0.0944050220014645 -0.1050702242089397 0 -0.077516787342341589 -0.1242022911324857 0 -0.069466171350113709 -0.1135628440840601 0 -0.0944050220014645 -0.1050702242089397 0 -0.066023591375222151 -0.09957098179305135 0 -0.0944050220014645 -0.1050702242089397 0 -0.080832567710134945 -0.085265223789800185 0 -0.066023591375222151 -0.09957098179305135 0 -0.0944050220014645 -0.1050702242089397 0 -0.0944050220014645 -0.1050702242089397 0 -0.1071147179002416 -0.1244919901550422 0 -0.11276894493928399 -0.097790936300085646 0 -0.0944050220014645 -0.1050702242089397 0 -0.11276894493928399 -0.097790936300085646 0 -0.09573268077664969 -0.090624673380050064 0 -0.093262550211769629 -0.1231040070079162 0 -0.0944050220014645 -0.1050702242089397 0 -0.1071147179002416 -0.1244919901550422 0 -0.1071147179002416 -0.1244919901550422 0 -0.11276894493928399 -0.097790936300085646 0 -0.1306137014228527 -0.1212095633787966 0 -0.11276894493928399 -0.097790936300085646 0 -0.1306137014228527 -0.1212095633787966 0 -0.112702195828283 -0.076339248342475546 0 -0.13438499311011279 -0.096174695905308166 0 -0.11276894493928399 -0.097790936300085646 0 -0.112702195828283 -0.076339248342475546 0 -0.13438499311011279 -0.096174695905308166 0 -0.11276894493928399 -0.097790936300085646 0 -0.094924188455715333 -0.074372309221374736 0 -0.112702195828283 -0.076339248342475546 0 -0.11276894493928399 -0.097790936300085646 0 -0.094924188455715333 -0.074372309221374736 0 -0.11276894493928399 -0.097790936300085646 0 -0.09573268077664969 -0.090624673380050064 0 -0.094924188455715333 -0.074372309221374736 0 -0.094924188455715333 -0.074372309221374736 0 -0.1026030192468113 -0.064894788769428779 0 -0.112702195828283 -0.076339248342475546 0 -0.094924188455715333 -0.074372309221374736 0 -0.1026030192468113 -0.064894788769428779 0 -0.090333769324138391 -0.059362086744932152 0 -0.1026030192468113 -0.064894788769428779 0 -0.112702195828283 -0.076339248342475546 0 -0.1158705629695205 -0.060236298698018297 0 -0.112702195828283 -0.076339248342475546 0 -0.1158705629695205 -0.060236298698018297 0 -0.13497135686491851 -0.078315161523928284 0 -0.1158705629695205 -0.060236298698018297 0 -0.1150956899200111 -0.045830426672337207 0 -0.1070798181065768 -0.041876824406217303 0 -0.1158705629695205 -0.060236298698018297 0 -0.1150956899200111 -0.045830426672337207 0 -0.12809376798702951 -0.047905065599393698 0 -0.1163329610324388 -0.034474533447810513 0 -0.12530131535501859 -0.034952786400489197 0 -0.12809376798702951 -0.047905065599393698 0 -0.11023593420079281 -0.033339602888773932 0 -0.1150956899200111 -0.045830426672337207 0 -0.12809376798702951 -0.047905065599393698 0 -0.11023593420079281 -0.033339602888773932 0 -0.1163329610324388 -0.034474533447810513 0 -0.12809376798702951 -0.047905065599393698 0 -0.11023593420079281 -0.033339602888773932 0 -0.12809376798702951 -0.047905065599393698 0 -0.1163329610324388 -0.034474533447810513 0 -0.1221370268088495 -0.025998648103035 0 -0.12530131535501859 -0.034952786400489197 0 -0.11023593420079281 -0.033339602888773932 0 -0.1150956899200111 -0.045830426672337207 0 -0.1070798181065768 -0.041876824406217303 0 -0.11023593420079281 -0.033339602888773932 0 -0.1163329610324388 -0.034474533447810513 0 -0.097427134368436918 -0.027820357899848831 0 -0.11023593420079281 -0.033339602888773932 0 -0.1070798181065768 -0.041876824406217303 0 -0.097427134368436918 -0.027820357899848831 0 -0.1070798181065768 -0.041876824406217303 0 -0.096769769074122519 -0.04215743587210824 0 -0.097427134368436918 -0.027820357899848831 0 -0.1158705629695205 -0.060236298698018297 0 -0.1070798181065768 -0.041876824406217303 0 -0.096769769074122519 -0.04215743587210824 0 -0.1026030192468113 -0.064894788769428779 0 -0.1158705629695205 -0.060236298698018297 0 -0.099264754381345577 -0.055060356505970513 0 -0.1158705629695205 -0.060236298698018297 0 -0.096769769074122519 -0.04215743587210824 0 -0.099264754381345577 -0.055060356505970513 0 -0.096769769074122519 -0.04215743587210824 0 -0.099264754381345577 -0.055060356505970513 0 -0.090746651292135133 -0.048651172445365112 0 -0.1158705629695205 -0.060236298698018297 0 -0.096769769074122519 -0.04215743587210824 0 -0.1026030192468113 -0.064894788769428779 0 -0.099264754381345577 -0.055060356505970513 0 -0.090333769324138391 -0.059362086744932152 0 -0.1029392013539359 -0.0085751277431150782 0 -0.12735709500343681 0.004015926865657337 0 -0.1236693299605585 -0.0137973575501921 0 -0.1110604598185659 -0.0207882196779367 0 -0.1029392013539359 -0.0085751277431150782 0 -0.1236693299605585 -0.0137973575501921 0 -0.1029392013539359 -0.0085751277431150782 0 -0.12735709500343681 0.004015926865657337 0 -0.1236693299605585 -0.0137973575501921 0 -0.1110604598185659 -0.0207882196779367 0 -0.1221370268088495 -0.025998648103035 0 -0.1163329610324388 -0.034474533447810513 0 -0.1221370268088495 -0.025998648103035 0 -0.11173939550707281 -0.027270439782157759 0 -0.1110604598185659 -0.0207882196779367 0 -0.1221370268088495 -0.025998648103035 0 -0.11173939550707281 -0.027270439782157759 0 -0.1163329610324388 -0.034474533447810513 0 -0.097427134368436918 -0.027820357899848831 0 -0.1110604598185659 -0.0207882196779367 0 -0.097427134368436918 -0.027820357899848831 0 -0.1029392013539359 -0.0085751277431150782 0 -0.1163329610324388 -0.034474533447810513 0 -0.11173939550707281 -0.027270439782157759 0 -0.097427134368436918 -0.027820357899848831 0 -0.1110604598185659 -0.0207882196779367 0 -0.11173939550707281 -0.027270439782157759 0 -0.097427134368436918 -0.027820357899848831 0 -0.1029392013539359 -0.0085751277431150782 0 -0.086097875964997059 -0.0058870606910941042 0 -0.078521307704434995 -0.021166182351887271 0 -0.1029392013539359 -0.0085751277431150782 0 -0.078521307704434995 -0.021166182351887271 0 -0.1029392013539359 -0.0085751277431150782 0 -0.086097875964997059 -0.0058870606910941042 0 -0.091682611010439896 0.0063963380850077774 0 -0.086097875964997059 -0.0058870606910941042 0 -0.073830544796709738 -0.0078542708917730738 0 -0.078933949510919491 0.00072378658541613432 0 -0.086097875964997059 -0.0058870606910941042 0 -0.078521307704434995 -0.021166182351887271 0 -0.073830544796709738 -0.0078542708917730738 0 -0.097427134368436918 -0.027820357899848831 0 -0.078521307704434995 -0.021166182351887271 0 -0.097427134368436918 -0.027820357899848831 0 -0.078521307704434995 -0.021166182351887271 0 -0.077668975178724509 -0.024078573046198169 0 -0.097427134368436918 -0.027820357899848831 0 -0.1029392013539359 -0.0085751277431150782 0 -0.078521307704434995 -0.021166182351887271 0 -0.078521307704434995 -0.021166182351887271 0 -0.055132092173872667 -0.033226800447327051 0 -0.05822397002114936 -0.01402224463886402 0 -0.078521307704434995 -0.021166182351887271 0 -0.055132092173872667 -0.033226800447327051 0 -0.077668975178724509 -0.024078573046198169 0 -0.075465350998538308 -0.032772608828030472 0 -0.055132092173872667 -0.033226800447327051 0 -0.078521307704434995 -0.021166182351887271 0 -0.077668975178724509 -0.024078573046198169 0 -0.055132092173872667 -0.033226800447327051 0 -0.078521307704434995 -0.021166182351887271 0 -0.05822397002114936 -0.01402224463886402 0 -0.078521307704434995 -0.021166182351887271 0 -0.073830544796709738 -0.0078542708917730738 0 -0.05822397002114936 -0.01402224463886402 0 -0.073830544796709738 -0.0078542708917730738 0 -0.05822397002114936 -0.01402224463886402 0 -0.068462160169621672 0.0025537029525893409 0 -0.073830544796709738 -0.0078542708917730738 0 -0.078933949510919491 0.00072378658541613432 0 -0.068462160169621672 0.0025537029525893409 0 -0.094924188455715333 -0.074372309221374736 0 -0.090333769324138391 -0.059362086744932152 0 -0.077079431972146645 -0.050953682142663811 0 -0.094924188455715333 -0.074372309221374736 0 -0.078535685693175539 -0.061573663464548622 0 -0.077079431972146645 -0.050953682142663811 0 -0.084868245962835154 -0.053326759561897898 0 -0.090333769324138391 -0.059362086744932152 0 -0.077079431972146645 -0.050953682142663811 0 -0.084868245962835154 -0.053326759561897898 0 -0.080876314157704687 -0.04955372347343575 0 -0.082849096915408454 -0.045583035938281863 0 -0.080876314157704687 -0.04955372347343575 0 -0.078708481780428496 -0.048351416250899462 0 -0.082849096915408454 -0.045583035938281863 0 -0.080876314157704687 -0.04955372347343575 0 -0.078708481780428496 -0.048351416250899462 0 -0.077079431972146645 -0.050953682142663811 0 -0.084868245962835154 -0.053326759561897898 0 -0.080876314157704687 -0.04955372347343575 0 -0.077079431972146645 -0.050953682142663811 0 -0.084868245962835154 -0.053326759561897898 0 -0.090746651292135133 -0.048651172445365112 0 -0.082849096915408454 -0.045583035938281863 0 -0.084868245962835154 -0.053326759561897898 0 -0.090333769324138391 -0.059362086744932152 0 -0.090746651292135133 -0.048651172445365112 0 -0.099264754381345577 -0.055060356505970513 0 -0.090333769324138391 -0.059362086744932152 0 -0.090746651292135133 -0.048651172445365112 0 -0.096769769074122519 -0.04215743587210824 0 -0.088481073739883592 -0.043344290748051233 0 -0.083558777677868248 -0.036985518736449702 0 -0.096769769074122519 -0.04215743587210824 0 -0.097427134368436918 -0.027820357899848831 0 -0.077668975178724509 -0.024078573046198169 0 -0.096769769074122519 -0.04215743587210824 0 -0.077668975178724509 -0.024078573046198169 0 -0.083558777677868248 -0.036985518736449702 0 -0.096769769074122519 -0.04215743587210824 0 -0.077668975178724509 -0.024078573046198169 0 -0.090746651292135133 -0.048651172445365112 0 -0.088481073739883592 -0.043344290748051233 0 -0.082849096915408454 -0.045583035938281863 0 -0.096769769074122519 -0.04215743587210824 0 -0.090746651292135133 -0.048651172445365112 0 -0.088481073739883592 -0.043344290748051233 0 -0.077668975178724509 -0.024078573046198169 0 -0.083558777677868248 -0.036985518736449702 0 -0.075465350998538308 -0.032772608828030472 0 -0.083558777677868248 -0.036985518736449702 0 -0.082849096915408454 -0.045583035938281863 0 -0.075062618692292638 -0.040325846155841297 0 -0.088481073739883592 -0.043344290748051233 0 -0.083558777677868248 -0.036985518736449702 0 -0.082849096915408454 -0.045583035938281863 0 -0.082849096915408454 -0.045583035938281863 0 -0.078067002861142085 -0.04575568247049161 0 -0.075062618692292638 -0.040325846155841297 0 -0.078708481780428496 -0.048351416250899462 0 -0.082849096915408454 -0.045583035938281863 0 -0.078067002861142085 -0.04575568247049161 0 -0.075647814056438792 -0.048762431536943832 0 -0.055132092173872667 -0.033226800447327051 0 -0.078067002861142085 -0.04575568247049161 0 -0.075062618692292638 -0.040325846155841297 0 -0.075647814056438792 -0.048762431536943832 0 -0.075062618692292638 -0.040325846155841297 0 -0.075465350998538308 -0.032772608828030472 0 -0.055132092173872667 -0.033226800447327051 0 -0.075647814056438792 -0.048762431536943832 0 -0.061428605263776047 -0.046553119166432878 0 -0.055132092173872667 -0.033226800447327051 0 -0.075062618692292638 -0.040325846155841297 0 -0.075647814056438792 -0.048762431536943832 0 -0.055132092173872667 -0.033226800447327051 0 -0.083558777677868248 -0.036985518736449702 0 -0.075062618692292638 -0.040325846155841297 0 -0.075465350998538308 -0.032772608828030472 0 -0.065722760200719738 -0.052253177456942877 0 -0.075647814056438792 -0.048762431536943832 0 -0.061428605263776047 -0.046553119166432878 0 -0.065722760200719738 -0.052253177456942877 0 -0.07269306068786438 -0.052406879740114577 0 -0.069833853901725543 -0.055329661047837618 0 -0.065722760200719738 -0.052253177456942877 0 -0.07269306068786438 -0.052406879740114577 0 -0.075647814056438792 -0.048762431536943832 0 -0.07269306068786438 -0.052406879740114577 0 -0.073703714626092445 -0.056102563442451223 0 -0.069833853901725543 -0.055329661047837618 0 -0.07269306068786438 -0.052406879740114577 0 -0.077079431972146645 -0.050953682142663811 0 -0.073703714626092445 -0.056102563442451223 0 -0.078708481780428496 -0.048351416250899462 0 -0.077079431972146645 -0.050953682142663811 0 -0.075647814056438792 -0.048762431536943832 0 -0.07269306068786438 -0.052406879740114577 0 -0.077079431972146645 -0.050953682142663811 0 -0.075647814056438792 -0.048762431536943832 0 -0.078708481780428496 -0.048351416250899462 0 -0.078067002861142085 -0.04575568247049161 0 -0.075647814056438792 -0.048762431536943832 0 -0.078535685693175539 -0.061573663464548622 0 -0.073703714626092445 -0.056102563442451223 0 -0.070308423821052124 -0.061023041189074957 0 -0.078535685693175539 -0.061573663464548622 0 -0.077079431972146645 -0.050953682142663811 0 -0.073703714626092445 -0.056102563442451223 0 -0.073703714626092445 -0.056102563442451223 0 -0.070308423821052124 -0.061023041189074957 0 -0.069833853901725543 -0.055329661047837618 0 -0.070308423821052124 -0.061023041189074957 0 -0.064391701294429504 -0.057679717025484439 0 -0.060830035872249492 -0.064558057335980773 0 -0.070308423821052124 -0.061023041189074957 0 -0.069833853901725543 -0.055329661047837618 0 -0.064391701294429504 -0.057679717025484439 0 -0.065722760200719738 -0.052253177456942877 0 -0.069833853901725543 -0.055329661047837618 0 -0.064391701294429504 -0.057679717025484439 0 -0.064391701294429504 -0.057679717025484439 0 -0.055978059279945473 -0.056388284161067823 0 -0.060830035872249492 -0.064558057335980773 0 -0.065722760200719738 -0.052253177456942877 0 -0.064391701294429504 -0.057679717025484439 0 -0.055978059279945473 -0.056388284161067823 0 -0.055978059279945473 -0.056388284161067823 0 -0.041230103293456458 -0.058058117591144771 0 -0.049479852383656611 -0.067543566470139038 0 -0.055978059279945473 -0.056388284161067823 0 -0.049741921456861897 -0.048697412542500033 0 -0.041230103293456458 -0.058058117591144771 0 -0.055978059279945473 -0.056388284161067823 0 -0.049741921456861897 -0.048697412542500033 0 -0.061428605263776047 -0.046553119166432878 0 -0.065722760200719738 -0.052253177456942877 0 -0.055978059279945473 -0.056388284161067823 0 -0.061428605263776047 -0.046553119166432878 0 -0.049741921456861897 -0.048697412542500033 0 -0.061428605263776047 -0.046553119166432878 0 -0.055132092173872667 -0.033226800447327051 0 -0.049741921456861897 -0.048697412542500033 0 -0.055132092173872667 -0.033226800447327051 0 -0.032367863380537598 -0.044965144957206583 0 -0.055132092173872667 -0.033226800447327051 0 -0.032367863380537598 -0.044965144957206583 0 -0.055132092173872667 -0.033226800447327051 0 -0.032367863380537598 -0.044965144957206583 0 -0.031233838643279398 -0.031193199633022049 0 -0.049741921456861897 -0.048697412542500033 0 -0.032367863380537598 -0.044965144957206583 0 -0.041230103293456458 -0.058058117591144771 0 -0.032367863380537598 -0.044965144957206583 0 -0.041230103293456458 -0.058058117591144771 0 -0.026902341230915561 -0.060374551747501753 0 -0.05822397002114936 -0.01402224463886402 0 -0.057836245250817257 0.0062936453779614283 0 -0.044352522143416888 0.0050416822031405977 0 -0.05822397002114936 -0.01402224463886402 0 -0.037926632337863607 -0.0068783069258408786 0 -0.05822397002114936 -0.01402224463886402 0 -0.068462160169621672 0.0025537029525893409 0 -0.057836245250817257 0.0062936453779614283 0 -0.055132092173872667 -0.033226800447327051 0 -0.05822397002114936 -0.01402224463886402 0 -0.036243114184870161 -0.018923029155399909 0 -0.055132092173872667 -0.033226800447327051 0 -0.036243114184870161 -0.018923029155399909 0 -0.031233838643279398 -0.031193199633022049 0 -0.055132092173872667 -0.033226800447327051 0 -0.036243114184870161 -0.018923029155399909 0 -0.05822397002114936 -0.01402224463886402 0 -0.036243114184870161 -0.018923029155399909 0 -0.037926632337863607 -0.0068783069258408786 0 -0.05822397002114936 -0.01402224463886402 0 -0.037926632337863607 -0.0068783069258408786 0 -0.044352522143416888 0.0050416822031405977 0 -0.036243114184870161 -0.018923029155399909 0 -0.037926632337863607 -0.0068783069258408786 0 -0.029121832422534862 -0.0067169982391169078 0 -0.037926632337863607 -0.0068783069258408786 0 -0.029539197120254941 -0.00051038393964639519 0 -0.029121832422534862 -0.0067169982391169078 0 -0.037926632337863607 -0.0068783069258408786 0 -0.029539197120254941 -0.00051038393964639519 0 -0.03614709390981162 0.0015378833132510439 0 -0.037926632337863607 -0.0068783069258408786 0 -0.03614709390981162 0.0015378833132510439 0 -0.044352522143416888 0.0050416822031405977 0 -0.036243114184870161 -0.018923029155399909 0 -0.017354136195868258 -0.0046192578634720229 0 -0.01819617019275287 -0.0061732580868559192 0 -0.036243114184870161 -0.018923029155399909 0 -0.017354136195868258 -0.0046192578634720229 0 -0.029121832422534862 -0.0067169982391169078 0 -0.036243114184870161 -0.018923029155399909 0 -0.01819617019275287 -0.0061732580868559192 0 -0.019637671972121611 -0.02148729346067638 0 -0.036243114184870161 -0.018923029155399909 0 -0.017354136195868258 -0.0046192578634720229 0 -0.017354136195868258 -0.0046192578634720229 0 -0.01819617019275287 -0.0061732580868559192 0 -0.013500839782477779 -0.0058155532537883976 0 -0.017354136195868258 -0.0046192578634720229 0 -0.01819617019275287 -0.0061732580868559192 0 -0.017354136195868258 -0.0046192578634720229 0 -0.024546082273817361 -0.00265401331122534 0 -0.02112675760807068 0.0030512678310729521 0 -0.024546082273817361 -0.00265401331122534 0 -0.029539197120254941 -0.00051038393964639519 0 -0.02112675760807068 0.0030512678310729521 0 -0.017354136195868258 -0.0046192578634720229 0 -0.024546082273817361 -0.00265401331122534 0 -0.029121832422534862 -0.0067169982391169078 0 -0.024546082273817361 -0.00265401331122534 0 -0.029539197120254941 -0.00051038393964639519 0 -0.029121832422534862 -0.0067169982391169078 0 -0.01819617019275287 -0.0061732580868559192 0 -0.019637671972121611 -0.02148729346067638 0 -0.011008321991883009 -0.01057962122923565 0 -0.036243114184870161 -0.018923029155399909 0 -0.019637671972121611 -0.02148729346067638 0 -0.031233838643279398 -0.031193199633022049 0 -0.019637671972121611 -0.02148729346067638 0 -0.031233838643279398 -0.031193199633022049 0 -0.016064986363794779 -0.036441041599790329 0 -0.0077215053668332834 -0.022860670268973711 0 -0.00118246574067416 -0.01324232368796026 0 0.0015263381015913891 -0.033415212413580753 0 -0.0077215053668332834 -0.022860670268973711 0 -0.016064986363794779 -0.036441041599790329 0 0.0015263381015913891 -0.033415212413580753 0 -0.019637671972121611 -0.02148729346067638 0 -0.0077215053668332834 -0.022860670268973711 0 -0.016064986363794779 -0.036441041599790329 0 -0.019637671972121611 -0.02148729346067638 0 -0.0077215053668332834 -0.022860670268973711 0 -0.011008321991883009 -0.01057962122923565 0 -0.011008321991883009 -0.01057962122923565 0 -0.00118246574067416 -0.01324232368796026 0 -0.0072764121498596901 -0.0036325873431357339 0 -0.0077215053668332834 -0.022860670268973711 0 -0.011008321991883009 -0.01057962122923565 0 -0.00118246574067416 -0.01324232368796026 0 -0.00118246574067416 -0.01324232368796026 0 -0.0072764121498596901 -0.0036325873431357339 0 0.0012074066645448821 -0.00065723147797176382 0 -0.0072764121498596901 -0.0036325873431357339 0 -0.013500839782477779 -0.0058155532537883976 0 -0.013607688627124061 -0.00178224205395049 0 -0.011008321991883009 -0.01057962122923565 0 -0.0072764121498596901 -0.0036325873431357339 0 -0.013500839782477779 -0.0058155532537883976 0 -0.01819617019275287 -0.0061732580868559192 0 -0.011008321991883009 -0.01057962122923565 0 -0.013500839782477779 -0.0058155532537883976 0 -0.017354136195868258 -0.0046192578634720229 0 -0.013500839782477779 -0.0058155532537883976 0 -0.013607688627124061 -0.00178224205395049 0 -0.017354136195868258 -0.0046192578634720229 0 -0.013607688627124061 -0.00178224205395049 0 -0.032367863380537598 -0.044965144957206583 0 -0.0096036345872028556 -0.056703489467087059 0 -0.032367863380537598 -0.044965144957206583 0 -0.026902341230915561 -0.060374551747501753 0 -0.0096036345872028556 -0.056703489467087059 0 -0.032367863380537598 -0.044965144957206583 0 -0.031233838643279398 -0.031193199633022049 0 -0.016064986363794779 -0.036441041599790329 0 -0.032367863380537598 -0.044965144957206583 0 -0.016064986363794779 -0.036441041599790329 0 -0.0096036345872028556 -0.056703489467087059 0 -0.0096036345872028556 -0.056703489467087059 0 0.0015263381015913891 -0.033415212413580753 0 -0.016064986363794779 -0.036441041599790329 0 -0.0096036345872028556 -0.056703489467087059 0 0.0015263381015913891 -0.033415212413580753 0 -0.0096036345872028556 -0.056703489467087059 0 0.0015263381015913891 -0.033415212413580753 0 0.007298405735321048 -0.051477207310420908 0 -0.0096036345872028556 -0.056703489467087059 0 0.0052181775422467033 -0.064346337314722044 0 -0.0096036345872028556 -0.056703489467087059 0 -0.0043762627118289626 -0.071729097412358583 0 0.0052181775422467033 -0.064346337314722044 0 -0.0043762627118289626 -0.071729097412358583 0 -0.0092607301227374331 -0.088572496961274561 0 -0.01646375475339092 -0.071057556949349329 0 -0.0096036345872028556 -0.056703489467087059 0 -0.01646375475339092 -0.071057556949349329 0 -0.0096036345872028556 -0.056703489467087059 0 -0.0043762627118289626 -0.071729097412358583 0 -0.01646375475339092 -0.071057556949349329 0 -0.0092607301227374331 -0.088572496961274561 0 -0.00044729776891663488 -0.1011528385718463 0 0.0042106568376920582 -0.081118225430045127 0 -0.0043762627118289626 -0.071729097412358583 0 -0.0092607301227374331 -0.088572496961274561 0 0.0042106568376920582 -0.081118225430045127 0 -0.0092607301227374331 -0.088572496961274561 0 -0.037642160748979789 -0.094071739377162955 0 -0.0092607301227374331 -0.088572496961274561 0 -0.023323874919582349 -0.085411624431610003 0 -0.01646375475339092 -0.071057556949349329 0 -0.0092607301227374331 -0.088572496961274561 0 -0.023323874919582349 -0.085411624431610003 0 -0.037642160748979789 -0.094071739377162955 0 -0.023323874919582349 -0.085411624431610003 0 -0.01646375475339092 -0.071057556949349329 0 -0.023323874919582349 -0.085411624431610003 0 -0.01646375475339092 -0.071057556949349329 0 -0.034846350139989962 -0.07108844977272101 0 -0.026902341230915561 -0.060374551747501753 0 -0.01646375475339092 -0.071057556949349329 0 -0.034846350139989962 -0.07108844977272101 0 -0.026902341230915561 -0.060374551747501753 0 -0.0096036345872028556 -0.056703489467087059 0 -0.01646375475339092 -0.071057556949349329 0 -0.041230103293456458 -0.058058117591144771 0 -0.026902341230915561 -0.060374551747501753 0 -0.034846350139989962 -0.07108844977272101 0 -0.041230103293456458 -0.058058117591144771 0 -0.034846350139989962 -0.07108844977272101 0 -0.049479852383656611 -0.067543566470139038 0 -0.034846350139989962 -0.07108844977272101 0 -0.048784805137481749 -0.081200653853927454 0 -0.049479852383656611 -0.067543566470139038 0 -0.023323874919582349 -0.085411624431610003 0 -0.034846350139989962 -0.07108844977272101 0 -0.036149297736508462 -0.082943116858855345 0 -0.023323874919582349 -0.085411624431610003 0 -0.036149297736508462 -0.082943116858855345 0 -0.037642160748979789 -0.094071739377162955 0 -0.036149297736508462 -0.082943116858855345 0 -0.048784805137481749 -0.081200653853927454 0 -0.037642160748979789 -0.094071739377162955 0 -0.034846350139989962 -0.07108844977272101 0 -0.036149297736508462 -0.082943116858855345 0 -0.048784805137481749 -0.081200653853927454 0 -0.063732237529271596 -0.080733089011810297 0 -0.066023591375222151 -0.09957098179305135 0 -0.048784805137481749 -0.081200653853927454 0 -0.066023591375222151 -0.09957098179305135 0 -0.048784805137481749 -0.081200653853927454 0 -0.037642160748979789 -0.094071739377162955 0 -0.063732237529271596 -0.080733089011810297 0 -0.048784805137481749 -0.081200653853927454 0 -0.058000192015007383 -0.073011667883306972 0 -0.055978059279945473 -0.056388284161067823 0 -0.060830035872249492 -0.064558057335980773 0 -0.049479852383656611 -0.067543566470139038 0 -0.058000192015007383 -0.073011667883306972 0 -0.060830035872249492 -0.064558057335980773 0 -0.049479852383656611 -0.067543566470139038 0 -0.067174029152377468 -0.071022972744677337 0 -0.058000192015007383 -0.073011667883306972 0 -0.060830035872249492 -0.064558057335980773 0 -0.048784805137481749 -0.081200653853927454 0 -0.058000192015007383 -0.073011667883306972 0 -0.049479852383656611 -0.067543566470139038 0 -0.069466171350113709 -0.1135628440840601 0 -0.054384952187449757 -0.110609208962567 0 -0.059238207921678762 -0.13024384051707169 0 -0.054384952187449757 -0.110609208962567 0 -0.059238207921678762 -0.13024384051707169 0 -0.032945469352336033 -0.1293562392835419 0 -0.066023591375222151 -0.09957098179305135 0 -0.054384952187449757 -0.110609208962567 0 -0.037642160748979789 -0.094071739377162955 0 -0.066023591375222151 -0.09957098179305135 0 -0.037642160748979789 -0.094071739377162955 0 -0.054384952187449757 -0.110609208962567 0 -0.037642160748979789 -0.094071739377162955 0 -0.035661083064217503 -0.11124856921529409 0 -0.054384952187449757 -0.110609208962567 0 -0.032945469352336033 -0.1293562392835419 0 -0.054384952187449757 -0.110609208962567 0 -0.035661083064217503 -0.11124856921529409 0 -0.032945469352336033 -0.1293562392835419 0 -0.01767174996810443 -0.1109570892379047 0 -0.012892303975098539 -0.12786221844410239 0 -0.032945469352336033 -0.1293562392835419 0 -0.035661083064217503 -0.11124856921529409 0 -0.01767174996810443 -0.1109570892379047 0 -0.032945469352336033 -0.1293562392835419 0 -0.0092607301227374331 -0.088572496961274561 0 -0.037642160748979789 -0.094071739377162955 0 -0.01767174996810443 -0.1109570892379047 0 -0.037642160748979789 -0.094071739377162955 0 -0.035661083064217503 -0.11124856921529409 0 -0.01767174996810443 -0.1109570892379047 0 -0.01767174996810443 -0.1109570892379047 0 -0.00044729776891663488 -0.1011528385718463 0 0.005085065621477718 -0.1151057880332567 0 -0.0092607301227374331 -0.088572496961274561 0 -0.01767174996810443 -0.1109570892379047 0 -0.00044729776891663488 -0.1011528385718463 0 -0.01767174996810443 -0.1109570892379047 0 -0.012892303975098539 -0.12786221844410239 0 0.005085065621477718 -0.1151057880332567 0 -0.012892303975098539 -0.12786221844410239 0 0.0027021066240326768 -0.1317064378292063 0 0.005085065621477718 -0.1151057880332567 0 -0.011505986517222349 -0.14810326960451681 0 -0.033736789854580403 -0.16402697950055581 0 -0.032945469352336033 -0.1293562392835419 0 -0.012892303975098539 -0.12786221844410239 0 -0.011505986517222349 -0.14810326960451681 0 0.0027021066240326768 -0.1317064378292063 0 -0.011505986517222349 -0.14810326960451681 0 -0.032945469352336033 -0.1293562392835419 0 -0.012892303975098539 -0.12786221844410239 0 -0.011505986517222349 -0.14810326960451681 0 -0.032945469352336033 -0.1293562392835419 0 -0.011505986517222349 -0.14810326960451681 0 0.009933496317892726 -0.16685029992549011 0 -0.011505986517222349 -0.14810326960451681 0 -0.0085976242789068957 -0.177408956520272 0 0.009933496317892726 -0.16685029992549011 0 -0.0085976242789068957 -0.177408956520272 0 -0.003739977245034012 -0.19168309442994089 0 -0.02712874487570623 -0.18796761311505439 0 -0.0085976242789068957 -0.177408956520272 0 -0.003739977245034012 -0.19168309442994089 0 0.0034571977838801569 -0.17702496179755631 0 -0.0085976242789068957 -0.177408956520272 0 -0.02712874487570623 -0.18796761311505439 0 -0.0085976242789068957 -0.177408956520272 0 -0.033736789854580403 -0.16402697950055581 0 -0.02712874487570623 -0.18796761311505439 0 -0.011505986517222349 -0.14810326960451681 0 -0.0085976242789068957 -0.177408956520272 0 -0.033736789854580403 -0.16402697950055581 0 -0.033736789854580403 -0.16402697950055581 0 -0.041678182321736049 -0.18065303021324261 0 -0.02712874487570623 -0.18796761311505439 0 -0.033736789854580403 -0.16402697950055581 0 -0.041678182321736049 -0.18065303021324261 0 -0.060187329084152079 -0.17209125852752319 0 -0.041678182321736049 -0.18065303021324261 0 -0.060187329084152079 -0.17209125852752319 0 -0.045659865472505487 -0.198526269709837 0 -0.060187329084152079 -0.17209125852752319 0 -0.045659865472505487 -0.198526269709837 0 -0.033736789854580403 -0.16402697950055581 0 -0.060187329084152079 -0.17209125852752319 0 -0.051699405537506939 -0.14899167338562519 0 -0.060187329084152079 -0.17209125852752319 0 -0.051699405537506939 -0.14899167338562519 0 -0.072389231474787458 -0.1492400490994332 0 -0.051699405537506939 -0.14899167338562519 0 -0.059238207921678762 -0.13024384051707169 0 -0.072389231474787458 -0.1492400490994332 0 -0.033736789854580403 -0.16402697950055581 0 -0.051699405537506939 -0.14899167338562519 0 -0.032945469352336033 -0.1293562392835419 0 -0.051699405537506939 -0.14899167338562519 0 -0.059238207921678762 -0.13024384051707169 0 -0.032945469352336033 -0.1293562392835419 0 -0.025857267464119819 -0.25506418495113531 0 -0.02368513365757598 -0.23851275990414511 0 -0.036167443228362108 -0.24337299090061551 0 -0.01269776775011346 -0.25850600500130039 0 -0.02368513365757598 -0.23851275990414511 0 -0.01269776775011346 -0.25850600500130039 0 -0.02368513365757598 -0.23851275990414511 0 -0.01082738352359053 -0.24876902592697839 0 -0.02368513365757598 -0.23851275990414511 0 -0.0067432183097289999 -0.239968376336817 0 -0.0090267388034834407 -0.23007068799598671 0 -0.02368513365757598 -0.23851275990414511 0 -0.01082738352359053 -0.24876902592697839 0 -0.0067432183097289999 -0.239968376336817 0 -0.01082738352359053 -0.24876902592697839 0 -0.0029313858115674811 -0.24854412401401971 0 -0.0067432183097289999 -0.239968376336817 0 -0.0029313858115674811 -0.24854412401401971 0 -0.0067432183097289999 -0.239968376336817 0 0.0026199421412959989 -0.2430643023623929 0 -0.0067432183097289999 -0.239968376336817 0 0.0026199421412959989 -0.2430643023623929 0 0.0017465435191736189 -0.23378549097037141 0 -0.0067432183097289999 -0.239968376336817 0 -0.0090267388034834407 -0.23007068799598671 0 0.0017465435191736189 -0.23378549097037141 0 -0.0090267388034834407 -0.23007068799598671 0 -0.00080535468136348092 -0.21995366459000901 0 -0.01839049427805331 -0.2195873775130934 0 -0.0090267388034834407 -0.23007068799598671 0 -0.00080535468136348092 -0.21995366459000901 0 0.0017465435191736189 -0.23378549097037141 0 -0.02368513365757598 -0.23851275990414511 0 -0.0090267388034834407 -0.23007068799598671 0 -0.01839049427805331 -0.2195873775130934 0 -0.02368513365757598 -0.23851275990414511 0 -0.01839049427805331 -0.2195873775130934 0 -0.034672499565036527 -0.2185195148069887 0 -0.02368513365757598 -0.23851275990414511 0 -0.034672499565036527 -0.2185195148069887 0 -0.01839049427805331 -0.2195873775130934 0 -0.027127261386640289 -0.20489204062456881 0 -0.034672499565036527 -0.2185195148069887 0 -0.01839049427805331 -0.2195873775130934 0 -0.027127261386640289 -0.20489204062456881 0 -0.01084996336714465 -0.20584666152463099 0 -0.00080535468136348092 -0.21995366459000901 0 -0.01839049427805331 -0.2195873775130934 0 -0.01084996336714465 -0.20584666152463099 0 -0.00080535468136348092 -0.21995366459000901 0 -0.01084996336714465 -0.20584666152463099 0 0.01016515501406726 -0.20926501301563591 0 -0.01084996336714465 -0.20584666152463099 0 -0.003739977245034012 -0.19168309442994089 0 0.01016515501406726 -0.20926501301563591 0 -0.01084996336714465 -0.20584666152463099 0 -0.003739977245034012 -0.19168309442994089 0 -0.02712874487570623 -0.18796761311505439 0 -0.027127261386640289 -0.20489204062456881 0 -0.01084996336714465 -0.20584666152463099 0 -0.02712874487570623 -0.18796761311505439 0 -0.041678182321736049 -0.18065303021324261 0 -0.02712874487570623 -0.18796761311505439 0 -0.045659865472505487 -0.198526269709837 0 -0.02712874487570623 -0.18796761311505439 0 -0.045659865472505487 -0.198526269709837 0 -0.027127261386640289 -0.20489204062456881 0 -0.02712874487570623 -0.18796761311505439 0 -0.045659865472505487 -0.198526269709837 0 -0.045659865472505487 -0.198526269709837 0 -0.067682806497079445 -0.21107449474949169 0 -0.062708331551170268 -0.19442045911658551 0 -0.060187329084152079 -0.17209125852752319 0 -0.045659865472505487 -0.198526269709837 0 -0.062708331551170268 -0.19442045911658551 0 -0.045659865472505487 -0.198526269709837 0 -0.067682806497079445 -0.21107449474949169 0 -0.045659865472505487 -0.198526269709837 0 -0.054546183461555722 -0.22015285450131489 0 -0.067682806497079445 -0.21107449474949169 0 -0.045659865472505487 -0.198526269709837 0 -0.034672499565036527 -0.2185195148069887 0 -0.054546183461555722 -0.22015285450131489 0 -0.045659865472505487 -0.198526269709837 0 -0.034672499565036527 -0.2185195148069887 0 -0.027127261386640289 -0.20489204062456881 0 -0.045659865472505487 -0.198526269709837 0 -0.034672499565036527 -0.2185195148069887 0 -0.034672499565036527 -0.2185195148069887 0 -0.044145410485190079 -0.23242073182379891 0 -0.054546183461555722 -0.22015285450131489 0 -0.02368513365757598 -0.23851275990414511 0 -0.034672499565036527 -0.2185195148069887 0 -0.044145410485190079 -0.23242073182379891 0 -0.044145410485190079 -0.23242073182379891 0 -0.054546183461555722 -0.22015285450131489 0 -0.061280333386656921 -0.23284462843810469 0 -0.061280333386656921 -0.23284462843810469 0 -0.050191684441297867 -0.2485850187836515 0 -0.071591358857016049 -0.2429226102204386 0 -0.050191684441297867 -0.2485850187836515 0 -0.071591358857016049 -0.2429226102204386 0 -0.056939497423126581 -0.24878681181634871 0 -0.050191684441297867 -0.2485850187836515 0 -0.071591358857016049 -0.2429226102204386 0 -0.044145410485190079 -0.23242073182379891 0 -0.061280333386656921 -0.23284462843810469 0 -0.050191684441297867 -0.2485850187836515 0 -0.041398382443623198 -0.25192549838374201 0 -0.056939497423126581 -0.24878681181634871 0 -0.050191684441297867 -0.2485850187836515 0 -0.044145410485190079 -0.23242073182379891 0 -0.050191684441297867 -0.2485850187836515 0 -0.036167443228362108 -0.24337299090061551 0 -0.02368513365757598 -0.23851275990414511 0 -0.044145410485190079 -0.23242073182379891 0 -0.036167443228362108 -0.24337299090061551 0 -0.025857267464119819 -0.25506418495113531 0 -0.050191684441297867 -0.2485850187836515 0 -0.036167443228362108 -0.24337299090061551 0 -0.097628444613881649 -0.25834262822693399 0 -0.087470553331264578 -0.24262075389877999 0 -0.077955776651182085 -0.24454236002529731 0 -0.087470553331264578 -0.24262075389877999 0 -0.087928467376508473 -0.23859976953689591 0 -0.1005617376665941 -0.23997685579502359 0 -0.087928467376508473 -0.23859976953689591 0 -0.07453604668454375 -0.2421434382925548 0 -0.07383618536286593 -0.22753148747966839 0 -0.087928467376508473 -0.23859976953689591 0 -0.07453604668454375 -0.2421434382925548 0 -0.087928467376508473 -0.23859976953689591 0 -0.077955776651182085 -0.24454236002529731 0 -0.07453604668454375 -0.2421434382925548 0 -0.087470553331264578 -0.24262075389877999 0 -0.087928467376508473 -0.23859976953689591 0 -0.077955776651182085 -0.24454236002529731 0 -0.087470553331264578 -0.24262075389877999 0 -0.077955776651182085 -0.24454236002529731 0 -0.056939497423126581 -0.24878681181634871 0 -0.077955776651182085 -0.24454236002529731 0 -0.071591358857016049 -0.2429226102204386 0 -0.056939497423126581 -0.24878681181634871 0 -0.077955776651182085 -0.24454236002529731 0 -0.077955776651182085 -0.24454236002529731 0 -0.071591358857016049 -0.2429226102204386 0 -0.07453604668454375 -0.2421434382925548 0 -0.077955776651182085 -0.24454236002529731 0 -0.07453604668454375 -0.2421434382925548 0 -0.071591358857016049 -0.2429226102204386 0 -0.07453604668454375 -0.2421434382925548 0 -0.056939497423126581 -0.24878681181634871 0 -0.071591358857016049 -0.2429226102204386 0 -0.061280333386656921 -0.23284462843810469 0 -0.071591358857016049 -0.2429226102204386 0 -0.07453604668454375 -0.2421434382925548 0 -0.061280333386656921 -0.23284462843810469 0 -0.07453604668454375 -0.2421434382925548 0 -0.07383618536286593 -0.22753148747966839 0 -0.089705747521653334 -0.22362271978914661 0 -0.067682806497079445 -0.21107449474949169 0 -0.054546183461555722 -0.22015285450131489 0 -0.061280333386656921 -0.23284462843810469 0 -0.07383618536286593 -0.22753148747966839 0 -0.054546183461555722 -0.22015285450131489 0 -0.07383618536286593 -0.22753148747966839 0 -0.067682806497079445 -0.21107449474949169 0 -0.061280333386656921 -0.23284462843810469 0 -0.07453604668454375 -0.2421434382925548 0 -0.07383618536286593 -0.22753148747966839 0 -0.087928467376508473 -0.23859976953689591 0 -0.07383618536286593 -0.22753148747966839 0 -0.089705747521653334 -0.22362271978914661 0 -0.087928467376508473 -0.23859976953689591 0 -0.089705747521653334 -0.22362271978914661 0 -0.1005617376665941 -0.23997685579502359 0 -0.089705747521653334 -0.22362271978914661 0 -0.067682806497079445 -0.21107449474949169 0 -0.089705747521653334 -0.22362271978914661 0 -0.084027466008495671 -0.20735524824550181 0 -0.09921486728828334 -0.20109800384388701 0 -0.089705747521653334 -0.22362271978914661 0 -0.084027466008495671 -0.20735524824550181 0 -0.067682806497079445 -0.21107449474949169 0 -0.084027466008495671 -0.20735524824550181 0 -0.067682806497079445 -0.21107449474949169 0 -0.079506442726966622 -0.19362577459948219 0 -0.067682806497079445 -0.21107449474949169 0 -0.062708331551170268 -0.19442045911658551 0 -0.079506442726966622 -0.19362577459948219 0 -0.079506442726966622 -0.19362577459948219 0 -0.09921486728828334 -0.20109800384388701 0 -0.089369030920126963 -0.1732707743578942 0 -0.084027466008495671 -0.20735524824550181 0 -0.079506442726966622 -0.19362577459948219 0 -0.09921486728828334 -0.20109800384388701 0 -0.09921486728828334 -0.20109800384388701 0 -0.1156293974943295 -0.1822747327150937 0 -0.1210853022939376 -0.205467400633562 0 -0.1156293974943295 -0.1822747327150937 0 -0.13505851963374399 -0.18906788910329131 0 -0.09921486728828334 -0.20109800384388701 0 -0.1210853022939376 -0.205467400633562 0 -0.1156293974943295 -0.1822747327150937 0 -0.1210853022939376 -0.205467400633562 0 -0.10755849924533691 -0.2178899443088799 0 -0.11989889803527461 -0.22145143588075511 0 -0.1210853022939376 -0.205467400633562 0 -0.11989889803527461 -0.22145143588075511 0 -0.13086176299679239 -0.21746526838305219 0 -0.089705747521653334 -0.22362271978914661 0 -0.09921486728828334 -0.20109800384388701 0 -0.10755849924533691 -0.2178899443088799 0 -0.09921486728828334 -0.20109800384388701 0 -0.1210853022939376 -0.205467400633562 0 -0.10755849924533691 -0.2178899443088799 0 -0.089705747521653334 -0.22362271978914661 0 -0.11172868854622731 -0.23617094482880149 0 -0.1005617376665941 -0.23997685579502359 0 -0.089705747521653334 -0.22362271978914661 0 -0.11172868854622731 -0.23617094482880149 0 -0.089705747521653334 -0.22362271978914661 0 -0.10755849924533691 -0.2178899443088799 0 -0.11172868854622731 -0.23617094482880149 0 -0.11989889803527461 -0.22145143588075511 0 -0.11172868854622731 -0.23617094482880149 0 -0.127825895831608 -0.22987551408160201 0 -0.10755849924533691 -0.2178899443088799 0 -0.11989889803527461 -0.22145143588075511 0 -0.11172868854622731 -0.23617094482880149 0 -0.13218950310710981 -0.25272660122947088 0 -0.1218823470606431 -0.24640061544388489 0 -0.1098930818979398 -0.24798588601512411 0 -0.11172868854622731 -0.23617094482880149 0 -0.13375162957080131 -0.24871916986845621 0 -0.11172868854622731 -0.23617094482880149 0 -0.1218823470606431 -0.24640061544388489 0 -0.13375162957080131 -0.24871916986845621 0 -0.11172868854622731 -0.23617094482880149 0 -0.13375162957080131 -0.24871916986845621 0 -0.127825895831608 -0.22987551408160201 0 -0.11172868854622731 -0.23617094482880149 0 -0.1218823470606431 -0.24640061544388489 0 -0.1098930818979398 -0.24798588601512411 0 -0.097628444613881649 -0.25834262822693399 0 -0.087470553331264578 -0.24262075389877999 0 -0.1098930818979398 -0.24798588601512411 0 -0.087470553331264578 -0.24262075389877999 0 -0.1098930818979398 -0.24798588601512411 0 -0.1005617376665941 -0.23997685579502359 0 -0.087470553331264578 -0.24262075389877999 0 -0.1098930818979398 -0.24798588601512411 0 -0.11172868854622731 -0.23617094482880149 0 -0.1098930818979398 -0.24798588601512411 0 -0.1005617376665941 -0.23997685579502359 0 -0.087470553331264578 -0.24262075389877999 0 -0.1005617376665941 -0.23997685579502359 0 -0.072389231474787458 -0.1492400490994332 0 -0.089369030920126963 -0.1732707743578942 0 -0.096011965921864201 -0.14265464397282879 0 -0.077516787342341589 -0.1242022911324857 0 -0.093262550211769629 -0.1231040070079162 0 -0.096011965921864201 -0.14265464397282879 0 -0.077516787342341589 -0.1242022911324857 0 -0.072389231474787458 -0.1492400490994332 0 -0.096011965921864201 -0.14265464397282879 0 -0.077516787342341589 -0.1242022911324857 0 -0.059238207921678762 -0.13024384051707169 0 -0.072389231474787458 -0.1492400490994332 0 -0.060187329084152079 -0.17209125852752319 0 -0.072389231474787458 -0.1492400490994332 0 -0.089369030920126963 -0.1732707743578942 0 -0.060187329084152079 -0.17209125852752319 0 -0.079506442726966622 -0.19362577459948219 0 -0.089369030920126963 -0.1732707743578942 0 -0.060187329084152079 -0.17209125852752319 0 -0.062708331551170268 -0.19442045911658551 0 -0.079506442726966622 -0.19362577459948219 0 -0.089369030920126963 -0.1732707743578942 0 -0.1107512355661594 -0.16096683979900789 0 -0.096011965921864201 -0.14265464397282879 0 -0.09921486728828334 -0.20109800384388701 0 -0.089369030920126963 -0.1732707743578942 0 -0.1156293974943295 -0.1822747327150937 0 -0.089369030920126963 -0.1732707743578942 0 -0.1156293974943295 -0.1822747327150937 0 -0.1107512355661594 -0.16096683979900789 0 -0.1156293974943295 -0.1822747327150937 0 -0.13204392770037571 -0.1634514615863005 0 -0.1156293974943295 -0.1822747327150937 0 -0.1107512355661594 -0.16096683979900789 0 -0.13204392770037571 -0.1634514615863005 0 -0.1107512355661594 -0.16096683979900789 0 -0.12070185579410091 -0.1431825863629223 0 -0.13204392770037571 -0.1634514615863005 0 -0.1107512355661594 -0.16096683979900789 0 -0.12070185579410091 -0.1431825863629223 0 -0.096011965921864201 -0.14265464397282879 0 -0.1071147179002416 -0.1244919901550422 0 -0.12070185579410091 -0.1431825863629223 0 -0.096011965921864201 -0.14265464397282879 0 -0.093262550211769629 -0.1231040070079162 0 -0.1071147179002416 -0.1244919901550422 0 -0.096011965921864201 -0.14265464397282879 0 -0.1071147179002416 -0.1244919901550422 0 -0.12070185579410091 -0.1431825863629223 0 -0.1306137014228527 -0.1212095633787966 0 -0.12070185579410091 -0.1431825863629223 0 -0.14845845790642179 -0.14462819045750719 0 -0.1306137014228527 -0.1212095633787966 0 -0.14845845790642179 -0.14462819045750719 0 -0.1306137014228527 -0.1212095633787966 0 -0.15036797716661271 -0.14243845987679379 0 -0.14845845790642179 -0.14462819045750719 0 -0.1306137014228527 -0.1212095633787966 0 -0.15406265534163929 -0.1294064941378926 0 -0.15036797716661271 -0.14243845987679379 0 -0.1306137014228527 -0.1212095633787966 0 -0.15406265534163929 -0.1294064941378926 0 -0.15036797716661271 -0.14243845987679379 0 -0.1564494690737798 -0.13971242061594299 0 -0.1543278084257422 -0.1453912472931165 0 -0.14845845790642179 -0.14462819045750719 0 -0.15894149653025619 -0.15184230729274609 0 -0.15519343748037609 -0.14309809199123349 0 -0.15036797716661271 -0.14243845987679379 0 -0.1564494690737798 -0.13971242061594299 0 -0.1543278084257422 -0.1453912472931165 0 -0.15519343748037609 -0.14309809199123349 0 -0.15036797716661271 -0.14243845987679379 0 -0.1543278084257422 -0.1453912472931165 0 -0.15036797716661271 -0.14243845987679379 0 -0.14845845790642179 -0.14462819045750719 0 -0.15036797716661271 -0.14243845987679379 0 -0.14845845790642179 -0.14462819045750719 0 -0.12070185579410091 -0.1431825863629223 0 -0.14845845790642179 -0.14462819045750719 0 -0.13204392770037571 -0.1634514615863005 0 -0.14845845790642179 -0.14462819045750719 0 -0.13204392770037571 -0.1634514615863005 0 -0.13204392770037571 -0.1634514615863005 0 -0.1475860696211248 -0.17640031700015249 0 -0.13505851963374399 -0.18906788910329131 0 -0.1156293974943295 -0.1822747327150937 0 -0.13204392770037571 -0.1634514615863005 0 -0.13505851963374399 -0.18906788910329131 0 -0.1475860696211248 -0.17640031700015249 0 -0.1655722477793394 -0.1670875310098065 0 -0.15496537504316019 -0.19429807729602311 0 -0.1475860696211248 -0.17640031700015249 0 -0.13505851963374399 -0.18906788910329131 0 -0.15496537504316019 -0.19429807729602311 0 -0.1475860696211248 -0.17640031700015249 0 -0.14862352044039201 -0.16347018067920821 0 -0.1655722477793394 -0.1670875310098065 0 -0.14845845790642179 -0.14462819045750719 0 -0.13204392770037571 -0.1634514615863005 0 -0.14862352044039201 -0.16347018067920821 0 -0.14845845790642179 -0.14462819045750719 0 -0.14862352044039201 -0.16347018067920821 0 -0.1655722477793394 -0.1670875310098065 0 -0.13204392770037571 -0.1634514615863005 0 -0.1475860696211248 -0.17640031700015249 0 -0.14862352044039201 -0.16347018067920821 0 -0.1655722477793394 -0.1670875310098065 0 -0.1716614177265566 -0.15146656102038991 0 -0.1655722477793394 -0.1670875310098065 0 -0.15894149653025619 -0.15184230729274609 0 -0.1716614177265566 -0.15146656102038991 0 -0.1655722477793394 -0.1670875310098065 0 -0.17557921295501691 -0.18022020591375351 0 -0.1689483943248192 -0.19264195369377959 0 -0.1655722477793394 -0.1670875310098065 0 -0.15496537504316019 -0.19429807729602311 0 -0.1689483943248192 -0.19264195369377959 0 -0.1655722477793394 -0.1670875310098065 0 -0.15496537504316019 -0.19429807729602311 0 -0.1655722477793394 -0.1670875310098065 0 -0.17557921295501691 -0.18022020591375351 0 -0.17557921295501691 -0.18022020591375351 0 -0.18239484980351819 -0.16464781923938721 0 -0.1907059301477185 -0.18468107337543721 0 -0.1655722477793394 -0.1670875310098065 0 -0.17557921295501691 -0.18022020591375351 0 -0.18239484980351819 -0.16464781923938721 0 -0.1655722477793394 -0.1670875310098065 0 -0.18239484980351819 -0.16464781923938721 0 -0.1716614177265566 -0.15146656102038991 0 -0.18239484980351819 -0.16464781923938721 0 -0.1716614177265566 -0.15146656102038991 0 -0.1894311146879058 -0.1465309504005988 0 -0.17775058767377289 -0.13584559103097291 0 -0.1716614177265566 -0.15146656102038991 0 -0.1894311146879058 -0.1465309504005988 0 -0.17775058767377289 -0.13584559103097291 0 -0.1716614177265566 -0.15146656102038991 0 -0.17775058767377289 -0.13584559103097291 0 -0.1894311146879058 -0.1465309504005988 0 -0.17775058767377289 -0.13584559103097291 0 -0.19823449762692411 -0.13229999761030051 0 -0.18534812722118199 -0.1163550958908785 0 -0.17775058767377289 -0.13584559103097291 0 -0.18534812722118199 -0.1163550958908785 0 -0.15406265534163929 -0.1294064941378926 0 -0.16394560233522651 -0.1386698702264933 0 -0.15606779039194271 -0.1160101434681408 0 -0.17775058767377289 -0.13584559103097291 0 -0.16394560233522651 -0.1386698702264933 0 -0.15606779039194271 -0.1160101434681408 0 -0.17775058767377289 -0.13584559103097291 0 -0.15606779039194271 -0.1160101434681408 0 -0.15406265534163929 -0.1294064941378926 0 -0.16394560233522651 -0.1386698702264933 0 -0.1564494690737798 -0.13971242061594299 0 -0.16394560233522651 -0.1386698702264933 0 -0.1564494690737798 -0.13971242061594299 0 -0.15962849525536979 -0.1448502401790808 0 -0.14845845790642179 -0.14462819045750719 0 -0.1655722477793394 -0.1670875310098065 0 -0.14845845790642179 -0.14462819045750719 0 -0.1655722477793394 -0.1670875310098065 0 -0.15894149653025619 -0.15184230729274609 0 -0.15519343748037609 -0.14309809199123349 0 -0.1564494690737798 -0.13971242061594299 0 -0.15962849525536979 -0.1448502401790808 0 -0.1543278084257422 -0.1453912472931165 0 -0.15519343748037609 -0.14309809199123349 0 -0.15962849525536979 -0.1448502401790808 0 -0.1543278084257422 -0.1453912472931165 0 -0.15962849525536979 -0.1448502401790808 0 -0.15894149653025619 -0.15184230729274609 0 -0.15962849525536979 -0.1448502401790808 0 -0.15894149653025619 -0.15184230729274609 0 -0.1716614177265566 -0.15146656102038991 0 -0.17775058767377289 -0.13584559103097291 0 -0.16394560233522651 -0.1386698702264933 0 -0.1716614177265566 -0.15146656102038991 0 -0.16394560233522651 -0.1386698702264933 0 -0.15962849525536979 -0.1448502401790808 0 -0.1716614177265566 -0.15146656102038991 0 -0.1534429259631987 -0.25724555178864622 0 -0.15289321433053751 -0.246830478479277 0 -0.1378886282313006 -0.2381062402767252 0 -0.1534429259631987 -0.25724555178864622 0 -0.1378886282313006 -0.2381062402767252 0 -0.15348527020851541 -0.23913552791147211 0 -0.1378886282313006 -0.2381062402767252 0 -0.15430752157141919 -0.22794821467022949 0 -0.15289321433053751 -0.246830478479277 0 -0.15348527020851541 -0.23913552791147211 0 -0.1601832428566283 -0.24550858739866141 0 -0.15289321433053751 -0.246830478479277 0 -0.15348527020851541 -0.23913552791147211 0 -0.1378886282313006 -0.2381062402767252 0 -0.1459019403517107 -0.25564217047089421 0 -0.13375162957080131 -0.24871916986845621 0 -0.1378886282313006 -0.2381062402767252 0 -0.13375162957080131 -0.24871916986845621 0 -0.1378886282313006 -0.2381062402767252 0 -0.127825895831608 -0.22987551408160201 0 -0.13375162957080131 -0.24871916986845621 0 -0.1378886282313006 -0.2381062402767252 0 -0.13218950310710981 -0.25272660122947088 0 -0.1218823470606431 -0.24640061544388489 0 -0.13375162957080131 -0.24871916986845621 0 -0.127825895831608 -0.22987551408160201 0 -0.14435850230698141 -0.22150862358223991 0 -0.13086176299679239 -0.21746526838305219 0 -0.1378886282313006 -0.2381062402767252 0 -0.127825895831608 -0.22987551408160201 0 -0.14435850230698141 -0.22150862358223991 0 -0.11989889803527461 -0.22145143588075511 0 -0.127825895831608 -0.22987551408160201 0 -0.13086176299679239 -0.21746526838305219 0 -0.1378886282313006 -0.2381062402767252 0 -0.14435850230698141 -0.22150862358223991 0 -0.14435850230698141 -0.22150862358223991 0 -0.15430752157141919 -0.22794821467022949 0 -0.16410544360365359 -0.21493654602220469 0 -0.1378886282313006 -0.2381062402767252 0 -0.14435850230698141 -0.22150862358223991 0 -0.15430752157141919 -0.22794821467022949 0 -0.14435850230698141 -0.22150862358223991 0 -0.15496537504316019 -0.19429807729602311 0 -0.14435850230698141 -0.22150862358223991 0 -0.1373527607074172 -0.20563907323320921 0 -0.15496537504316019 -0.19429807729602311 0 -0.14435850230698141 -0.22150862358223991 0 -0.15496537504316019 -0.19429807729602311 0 -0.16410544360365359 -0.21493654602220469 0 -0.14435850230698141 -0.22150862358223991 0 -0.1373527607074172 -0.20563907323320921 0 -0.13086176299679239 -0.21746526838305219 0 -0.1210853022939376 -0.205467400633562 0 -0.1373527607074172 -0.20563907323320921 0 -0.13086176299679239 -0.21746526838305219 0 -0.1210853022939376 -0.205467400633562 0 -0.1373527607074172 -0.20563907323320921 0 -0.13505851963374399 -0.18906788910329131 0 -0.1373527607074172 -0.20563907323320921 0 -0.13505851963374399 -0.18906788910329131 0 -0.15496537504316019 -0.19429807729602311 0 -0.1689483943248192 -0.19264195369377959 0 -0.17994482166635981 -0.2014366202218163 0 -0.16410544360365359 -0.21493654602220469 0 -0.15496537504316019 -0.19429807729602311 0 -0.1689483943248192 -0.19264195369377959 0 -0.16410544360365359 -0.21493654602220469 0 -0.17557921295501691 -0.18022020591375351 0 -0.1689483943248192 -0.19264195369377959 0 -0.17994482166635981 -0.2014366202218163 0 -0.17557921295501691 -0.18022020591375351 0 -0.17994482166635981 -0.2014366202218163 0 -0.1907059301477185 -0.18468107337543721 0 -0.17994482166635981 -0.2014366202218163 0 -0.1784102433228649 -0.21681777692650089 0 -0.16410544360365359 -0.21493654602220469 0 -0.17994482166635981 -0.2014366202218163 0 -0.18904495760185211 -0.20873870471059999 0 -0.19252771524915421 -0.19930647688205899 0 -0.17994482166635981 -0.2014366202218163 0 -0.1784102433228649 -0.21681777692650089 0 -0.18904495760185211 -0.20873870471059999 0 -0.1784102433228649 -0.21681777692650089 0 -0.19175951728552271 -0.21959172261586679 0 -0.18904495760185211 -0.20873870471059999 0 -0.15430752157141919 -0.22794821467022949 0 -0.16410544360365359 -0.21493654602220469 0 -0.16877954452522659 -0.2255120540677526 0 -0.15430752157141919 -0.22794821467022949 0 -0.16877954452522659 -0.2255120540677526 0 -0.16324537569009509 -0.2357306359809743 0 -0.15348527020851541 -0.23913552791147211 0 -0.15430752157141919 -0.22794821467022949 0 -0.16324537569009509 -0.2357306359809743 0 -0.16877954452522659 -0.2255120540677526 0 -0.17781387366555559 -0.23090770197000129 0 -0.16324537569009509 -0.2357306359809743 0 -0.1784102433228649 -0.21681777692650089 0 -0.16410544360365359 -0.21493654602220469 0 -0.16877954452522659 -0.2255120540677526 0 -0.1784102433228649 -0.21681777692650089 0 -0.16877954452522659 -0.2255120540677526 0 -0.17781387366555559 -0.23090770197000129 0 -0.1784102433228649 -0.21681777692650089 0 -0.17781387366555559 -0.23090770197000129 0 -0.19175951728552271 -0.21959172261586679 0 -0.17781387366555559 -0.23090770197000129 0 -0.1805311654956796 -0.2411950136452527 0 -0.19410287643929239 -0.23312434657521411 0 -0.17781387366555559 -0.23090770197000129 0 -0.1805311654956796 -0.2411950136452527 0 -0.16955513552828311 -0.24305067226283769 0 -0.17679077873490559 -0.25046109420941731 0 -0.1805311654956796 -0.2411950136452527 0 -0.18863044441395099 -0.24733650333174401 0 -0.17679077873490559 -0.25046109420941731 0 -0.1805311654956796 -0.2411950136452527 0 -0.16955513552828311 -0.24305067226283769 0 -0.16709258238786229 -0.25188408856254202 0 -0.17679077873490559 -0.25046109420941731 0 -0.16955513552828311 -0.24305067226283769 0 -0.16709258238786229 -0.25188408856254202 0 -0.16955513552828311 -0.24305067226283769 0 -0.1601832428566283 -0.24550858739866141 0 -0.17781387366555559 -0.23090770197000129 0 -0.16955513552828311 -0.24305067226283769 0 -0.16324537569009509 -0.2357306359809743 0 -0.16955513552828311 -0.24305067226283769 0 -0.16324537569009509 -0.2357306359809743 0 -0.1601832428566283 -0.24550858739866141 0 -0.15348527020851541 -0.23913552791147211 0 -0.16324537569009509 -0.2357306359809743 0 -0.1601832428566283 -0.24550858739866141 0 -0.1593809120407062 -0.25278805690175971 0 -0.15289321433053751 -0.246830478479277 0 -0.1601832428566283 -0.24550858739866141 0 -0.20565562739327201 -0.24334207984173631 0 -0.19410287643929239 -0.23312434657521411 0 -0.21201774175915139 -0.2290986139018284 0 -0.21472073189145299 -0.25725591714607071 0 -0.20565562739327201 -0.24334207984173631 0 -0.22837296648480071 -0.23789375384220129 0 -0.20565562739327201 -0.24334207984173631 0 -0.21201774175915139 -0.2290986139018284 0 -0.22837296648480071 -0.23789375384220129 0 -0.20565562739327201 -0.24334207984173631 0 -0.18863044441395099 -0.24733650333174401 0 -0.19410287643929239 -0.23312434657521411 0 -0.1805311654956796 -0.2411950136452527 0 -0.18863044441395099 -0.24733650333174401 0 -0.19410287643929239 -0.23312434657521411 0 -0.17781387366555559 -0.23090770197000129 0 -0.19410287643929239 -0.23312434657521411 0 -0.19175951728552271 -0.21959172261586679 0 -0.19410287643929239 -0.23312434657521411 0 -0.19175951728552271 -0.21959172261586679 0 -0.20443040571370949 -0.21985141578154491 0 -0.21201774175915139 -0.2290986139018284 0 -0.20443040571370949 -0.21985141578154491 0 -0.22630383013383959 -0.21240708539258099 0 -0.19410287643929239 -0.23312434657521411 0 -0.21201774175915139 -0.2290986139018284 0 -0.20443040571370949 -0.21985141578154491 0 -0.20157622681128409 -0.2075672839719423 0 -0.21557055542943429 -0.1904257004922347 0 -0.22630383013383959 -0.21240708539258099 0 -0.20157622681128409 -0.2075672839719423 0 -0.22630383013383959 -0.21240708539258099 0 -0.20443040571370949 -0.21985141578154491 0 -0.20157622681128409 -0.2075672839719423 0 -0.22630383013383959 -0.21240708539258099 0 -0.19175951728552271 -0.21959172261586679 0 -0.20443040571370949 -0.21985141578154491 0 -0.20157622681128409 -0.2075672839719423 0 -0.19175951728552271 -0.21959172261586679 0 -0.20157622681128409 -0.2075672839719423 0 -0.19175951728552271 -0.21959172261586679 0 -0.18904495760185211 -0.20873870471059999 0 -0.20157622681128409 -0.2075672839719423 0 -0.18904495760185211 -0.20873870471059999 0 -0.20157622681128409 -0.2075672839719423 0 -0.19252771524915421 -0.19930647688205899 0 -0.17994482166635981 -0.2014366202218163 0 -0.19252771524915421 -0.19930647688205899 0 -0.1907059301477185 -0.18468107337543721 0 -0.20157622681128409 -0.2075672839719423 0 -0.19252771524915421 -0.19930647688205899 0 -0.20187756758401409 -0.19506767240709361 0 -0.19252771524915421 -0.19930647688205899 0 -0.20187756758401409 -0.19506767240709361 0 -0.1907059301477185 -0.18468107337543721 0 -0.20157622681128409 -0.2075672839719423 0 -0.21557055542943429 -0.1904257004922347 0 -0.20187756758401409 -0.19506767240709361 0 -0.21557055542943429 -0.1904257004922347 0 -0.2038146335316797 -0.1820121315948606 0 -0.20157622681128409 -0.2075672839719423 0 -0.20187756758401409 -0.19506767240709361 0 -0.21557055542943429 -0.1904257004922347 0 -0.21557055542943429 -0.1904257004922347 0 -0.23533053747689989 -0.1962925907305976 0 -0.22630383013383959 -0.21240708539258099 0 -0.23533053747689989 -0.1962925907305976 0 -0.25103143345639523 -0.21724688681321891 0 -0.25418198431724581 -0.18809916394242601 0 -0.22630383013383959 -0.21240708539258099 0 -0.25103143345639523 -0.21724688681321891 0 -0.23533053747689989 -0.1962925907305976 0 -0.22630383013383959 -0.21240708539258099 0 -0.25103143345639523 -0.21724688681321891 0 -0.21201774175915139 -0.2290986139018284 0 -0.22630383013383959 -0.21240708539258099 0 -0.22837296648480071 -0.23789375384220129 0 -0.22630383013383959 -0.21240708539258099 0 -0.22837296648480071 -0.23789375384220129 0 -0.25103143345639523 -0.21724688681321891 0 -0.22837296648480071 -0.23789375384220129 0 -0.25431856302814809 -0.24833495949118861 0 -0.25103143345639523 -0.21724688681321891 0 -0.2335542019388327 -0.26090262277066528 0 -0.22837296648480071 -0.23789375384220129 0 -0.25431856302814809 -0.24833495949118861 0 -0.20708483324238849 -0.15128624944667929 0 -0.22647357207813959 -0.15205360930679629 0 -0.2195633859389316 -0.1340578990397249 0 -0.20708483324238849 -0.15128624944667929 0 -0.19823449762692411 -0.13229999761030051 0 -0.2195633859389316 -0.1340578990397249 0 -0.19823449762692411 -0.13229999761030051 0 -0.2195633859389316 -0.1340578990397249 0 -0.21022893699736381 -0.1097241998529486 0 -0.17775058767377289 -0.13584559103097291 0 -0.19823449762692411 -0.13229999761030051 0 -0.1894311146879058 -0.1465309504005988 0 -0.20708483324238849 -0.15128624944667929 0 -0.1894311146879058 -0.1465309504005988 0 -0.19351686899232889 -0.15854259719770419 0 -0.20708483324238849 -0.15128624944667929 0 -0.19823449762692411 -0.13229999761030051 0 -0.1894311146879058 -0.1465309504005988 0 -0.20708483324238849 -0.15128624944667929 0 -0.19351686899232889 -0.15854259719770419 0 -0.19880271024428661 -0.17007658736909009 0 -0.18239484980351819 -0.16464781923938721 0 -0.1894311146879058 -0.1465309504005988 0 -0.19351686899232889 -0.15854259719770419 0 -0.18239484980351819 -0.16464781923938721 0 -0.19351686899232889 -0.15854259719770419 0 -0.19880271024428661 -0.17007658736909009 0 -0.18239484980351819 -0.16464781923938721 0 -0.19880271024428661 -0.17007658736909009 0 -0.1907059301477185 -0.18468107337543721 0 -0.19880271024428661 -0.17007658736909009 0 -0.1907059301477185 -0.18468107337543721 0 -0.2038146335316797 -0.1820121315948606 0 -0.20187756758401409 -0.19506767240709361 0 -0.1907059301477185 -0.18468107337543721 0 -0.2038146335316797 -0.1820121315948606 0 -0.21557055542943429 -0.1904257004922347 0 -0.2038146335316797 -0.1820121315948606 0 -0.21355186476225221 -0.16985639920369799 0 -0.19880271024428661 -0.17007658736909009 0 -0.2038146335316797 -0.1820121315948606 0 -0.21355186476225221 -0.16985639920369799 0 -0.20708483324238849 -0.15128624944667929 0 -0.21355186476225221 -0.16985639920369799 0 -0.22647357207813959 -0.15205360930679629 0 -0.20708483324238849 -0.15128624944667929 0 -0.19880271024428661 -0.17007658736909009 0 -0.21355186476225221 -0.16985639920369799 0 -0.22956488404758479 -0.1732841170125273 0 -0.2435592126657353 -0.1561425335328199 0 -0.22647357207813959 -0.15205360930679629 0 -0.21355186476225221 -0.16985639920369799 0 -0.22956488404758479 -0.1732841170125273 0 -0.22647357207813959 -0.15205360930679629 0 -0.21557055542943429 -0.1904257004922347 0 -0.21355186476225221 -0.16985639920369799 0 -0.22956488404758479 -0.1732841170125273 0 -0.21557055542943429 -0.1904257004922347 0 -0.22956488404758479 -0.1732841170125273 0 -0.21557055542943429 -0.1904257004922347 0 -0.23533053747689989 -0.1962925907305976 0 -0.22956488404758479 -0.1732841170125273 0 -0.23533053747689989 -0.1962925907305976 0 -0.22956488404758479 -0.1732841170125273 0 -0.25418198431724581 -0.18809916394242601 0 -0.22956488404758479 -0.1732841170125273 0 -0.25418198431724581 -0.18809916394242601 0 -0.2565438833259911 -0.1687602707777138 0 -0.22956488404758479 -0.1732841170125273 0 -0.2435592126657353 -0.1561425335328199 0 -0.22956488404758479 -0.1732841170125273 0 -0.2435592126657353 -0.1561425335328199 0 -0.2565438833259911 -0.1687602707777138 0 -0.2435592126657353 -0.1561425335328199 0 -0.22647357207813959 -0.15205360930679629 0 -0.2432602079730701 -0.13485583854350039 0 -0.22647357207813959 -0.15205360930679629 0 -0.2195633859389316 -0.1340578990397249 0 -0.2432602079730701 -0.13485583854350039 0 -0.2195633859389316 -0.1340578990397249 0 -0.2432602079730701 -0.13485583854350039 0 -0.23065476516460279 -0.11957242830579699 0 -0.2432602079730701 -0.13485583854350039 0 -0.2499653418643101 -0.1102460646797562 0 -0.23065476516460279 -0.11957242830579699 0 -0.2499653418643101 -0.1102460646797562 0 -0.2308399038819596 -0.1034577205422559 0 -0.23065476516460279 -0.11957242830579699 0 -0.2308399038819596 -0.1034577205422559 0 -0.25308440776240432 -0.086371671251396109 0 -0.2499653418643101 -0.1102460646797562 0 -0.2308399038819596 -0.1034577205422559 0 -0.25308440776240432 -0.086371671251396109 0 -0.2308399038819596 -0.1034577205422559 0 -0.21022893699736381 -0.1097241998529486 0 -0.21520721362926831 -0.098298511723915558 0 -0.2308399038819596 -0.1034577205422559 0 -0.22013457808717909 -0.089221868029860679 0 -0.21520721362926831 -0.098298511723915558 0 -0.2308399038819596 -0.1034577205422559 0 -0.23065476516460279 -0.11957242830579699 0 -0.21022893699736381 -0.1097241998529486 0 -0.2195633859389316 -0.1340578990397249 0 -0.23065476516460279 -0.11957242830579699 0 -0.21022893699736381 -0.1097241998529486 0 -0.2335598957907816 -0.079883889973887123 0 -0.24475965461883589 -0.059498385283178377 0 -0.2582325144520296 -0.070050845257802419 0 -0.2335598957907816 -0.079883889973887123 0 -0.2582325144520296 -0.070050845257802419 0 -0.25308440776240432 -0.086371671251396109 0 -0.2308399038819596 -0.1034577205422559 0 -0.2335598957907816 -0.079883889973887123 0 -0.25308440776240432 -0.086371671251396109 0 -0.2308399038819596 -0.1034577205422559 0 -0.22013457808717909 -0.089221868029860679 0 -0.2335598957907816 -0.079883889973887123 0 -0.22013457808717909 -0.089221868029860679 0 -0.2335598957907816 -0.079883889973887123 0 -0.21963876375789801 -0.077814354495200549 0 -0.2335598957907816 -0.079883889973887123 0 -0.21595644614104051 -0.065738508165203102 0 -0.24475965461883589 -0.059498385283178377 0 -0.21595644614104051 -0.065738508165203102 0 -0.24475965461883589 -0.059498385283178377 0 -0.2335598957907816 -0.079883889973887123 0 -0.21963876375789801 -0.077814354495200549 0 -0.21595644614104051 -0.065738508165203102 0 -0.20438945881064449 -0.068244458930106389 0 -0.21100771399754009 -0.086966924160961745 0 -0.21595644614104051 -0.065738508165203102 0 -0.21100771399754009 -0.086966924160961745 0 -0.20438945881064449 -0.068244458930106389 0 -0.21595644614104051 -0.065738508165203102 0 -0.21100771399754009 -0.086966924160961745 0 -0.21963876375789801 -0.077814354495200549 0 -0.21595644614104051 -0.065738508165203102 0 -0.21100771399754009 -0.086966924160961745 0 -0.20438945881064449 -0.068244458930106389 0 -0.21595644614104051 -0.065738508165203102 0 -0.20438945881064449 -0.068244458930106389 0 -0.21595644614104051 -0.065738508165203102 0 -0.20711132549122371 -0.057203435059411119 0 -0.20438945881064449 -0.068244458930106389 0 -0.21100771399754009 -0.086966924160961745 0 -0.19851231957361129 -0.085310821531315487 0 -0.22013457808717909 -0.089221868029860679 0 -0.21963876375789801 -0.077814354495200549 0 -0.21100771399754009 -0.086966924160961745 0 -0.22013457808717909 -0.089221868029860679 0 -0.21100771399754009 -0.086966924160961745 0 -0.21520721362926831 -0.098298511723915558 0 -0.21100771399754009 -0.086966924160961745 0 -0.19851231957361129 -0.085310821531315487 0 -0.20550431009004061 -0.095676697317907802 0 -0.21100771399754009 -0.086966924160961745 0 -0.21520721362926831 -0.098298511723915558 0 -0.20550431009004061 -0.095676697317907802 0 -0.19851231957361129 -0.085310821531315487 0 -0.18118326058104209 -0.08825419183970401 0 -0.18409944718507371 -0.07264022497537044 0 -0.19851231957361129 -0.085310821531315487 0 -0.19294566676858971 -0.096864600750783431 0 -0.18118326058104209 -0.08825419183970401 0 -0.19851231957361129 -0.085310821531315487 0 -0.20550431009004061 -0.095676697317907802 0 -0.19294566676858971 -0.096864600750783431 0 -0.20438945881064449 -0.068244458930106389 0 -0.19851231957361129 -0.085310821531315487 0 -0.18409944718507371 -0.07264022497537044 0 -0.20438945881064449 -0.068244458930106389 0 -0.18409944718507371 -0.07264022497537044 0 -0.18769526278089041 -0.057829612445021099 0 -0.20438945881064449 -0.068244458930106389 0 -0.18409944718507371 -0.07264022497537044 0 -0.21022893699736381 -0.1097241998529486 0 -0.21520721362926831 -0.098298511723915558 0 -0.20550431009004061 -0.095676697317907802 0 -0.21022893699736381 -0.1097241998529486 0 -0.20550431009004061 -0.095676697317907802 0 -0.19294566676858971 -0.096864600750783431 0 -0.19294566676858971 -0.096864600750783431 0 -0.18534812722118199 -0.1163550958908785 0 -0.21022893699736381 -0.1097241998529486 0 -0.19294566676858971 -0.096864600750783431 0 -0.18534812722118199 -0.1163550958908785 0 -0.19823449762692411 -0.13229999761030051 0 -0.21022893699736381 -0.1097241998529486 0 -0.18534812722118199 -0.1163550958908785 0 -0.18534812722118199 -0.1163550958908785 0 -0.17423934197139679 -0.1017815859784342 0 -0.15606779039194271 -0.1160101434681408 0 -0.17775058767377289 -0.13584559103097291 0 -0.18534812722118199 -0.1163550958908785 0 -0.15606779039194271 -0.1160101434681408 0 -0.16057304666404501 -0.10079887419961479 0 -0.17423934197139679 -0.1017815859784342 0 -0.15606779039194271 -0.1160101434681408 0 -0.16057304666404501 -0.10079887419961479 0 -0.16746185343044401 -0.091445336260546128 0 -0.1570966781871318 -0.090327755750333361 0 -0.16057304666404501 -0.10079887419961479 0 -0.17423934197139679 -0.1017815859784342 0 -0.16746185343044401 -0.091445336260546128 0 -0.17423934197139679 -0.1017815859784342 0 -0.18118326058104209 -0.08825419183970401 0 -0.16746185343044401 -0.091445336260546128 0 -0.19294566676858971 -0.096864600750783431 0 -0.18534812722118199 -0.1163550958908785 0 -0.17423934197139679 -0.1017815859784342 0 -0.19294566676858971 -0.096864600750783431 0 -0.17423934197139679 -0.1017815859784342 0 -0.18118326058104209 -0.08825419183970401 0 -0.18118326058104209 -0.08825419183970401 0 -0.18409944718507371 -0.07264022497537044 0 -0.16915717098214109 -0.081397787743409861 0 -0.18118326058104209 -0.08825419183970401 0 -0.16746185343044401 -0.091445336260546128 0 -0.16915717098214109 -0.081397787743409861 0 -0.18409944718507371 -0.07264022497537044 0 -0.1702117591297739 -0.06777753321031553 0 -0.16380943555950259 -0.077035991020633382 0 -0.18409944718507371 -0.07264022497537044 0 -0.16380943555950259 -0.077035991020633382 0 -0.16915717098214109 -0.081397787743409861 0 -0.18409944718507371 -0.07264022497537044 0 -0.17187825396406881 -0.057945450019426657 0 -0.18769526278089041 -0.057829612445021099 0 -0.18409944718507371 -0.07264022497537044 0 -0.16380943555950259 -0.077035991020633382 0 -0.18409944718507371 -0.07264022497537044 0 -0.1702117591297739 -0.06777753321031553 0 -0.17187825396406881 -0.057945450019426657 0 -0.16380943555950259 -0.077035991020633382 0 -0.16105989981045041 -0.063488466825831633 0 -0.14595160177326619 -0.062470528310013429 0 -0.1702117591297739 -0.06777753321031553 0 -0.16105989981045041 -0.063488466825831633 0 -0.17187825396406881 -0.057945450019426657 0 -0.1702117591297739 -0.06777753321031553 0 -0.16380943555950259 -0.077035991020633382 0 -0.16105989981045041 -0.063488466825831633 0 -0.16380943555950259 -0.077035991020633382 0 -0.16109871639751261 -0.084134952385501949 0 -0.14796844382834351 -0.080467891152587012 0 -0.16746185343044401 -0.091445336260546128 0 -0.16915717098214109 -0.081397787743409861 0 -0.16109871639751261 -0.084134952385501949 0 -0.16380943555950259 -0.077035991020633382 0 -0.16915717098214109 -0.081397787743409861 0 -0.16109871639751261 -0.084134952385501949 0 -0.16380943555950259 -0.077035991020633382 0 -0.16915717098214109 -0.081397787743409861 0 -0.16746185343044401 -0.091445336260546128 0 -0.16109871639751261 -0.084134952385501949 0 -0.1570966781871318 -0.090327755750333361 0 -0.16380943555950259 -0.077035991020633382 0 -0.14796844382834351 -0.080467891152587012 0 -0.14796844382834351 -0.080467891152587012 0 -0.13497135686491851 -0.078315161523928284 0 -0.1484932433812913 -0.094043062253026791 0 -0.1570966781871318 -0.090327755750333361 0 -0.14796844382834351 -0.080467891152587012 0 -0.1484932433812913 -0.094043062253026791 0 -0.16109871639751261 -0.084134952385501949 0 -0.1570966781871318 -0.090327755750333361 0 -0.14796844382834351 -0.080467891152587012 0 -0.16380943555950259 -0.077035991020633382 0 -0.14796844382834351 -0.080467891152587012 0 -0.14595160177326619 -0.062470528310013429 0 -0.16380943555950259 -0.077035991020633382 0 -0.14595160177326619 -0.062470528310013429 0 -0.14796844382834351 -0.080467891152587012 0 -0.13497135686491851 -0.078315161523928284 0 -0.14595160177326619 -0.062470528310013429 0 -0.1158705629695205 -0.060236298698018297 0 -0.13497135686491851 -0.078315161523928284 0 -0.1158705629695205 -0.060236298698018297 0 -0.13497135686491851 -0.078315161523928284 0 -0.13122182239868371 -0.062231763532838429 0 -0.13497135686491851 -0.078315161523928284 0 -0.13122182239868371 -0.062231763532838429 0 -0.14595160177326619 -0.062470528310013429 0 -0.112702195828283 -0.076339248342475546 0 -0.13497135686491851 -0.078315161523928284 0 -0.13438499311011279 -0.096174695905308166 0 -0.13497135686491851 -0.078315161523928284 0 -0.13438499311011279 -0.096174695905308166 0 -0.1484932433812913 -0.094043062253026791 0 -0.11276894493928399 -0.097790936300085646 0 -0.13438499311011279 -0.096174695905308166 0 -0.1306137014228527 -0.1212095633787966 0 -0.13438499311011279 -0.096174695905308166 0 -0.1306137014228527 -0.1212095633787966 0 -0.15606779039194271 -0.1160101434681408 0 -0.15406265534163929 -0.1294064941378926 0 -0.1306137014228527 -0.1212095633787966 0 -0.15606779039194271 -0.1160101434681408 0 -0.13438499311011279 -0.096174695905308166 0 -0.15606779039194271 -0.1160101434681408 0 -0.1484932433812913 -0.094043062253026791 0 -0.16057304666404501 -0.10079887419961479 0 -0.15606779039194271 -0.1160101434681408 0 -0.1484932433812913 -0.094043062253026791 0 -0.13438499311011279 -0.096174695905308166 0 -0.15606779039194271 -0.1160101434681408 0 -0.16057304666404501 -0.10079887419961479 0 -0.1570966781871318 -0.090327755750333361 0 -0.1484932433812913 -0.094043062253026791 0 -0.14513665439653431 -0.02122229521611602 0 -0.15148395360685291 -0.031475856168514699 0 -0.16129500549156001 -0.024264335985147129 0 -0.14513665439653431 -0.02122229521611602 0 -0.1346415055917565 -0.031432898451717602 0 -0.15148395360685291 -0.031475856168514699 0 -0.14513665439653431 -0.02122229521611602 0 -0.15327979458335059 -0.01391829646419882 0 -0.16129500549156001 -0.024264335985147129 0 -0.1412848112475209 -0.008091449167619497 0 -0.15773416148281841 -0.0035868741371463562 0 -0.14801408494475049 0.0031182785745780331 0 -0.15327979458335059 -0.01391829646419882 0 -0.1412848112475209 -0.008091449167619497 0 -0.15773416148281841 -0.0035868741371463562 0 -0.14513665439653431 -0.02122229521611602 0 -0.15327979458335059 -0.01391829646419882 0 -0.1412848112475209 -0.008091449167619497 0 -0.1236693299605585 -0.0137973575501921 0 -0.1412848112475209 -0.008091449167619497 0 -0.12735709500343681 0.004015926865657337 0 -0.1412848112475209 -0.008091449167619497 0 -0.12735709500343681 0.004015926865657337 0 -0.14801408494475049 0.0031182785745780331 0 -0.1236693299605585 -0.0137973575501921 0 -0.1412848112475209 -0.008091449167619497 0 -0.13426109495296229 -0.02049569832685658 0 -0.1236693299605585 -0.0137973575501921 0 -0.1221370268088495 -0.025998648103035 0 -0.13426109495296229 -0.02049569832685658 0 -0.14513665439653431 -0.02122229521611602 0 -0.1412848112475209 -0.008091449167619497 0 -0.13426109495296229 -0.02049569832685658 0 -0.14513665439653431 -0.02122229521611602 0 -0.13426109495296229 -0.02049569832685658 0 -0.1346415055917565 -0.031432898451717602 0 -0.1221370268088495 -0.025998648103035 0 -0.12530131535501859 -0.034952786400489197 0 -0.1346415055917565 -0.031432898451717602 0 -0.1221370268088495 -0.025998648103035 0 -0.13426109495296229 -0.02049569832685658 0 -0.1346415055917565 -0.031432898451717602 0 -0.12530131535501859 -0.034952786400489197 0 -0.1346415055917565 -0.031432898451717602 0 -0.12809376798702951 -0.047905065599393698 0 -0.1346415055917565 -0.031432898451717602 0 -0.12809376798702951 -0.047905065599393698 0 -0.14629371500633531 -0.042796653234188263 0 -0.12809376798702951 -0.047905065599393698 0 -0.14595160177326619 -0.062470528310013429 0 -0.12809376798702951 -0.047905065599393698 0 -0.14595160177326619 -0.062470528310013429 0 -0.14629371500633531 -0.042796653234188263 0 -0.13122182239868371 -0.062231763532838429 0 -0.12809376798702951 -0.047905065599393698 0 -0.14595160177326619 -0.062470528310013429 0 -0.1158705629695205 -0.060236298698018297 0 -0.13122182239868371 -0.062231763532838429 0 -0.12809376798702951 -0.047905065599393698 0 -0.14595160177326619 -0.062470528310013429 0 -0.14629371500633531 -0.042796653234188263 0 -0.15696853651444401 -0.052603520026387289 0 -0.16105989981045041 -0.063488466825831633 0 -0.14595160177326619 -0.062470528310013429 0 -0.15696853651444401 -0.052603520026387289 0 -0.15148395360685291 -0.031475856168514699 0 -0.14629371500633531 -0.042796653234188263 0 -0.16402488563849801 -0.041062174760887443 0 -0.1346415055917565 -0.031432898451717602 0 -0.15148395360685291 -0.031475856168514699 0 -0.14629371500633531 -0.042796653234188263 0 -0.14629371500633531 -0.042796653234188263 0 -0.16402488563849801 -0.041062174760887443 0 -0.15696853651444401 -0.052603520026387289 0 -0.15148395360685291 -0.031475856168514699 0 -0.16402488563849801 -0.041062174760887443 0 -0.16129500549156001 -0.024264335985147129 0 -0.16402488563849801 -0.041062174760887443 0 -0.17409393016306191 -0.030370879776367592 0 -0.16129500549156001 -0.024264335985147129 0 -0.16402488563849801 -0.041062174760887443 0 -0.15696853651444401 -0.052603520026387289 0 -0.17187825396406881 -0.057945450019426657 0 -0.16105989981045041 -0.063488466825831633 0 -0.15696853651444401 -0.052603520026387289 0 -0.17187825396406881 -0.057945450019426657 0 -0.16402488563849801 -0.041062174760887443 0 -0.17187825396406881 -0.057945450019426657 0 -0.18133558272394029 -0.043618149437272283 0 -0.17187825396406881 -0.057945450019426657 0 -0.18133558272394029 -0.043618149437272283 0 -0.18769526278089041 -0.057829612445021099 0 -0.18133558272394029 -0.043618149437272283 0 -0.17409393016306191 -0.030370879776367592 0 -0.18915768363079971 -0.025155098795753519 0 -0.16402488563849801 -0.041062174760887443 0 -0.18133558272394029 -0.043618149437272283 0 -0.17409393016306191 -0.030370879776367592 0 -0.17409393016306191 -0.030370879776367592 0 -0.17549551533112251 -0.014893414490097231 0 -0.18915768363079971 -0.025155098795753519 0 -0.16129500549156001 -0.024264335985147129 0 -0.16350931143073591 -0.01273440345064396 0 -0.17549551533112251 -0.014893414490097231 0 -0.17409393016306191 -0.030370879776367592 0 -0.16129500549156001 -0.024264335985147129 0 -0.17549551533112251 -0.014893414490097231 0 -0.15327979458335059 -0.01391829646419882 0 -0.16129500549156001 -0.024264335985147129 0 -0.16350931143073591 -0.01273440345064396 0 -0.15773416148281841 -0.0035868741371463562 0 -0.16716832075785379 -0.0032078365625175 0 -0.1619193683370386 0.0066468078375689294 0 -0.15773416148281841 -0.0035868741371463562 0 -0.16350931143073591 -0.01273440345064396 0 -0.16716832075785379 -0.0032078365625175 0 -0.15327979458335059 -0.01391829646419882 0 -0.15773416148281841 -0.0035868741371463562 0 -0.16350931143073591 -0.01273440345064396 0 -0.16350931143073591 -0.01273440345064396 0 -0.16716832075785379 -0.0032078365625175 0 -0.17549551533112251 -0.014893414490097231 0 -0.17549551533112251 -0.014893414490097231 0 -0.18154179604087481 -0.0036104187285780349 0 -0.18915768363079971 -0.025155098795753519 0 -0.18154179604087481 -0.0036104187285780349 0 -0.18915768363079971 -0.025155098795753519 0 -0.17549551533112251 -0.014893414490097231 0 -0.17584419881677341 0.0071523107965592754 0 -0.17549551533112251 -0.014893414490097231 0 -0.18154179604087481 -0.0036104187285780349 0 -0.17584419881677341 0.0071523107965592754 0 -0.16716832075785379 -0.0032078365625175 0 -0.17549551533112251 -0.014893414490097231 0 -0.17584419881677341 0.0071523107965592754 0 -0.18154179604087481 -0.0036104187285780349 0 -0.19066530249761049 -0.0041303576494283751 0 -0.18915768363079971 -0.025155098795753519 0 -0.18154179604087481 -0.0036104187285780349 0 -0.19066530249761049 -0.0041303576494283751 0 -0.18717715497560061 0.0062623078557712403 0 -0.19066530249761049 -0.0041303576494283751 0 -0.1989264366345522 -0.0080023544535597537 0 -0.18915768363079971 -0.025155098795753519 0 -0.19066530249761049 -0.0041303576494283751 0 -0.1989264366345522 -0.0080023544535597537 0 -0.1965234412062255 0.0098537758749781944 0 -0.1989264366345522 -0.0080023544535597537 0 -0.2007918169376324 -0.0191738513677071 0 -0.20680177871376751 -0.0119671669755851 0 -0.18915768363079971 -0.025155098795753519 0 -0.2007918169376324 -0.0191738513677071 0 -0.21013076049929519 -0.028334228638799381 0 -0.1989264366345522 -0.0080023544535597537 0 -0.18915768363079971 -0.025155098795753519 0 -0.2007918169376324 -0.0191738513677071 0 -0.2007918169376324 -0.0191738513677071 0 -0.21013076049929519 -0.028334228638799381 0 -0.20680177871376751 -0.0119671669755851 0 -0.21013076049929519 -0.028334228638799381 0 -0.21702438745170211 -0.0043907958627755336 0 -0.21921501925093501 -0.017985606360015789 0 -0.21013076049929519 -0.028334228638799381 0 -0.21702438745170211 -0.0043907958627755336 0 -0.21013076049929519 -0.028334228638799381 0 -0.22271521407306469 -0.037269361340154371 0 -0.21921501925093501 -0.017985606360015789 0 -0.21013076049929519 -0.028334228638799381 0 -0.21702438745170211 -0.0043907958627755336 0 -0.20680177871376751 -0.0119671669755851 0 -0.1989264366345522 -0.0080023544535597537 0 -0.20680177871376751 -0.0119671669755851 0 -0.20713549204565579 6.5395444916274768e-05 0 -0.21702438745170211 -0.0043907958627755336 0 -0.20680177871376751 -0.0119671669755851 0 -0.20713549204565579 6.5395444916274768e-05 0 -0.20438945881064449 -0.068244458930106389 0 -0.1967735712207245 -0.046699778862929052 0 -0.20438945881064449 -0.068244458930106389 0 -0.18769526278089041 -0.057829612445021099 0 -0.1967735712207245 -0.046699778862929052 0 -0.20438945881064449 -0.068244458930106389 0 -0.1967735712207245 -0.046699778862929052 0 -0.20711132549122371 -0.057203435059411119 0 -0.18133558272394029 -0.043618149437272283 0 -0.18769526278089041 -0.057829612445021099 0 -0.1967735712207245 -0.046699778862929052 0 -0.18133558272394029 -0.043618149437272283 0 -0.18915768363079971 -0.025155098795753519 0 -0.1967735712207245 -0.046699778862929052 0 -0.18915768363079971 -0.025155098795753519 0 -0.1967735712207245 -0.046699778862929052 0 -0.18915768363079971 -0.025155098795753519 0 -0.21013076049929519 -0.028334228638799381 0 -0.1967735712207245 -0.046699778862929052 0 -0.21013076049929519 -0.028334228638799381 0 -0.21132582579248671 -0.048130994279405613 0 -0.22271521407306469 -0.037269361340154371 0 -0.21013076049929519 -0.028334228638799381 0 -0.1967735712207245 -0.046699778862929052 0 -0.21132582579248671 -0.048130994279405613 0 -0.21595644614104051 -0.065738508165203102 0 -0.21132582579248671 -0.048130994279405613 0 -0.22271521407306469 -0.037269361340154371 0 -0.21595644614104051 -0.065738508165203102 0 -0.21132582579248671 -0.048130994279405613 0 -0.20711132549122371 -0.057203435059411119 0 -0.1967735712207245 -0.046699778862929052 0 -0.21132582579248671 -0.048130994279405613 0 -0.20711132549122371 -0.057203435059411119 0 -0.21595644614104051 -0.065738508165203102 0 -0.2284172135094342 -0.053659916570315727 0 -0.24475965461883589 -0.059498385283178377 0 -0.21595644614104051 -0.065738508165203102 0 -0.2284172135094342 -0.053659916570315727 0 -0.22271521407306469 -0.037269361340154371 0 -0.21595644614104051 -0.065738508165203102 0 -0.22271521407306469 -0.037269361340154371 0 -0.2284172135094342 -0.053659916570315727 0 -0.22271521407306469 -0.037269361340154371 0 -0.23903543051913109 -0.043198085603962481 0 -0.22271521407306469 -0.037269361340154371 0 -0.23903543051913109 -0.043198085603962481 0 -0.24161885061771041 -0.026720350447010301 0 -0.23903543051913109 -0.043198085603962481 0 -0.24161885061771041 -0.026720350447010301 0 -0.25766621977661042 -0.038842414379153638 0 -0.23903543051913109 -0.043198085603962481 0 -0.24475965461883589 -0.059498385283178377 0 -0.25766621977661042 -0.038842414379153638 0 -0.2284172135094342 -0.053659916570315727 0 -0.23903543051913109 -0.043198085603962481 0 -0.24475965461883589 -0.059498385283178377 0 -0.22947398200509031 -0.0088002145151058891 0 -0.22867745033346079 0.0038692188645070222 0 -0.2401015516947359 0.00075261550232862703 0 -0.21702438745170211 -0.0043907958627755336 0 -0.22947398200509031 -0.0088002145151058891 0 -0.22867745033346079 0.0038692188645070222 0 -0.21702438745170211 -0.0043907958627755336 0 -0.22947398200509031 -0.0088002145151058891 0 -0.21921501925093501 -0.017985606360015789 0 -0.22271521407306469 -0.037269361340154371 0 -0.22947398200509031 -0.0088002145151058891 0 -0.21921501925093501 -0.017985606360015789 0 -0.22271521407306469 -0.037269361340154371 0 -0.22947398200509031 -0.0088002145151058891 0 -0.22271521407306469 -0.037269361340154371 0 -0.22947398200509031 -0.0088002145151058891 0 -0.24161885061771041 -0.026720350447010301 0 -0.22947398200509031 -0.0088002145151058891 0 -0.24161885061771041 -0.026720350447010301 0 -0.2437457614006571 -0.011962382738850049 0 -0.24161885061771041 -0.026720350447010301 0 -0.2437457614006571 -0.011962382738850049 0 -0.2598032925822476 -0.0188915667982569 0 -0.22947398200509031 -0.0088002145151058891 0 -0.2437457614006571 -0.011962382738850049 0 -0.2401015516947359 0.00075261550232862703 0 -0.2437457614006571 -0.011962382738850049 0 -0.25267499080189931 -0.0034516002120552492 0 -0.2401015516947359 0.00075261550232862703 0 -0.25267499080189931 -0.0034516002120552492 0 -0.2598032925822476 -0.0188915667982569 0 -0.26909988492935111 -0.0018655285383734981 0 -0.2437457614006571 -0.011962382738850049 0 -0.25267499080189931 -0.0034516002120552492 0 -0.2598032925822476 -0.0188915667982569 0 -0.2598032925822476 -0.0188915667982569 0 -0.27267419604841259 -0.026924212746328481 0 -0.25766621977661042 -0.038842414379153638 0 -0.24161885061771041 -0.026720350447010301 0 -0.2598032925822476 -0.0188915667982569 0 -0.25766621977661042 -0.038842414379153638 0 -0.2598032925822476 -0.0188915667982569 0 -0.27267419604841259 -0.026924212746328481 0 -0.27804425228895369 -0.016131696666228459 0 -0.27267419604841259 -0.026924212746328481 0 -0.27804425228895369 -0.016131696666228459 0 -0.28378415359151371 -0.031280105512012511 0 -0.27804425228895369 -0.016131696666228459 0 -0.26909988492935111 -0.0018655285383734981 0 -0.2917254884257266 -0.0017566381736345419 0 -0.2598032925822476 -0.0188915667982569 0 -0.27804425228895369 -0.016131696666228459 0 -0.26909988492935111 -0.0018655285383734981 0 -0.27804425228895369 -0.016131696666228459 0 -0.2917254884257266 -0.0017566381736345419 0 -0.2928870998243559 -0.020527937726781 0 -0.27804425228895369 -0.016131696666228459 0 -0.2928870998243559 -0.020527937726781 0 -0.28378415359151371 -0.031280105512012511 0 -0.2928870998243559 -0.020527937726781 0 -0.29943422057661201 -0.032203920876667472 0 -0.28378415359151371 -0.031280105512012511 0 -0.2928870998243559 -0.020527937726781 0 -0.31144738423897378 -0.02126732740536201 0 -0.29943422057661201 -0.032203920876667472 0 -0.31144738423897378 -0.02126732740536201 0 -0.31110423911055801 -0.035316851109560482 0 -0.29943422057661201 -0.032203920876667472 0 -0.2917254884257266 -0.0017566381736345419 0 -0.31144738423897378 -0.02126732740536201 0 -0.31177688145040278 0.0050359958776742568 0 -0.2917254884257266 -0.0017566381736345419 0 -0.2928870998243559 -0.020527937726781 0 -0.31144738423897378 -0.02126732740536201 0 -0.2917254884257266 -0.0017566381736345419 0 -0.31144738423897378 -0.02126732740536201 0 -0.30323190850646392 -0.052883144282766713 0 -0.3023660715744253 -0.047018139519123002 0 -0.29757341552329353 -0.05219957266967655 0 -0.29931176789370939 -0.061629941742321552 0 -0.30659897303184058 -0.057135789817405573 0 -0.30728911182784302 -0.064893595009923935 0 -0.30323190850646392 -0.052883144282766713 0 -0.29931176789370939 -0.061629941742321552 0 -0.30659897303184058 -0.057135789817405573 0 -0.30323190850646392 -0.052883144282766713 0 -0.29757341552329353 -0.05219957266967655 0 -0.29931176789370939 -0.061629941742321552 0 -0.30659897303184058 -0.057135789817405573 0 -0.30728911182784302 -0.064893595009923935 0 -0.31405483352543062 -0.056831087900065053 0 -0.30323190850646392 -0.052883144282766713 0 -0.3023660715744253 -0.047018139519123002 0 -0.31025625293594222 -0.050033124508212908 0 -0.30659897303184058 -0.057135789817405573 0 -0.31025625293594222 -0.050033124508212908 0 -0.31405483352543062 -0.056831087900065053 0 -0.30323190850646392 -0.052883144282766713 0 -0.30659897303184058 -0.057135789817405573 0 -0.31025625293594222 -0.050033124508212908 0 -0.3023660715744253 -0.047018139519123002 0 -0.31110423911055801 -0.035316851109560482 0 -0.29943422057661201 -0.032203920876667472 0 -0.3023660715744253 -0.047018139519123002 0 -0.29943422057661201 -0.032203920876667472 0 -0.29166722635019171 -0.038853801873014321 0 -0.29943422057661201 -0.032203920876667472 0 -0.29166722635019171 -0.038853801873014321 0 -0.28378415359151371 -0.031280105512012511 0 -0.3023660715744253 -0.047018139519123002 0 -0.29166722635019171 -0.038853801873014321 0 -0.28390051605192418 -0.042754285685484159 0 -0.29166722635019171 -0.038853801873014321 0 -0.28378415359151371 -0.031280105512012511 0 -0.28390051605192418 -0.042754285685484159 0 -0.3023660715744253 -0.047018139519123002 0 -0.28390051605192418 -0.042754285685484159 0 -0.27356286309663053 -0.053258262401150697 0 -0.3023660715744253 -0.047018139519123002 0 -0.27356286309663053 -0.053258262401150697 0 -0.29757341552329353 -0.05219957266967655 0 -0.27356286309663053 -0.053258262401150697 0 -0.27532891164284878 -0.069285621960536392 0 -0.29757341552329353 -0.05219957266967655 0 -0.27532891164284878 -0.069285621960536392 0 -0.3023660715744253 -0.047018139519123002 0 -0.29757341552329353 -0.05219957266967655 0 -0.27356286309663053 -0.053258262401150697 0 -0.29757341552329353 -0.05219957266967655 0 -0.29931176789370939 -0.061629941742321552 0 -0.27532891164284878 -0.069285621960536392 0 -0.27267419604841259 -0.026924212746328481 0 -0.27375437843427658 -0.039043607324579933 0 -0.25766621977661042 -0.038842414379153638 0 -0.27356286309663053 -0.053258262401150697 0 -0.27375437843427658 -0.039043607324579933 0 -0.25766621977661042 -0.038842414379153638 0 -0.28378415359151371 -0.031280105512012511 0 -0.28390051605192418 -0.042754285685484159 0 -0.27375437843427658 -0.039043607324579933 0 -0.27267419604841259 -0.026924212746328481 0 -0.28378415359151371 -0.031280105512012511 0 -0.27375437843427658 -0.039043607324579933 0 -0.28390051605192418 -0.042754285685484159 0 -0.27356286309663053 -0.053258262401150697 0 -0.27375437843427658 -0.039043607324579933 0 -0.24475965461883589 -0.059498385283178377 0 -0.27356286309663053 -0.053258262401150697 0 -0.2582325144520296 -0.070050845257802419 0 -0.24475965461883589 -0.059498385283178377 0 -0.27356286309663053 -0.053258262401150697 0 -0.24475965461883589 -0.059498385283178377 0 -0.27356286309663053 -0.053258262401150697 0 -0.25766621977661042 -0.038842414379153638 0 -0.2582325144520296 -0.070050845257802419 0 -0.25308440776240432 -0.086371671251396109 0 -0.27532891164284878 -0.069285621960536392 0 -0.25308440776240432 -0.086371671251396109 0 -0.27532891164284878 -0.069285621960536392 0 -0.25308440776240432 -0.086371671251396109 0 -0.27361062541114611 -0.085405998149086934 0 -0.26907394573302829 -0.10103393024372311 0 -0.27361062541114611 -0.085405998149086934 0 -0.26907394573302829 -0.10103393024372311 0 -0.28494676303449051 -0.09097811142482605 0 -0.25308440776240432 -0.086371671251396109 0 -0.27361062541114611 -0.085405998149086934 0 -0.27532891164284878 -0.069285621960536392 0 -0.27356286309663053 -0.053258262401150697 0 -0.2582325144520296 -0.070050845257802419 0 -0.27532891164284878 -0.069285621960536392 0 -0.27361062541114611 -0.085405998149086934 0 -0.27532891164284878 -0.069285621960536392 0 -0.28561909888295839 -0.079360655864953042 0 -0.2432602079730701 -0.13485583854350039 0 -0.2499653418643101 -0.1102460646797562 0 -0.26490928006600228 -0.12397715003998409 0 -0.2499653418643101 -0.1102460646797562 0 -0.26490928006600228 -0.12397715003998409 0 -0.26907394573302829 -0.10103393024372311 0 -0.2499653418643101 -0.1102460646797562 0 -0.25308440776240432 -0.086371671251396109 0 -0.26907394573302829 -0.10103393024372311 0 -0.26907394573302829 -0.10103393024372311 0 -0.28789548083438649 -0.11161882002010511 0 -0.28494676303449051 -0.09097811142482605 0 -0.26490928006600228 -0.12397715003998409 0 -0.28789548083438649 -0.11161882002010511 0 -0.28428672055728371 -0.13281235115180859 0 -0.26490928006600228 -0.12397715003998409 0 -0.26907394573302829 -0.10103393024372311 0 -0.28789548083438649 -0.11161882002010511 0 -0.28789548083438649 -0.11161882002010511 0 -0.28428672055728371 -0.13281235115180859 0 -0.30877835781368662 -0.12931532841693749 0 -0.28789548083438649 -0.11161882002010511 0 -0.29765529442092259 -0.094840601490837839 0 -0.28494676303449051 -0.09097811142482605 0 -0.30761934067920371 -0.1042503242997595 0 -0.29765529442092259 -0.094840601490837839 0 -0.30832877355579341 -0.086934752854072747 0 -0.30761934067920371 -0.1042503242997595 0 -0.30832877355579341 -0.086934752854072747 0 -0.31968159473222052 -0.091584555267719248 0 -0.28789548083438649 -0.11161882002010511 0 -0.30761934067920371 -0.1042503242997595 0 -0.29765529442092259 -0.094840601490837839 0 -0.28789548083438649 -0.11161882002010511 0 -0.30761934067920371 -0.1042503242997595 0 -0.30877835781368662 -0.12931532841693749 0 -0.29931176789370939 -0.061629941742321552 0 -0.27532891164284878 -0.069285621960536392 0 -0.29568251685582603 -0.071589435967753134 0 -0.27532891164284878 -0.069285621960536392 0 -0.29568251685582603 -0.071589435967753134 0 -0.28561909888295839 -0.079360655864953042 0 -0.29568251685582603 -0.071589435967753134 0 -0.28561909888295839 -0.079360655864953042 0 -0.29849490204505058 -0.081938345925378783 0 -0.27361062541114611 -0.085405998149086934 0 -0.28561909888295839 -0.079360655864953042 0 -0.28494676303449051 -0.09097811142482605 0 -0.29765529442092259 -0.094840601490837839 0 -0.28494676303449051 -0.09097811142482605 0 -0.29849490204505058 -0.081938345925378783 0 -0.28561909888295839 -0.079360655864953042 0 -0.28494676303449051 -0.09097811142482605 0 -0.29849490204505058 -0.081938345925378783 0 -0.29849490204505058 -0.081938345925378783 0 -0.30832877355579341 -0.086934752854072747 0 -0.3066986514807607 -0.074546990101646726 0 -0.29765529442092259 -0.094840601490837839 0 -0.29849490204505058 -0.081938345925378783 0 -0.30832877355579341 -0.086934752854072747 0 -0.30832877355579341 -0.086934752854072747 0 -0.3066986514807607 -0.074546990101646726 0 -0.31636087034116728 -0.076704125898778439 0 -0.3066986514807607 -0.074546990101646726 0 -0.31411021802290889 -0.069356746280106005 0 -0.31636087034116728 -0.076704125898778439 0 -0.29568251685582603 -0.071589435967753134 0 -0.29849490204505058 -0.081938345925378783 0 -0.3066986514807607 -0.074546990101646726 0 -0.29568251685582603 -0.071589435967753134 0 -0.3066986514807607 -0.074546990101646726 0 -0.30728911182784302 -0.064893595009923935 0 -0.29931176789370939 -0.061629941742321552 0 -0.29568251685582603 -0.071589435967753134 0 -0.30728911182784302 -0.064893595009923935 0 -0.3066986514807607 -0.074546990101646726 0 -0.30728911182784302 -0.064893595009923935 0 -0.31411021802290889 -0.069356746280106005 0 -0.30728911182784302 -0.064893595009923935 0 -0.31630436981946819 -0.062936971351065629 0 -0.31411021802290889 -0.069356746280106005 0 -0.31630436981946819 -0.062936971351065629 0 -0.31411021802290889 -0.069356746280106005 0 -0.32389808664530562 -0.067702049039115322 0 -0.31630436981946819 -0.062936971351065629 0 -0.32389808664530562 -0.067702049039115322 0 -0.32481687078849097 -0.058022226865728103 0 -0.32389808664530562 -0.067702049039115322 0 -0.3259684841043719 -0.075020057435826168 0 -0.31636087034116728 -0.076704125898778439 0 -0.31411021802290889 -0.069356746280106005 0 -0.32389808664530562 -0.067702049039115322 0 -0.31636087034116728 -0.076704125898778439 0 -0.30832877355579341 -0.086934752854072747 0 -0.32608803180755441 -0.084321365842938284 0 -0.30832877355579341 -0.086934752854072747 0 -0.31968159473222052 -0.091584555267719248 0 -0.32608803180755441 -0.084321365842938284 0 -0.30832877355579341 -0.086934752854072747 0 -0.31636087034116728 -0.076704125898778439 0 -0.32608803180755441 -0.084321365842938284 0 -0.31968159473222052 -0.091584555267719248 0 -0.32608803180755441 -0.084321365842938284 0 -0.3259684841043719 -0.075020057435826168 0 -0.31636087034116728 -0.076704125898778439 0 -0.32608803180755441 -0.084321365842938284 0 -0.31968159473222052 -0.091584555267719248 0 -0.32608803180755441 -0.084321365842938284 0 -0.34030971713070318 -0.087052614945596102 0 -0.32608803180755441 -0.084321365842938284 0 -0.34030971713070318 -0.087052614945596102 0 -0.34745734249292459 -0.081176736816750444 0 -0.32608803180755441 -0.084321365842938284 0 -0.33752694762346008 -0.07135268896247253 0 -0.34745734249292459 -0.081176736816750444 0 -0.32608803180755441 -0.084321365842938284 0 -0.34745734249292459 -0.081176736816750444 0 -0.33752694762346008 -0.07135268896247253 0 -0.3489658634393657 -0.058384012082006782 0 -0.33645864726091979 -0.05858208772264157 0 -0.33752694762346008 -0.07135268896247253 0 -0.3489658634393657 -0.058384012082006782 0 -0.32389808664530562 -0.067702049039115322 0 -0.33752694762346008 -0.07135268896247253 0 -0.33645864726091979 -0.05858208772264157 0 -0.3259684841043719 -0.075020057435826168 0 -0.32608803180755441 -0.084321365842938284 0 -0.33752694762346008 -0.07135268896247253 0 -0.32608803180755441 -0.084321365842938284 0 -0.33752694762346008 -0.07135268896247253 0 -0.32389808664530562 -0.067702049039115322 0 -0.3259684841043719 -0.075020057435826168 0 -0.33752694762346008 -0.07135268896247253 0 -0.32454403747219479 -0.1081839716812668 0 -0.30877835781368662 -0.12931532841693749 0 -0.30761934067920371 -0.1042503242997595 0 -0.32454403747219479 -0.1081839716812668 0 -0.30877835781368662 -0.12931532841693749 0 -0.32454403747219479 -0.1081839716812668 0 -0.33570809008837621 -0.11845594114356341 0 -0.30877835781368662 -0.12931532841693749 0 -0.30761934067920371 -0.1042503242997595 0 -0.31968159473222052 -0.091584555267719248 0 -0.32454403747219479 -0.1081839716812668 0 -0.34030971713070318 -0.087052614945596102 0 -0.32454403747219479 -0.1081839716812668 0 -0.34278855512837281 -0.1049294584887832 0 -0.31968159473222052 -0.091584555267719248 0 -0.34030971713070318 -0.087052614945596102 0 -0.32454403747219479 -0.1081839716812668 0 -0.34030971713070318 -0.087052614945596102 0 -0.32454403747219479 -0.1081839716812668 0 -0.32454403747219479 -0.1081839716812668 0 -0.34278855512837281 -0.1049294584887832 0 -0.33570809008837621 -0.11845594114356341 0 -0.33570809008837621 -0.11845594114356341 0 -0.35404294059136687 -0.1217835462641018 0 -0.33688620478323589 -0.13358080389391511 0 -0.34278855512837281 -0.1049294584887832 0 -0.35404294059136687 -0.1217835462641018 0 -0.35932798989652742 -0.1047455147758234 0 -0.34278855512837281 -0.1049294584887832 0 -0.33570809008837621 -0.11845594114356341 0 -0.35404294059136687 -0.1217835462641018 0 -0.34278855512837281 -0.1049294584887832 0 -0.35932798989652742 -0.1047455147758234 0 -0.35079718399447979 -0.093651592615473511 0 -0.34030971713070318 -0.087052614945596102 0 -0.34278855512837281 -0.1049294584887832 0 -0.35079718399447979 -0.093651592615473511 0 -0.35932798989652742 -0.1047455147758234 0 -0.35079718399447979 -0.093651592615473511 0 -0.36132419909701757 -0.091459041133748031 0 -0.35932798989652742 -0.1047455147758234 0 -0.37367929427193591 -0.1014825750548952 0 -0.37212838853434238 -0.11808059788504249 0 -0.35932798989652742 -0.1047455147758234 0 -0.37367929427193591 -0.1014825750548952 0 -0.36132419909701757 -0.091459041133748031 0 -0.35404294059136687 -0.1217835462641018 0 -0.37212838853434238 -0.11808059788504249 0 -0.37028068739271691 -0.13083580994494901 0 -0.35404294059136687 -0.1217835462641018 0 -0.35932798989652742 -0.1047455147758234 0 -0.37212838853434238 -0.11808059788504249 0 -0.35069420168351129 -0.07223638641294812 0 -0.34745734249292459 -0.081176736816750444 0 -0.36882665317829499 -0.078032107790563188 0 -0.36882665317829499 -0.078032107790563188 0 -0.3489658634393657 -0.058384012082006782 0 -0.35069420168351129 -0.07223638641294812 0 -0.36882665317829499 -0.078032107790563188 0 -0.3489658634393657 -0.058384012082006782 0 -0.33752694762346008 -0.07135268896247253 0 -0.35069420168351129 -0.07223638641294812 0 -0.3489658634393657 -0.058384012082006782 0 -0.33752694762346008 -0.07135268896247253 0 -0.35069420168351129 -0.07223638641294812 0 -0.34745734249292459 -0.081176736816750444 0 -0.34745734249292459 -0.081176736816750444 0 -0.36882665317829499 -0.078032107790563188 0 -0.34745734249292459 -0.081176736816750444 0 -0.36132419909701757 -0.091459041133748031 0 -0.36882665317829499 -0.078032107790563188 0 -0.34030971713070318 -0.087052614945596102 0 -0.34745734249292459 -0.081176736816750444 0 -0.35079718399447979 -0.093651592615473511 0 -0.34745734249292459 -0.081176736816750444 0 -0.35079718399447979 -0.093651592615473511 0 -0.36132419909701757 -0.091459041133748031 0 -0.37367929427193591 -0.1014825750548952 0 -0.36132419909701757 -0.091459041133748031 0 -0.36882665317829499 -0.078032107790563188 0 -0.36882665317829499 -0.078032107790563188 0 -0.36862349457690058 -0.057461967220355487 0 -0.3489658634393657 -0.058384012082006782 0 -0.36882665317829499 -0.078032107790563188 0 -0.36862349457690058 -0.057461967220355487 0 -0.37947166312044489 -0.067272628224985004 0 -0.36862349457690058 -0.057461967220355487 0 -0.3489658634393657 -0.058384012082006782 0 -0.36066681755822472 -0.045118253717945672 0 -0.36862349457690058 -0.057461967220355487 0 -0.37355784227175309 -0.045246792894939887 0 -0.3815482533063424 -0.052412606119804542 0 -0.36862349457690058 -0.057461967220355487 0 -0.36066681755822472 -0.045118253717945672 0 -0.37355784227175309 -0.045246792894939887 0 -0.3489658634393657 -0.058384012082006782 0 -0.36066681755822472 -0.045118253717945672 0 -0.3489658634393657 -0.058384012082006782 0 -0.34511111307690212 -0.046137334811030092 0 -0.36066681755822472 -0.045118253717945672 0 -0.35304062521722218 -0.036039659744318157 0 -0.3553139768507978 -0.023567241021099371 0 -0.33371347875736079 -0.040226824134751989 0 -0.34511111307690212 -0.046137334811030092 0 -0.35304062521722218 -0.036039659744318157 0 -0.33371347875736079 -0.040226824134751989 0 -0.34511111307690212 -0.046137334811030092 0 -0.35304062521722218 -0.036039659744318157 0 -0.36066681755822472 -0.045118253717945672 0 -0.36066681755822472 -0.045118253717945672 0 -0.37236777167708351 -0.031852495353884333 0 -0.35304062521722218 -0.036039659744318157 0 -0.37236777167708351 -0.031852495353884333 0 -0.35304062521722218 -0.036039659744318157 0 -0.36066681755822472 -0.045118253717945672 0 -0.37236777167708351 -0.031852495353884333 0 -0.36066681755822472 -0.045118253717945672 0 -0.37355784227175309 -0.045246792894939887 0 -0.37236777167708351 -0.031852495353884333 0 -0.37236777167708351 -0.031852495353884333 0 -0.3739022591900184 -0.02415390189740213 0 -0.36770044175442279 -0.02036669541201027 0 -0.37236777167708351 -0.031852495353884333 0 -0.36770044175442279 -0.02036669541201027 0 -0.3553139768507978 -0.023567241021099371 0 -0.36770044175442279 -0.02036669541201027 0 -0.35847393927256738 -0.010652033510738681 0 -0.38297625517291389 -0.017448943304264108 0 -0.35304062521722218 -0.036039659744318157 0 -0.37236777167708351 -0.031852495353884333 0 -0.3553139768507978 -0.023567241021099371 0 -0.3739022591900184 -0.02415390189740213 0 -0.36770044175442279 -0.02036669541201027 0 -0.38297625517291389 -0.017448943304264108 0 -0.36770044175442279 -0.02036669541201027 0 -0.35847393927256738 -0.010652033510738681 0 -0.3553139768507978 -0.023567241021099371 0 -0.35847393927256738 -0.010652033510738681 0 -0.38297625517291389 -0.017448943304264108 0 -0.37278444596104371 -0.0079457960458173115 0 -0.35847393927256738 -0.010652033510738681 0 -0.38297625517291389 -0.017448943304264108 0 -0.37474494217865062 -0.0022388935110706832 0 -0.37278444596104371 -0.0079457960458173115 0 -0.36307869926690151 -0.00068504054922277494 0 -0.37278444596104371 -0.0079457960458173115 0 -0.36307869926690151 -0.00068504054922277494 0 -0.35847393927256738 -0.010652033510738681 0 -0.36307869926690151 -0.00068504054922277494 0 -0.34718119132474479 -0.01384164818341615 0 -0.36064890389212972 0.0125435277679194 0 -0.36307869926690151 -0.00068504054922277494 0 -0.35847393927256738 -0.010652033510738681 0 -0.34718119132474479 -0.01384164818341615 0 -0.34718119132474479 -0.01384164818341615 0 -0.36064890389212972 0.0125435277679194 0 -0.34718119132474479 -0.01384164818341615 0 -0.3553139768507978 -0.023567241021099371 0 -0.33371347875736079 -0.040226824134751989 0 -0.35847393927256738 -0.010652033510738681 0 -0.34718119132474479 -0.01384164818341615 0 -0.3553139768507978 -0.023567241021099371 0 -0.34718119132474479 -0.01384164818341615 0 -0.33035884889608558 -0.02420969997450095 0 -0.33371347875736079 -0.040226824134751989 0 -0.34718119132474479 -0.01384164818341615 0 -0.33371347875736079 -0.040226824134751989 0 -0.34718119132474479 -0.01384164818341615 0 -0.32828291010712762 -0.0049346835118845543 0 -0.34055428987364128 0.0059527955302196532 0 -0.34718119132474479 -0.01384164818341615 0 -0.33035884889608558 -0.02420969997450095 0 -0.32828291010712762 -0.0049346835118845543 0 -0.31144738423897378 -0.02126732740536201 0 -0.32828291010712762 -0.0049346835118845543 0 -0.31177688145040278 0.0050359958776742568 0 -0.31144738423897378 -0.02126732740536201 0 -0.33116928005221918 -0.040778016637091109 0 -0.31144738423897378 -0.02126732740536201 0 -0.33035884889608558 -0.02420969997450095 0 -0.32828291010712762 -0.0049346835118845543 0 -0.31144738423897378 -0.02126732740536201 0 -0.33035884889608558 -0.02420969997450095 0 -0.33116928005221918 -0.040778016637091109 0 -0.3023660715744253 -0.047018139519123002 0 -0.31110423911055801 -0.035316851109560482 0 -0.33116928005221918 -0.040778016637091109 0 -0.3023660715744253 -0.047018139519123002 0 -0.31025625293594222 -0.050033124508212908 0 -0.33116928005221918 -0.040778016637091109 0 -0.3023660715744253 -0.047018139519123002 0 -0.33116928005221918 -0.040778016637091109 0 -0.31144738423897378 -0.02126732740536201 0 -0.31110423911055801 -0.035316851109560482 0 -0.33116928005221918 -0.040778016637091109 0 -0.31025625293594222 -0.050033124508212908 0 -0.31770057673851387 -0.05020147555903863 0 -0.33116928005221918 -0.040778016637091109 0 -0.31025625293594222 -0.050033124508212908 0 -0.31770057673851387 -0.05020147555903863 0 -0.31405483352543062 -0.056831087900065053 0 -0.31770057673851387 -0.05020147555903863 0 -0.31405483352543062 -0.056831087900065053 0 -0.31936567051967829 -0.054711673150449433 0 -0.31630436981946819 -0.062936971351065629 0 -0.31936567051967829 -0.054711673150449433 0 -0.32481687078849097 -0.058022226865728103 0 -0.30728911182784302 -0.064893595009923935 0 -0.31630436981946819 -0.062936971351065629 0 -0.31405483352543062 -0.056831087900065053 0 -0.31630436981946819 -0.062936971351065629 0 -0.31405483352543062 -0.056831087900065053 0 -0.31936567051967829 -0.054711673150449433 0 -0.31770057673851387 -0.05020147555903863 0 -0.32448711316898249 -0.050622394842538963 0 -0.33116928005221918 -0.040778016637091109 0 -0.31936567051967829 -0.054711673150449433 0 -0.32481687078849097 -0.058022226865728103 0 -0.32448711316898249 -0.050622394842538963 0 -0.31770057673851387 -0.05020147555903863 0 -0.31936567051967829 -0.054711673150449433 0 -0.32448711316898249 -0.050622394842538963 0 -0.32481687078849097 -0.058022226865728103 0 -0.32770904195502032 -0.053173566283506987 0 -0.32448711316898249 -0.050622394842538963 0 -0.32770904195502032 -0.053173566283506987 0 -0.32448711316898249 -0.050622394842538963 0 -0.32972533979495861 -0.048040159006195682 0 -0.3489658634393657 -0.058384012082006782 0 -0.34511111307690212 -0.046137334811030092 0 -0.3326728772282519 -0.042265511425067279 0 -0.32972533979495861 -0.048040159006195682 0 -0.33645864726091979 -0.05858208772264157 0 -0.3326728772282519 -0.042265511425067279 0 -0.3489658634393657 -0.058384012082006782 0 -0.3326728772282519 -0.042265511425067279 0 -0.32770904195502032 -0.053173566283506987 0 -0.32972533979495861 -0.048040159006195682 0 -0.33645864726091979 -0.05858208772264157 0 -0.3489658634393657 -0.058384012082006782 0 -0.33645864726091979 -0.05858208772264157 0 -0.3326728772282519 -0.042265511425067279 0 -0.32389808664530562 -0.067702049039115322 0 -0.32481687078849097 -0.058022226865728103 0 -0.33645864726091979 -0.05858208772264157 0 -0.32481687078849097 -0.058022226865728103 0 -0.32770904195502032 -0.053173566283506987 0 -0.33645864726091979 -0.05858208772264157 0 -0.34511111307690212 -0.046137334811030092 0 -0.33371347875736079 -0.040226824134751989 0 -0.3326728772282519 -0.042265511425067279 0 -0.33035884889608558 -0.02420969997450095 0 -0.33116928005221918 -0.040778016637091109 0 -0.33371347875736079 -0.040226824134751989 0 -0.35304062521722218 -0.036039659744318157 0 -0.33371347875736079 -0.040226824134751989 0 -0.32448711316898249 -0.050622394842538963 0 -0.32972533979495861 -0.048040159006195682 0 -0.33116928005221918 -0.040778016637091109 0 -0.33116928005221918 -0.040778016637091109 0 -0.3326728772282519 -0.042265511425067279 0 -0.32972533979495861 -0.048040159006195682 0 -0.3326728772282519 -0.042265511425067279 0 -0.32972533979495861 -0.048040159006195682 0 -0.33116928005221918 -0.040778016637091109 0 -0.3326728772282519 -0.042265511425067279 0 -0.33116928005221918 -0.040778016637091109 0 -0.33371347875736079 -0.040226824134751989 0 -0.33116928005221918 -0.040778016637091109 0 -0.33371347875736079 -0.040226824134751989 0 -0.3326728772282519 -0.042265511425067279 0 -0.33371347875736079 -0.040226824134751989 0 -0.3326728772282519 -0.042265511425067279 0 -0.2907170577323625 -0.25177677077710309 0 -0.30853150187083839 -0.25429835417001312 0 -0.30748271917561598 -0.2431056607245809 0 -0.30748271917561598 -0.2431056607245809 0 -0.3004866401015065 -0.2269264896544945 0 -0.32066485276457768 -0.2334308190911655 0 -0.2907170577323625 -0.25177677077710309 0 -0.30748271917561598 -0.2431056607245809 0 -0.3004866401015065 -0.2269264896544945 0 -0.30853150187083839 -0.25429835417001312 0 -0.30748271917561598 -0.2431056607245809 0 -0.32023222063025569 -0.2489608815952247 0 -0.3004866401015065 -0.2269264896544945 0 -0.27575903677895092 -0.22208668823385669 0 -0.3004866401015065 -0.2269264896544945 0 -0.27309361240676189 -0.24179026653703889 0 -0.27575903677895092 -0.22208668823385669 0 -0.3004866401015065 -0.2269264896544945 0 -0.27575903677895092 -0.22208668823385669 0 -0.29482007196541532 -0.2089319155152673 0 -0.2907170577323625 -0.25177677077710309 0 -0.3004866401015065 -0.2269264896544945 0 -0.27309361240676189 -0.24179026653703889 0 -0.27309361240676189 -0.24179026653703889 0 -0.25431856302814809 -0.24833495949118861 0 -0.25103143345639523 -0.21724688681321891 0 -0.27575903677895092 -0.22208668823385669 0 -0.25103143345639523 -0.21724688681321891 0 -0.27309361240676189 -0.24179026653703889 0 -0.27575903677895092 -0.22208668823385669 0 -0.25103143345639523 -0.21724688681321891 0 -0.27575903677895092 -0.22208668823385669 0 -0.25103143345639523 -0.21724688681321891 0 -0.27708552823660842 -0.19790031786117671 0 -0.25103143345639523 -0.21724688681321891 0 -0.25418198431724581 -0.18809916394242601 0 -0.27708552823660842 -0.19790031786117671 0 -0.27708552823660842 -0.19790031786117671 0 -0.29482007196541532 -0.2089319155152673 0 -0.30195969341908391 -0.19078830755985379 0 -0.29482007196541532 -0.2089319155152673 0 -0.30195969341908391 -0.19078830755985379 0 -0.32674672588845421 -0.2120308859258328 0 -0.3004866401015065 -0.2269264896544945 0 -0.29482007196541532 -0.2089319155152673 0 -0.32674672588845421 -0.2120308859258328 0 -0.27575903677895092 -0.22208668823385669 0 -0.27708552823660842 -0.19790031786117671 0 -0.29482007196541532 -0.2089319155152673 0 -0.30195969341908391 -0.19078830755985379 0 -0.30674796742087651 -0.1684647150882764 0 -0.32123008678095788 -0.18729232698745699 0 -0.30674796742087651 -0.1684647150882764 0 -0.2930126781551784 -0.15044668515260809 0 -0.3206808779707625 -0.15110047818677941 0 -0.27724699849667023 -0.17157804188827869 0 -0.2930126781551784 -0.15044668515260809 0 -0.30674796742087651 -0.1684647150882764 0 -0.27724699849667023 -0.17157804188827869 0 -0.2930126781551784 -0.15044668515260809 0 -0.27708552823660842 -0.19790031786117671 0 -0.30195969341908391 -0.19078830755985379 0 -0.27724699849667023 -0.17157804188827869 0 -0.30195969341908391 -0.19078830755985379 0 -0.30674796742087651 -0.1684647150882764 0 -0.27724699849667023 -0.17157804188827869 0 -0.25418198431724581 -0.18809916394242601 0 -0.27708552823660842 -0.19790031786117671 0 -0.27724699849667023 -0.17157804188827869 0 -0.25418198431724581 -0.18809916394242601 0 -0.2565438833259911 -0.1687602707777138 0 -0.27724699849667023 -0.17157804188827869 0 -0.2435592126657353 -0.1561425335328199 0 -0.2565438833259911 -0.1687602707777138 0 -0.26683780591716472 -0.14870377212940841 0 -0.27724699849667023 -0.17157804188827869 0 -0.26683780591716472 -0.14870377212940841 0 -0.2930126781551784 -0.15044668515260809 0 -0.2565438833259911 -0.1687602707777138 0 -0.27724699849667023 -0.17157804188827869 0 -0.26683780591716472 -0.14870377212940841 0 -0.2435592126657353 -0.1561425335328199 0 -0.2432602079730701 -0.13485583854350039 0 -0.26683780591716472 -0.14870377212940841 0 -0.2432602079730701 -0.13485583854350039 0 -0.26490928006600228 -0.12397715003998409 0 -0.26683780591716472 -0.14870377212940841 0 -0.26490928006600228 -0.12397715003998409 0 -0.26683780591716472 -0.14870377212940841 0 -0.28428672055728371 -0.13281235115180859 0 -0.28428672055728371 -0.13281235115180859 0 -0.2930126781551784 -0.15044668515260809 0 -0.30877835781368662 -0.12931532841693749 0 -0.26683780591716472 -0.14870377212940841 0 -0.28428672055728371 -0.13281235115180859 0 -0.2930126781551784 -0.15044668515260809 0 -0.2930126781551784 -0.15044668515260809 0 -0.30877835781368662 -0.12931532841693749 0 -0.3206808779707625 -0.15110047818677941 0 -0.2930126781551784 -0.15044668515260809 0 -0.30877835781368662 -0.12931532841693749 0 -0.33570809008837621 -0.11845594114356341 0 -0.30877835781368662 -0.12931532841693749 0 -0.33688620478323589 -0.13358080389391511 0 -0.30877835781368662 -0.12931532841693749 0 -0.3206808779707625 -0.15110047818677941 0 -0.33688620478323589 -0.13358080389391511 0 -0.3206808779707625 -0.15110047818677941 0 -0.33688620478323589 -0.13358080389391511 0 -0.34399943231138669 -0.15408109000358611 0 -0.33688620478323589 -0.13358080389391511 0 -0.35929992868189681 -0.1386942596847188 0 -0.35404294059136687 -0.1217835462641018 0 -0.33688620478323589 -0.13358080389391511 0 -0.35929992868189681 -0.1386942596847188 0 -0.35404294059136687 -0.1217835462641018 0 -0.35929992868189681 -0.1386942596847188 0 -0.37028068739271691 -0.13083580994494901 0 -0.35929992868189681 -0.1386942596847188 0 -0.37028068739271691 -0.13083580994494901 0 -0.3804539816512269 -0.14482329966991631 0 -0.35929992868189681 -0.1386942596847188 0 -0.3804539816512269 -0.14482329966991631 0 -0.35929992868189681 -0.1386942596847188 0 -0.3655172116091886 -0.15688196674787641 0 -0.3804539816512269 -0.14482329966991631 0 -0.3655172116091886 -0.15688196674787641 0 -0.3804539816512269 -0.14482329966991631 0 -0.3655172116091886 -0.15688196674787641 0 -0.37839901512320262 -0.15996290040625341 0 -0.3804539816512269 -0.14482329966991631 0 -0.33688620478323589 -0.13358080389391511 0 -0.35929992868189681 -0.1386942596847188 0 -0.34399943231138669 -0.15408109000358611 0 -0.35929992868189681 -0.1386942596847188 0 -0.34399943231138669 -0.15408109000358611 0 -0.3655172116091886 -0.15688196674787641 0 -0.34399943231138669 -0.15408109000358611 0 -0.35323542112630057 -0.1671812377988513 0 -0.3655172116091886 -0.15688196674787641 0 -0.3655172116091886 -0.15688196674787641 0 -0.37378547386561772 -0.17392500984250869 0 -0.37839901512320262 -0.15996290040625341 0 -0.35323542112630057 -0.1671812377988513 0 -0.3655172116091886 -0.15688196674787641 0 -0.37378547386561772 -0.17392500984250869 0 -0.37378547386561772 -0.17392500984250869 0 -0.35240556330307887 -0.18479875362473361 0 -0.36895563931783232 -0.19259611207654981 0 -0.35323542112630057 -0.1671812377988513 0 -0.37378547386561772 -0.17392500984250869 0 -0.35240556330307887 -0.18479875362473361 0 -0.35323542112630057 -0.1671812377988513 0 -0.35240556330307887 -0.18479875362473361 0 -0.33400288196205857 -0.17193246321376471 0 -0.35240556330307887 -0.18479875362473361 0 -0.33400288196205857 -0.17193246321376471 0 -0.33669316521431608 -0.19324526314955739 0 -0.33400288196205857 -0.17193246321376471 0 -0.32123008678095788 -0.18729232698745699 0 -0.33669316521431608 -0.19324526314955739 0 -0.3206808779707625 -0.15110047818677941 0 -0.34399943231138669 -0.15408109000358611 0 -0.33400288196205857 -0.17193246321376471 0 -0.34399943231138669 -0.15408109000358611 0 -0.35323542112630057 -0.1671812377988513 0 -0.33400288196205857 -0.17193246321376471 0 -0.30674796742087651 -0.1684647150882764 0 -0.3206808779707625 -0.15110047818677941 0 -0.33400288196205857 -0.17193246321376471 0 -0.30674796742087651 -0.1684647150882764 0 -0.33400288196205857 -0.17193246321376471 0 -0.32123008678095788 -0.18729232698745699 0 -0.30195969341908391 -0.19078830755985379 0 -0.32123008678095788 -0.18729232698745699 0 -0.32674672588845421 -0.2120308859258328 0 -0.32674672588845421 -0.2120308859258328 0 -0.35024140450074381 -0.20994798342056251 0 -0.32674672588845421 -0.2120308859258328 0 -0.33669316521431608 -0.19324526314955739 0 -0.35024140450074381 -0.20994798342056251 0 -0.32674672588845421 -0.2120308859258328 0 -0.35024140450074381 -0.20994798342056251 0 -0.3377174746324717 -0.2284461722996495 0 -0.32123008678095788 -0.18729232698745699 0 -0.32674672588845421 -0.2120308859258328 0 -0.33669316521431608 -0.19324526314955739 0 -0.35240556330307887 -0.18479875362473361 0 -0.36895563931783232 -0.19259611207654981 0 -0.35024140450074381 -0.20994798342056251 0 -0.35240556330307887 -0.18479875362473361 0 -0.33669316521431608 -0.19324526314955739 0 -0.35024140450074381 -0.20994798342056251 0 -0.36895563931783232 -0.19259611207654981 0 -0.37373608311303341 -0.20786508091529229 0 -0.35024140450074381 -0.20994798342056251 0 -0.37373608311303341 -0.20786508091529229 0 -0.35024140450074381 -0.20994798342056251 0 -0.37373608311303341 -0.20786508091529229 0 -0.35024140450074381 -0.20994798342056251 0 -0.36602803805366552 -0.21914337572849349 0 -0.37373608311303341 -0.20786508091529229 0 -0.36602803805366552 -0.21914337572849349 0 -0.37785639846487218 -0.21906994256996459 0 -0.35024140450074381 -0.20994798342056251 0 -0.357966965356528 -0.23170644806675769 0 -0.3377174746324717 -0.2284461722996495 0 -0.35024140450074381 -0.20994798342056251 0 -0.357966965356528 -0.23170644806675769 0 -0.36602803805366552 -0.21914337572849349 0 -0.357966965356528 -0.23170644806675769 0 -0.36602803805366552 -0.21914337572849349 0 -0.36983275924353248 -0.22875232439276311 0 -0.36602803805366552 -0.21914337572849349 0 -0.36983275924353248 -0.22875232439276311 0 -0.37785639846487218 -0.21906994256996459 0 -0.357966965356528 -0.23170644806675769 0 -0.36983275924353248 -0.22875232439276311 0 -0.37747963509906429 -0.24508953120583671 0 -0.35872453044413888 -0.25078889886649508 0 -0.357966965356528 -0.23170644806675769 0 -0.37747963509906429 -0.24508953120583671 0 -0.357966965356528 -0.23170644806675769 0 -0.34395992200845399 -0.24382677409400949 0 -0.3377174746324717 -0.2284461722996495 0 -0.35872453044413888 -0.25078889886649508 0 -0.357966965356528 -0.23170644806675769 0 -0.34395992200845399 -0.24382677409400949 0 -0.33345250408021371 -0.25331871279766999 0 -0.34395992200845399 -0.24382677409400949 0 -0.33132333615916232 -0.2411148243472106 0 -0.33345250408021371 -0.25331871279766999 0 -0.33132333615916232 -0.2411148243472106 0 -0.32023222063025569 -0.2489608815952247 0 -0.34395992200845399 -0.24382677409400949 0 -0.33132333615916232 -0.2411148243472106 0 -0.3377174746324717 -0.2284461722996495 0 -0.32674672588845421 -0.2120308859258328 0 -0.3377174746324717 -0.2284461722996495 0 -0.32066485276457768 -0.2334308190911655 0 -0.33132333615916232 -0.2411148243472106 0 -0.3377174746324717 -0.2284461722996495 0 -0.32066485276457768 -0.2334308190911655 0 -0.3004866401015065 -0.2269264896544945 0 -0.32674672588845421 -0.2120308859258328 0 -0.32066485276457768 -0.2334308190911655 0 -0.30748271917561598 -0.2431056607245809 0 -0.32066485276457768 -0.2334308190911655 0 -0.32023222063025569 -0.2489608815952247 0 -0.33132333615916232 -0.2411148243472106 0 -0.32066485276457768 -0.2334308190911655 0 -0.32023222063025569 -0.2489608815952247 0 -0.43445882011373449 -0.25478651907497341 0 -0.43806130733353449 -0.23541812032183559 0 -0.43445882011373449 -0.25478651907497341 0 -0.4258852610480256 -0.24284815888716721 0 -0.43806130733353449 -0.23541812032183559 0 -0.4258852610480256 -0.24284815888716721 0 -0.42538833238501789 -0.2333934851751748 0 -0.41698539980062188 -0.23875950084572559 0 -0.43445882011373449 -0.25478651907497341 0 -0.4258852610480256 -0.24284815888716721 0 -0.42335340856967768 -0.24893549408922019 0 -0.4258852610480256 -0.24284815888716721 0 -0.42538833238501789 -0.2333934851751748 0 -0.43806130733353449 -0.23541812032183559 0 -0.43091611572645672 -0.22699763907763329 0 -0.42538833238501789 -0.2333934851751748 0 -0.43806130733353449 -0.23541812032183559 0 -0.43091611572645672 -0.22699763907763329 0 -0.44166379455333399 -0.21604972156869759 0 -0.43806130733353449 -0.23541812032183559 0 -0.43091611572645672 -0.22699763907763329 0 -0.43133498143110582 -0.21921018883561361 0 -0.44166379455333399 -0.21604972156869759 0 -0.43133498143110582 -0.21921018883561361 0 -0.4232485836513401 -0.22477446532261011 0 -0.4232102070061276 -0.21869015764887889 0 -0.43091611572645672 -0.22699763907763329 0 -0.43133498143110582 -0.21921018883561361 0 -0.4232485836513401 -0.22477446532261011 0 -0.43091611572645672 -0.22699763907763329 0 -0.4232485836513401 -0.22477446532261011 0 -0.42538833238501789 -0.2333934851751748 0 -0.4232485836513401 -0.22477446532261011 0 -0.42538833238501789 -0.2333934851751748 0 -0.41731365953457839 -0.2310953018814938 0 -0.4232485836513401 -0.22477446532261011 0 -0.41731365953457839 -0.2310953018814938 0 -0.4121948509493269 -0.2247325638453028 0 -0.41731365953457839 -0.2310953018814938 0 -0.4080561583250083 -0.23272886934204159 0 -0.41698539980062188 -0.23875950084572559 0 -0.4232485836513401 -0.22477446532261011 0 -0.4121948509493269 -0.2247325638453028 0 -0.41685681033243982 -0.21746512418924929 0 -0.4232485836513401 -0.22477446532261011 0 -0.41685681033243982 -0.21746512418924929 0 -0.4232102070061276 -0.21869015764887889 0 -0.4121948509493269 -0.2247325638453028 0 -0.4080561583250083 -0.23272886934204159 0 -0.39971520205611372 -0.2221352637332015 0 -0.4121948509493269 -0.2247325638453028 0 -0.40807454407470489 -0.21592977391801271 0 -0.41685681033243982 -0.21746512418924929 0 -0.4121948509493269 -0.2247325638453028 0 -0.39971520205611372 -0.2221352637332015 0 -0.40807454407470489 -0.21592977391801271 0 -0.41731365953457839 -0.2310953018814938 0 -0.4121948509493269 -0.2247325638453028 0 -0.4080561583250083 -0.23272886934204159 0 -0.4080561583250083 -0.23272886934204159 0 -0.40983148527785651 -0.24118391776602099 0 -0.41698539980062188 -0.23875950084572559 0 -0.42538833238501789 -0.2333934851751748 0 -0.41731365953457839 -0.2310953018814938 0 -0.41698539980062188 -0.23875950084572559 0 -0.40983148527785651 -0.24118391776602099 0 -0.41698539980062188 -0.23875950084572559 0 -0.41627810448972868 -0.24641300060905449 0 -0.4258852610480256 -0.24284815888716721 0 -0.42335340856967768 -0.24893549408922019 0 -0.41627810448972868 -0.24641300060905449 0 -0.4258852610480256 -0.24284815888716721 0 -0.41698539980062188 -0.23875950084572559 0 -0.41627810448972868 -0.24641300060905449 0 -0.41679144862722167 -0.25169429778568547 0 -0.42335340856967768 -0.24893549408922019 0 -0.41627810448972868 -0.24641300060905449 0 -0.41385673751816382 -0.25312989710486528 0 -0.41627810448972868 -0.24641300060905449 0 -0.4086566941719203 -0.24778871483445111 0 -0.40983148527785651 -0.24118391776602099 0 -0.41627810448972868 -0.24641300060905449 0 -0.4086566941719203 -0.24778871483445111 0 -0.40282532782868952 -0.25224285689579767 0 -0.4086566941719203 -0.24778871483445111 0 -0.40022281387448849 -0.24084313907701979 0 -0.40983148527785651 -0.24118391776602099 0 -0.4086566941719203 -0.24778871483445111 0 -0.40022281387448849 -0.24084313907701979 0 -0.4080561583250083 -0.23272886934204159 0 -0.40983148527785651 -0.24118391776602099 0 -0.40022281387448849 -0.24084313907701979 0 -0.40022281387448849 -0.24084313907701979 0 -0.3903832871219331 -0.2411545733314838 0 -0.38772777019650018 -0.2315142496456449 0 -0.3938256931015453 -0.25037754026629511 0 -0.40022281387448849 -0.24084313907701979 0 -0.3903832871219331 -0.2411545733314838 0 -0.3938256931015453 -0.25037754026629511 0 -0.3903832871219331 -0.2411545733314838 0 -0.37747963509906429 -0.24508953120583671 0 -0.3903832871219331 -0.2411545733314838 0 -0.37747963509906429 -0.24508953120583671 0 -0.38772777019650018 -0.2315142496456449 0 -0.37747963509906429 -0.24508953120583671 0 -0.37785639846487218 -0.21906994256996459 0 -0.37747963509906429 -0.24508953120583671 0 -0.37785639846487218 -0.21906994256996459 0 -0.38772777019650018 -0.2315142496456449 0 -0.36983275924353248 -0.22875232439276311 0 -0.37747963509906429 -0.24508953120583671 0 -0.37785639846487218 -0.21906994256996459 0 -0.37785639846487218 -0.21906994256996459 0 -0.38772777019650018 -0.2315142496456449 0 -0.38790285805175961 -0.2167146319195192 0 -0.4080561583250083 -0.23272886934204159 0 -0.40022281387448849 -0.24084313907701979 0 -0.39971520205611372 -0.2221352637332015 0 -0.40022281387448849 -0.24084313907701979 0 -0.39971520205611372 -0.2221352637332015 0 -0.38772777019650018 -0.2315142496456449 0 -0.39971520205611372 -0.2221352637332015 0 -0.38790285805175961 -0.2167146319195192 0 -0.40022281387448849 -0.24084313907701979 0 -0.38772777019650018 -0.2315142496456449 0 -0.39971520205611372 -0.2221352637332015 0 -0.39971520205611372 -0.2221352637332015 0 -0.39723076172532301 -0.205782178410022 0 -0.40807454407470489 -0.21592977391801271 0 -0.39971520205611372 -0.2221352637332015 0 -0.39723076172532301 -0.205782178410022 0 -0.38790285805175961 -0.2167146319195192 0 -0.39723076172532301 -0.205782178410022 0 -0.41303892827123678 -0.21093405469715851 0 -0.40807454407470489 -0.21592977391801271 0 -0.37373608311303341 -0.20786508091529229 0 -0.39723076172532301 -0.205782178410022 0 -0.38370630256805799 -0.1971119561512929 0 -0.37373608311303341 -0.20786508091529229 0 -0.39723076172532301 -0.205782178410022 0 -0.38790285805175961 -0.2167146319195192 0 -0.37373608311303341 -0.20786508091529229 0 -0.39723076172532301 -0.205782178410022 0 -0.37373608311303341 -0.20786508091529229 0 -0.37785639846487218 -0.21906994256996459 0 -0.38790285805175961 -0.2167146319195192 0 -0.36895563931783232 -0.19259611207654981 0 -0.38370630256805799 -0.1971119561512929 0 -0.3831693110633177 -0.1873742460103984 0 -0.36895563931783232 -0.19259611207654981 0 -0.37373608311303341 -0.20786508091529229 0 -0.38370630256805799 -0.1971119561512929 0 -0.38370630256805799 -0.1971119561512929 0 -0.39543971762078378 -0.19194216334420211 0 -0.3831693110633177 -0.1873742460103984 0 -0.39723076172532301 -0.205782178410022 0 -0.38370630256805799 -0.1971119561512929 0 -0.39543971762078378 -0.19194216334420211 0 -0.39723076172532301 -0.205782178410022 0 -0.39543971762078378 -0.19194216334420211 0 -0.40534117689708921 -0.19634387975323889 0 -0.39543971762078378 -0.19194216334420211 0 -0.40534117689708921 -0.19634387975323889 0 -0.40730162077548249 -0.18407395049314179 0 -0.39723076172532301 -0.205782178410022 0 -0.40534117689708921 -0.19634387975323889 0 -0.42072544033761272 -0.20369927590475301 0 -0.42032122747045741 -0.1927313373696285 0 -0.42072544033761272 -0.20369927590475301 0 -0.40730162077548249 -0.18407395049314179 0 -0.42072544033761272 -0.20369927590475301 0 -0.40730162077548249 -0.18407395049314179 0 -0.40534117689708921 -0.19634387975323889 0 -0.42072544033761272 -0.20369927590475301 0 -0.40730162077548249 -0.18407395049314179 0 -0.39723076172532301 -0.205782178410022 0 -0.41303892827123678 -0.21093405469715851 0 -0.42072544033761272 -0.20369927590475301 0 -0.39723076172532301 -0.205782178410022 0 -0.42072544033761272 -0.20369927590475301 0 -0.41303892827123678 -0.21093405469715851 0 -0.40807454407470489 -0.21592977391801271 0 -0.41685681033243982 -0.21746512418924929 0 -0.41303892827123678 -0.21093405469715851 0 -0.41685681033243982 -0.21746512418924929 0 -0.42140045260962489 -0.21331085224804261 0 -0.41685681033243982 -0.21746512418924929 0 -0.42140045260962489 -0.21331085224804261 0 -0.4232102070061276 -0.21869015764887889 0 -0.41303892827123678 -0.21093405469715851 0 -0.42140045260962489 -0.21331085224804261 0 -0.42072544033761272 -0.20369927590475301 0 -0.42512182626149492 -0.2033095177213731 0 -0.43378961613155448 -0.20908682079381441 0 -0.44184138868315109 -0.20247798044170351 0 -0.42072544033761272 -0.20369927590475301 0 -0.42512182626149492 -0.2033095177213731 0 -0.43133498143110582 -0.21921018883561361 0 -0.42072544033761272 -0.20369927590475301 0 -0.42512182626149492 -0.2033095177213731 0 -0.43133498143110582 -0.21921018883561361 0 -0.42512182626149492 -0.2033095177213731 0 -0.43378961613155448 -0.20908682079381441 0 -0.43133498143110582 -0.21921018883561361 0 -0.42140045260962489 -0.21331085224804261 0 -0.4232102070061276 -0.21869015764887889 0 -0.43133498143110582 -0.21921018883561361 0 -0.42072544033761272 -0.20369927590475301 0 -0.43133498143110582 -0.21921018883561361 0 -0.42140045260962489 -0.21331085224804261 0 -0.42072544033761272 -0.20369927590475301 0 -0.43133498143110582 -0.21921018883561361 0 -0.43378961613155448 -0.20908682079381441 0 -0.44166379455333399 -0.21604972156869759 0 -0.42032122747045741 -0.1927313373696285 0 -0.44184138868315109 -0.20247798044170351 0 -0.42032122747045741 -0.1927313373696285 0 -0.43099962817645188 -0.18319011649723049 0 -0.43833565968517207 -0.19112957676178299 0 -0.42032122747045741 -0.1927313373696285 0 -0.42512182626149492 -0.2033095177213731 0 -0.44184138868315109 -0.20247798044170351 0 -0.42032122747045741 -0.1927313373696285 0 -0.43833565968517207 -0.19112957676178299 0 -0.44184138868315109 -0.20247798044170351 0 -0.42032122747045741 -0.1927313373696285 0 -0.42072544033761272 -0.20369927590475301 0 -0.42512182626149492 -0.2033095177213731 0 -0.42549584187692119 -0.17333418479170171 0 -0.43099962817645188 -0.18319011649723049 0 -0.41834400919125792 -0.18158621355319651 0 -0.42032122747045741 -0.1927313373696285 0 -0.43099962817645188 -0.18319011649723049 0 -0.41834400919125792 -0.18158621355319651 0 -0.43099962817645188 -0.18319011649723049 0 -0.43495901877196291 -0.17485617288990979 0 -0.44455133712372419 -0.18300714728765441 0 -0.42549584187692119 -0.17333418479170171 0 -0.43099962817645188 -0.18319011649723049 0 -0.43495901877196291 -0.17485617288990979 0 -0.42549584187692119 -0.17333418479170171 0 -0.43495901877196291 -0.17485617288990979 0 -0.43155613508544272 -0.1669321437644439 0 -0.43495901877196291 -0.17485617288990979 0 -0.43155613508544272 -0.1669321437644439 0 -0.44219215159727421 -0.16781727210851849 0 -0.43155613508544272 -0.1669321437644439 0 -0.43166640735559808 -0.1552039120346444 0 -0.44219215159727421 -0.16781727210851849 0 -0.43155613508544272 -0.1669321437644439 0 -0.4214232379976206 -0.16216052115063159 0 -0.43166640735559808 -0.1552039120346444 0 -0.42549584187692119 -0.17333418479170171 0 -0.43155613508544272 -0.1669321437644439 0 -0.4214232379976206 -0.16216052115063159 0 -0.42549584187692119 -0.17333418479170171 0 -0.4214232379976206 -0.16216052115063159 0 -0.41110577652129249 -0.1670682470007229 0 -0.4214232379976206 -0.16216052115063159 0 -0.41110577652129249 -0.1670682470007229 0 -0.40669002996807779 -0.1495058137550834 0 -0.41110577652129249 -0.1670682470007229 0 -0.41834400919125792 -0.18158621355319651 0 -0.40730162077548249 -0.18407395049314179 0 -0.42549584187692119 -0.17333418479170171 0 -0.41110577652129249 -0.1670682470007229 0 -0.41834400919125792 -0.18158621355319651 0 -0.42032122747045741 -0.1927313373696285 0 -0.41834400919125792 -0.18158621355319651 0 -0.40730162077548249 -0.18407395049314179 0 -0.39543971762078378 -0.19194216334420211 0 -0.40730162077548249 -0.18407395049314179 0 -0.39267839793348491 -0.17927693187167279 0 -0.40730162077548249 -0.18407395049314179 0 -0.39267839793348491 -0.17927693187167279 0 -0.39387780121335469 -0.16444862508152899 0 -0.40730162077548249 -0.18407395049314179 0 -0.39387780121335469 -0.16444862508152899 0 -0.37378547386561772 -0.17392500984250869 0 -0.36895563931783232 -0.19259611207654981 0 -0.3831693110633177 -0.1873742460103984 0 -0.37378547386561772 -0.17392500984250869 0 -0.39267839793348491 -0.17927693187167279 0 -0.3831693110633177 -0.1873742460103984 0 -0.37378547386561772 -0.17392500984250869 0 -0.39267839793348491 -0.17927693187167279 0 -0.39387780121335469 -0.16444862508152899 0 -0.39543971762078378 -0.19194216334420211 0 -0.39267839793348491 -0.17927693187167279 0 -0.3831693110633177 -0.1873742460103984 0 -0.37378547386561772 -0.17392500984250869 0 -0.37839901512320262 -0.15996290040625341 0 -0.39387780121335469 -0.16444862508152899 0 -0.37839901512320262 -0.15996290040625341 0 -0.39387780121335469 -0.16444862508152899 0 -0.3804539816512269 -0.14482329966991631 0 -0.41110577652129249 -0.1670682470007229 0 -0.39387780121335469 -0.16444862508152899 0 -0.40669002996807779 -0.1495058137550834 0 -0.41110577652129249 -0.1670682470007229 0 -0.40730162077548249 -0.18407395049314179 0 -0.39387780121335469 -0.16444862508152899 0 -0.39387780121335469 -0.16444862508152899 0 -0.3804539816512269 -0.14482329966991631 0 -0.40669002996807779 -0.1495058137550834 0 -0.3804539816512269 -0.14482329966991631 0 -0.39647179587780151 -0.13189450107720049 0 -0.40669002996807779 -0.1495058137550834 0 -0.3804539816512269 -0.14482329966991631 0 -0.40669002996807779 -0.1495058137550834 0 -0.39387780121335469 -0.16444862508152899 0 -0.3804539816512269 -0.14482329966991631 0 -0.3804539816512269 -0.14482329966991631 0 -0.38278168804071749 -0.12940228238898679 0 -0.39647179587780151 -0.13189450107720049 0 -0.3804539816512269 -0.14482329966991631 0 -0.39647179587780151 -0.13189450107720049 0 -0.37212838853434238 -0.11808059788504249 0 -0.37028068739271691 -0.13083580994494901 0 -0.38278168804071749 -0.12940228238898679 0 -0.37028068739271691 -0.13083580994494901 0 -0.3804539816512269 -0.14482329966991631 0 -0.38278168804071749 -0.12940228238898679 0 -0.38278168804071749 -0.12940228238898679 0 -0.39647179587780151 -0.13189450107720049 0 -0.39044023874876249 -0.11757149150947201 0 -0.39647179587780151 -0.13189450107720049 0 -0.40828286160401828 -0.1310364195873514 0 -0.40669002996807779 -0.1495058137550834 0 -0.39647179587780151 -0.13189450107720049 0 -0.40828286160401828 -0.1310364195873514 0 -0.41122993917504558 -0.1199812866788818 0 -0.39647179587780151 -0.13189450107720049 0 -0.41122993917504558 -0.1199812866788818 0 -0.40828286160401828 -0.1310364195873514 0 -0.41930562378398423 -0.12797048681614909 0 -0.41122993917504558 -0.1199812866788818 0 -0.41930562378398423 -0.12797048681614909 0 -0.41533589961201212 -0.13938201891822019 0 -0.4273858072007774 -0.14414008567558009 0 -0.40828286160401828 -0.1310364195873514 0 -0.41533589961201212 -0.13938201891822019 0 -0.40669002996807779 -0.1495058137550834 0 -0.40828286160401828 -0.1310364195873514 0 -0.41930562378398423 -0.12797048681614909 0 -0.41533589961201212 -0.13938201891822019 0 -0.40669002996807779 -0.1495058137550834 0 -0.43166640735559808 -0.1552039120346444 0 -0.4214232379976206 -0.16216052115063159 0 -0.40669002996807779 -0.1495058137550834 0 -0.43166640735559808 -0.1552039120346444 0 -0.41533589961201212 -0.13938201891822019 0 -0.40669002996807779 -0.1495058137550834 0 -0.4273858072007774 -0.14414008567558009 0 -0.40669002996807779 -0.1495058137550834 0 -0.4273858072007774 -0.14414008567558009 0 -0.43166640735559808 -0.1552039120346444 0 -0.43166640735559808 -0.1552039120346444 0 -0.43525592456887258 -0.14374997194848471 0 -0.44410307239699631 -0.15282998285397989 0 -0.4273858072007774 -0.14414008567558009 0 -0.43166640735559808 -0.1552039120346444 0 -0.43525592456887258 -0.14374997194848471 0 -0.41930562378398423 -0.12797048681614909 0 -0.43525592456887258 -0.14374997194848471 0 -0.41930562378398423 -0.12797048681614909 0 -0.4273858072007774 -0.14414008567558009 0 -0.43525592456887258 -0.14374997194848471 0 -0.41930562378398423 -0.12797048681614909 0 -0.4273858072007774 -0.14414008567558009 0 -0.41930562378398423 -0.12797048681614909 0 -0.43525592456887258 -0.14374997194848471 0 -0.43389101300267191 -0.13422730327376839 0 -0.41930562378398423 -0.12797048681614909 0 -0.43389101300267191 -0.13422730327376839 0 -0.4149348530849476 -0.1169905694289516 0 -0.43389101300267191 -0.13422730327376839 0 -0.4149348530849476 -0.1169905694289516 0 -0.43389101300267191 -0.13422730327376839 0 -0.43160182387889101 -0.1187955019330571 0 -0.44085253015216358 -0.1237950587173612 0 -0.43389101300267191 -0.13422730327376839 0 -0.44872577578551592 -0.13320174295465559 0 -0.452847172920396 -0.1514640371185853 0 -0.44872577578551592 -0.13320174295465559 0 -0.45896755277767909 -0.12575633132281341 0 -0.45000974795797011 -0.119430952696417 0 -0.44872577578551592 -0.13320174295465559 0 -0.45000974795797011 -0.119430952696417 0 -0.44085253015216358 -0.1237950587173612 0 -0.43389101300267191 -0.13422730327376839 0 -0.44872577578551592 -0.13320174295465559 0 -0.44085253015216358 -0.1237950587173612 0 -0.43525592456887258 -0.14374997194848471 0 -0.43389101300267191 -0.13422730327376839 0 -0.452847172920396 -0.1514640371185853 0 -0.43525592456887258 -0.14374997194848471 0 -0.44410307239699631 -0.15282998285397989 0 -0.452847172920396 -0.1514640371185853 0 -0.44872577578551592 -0.13320174295465559 0 -0.452847172920396 -0.1514640371185853 0 -0.456386085566235 -0.14096643446963419 0 -0.43389101300267191 -0.13422730327376839 0 -0.452847172920396 -0.1514640371185853 0 -0.44410307239699631 -0.15282998285397989 0 -0.452847172920396 -0.1514640371185853 0 -0.45664278474311831 -0.16090201031420531 0 -0.452847172920396 -0.1514640371185853 0 -0.456386085566235 -0.14096643446963419 0 -0.46738274896045578 -0.15003021006820461 0 -0.452847172920396 -0.1514640371185853 0 -0.46738274896045578 -0.15003021006820461 0 -0.45664278474311831 -0.16090201031420531 0 -0.456386085566235 -0.14096643446963419 0 -0.46738274896045578 -0.15003021006820461 0 -0.47200539146090159 -0.13839174763128981 0 -0.456386085566235 -0.14096643446963419 0 -0.47200539146090159 -0.13839174763128981 0 -0.47750202174635031 -0.1215216316744509 0 -0.456386085566235 -0.14096643446963419 0 -0.45896755277767909 -0.12575633132281341 0 -0.47750202174635031 -0.1215216316744509 0 -0.456386085566235 -0.14096643446963419 0 -0.47750202174635031 -0.1215216316744509 0 -0.44872577578551592 -0.13320174295465559 0 -0.456386085566235 -0.14096643446963419 0 -0.45896755277767909 -0.12575633132281341 0 -0.47200539146090159 -0.13839174763128981 0 -0.48675070957056549 -0.14104871431286931 0 -0.47750202174635031 -0.1215216316744509 0 -0.50000000000000011 -0.12648838757554831 0 -0.48675070957056549 -0.14104871431286931 0 -0.5 -0.15043640832747529 0 -0.50000000000000011 -0.12648838757554831 0 -0.48675070957056549 -0.14104871431286931 0 -0.47750202174635031 -0.1215216316744509 0 -0.48675070957056549 -0.14104871431286931 0 -0.5 -0.15043640832747529 0 -0.48062174440056549 -0.15969986187448909 0 -0.46738274896045578 -0.15003021006820461 0 -0.47200539146090159 -0.13839174763128981 0 -0.48675070957056549 -0.14104871431286931 0 -0.48675070957056549 -0.14104871431286931 0 -0.48062174440056549 -0.15969986187448909 0 -0.46738274896045578 -0.15003021006820461 0 -0.48675070957056549 -0.14104871431286931 0 -0.48062174440056549 -0.15969986187448909 0 -0.48062174440056549 -0.15969986187448909 0 -0.46548313673471758 -0.16971310035941381 0 -0.46753260370971428 -0.1600862956540782 0 -0.46738274896045578 -0.15003021006820461 0 -0.48062174440056549 -0.15969986187448909 0 -0.46753260370971428 -0.1600862956540782 0 -0.48062174440056549 -0.15969986187448909 0 -0.47449277923056221 -0.17835100943610771 0 -0.46548313673471758 -0.16971310035941381 0 -0.48062174440056549 -0.15969986187448909 0 -0.47449277923056221 -0.17835100943610771 0 -0.5 -0.15043640832747529 0 -0.48062174440056549 -0.15969986187448909 0 -0.49999999999999828 -0.17438442907940241 0 -0.48062174440056549 -0.15969986187448909 0 -0.49999999999999828 -0.17438442907940241 0 -0.47449277923056221 -0.17835100943610771 0 -0.49999999999999828 -0.17438442907940241 0 -0.47449277923056221 -0.17835100943610771 0 -0.49999999999999828 -0.17438442907940241 0 -0.47449277923056221 -0.17835100943610771 0 -0.48549376880548989 -0.19132810400505559 0 -0.47449277923056221 -0.17835100943610771 0 -0.46892716456320649 -0.19528781647494389 0 -0.47449277923056221 -0.17835100943610771 0 -0.45952205817714309 -0.18067907836188021 0 -0.46892716456320649 -0.19528781647494389 0 -0.45952205817714309 -0.18067907836188021 0 -0.46548313673471758 -0.16971310035941381 0 -0.45289664290439807 -0.17180374819378549 0 -0.47449277923056221 -0.17835100943610771 0 -0.45952205817714309 -0.18067907836188021 0 -0.47449277923056221 -0.17835100943610771 0 -0.45952205817714309 -0.18067907836188021 0 -0.46548313673471758 -0.16971310035941381 0 -0.46548313673471758 -0.16971310035941381 0 -0.46753260370971428 -0.1600862956540782 0 -0.45664278474311831 -0.16090201031420531 0 -0.46738274896045578 -0.15003021006820461 0 -0.46753260370971428 -0.1600862956540782 0 -0.45664278474311831 -0.16090201031420531 0 -0.46548313673471758 -0.16971310035941381 0 -0.45664278474311831 -0.16090201031420531 0 -0.45289664290439807 -0.17180374819378549 0 -0.45664278474311831 -0.16090201031420531 0 -0.45289664290439807 -0.17180374819378549 0 -0.44219215159727421 -0.16781727210851849 0 -0.43166640735559808 -0.1552039120346444 0 -0.45664278474311831 -0.16090201031420531 0 -0.44219215159727421 -0.16781727210851849 0 -0.43166640735559808 -0.1552039120346444 0 -0.45664278474311831 -0.16090201031420531 0 -0.43166640735559808 -0.1552039120346444 0 -0.44410307239699631 -0.15282998285397989 0 -0.45664278474311831 -0.16090201031420531 0 -0.43495901877196291 -0.17485617288990979 0 -0.44219215159727421 -0.16781727210851849 0 -0.44455133712372419 -0.18300714728765441 0 -0.43099962817645188 -0.18319011649723049 0 -0.44455133712372419 -0.18300714728765441 0 -0.43833565968517207 -0.19112957676178299 0 -0.45952205817714309 -0.18067907836188021 0 -0.44455133712372419 -0.18300714728765441 0 -0.45396471697207569 -0.194241302212698 0 -0.45952205817714309 -0.18067907836188021 0 -0.44455133712372419 -0.18300714728765441 0 -0.45952205817714309 -0.18067907836188021 0 -0.45289664290439807 -0.17180374819378549 0 -0.44455133712372419 -0.18300714728765441 0 -0.45289664290439807 -0.17180374819378549 0 -0.44219215159727421 -0.16781727210851849 0 -0.44455133712372419 -0.18300714728765441 0 -0.44455133712372419 -0.18300714728765441 0 -0.43833565968517207 -0.19112957676178299 0 -0.45396471697207569 -0.194241302212698 0 -0.43833565968517207 -0.19112957676178299 0 -0.44184138868315109 -0.20247798044170351 0 -0.45396471697207569 -0.194241302212698 0 -0.44184138868315109 -0.20247798044170351 0 -0.46336154989584488 -0.2122246235137781 0 -0.45396471697207569 -0.194241302212698 0 -0.44184138868315109 -0.20247798044170351 0 -0.46336154989584488 -0.2122246235137781 0 -0.45338394269579491 -0.2190794284651259 0 -0.43378961613155448 -0.20908682079381441 0 -0.44184138868315109 -0.20247798044170351 0 -0.44166379455333399 -0.21604972156869759 0 -0.44184138868315109 -0.20247798044170351 0 -0.44166379455333399 -0.21604972156869759 0 -0.45338394269579491 -0.2190794284651259 0 -0.44184138868315109 -0.20247798044170351 0 -0.46336154989584488 -0.2122246235137781 0 -0.46336154989584488 -0.2122246235137781 0 -0.46892716456320649 -0.19528781647494389 0 -0.46336154989584488 -0.2122246235137781 0 -0.45396471697207569 -0.194241302212698 0 -0.46892716456320649 -0.19528781647494389 0 -0.45952205817714309 -0.18067907836188021 0 -0.45396471697207569 -0.194241302212698 0 -0.46892716456320649 -0.19528781647494389 0 -0.47449277923056221 -0.17835100943610771 0 -0.46892716456320649 -0.19528781647494389 0 -0.48549376880548989 -0.19132810400505559 0 -0.46892716456320649 -0.19528781647494389 0 -0.48549376880548989 -0.19132810400505559 0 -0.47978640147694102 -0.20418872613165631 0 -0.5 -0.20182215567114031 0 -0.48549376880548989 -0.19132810400505559 0 -0.47978640147694102 -0.20418872613165631 0 -0.49999999999999828 -0.17438442907940241 0 -0.5 -0.20182215567114031 0 -0.48549376880548989 -0.19132810400505559 0 -0.5 -0.20182215567114031 0 -0.48114952412016337 -0.22028093099336349 0 -0.49893749834448198 -0.22833723847294871 0 -0.5 -0.20182215567114031 0 -0.47978640147694102 -0.20418872613165631 0 -0.48114952412016337 -0.22028093099336349 0 -0.46336154989584488 -0.2122246235137781 0 -0.48114952412016337 -0.22028093099336349 0 -0.46336154989584488 -0.2122246235137781 0 -0.47978640147694102 -0.20418872613165631 0 -0.48114952412016337 -0.22028093099336349 0 -0.46336154989584488 -0.2122246235137781 0 -0.46892716456320649 -0.19528781647494389 0 -0.47978640147694102 -0.20418872613165631 0 -0.46336154989584488 -0.2122246235137781 0 -0.48114952412016337 -0.22028093099336349 0 -0.46857810181099829 -0.22486784275082261 0 -0.48114952412016337 -0.22028093099336349 0 -0.48798868478634799 -0.231470988200419 0 -0.47142395938804471 -0.23802335247430181 0 -0.48114952412016337 -0.22028093099336349 0 -0.47142395938804471 -0.23802335247430181 0 -0.46857810181099829 -0.22486784275082261 0 -0.48114952412016337 -0.22028093099336349 0 -0.48798868478634799 -0.231470988200419 0 -0.49893749834448198 -0.22833723847294871 0 -0.48114952412016337 -0.22028093099336349 0 -0.49893749834448198 -0.22833723847294871 0 -0.48798868478634799 -0.231470988200419 0 -0.49893749834448198 -0.22833723847294871 0 -0.4875835208682564 -0.24248539692068891 0 -0.5 -0.25669760885461612 0 -0.49893749834448198 -0.22833723847294871 0 -0.4875835208682564 -0.24248539692068891 0 -0.48798868478634799 -0.231470988200419 0 -0.4875835208682564 -0.24248539692068891 0 -0.47142395938804471 -0.23802335247430181 0 -0.47878778985378329 -0.25835102983948688 0 -0.4875835208682564 -0.24248539692068891 0 -0.47142395938804471 -0.23802335247430181 0 -0.45662330498375908 -0.25656877445722759 0 -0.47142395938804471 -0.23802335247430181 0 -0.45034617445999431 -0.24335722649563979 0 -0.47142395938804471 -0.23802335247430181 0 -0.45735065046854989 -0.23051648340969341 0 -0.45034617445999431 -0.24335722649563979 0 -0.46336154989584488 -0.2122246235137781 0 -0.46857810181099829 -0.22486784275082261 0 -0.45735065046854989 -0.23051648340969341 0 -0.46336154989584488 -0.2122246235137781 0 -0.45735065046854989 -0.23051648340969341 0 -0.47142395938804471 -0.23802335247430181 0 -0.46857810181099829 -0.22486784275082261 0 -0.45735065046854989 -0.23051648340969341 0 -0.46336154989584488 -0.2122246235137781 0 -0.45338394269579491 -0.2190794284651259 0 -0.45735065046854989 -0.23051648340969341 0 -0.45338394269579491 -0.2190794284651259 0 -0.45735065046854989 -0.23051648340969341 0 -0.43806130733353449 -0.23541812032183559 0 -0.44166379455333399 -0.21604972156869759 0 -0.43806130733353449 -0.23541812032183559 0 -0.44166379455333399 -0.21604972156869759 0 -0.45338394269579491 -0.2190794284651259 0 -0.43806130733353449 -0.23541812032183559 0 -0.45735065046854989 -0.23051648340969341 0 -0.45034617445999431 -0.24335722649563979 0 -0.43806130733353449 -0.23541812032183559 0 -0.43445882011373449 -0.25478651907497341 0 -0.45034617445999431 -0.24335722649563979 0 -0.43806130733353449 -0.23541812032183559 0 -0.41324955929443102 -0.038374170610562031 0 -0.41005136228565903 -0.05540387285823338 0 -0.42435348212729052 -0.04457483879584373 0 -0.41324955929443102 -0.038374170610562031 0 -0.41005136228565903 -0.05540387285823338 0 -0.39900851660089293 -0.046429079601448257 0 -0.41324955929443102 -0.038374170610562031 0 -0.40747857107326091 -0.02424585309778798 0 -0.40045416304880688 -0.034240371911693122 0 -0.41005136228565903 -0.05540387285823338 0 -0.4246600563061857 -0.059067830999859447 0 -0.41422906440869389 -0.068128229862373102 0 -0.41005136228565903 -0.05540387285823338 0 -0.4246600563061857 -0.059067830999859447 0 -0.42435348212729052 -0.04457483879584373 0 -0.4246600563061857 -0.059067830999859447 0 -0.42435348212729052 -0.04457483879584373 0 -0.43957367317472601 -0.045089571971719818 0 -0.4246600563061857 -0.059067830999859447 0 -0.43957367317472601 -0.045089571971719818 0 -0.44544580640037118 -0.056213229689383748 0 -0.41324955929443102 -0.038374170610562031 0 -0.42435348212729052 -0.04457483879584373 0 -0.42981912379901888 -0.030443092666165631 0 -0.42435348212729052 -0.04457483879584373 0 -0.42981912379901888 -0.030443092666165631 0 -0.43957367317472601 -0.045089571971719818 0 -0.41302196833726168 -0.01226972299954816 0 -0.4392085005598273 -0.024676348383282701 0 -0.42659341977192161 -0.010103830507352861 0 -0.41302196833726168 -0.01226972299954816 0 -0.4392085005598273 -0.024676348383282701 0 -0.42981912379901888 -0.030443092666165631 0 -0.41673372021425997 -0.022240754673565791 0 -0.4392085005598273 -0.024676348383282701 0 -0.41302196833726168 -0.01226972299954816 0 -0.41673372021425997 -0.022240754673565791 0 -0.4392085005598273 -0.024676348383282701 0 -0.43741768347029059 -0.01288367903972009 0 -0.42659341977192161 -0.010103830507352861 0 -0.4392085005598273 -0.024676348383282701 0 -0.4441818909265971 -0.00998157505946092 0 -0.42578104856505677 0.0031949168855625672 0 -0.43741768347029059 -0.01288367903972009 0 -0.4441818909265971 -0.00998157505946092 0 -0.42578104856505677 0.0031949168855625672 0 -0.43741768347029059 -0.01288367903972009 0 -0.42659341977192161 -0.010103830507352861 0 -0.42578104856505677 0.0031949168855625672 0 -0.43741768347029059 -0.01288367903972009 0 -0.42578104856505677 0.0031949168855625672 0 -0.42659341977192161 -0.010103830507352861 0 -0.41753789792717189 -0.0038843189997757009 0 -0.42578104856505677 0.0031949168855625672 0 -0.42659341977192161 -0.010103830507352861 0 -0.41753789792717189 -0.0038843189997757009 0 -0.41302196833726168 -0.01226972299954816 0 -0.41753789792717189 -0.0038843189997757009 0 -0.41302196833726168 -0.01226972299954816 0 -0.40771050441737638 -0.0035262849216432719 0 -0.41753789792717189 -0.0038843189997757009 0 -0.40771050441737638 -0.0035262849216432719 0 -0.41105156913745711 0.0034129409419674369 0 -0.42981912379901888 -0.030443092666165631 0 -0.40747857107326091 -0.02424585309778798 0 -0.41324955929443102 -0.038374170610562031 0 -0.42981912379901888 -0.030443092666165631 0 -0.40747857107326091 -0.02424585309778798 0 -0.42981912379901888 -0.030443092666165631 0 -0.41673372021425997 -0.022240754673565791 0 -0.40747857107326091 -0.02424585309778798 0 -0.41302196833726168 -0.01226972299954816 0 -0.41673372021425997 -0.022240754673565791 0 -0.40747857107326091 -0.02424585309778798 0 -0.41673372021425997 -0.022240754673565791 0 -0.40747857107326091 -0.02424585309778798 0 -0.40747857107326091 -0.02424585309778798 0 -0.38992317137517202 -0.02804917422583518 0 -0.40747857107326091 -0.02424585309778798 0 -0.38992317137517202 -0.02804917422583518 0 -0.38297625517291389 -0.017448943304264108 0 -0.40747857107326091 -0.02424585309778798 0 -0.38992317137517202 -0.02804917422583518 0 -0.40045416304880688 -0.034240371911693122 0 -0.40747857107326091 -0.02424585309778798 0 -0.39567459441968961 -0.012635194689989219 0 -0.38297625517291389 -0.017448943304264108 0 -0.40747857107326091 -0.02424585309778798 0 -0.38297625517291389 -0.017448943304264108 0 -0.41302196833726168 -0.01226972299954816 0 -0.40747857107326091 -0.02424585309778798 0 -0.39567459441968961 -0.012635194689989219 0 -0.41302196833726168 -0.01226972299954816 0 -0.40771050441737638 -0.0035262849216432719 0 -0.38683543611469601 0.0001369023841863784 0 -0.41302196833726168 -0.01226972299954816 0 -0.39567459441968961 -0.012635194689989219 0 -0.38683543611469601 0.0001369023841863784 0 -0.41302196833726168 -0.01226972299954816 0 -0.38683543611469601 0.0001369023841863784 0 -0.40771050441737638 -0.0035262849216432719 0 -0.38683543611469601 0.0001369023841863784 0 -0.40226596945639398 0.0014711925349297271 0 -0.39567459441968961 -0.012635194689989219 0 -0.38502252263107412 -0.0084426060797158468 0 -0.38683543611469601 0.0001369023841863784 0 -0.39567459441968961 -0.012635194689989219 0 -0.38502252263107412 -0.0084426060797158468 0 -0.38297625517291389 -0.017448943304264108 0 -0.38502252263107412 -0.0084426060797158468 0 -0.38009964520605882 -0.0090403485437739461 0 -0.38297625517291389 -0.017448943304264108 0 -0.37278444596104371 -0.0079457960458173115 0 -0.38009964520605882 -0.0090403485437739461 0 -0.38297625517291389 -0.017448943304264108 0 -0.37474494217865062 -0.0022388935110706832 0 -0.38502252263107412 -0.0084426060797158468 0 -0.38683543611469601 0.0001369023841863784 0 -0.37474494217865062 -0.0022388935110706832 0 -0.38502252263107412 -0.0084426060797158468 0 -0.38009964520605882 -0.0090403485437739461 0 -0.37474494217865062 -0.0022388935110706832 0 -0.37278444596104371 -0.0079457960458173115 0 -0.38009964520605882 -0.0090403485437739461 0 -0.37236777167708351 -0.031852495353884333 0 -0.38992317137517202 -0.02804917422583518 0 -0.37990921189048049 -0.023302515363219579 0 -0.37236777167708351 -0.031852495353884333 0 -0.38992317137517202 -0.02804917422583518 0 -0.38992317137517202 -0.02804917422583518 0 -0.38297625517291389 -0.017448943304264108 0 -0.37990921189048049 -0.023302515363219579 0 -0.3739022591900184 -0.02415390189740213 0 -0.38297625517291389 -0.017448943304264108 0 -0.37990921189048049 -0.023302515363219579 0 -0.37236777167708351 -0.031852495353884333 0 -0.3739022591900184 -0.02415390189740213 0 -0.37990921189048049 -0.023302515363219579 0 -0.37236777167708351 -0.031852495353884333 0 -0.37990921189048049 -0.023302515363219579 0 -0.38458287424021398 -0.039388642062709187 0 -0.39900851660089293 -0.046429079601448257 0 -0.3815482533063424 -0.052412606119804542 0 -0.37355784227175309 -0.045246792894939887 0 -0.37236777167708351 -0.031852495353884333 0 -0.38458287424021398 -0.039388642062709187 0 -0.37236777167708351 -0.031852495353884333 0 -0.38992317137517202 -0.02804917422583518 0 -0.38458287424021398 -0.039388642062709187 0 -0.37355784227175309 -0.045246792894939887 0 -0.38458287424021398 -0.039388642062709187 0 -0.3815482533063424 -0.052412606119804542 0 -0.38458287424021398 -0.039388642062709187 0 -0.39900851660089293 -0.046429079601448257 0 -0.40045416304880688 -0.034240371911693122 0 -0.38992317137517202 -0.02804917422583518 0 -0.38458287424021398 -0.039388642062709187 0 -0.40045416304880688 -0.034240371911693122 0 -0.41324955929443102 -0.038374170610562031 0 -0.39900851660089293 -0.046429079601448257 0 -0.40045416304880688 -0.034240371911693122 0 -0.39900851660089293 -0.046429079601448257 0 -0.39626447370361728 -0.06091275685647668 0 -0.3815482533063424 -0.052412606119804542 0 -0.41005136228565903 -0.05540387285823338 0 -0.39626447370361728 -0.06091275685647668 0 -0.40517181862379281 -0.066558370858305557 0 -0.41005136228565903 -0.05540387285823338 0 -0.39900851660089293 -0.046429079601448257 0 -0.39626447370361728 -0.06091275685647668 0 -0.36862349457690058 -0.057461967220355487 0 -0.3815482533063424 -0.052412606119804542 0 -0.37947166312044489 -0.067272628224985004 0 -0.3815482533063424 -0.052412606119804542 0 -0.37947166312044489 -0.067272628224985004 0 -0.39260231949431601 -0.074533368335879327 0 -0.36882665317829499 -0.078032107790563188 0 -0.39260231949431601 -0.074533368335879327 0 -0.39626447370361728 -0.06091275685647668 0 -0.3815482533063424 -0.052412606119804542 0 -0.39260231949431601 -0.074533368335879327 0 -0.3815482533063424 -0.052412606119804542 0 -0.39260231949431601 -0.074533368335879327 0 -0.36882665317829499 -0.078032107790563188 0 -0.37947166312044489 -0.067272628224985004 0 -0.39260231949431601 -0.074533368335879327 0 -0.36882665317829499 -0.078032107790563188 0 -0.39260231949431601 -0.074533368335879327 0 -0.39002829617667018 -0.099006697234722524 0 -0.36882665317829499 -0.078032107790563188 0 -0.39002829617667018 -0.099006697234722524 0 -0.37367929427193591 -0.1014825750548952 0 -0.36882665317829499 -0.078032107790563188 0 -0.39002829617667018 -0.099006697234722524 0 -0.39260231949431601 -0.074533368335879327 0 -0.39002829617667018 -0.099006697234722524 0 -0.39510370691593599 -0.098958215311000047 0 -0.39260231949431601 -0.074533368335879327 0 -0.40274583300482147 -0.094831984843681591 0 -0.39260231949431601 -0.074533368335879327 0 -0.39510370691593599 -0.098958215311000047 0 -0.40274583300482147 -0.094831984843681591 0 -0.40361170428446441 -0.083317353290434007 0 -0.39260231949431601 -0.074533368335879327 0 -0.40274583300482147 -0.094831984843681591 0 -0.40361170428446441 -0.083317353290434007 0 -0.39867569396630093 -0.073639632925658519 0 -0.40696916935602839 -0.074517235882718885 0 -0.39867569396630093 -0.073639632925658519 0 -0.40517181862379281 -0.066558370858305557 0 -0.40696916935602839 -0.074517235882718885 0 -0.39626447370361728 -0.06091275685647668 0 -0.39867569396630093 -0.073639632925658519 0 -0.40517181862379281 -0.066558370858305557 0 -0.39626447370361728 -0.06091275685647668 0 -0.39867569396630093 -0.073639632925658519 0 -0.39260231949431601 -0.074533368335879327 0 -0.40361170428446441 -0.083317353290434007 0 -0.39867569396630093 -0.073639632925658519 0 -0.39260231949431601 -0.074533368335879327 0 -0.39867569396630093 -0.073639632925658519 0 -0.39260231949431601 -0.074533368335879327 0 -0.37212838853434238 -0.11808059788504249 0 -0.38278168804071749 -0.12940228238898679 0 -0.39044023874876249 -0.11757149150947201 0 -0.37367929427193591 -0.1014825750548952 0 -0.37212838853434238 -0.11808059788504249 0 -0.39044023874876249 -0.11757149150947201 0 -0.37367929427193591 -0.1014825750548952 0 -0.39044023874876249 -0.11757149150947201 0 -0.39002829617667018 -0.099006697234722524 0 -0.39510370691593599 -0.098958215311000047 0 -0.40274583300482147 -0.094831984843681591 0 -0.41288934651532883 -0.11513060135148299 0 -0.39002829617667018 -0.099006697234722524 0 -0.39510370691593599 -0.098958215311000047 0 -0.41122993917504558 -0.1199812866788818 0 -0.39510370691593599 -0.098958215311000047 0 -0.41288934651532883 -0.11513060135148299 0 -0.39647179587780151 -0.13189450107720049 0 -0.39044023874876249 -0.11757149150947201 0 -0.41122993917504558 -0.1199812866788818 0 -0.39002829617667018 -0.099006697234722524 0 -0.41122993917504558 -0.1199812866788818 0 -0.39044023874876249 -0.11757149150947201 0 -0.39002829617667018 -0.099006697234722524 0 -0.41122993917504558 -0.1199812866788818 0 -0.39510370691593599 -0.098958215311000047 0 -0.41122993917504558 -0.1199812866788818 0 -0.41288934651532883 -0.11513060135148299 0 -0.41930562378398423 -0.12797048681614909 0 -0.41122993917504558 -0.1199812866788818 0 -0.4149348530849476 -0.1169905694289516 0 -0.41930562378398423 -0.12797048681614909 0 -0.41122993917504558 -0.1199812866788818 0 -0.41930562378398423 -0.12797048681614909 0 -0.4149348530849476 -0.1169905694289516 0 -0.41122993917504558 -0.1199812866788818 0 -0.41288934651532883 -0.11513060135148299 0 -0.4149348530849476 -0.1169905694289516 0 -0.41122993917504558 -0.1199812866788818 0 -0.4149348530849476 -0.1169905694289516 0 -0.41288934651532883 -0.11513060135148299 0 -0.4149348530849476 -0.1169905694289516 0 -0.41288934651532883 -0.11513060135148299 0 -0.4149348530849476 -0.1169905694289516 0 -0.41458672172207622 -0.10427776634057311 0 -0.40274583300482147 -0.094831984843681591 0 -0.41288934651532883 -0.11513060135148299 0 -0.4149348530849476 -0.1169905694289516 0 -0.41458672172207622 -0.10427776634057311 0 -0.43059848591229039 -0.1043464168163742 0 -0.40274583300482147 -0.094831984843681591 0 -0.41288934651532883 -0.11513060135148299 0 -0.41458672172207622 -0.10427776634057311 0 -0.41458672172207622 -0.10427776634057311 0 -0.41348552386521947 -0.090840815536544176 0 -0.43025813067654672 -0.08737754853092726 0 -0.40274583300482147 -0.094831984843681591 0 -0.41458672172207622 -0.10427776634057311 0 -0.41348552386521947 -0.090840815536544176 0 -0.43059848591229039 -0.1043464168163742 0 -0.43025813067654672 -0.08737754853092726 0 -0.44626211873963212 -0.091702264203795431 0 -0.41458672172207622 -0.10427776634057311 0 -0.43059848591229039 -0.1043464168163742 0 -0.43025813067654672 -0.08737754853092726 0 -0.41458672172207622 -0.10427776634057311 0 -0.43025813067654672 -0.08737754853092726 0 -0.4149348530849476 -0.1169905694289516 0 -0.43059848591229039 -0.1043464168163742 0 -0.43160182387889101 -0.1187955019330571 0 -0.4149348530849476 -0.1169905694289516 0 -0.43059848591229039 -0.1043464168163742 0 -0.43389101300267191 -0.13422730327376839 0 -0.4149348530849476 -0.1169905694289516 0 -0.43160182387889101 -0.1187955019330571 0 -0.43059848591229039 -0.1043464168163742 0 -0.43160182387889101 -0.1187955019330571 0 -0.44003429013576911 -0.11331979272890801 0 -0.43160182387889101 -0.1187955019330571 0 -0.44085253015216358 -0.1237950587173612 0 -0.44003429013576911 -0.11331979272890801 0 -0.41422906440869389 -0.068128229862373102 0 -0.41539885585273961 -0.080089681603359497 0 -0.42594434486026628 -0.073522222089585226 0 -0.4246600563061857 -0.059067830999859447 0 -0.41422906440869389 -0.068128229862373102 0 -0.42594434486026628 -0.073522222089585226 0 -0.41005136228565903 -0.05540387285823338 0 -0.40517181862379281 -0.066558370858305557 0 -0.41422906440869389 -0.068128229862373102 0 -0.40517181862379281 -0.066558370858305557 0 -0.41422906440869389 -0.068128229862373102 0 -0.40696916935602839 -0.074517235882718885 0 -0.41422906440869389 -0.068128229862373102 0 -0.40696916935602839 -0.074517235882718885 0 -0.41539885585273961 -0.080089681603359497 0 -0.41348552386521947 -0.090840815536544176 0 -0.41539885585273961 -0.080089681603359497 0 -0.43025813067654672 -0.08737754853092726 0 -0.40361170428446441 -0.083317353290434007 0 -0.41348552386521947 -0.090840815536544176 0 -0.41539885585273961 -0.080089681603359497 0 -0.40361170428446441 -0.083317353290434007 0 -0.40696916935602839 -0.074517235882718885 0 -0.41539885585273961 -0.080089681603359497 0 -0.40361170428446441 -0.083317353290434007 0 -0.40274583300482147 -0.094831984843681591 0 -0.41348552386521947 -0.090840815536544176 0 -0.41539885585273961 -0.080089681603359497 0 -0.43025813067654672 -0.08737754853092726 0 -0.42594434486026628 -0.073522222089585226 0 -0.4246600563061857 -0.059067830999859447 0 -0.44592953963101739 -0.07047733072128165 0 -0.43025813067654672 -0.08737754853092726 0 -0.42594434486026628 -0.073522222089585226 0 -0.44592953963101739 -0.07047733072128165 0 -0.4246600563061857 -0.059067830999859447 0 -0.42594434486026628 -0.073522222089585226 0 -0.44592953963101739 -0.07047733072128165 0 -0.44592953963101739 -0.07047733072128165 0 -0.45893666683642192 -0.056450303318209168 0 -0.44592953963101739 -0.07047733072128165 0 -0.44626211873963212 -0.091702264203795431 0 -0.46192575156697407 -0.079058111591217034 0 -0.43025813067654672 -0.08737754853092726 0 -0.44592953963101739 -0.07047733072128165 0 -0.43025813067654672 -0.08737754853092726 0 -0.44592953963101739 -0.07047733072128165 0 -0.44626211873963212 -0.091702264203795431 0 -0.44626211873963212 -0.091702264203795431 0 -0.46631049206888459 -0.091444160656324658 0 -0.46192575156697407 -0.079058111591217034 0 -0.44626211873963212 -0.091702264203795431 0 -0.46192575156697407 -0.079058111591217034 0 -0.46631049206888459 -0.091444160656324658 0 -0.46192575156697407 -0.079058111591217034 0 -0.47702460168979111 -0.087157524427869615 0 -0.44592953963101739 -0.07047733072128165 0 -0.46192575156697407 -0.079058111591217034 0 -0.45893666683642192 -0.056450303318209168 0 -0.46192575156697407 -0.079058111591217034 0 -0.47491389520024407 -0.068573693827893439 0 -0.45893666683642192 -0.056450303318209168 0 -0.46192575156697407 -0.079058111591217034 0 -0.47491389520024407 -0.068573693827893439 0 -0.44592953963101739 -0.07047733072128165 0 -0.46192575156697407 -0.079058111591217034 0 -0.45000974795797011 -0.119430952696417 0 -0.44085253015216358 -0.1237950587173612 0 -0.44003429013576911 -0.11331979272890801 0 -0.45000974795797011 -0.119430952696417 0 -0.44003429013576911 -0.11331979272890801 0 -0.44926481423485548 -0.10476542824413421 0 -0.43059848591229039 -0.1043464168163742 0 -0.44626211873963212 -0.091702264203795431 0 -0.43059848591229039 -0.1043464168163742 0 -0.44626211873963212 -0.091702264203795431 0 -0.44926481423485548 -0.10476542824413421 0 -0.43059848591229039 -0.1043464168163742 0 -0.44003429013576911 -0.11331979272890801 0 -0.44926481423485548 -0.10476542824413421 0 -0.44626211873963212 -0.091702264203795431 0 -0.44926481423485548 -0.10476542824413421 0 -0.46153012095291662 -0.1019472767233552 0 -0.44626211873963212 -0.091702264203795431 0 -0.46631049206888459 -0.091444160656324658 0 -0.46153012095291662 -0.1019472767233552 0 -0.46631049206888459 -0.091444160656324658 0 -0.46153012095291662 -0.1019472767233552 0 -0.4710589232177344 -0.098453604121520433 0 -0.46153012095291662 -0.1019472767233552 0 -0.46221413283232399 -0.11366089481890911 0 -0.47430793409480421 -0.10627177682285049 0 -0.44926481423485548 -0.10476542824413421 0 -0.46153012095291662 -0.1019472767233552 0 -0.46221413283232399 -0.11366089481890911 0 -0.45896755277767909 -0.12575633132281341 0 -0.46221413283232399 -0.11366089481890911 0 -0.47750202174635031 -0.1215216316744509 0 -0.45000974795797011 -0.119430952696417 0 -0.44926481423485548 -0.10476542824413421 0 -0.46221413283232399 -0.11366089481890911 0 -0.45896755277767909 -0.12575633132281341 0 -0.45000974795797011 -0.119430952696417 0 -0.46221413283232399 -0.11366089481890911 0 -0.47750202174635031 -0.1215216316744509 0 -0.47430793409480421 -0.10627177682285049 0 -0.48673501487359588 -0.1010237797652184 0 -0.46221413283232399 -0.11366089481890911 0 -0.47750202174635031 -0.1215216316744509 0 -0.47430793409480421 -0.10627177682285049 0 -0.47430793409480421 -0.10627177682285049 0 -0.47745372589702628 -0.099742000537211661 0 -0.48673501487359588 -0.1010237797652184 0 -0.46153012095291662 -0.1019472767233552 0 -0.47430793409480421 -0.10627177682285049 0 -0.4710589232177344 -0.098453604121520433 0 -0.46631049206888459 -0.091444160656324658 0 -0.4710589232177344 -0.098453604121520433 0 -0.47771303140197108 -0.093218841439257433 0 -0.47430793409480421 -0.10627177682285049 0 -0.4710589232177344 -0.098453604121520433 0 -0.47745372589702628 -0.099742000537211661 0 -0.4710589232177344 -0.098453604121520433 0 -0.47745372589702628 -0.099742000537211661 0 -0.47771303140197108 -0.093218841439257433 0 -0.47745372589702628 -0.099742000537211661 0 -0.48673501487359588 -0.1010237797652184 0 -0.47771303140197108 -0.093218841439257433 0 -0.48673501487359588 -0.1010237797652184 0 -0.47771303140197108 -0.093218841439257433 0 -0.47702460168979111 -0.087157524427869615 0 -0.47750202174635031 -0.1215216316744509 0 -0.48673501487359588 -0.1010237797652184 0 -0.4986179579264654 -0.1020768288792674 0 -0.48673501487359588 -0.1010237797652184 0 -0.49842317329231273 -0.098636270432611556 0 -0.47702460168979111 -0.087157524427869615 0 -0.48673501487359588 -0.1010237797652184 0 -0.49842317329231273 -0.098636270432611556 0 -0.4986179579264654 -0.1020768288792674 0 -0.49999999999999939 -0.099482120969144883 0 -0.49842317329231273 -0.098636270432611556 0 -0.4986179579264654 -0.1020768288792674 0 -0.49842317329231273 -0.098636270432611556 0 -0.4986179579264654 -0.1020768288792674 0 -0.49999999999999939 -0.099482120969144883 0 -0.49842317329231273 -0.098636270432611556 0 -0.50000000000000011 -0.12648838757554831 0 -0.47750202174635031 -0.1215216316744509 0 -0.4986179579264654 -0.1020768288792674 0 -0.47750202174635031 -0.1215216316744509 0 -0.4986179579264654 -0.1020768288792674 0 -0.47491389520024407 -0.068573693827893439 0 -0.47702460168979111 -0.087157524427869615 0 -0.4847984782487687 -0.075944598732494498 0 -0.47491389520024407 -0.068573693827893439 0 -0.47702460168979111 -0.087157524427869615 0 -0.47967839073812912 -0.064727650616396362 0 -0.4847984782487687 -0.075944598732494498 0 -0.48794163871831331 -0.064119883023254248 0 -0.47967839073812912 -0.064727650616396362 0 -0.47491389520024407 -0.068573693827893439 0 -0.4847984782487687 -0.075944598732494498 0 -0.47967839073812912 -0.064727650616396362 0 -0.47491389520024407 -0.068573693827893439 0 -0.46192575156697407 -0.079058111591217034 0 -0.47702460168979111 -0.087157524427869615 0 -0.46192575156697407 -0.079058111591217034 0 -0.47491389520024407 -0.068573693827893439 0 -0.47702460168979111 -0.087157524427869615 0 -0.46631049206888459 -0.091444160656324658 0 -0.47771303140197108 -0.093218841439257433 0 -0.47702460168979111 -0.087157524427869615 0 -0.47771303140197108 -0.093218841439257433 0 -0.47702460168979111 -0.087157524427869615 0 -0.49842317329231273 -0.098636270432611556 0 -0.49712708577170861 -0.075742961183477536 0 -0.4847984782487687 -0.075944598732494498 0 -0.49999999999999939 -0.099482120969144883 0 -0.49842317329231273 -0.098636270432611556 0 -0.5 -0.078030389970551228 0 -0.49842317329231273 -0.098636270432611556 0 -0.49712708577170861 -0.075742961183477536 0 -0.49842317329231273 -0.098636270432611556 0 -0.5 -0.078030389970551228 0 -0.49712708577170861 -0.075742961183477536 0 -0.49842317329231273 -0.098636270432611556 0 -0.47702460168979111 -0.087157524427869615 0 -0.4847984782487687 -0.075944598732494498 0 -0.49842317329231273 -0.098636270432611556 0 -0.47702460168979111 -0.087157524427869615 0 -0.5 -0.078030389970551228 0 -0.49712708577170861 -0.075742961183477536 0 -0.49999999999999928 -0.056578658971957581 0 -0.49712708577170861 -0.075742961183477536 0 -0.49583099825110311 -0.052849651934343489 0 -0.49712708577170861 -0.075742961183477536 0 -0.48794163871831331 -0.064119883023254248 0 -0.49583099825110311 -0.052849651934343489 0 -0.49712708577170861 -0.075742961183477536 0 -0.4847984782487687 -0.075944598732494498 0 -0.48794163871831331 -0.064119883023254248 0 -0.49712708577170861 -0.075742961183477536 0 -0.49999999999999928 -0.056578658971957581 0 -0.49583099825110311 -0.052849651934343489 0 -0.49583099825110311 -0.052849651934343489 0 -0.47748890114140963 -0.036443372127734748 0 -0.48227324058185622 -0.051334552649559453 0 -0.49999999999999928 -0.056578658971957581 0 -0.49583099825110311 -0.052849651934343489 0 -0.49999999999999928 -0.056578658971957581 0 -0.50000000000000144 -0.053559852644015388 0 -0.49583099825110311 -0.052849651934343489 0 -0.48794163871831331 -0.064119883023254248 0 -0.49583099825110311 -0.052849651934343489 0 -0.48227324058185622 -0.051334552649559453 0 -0.50000000000000144 -0.053559852644015388 0 -0.49583099825110311 -0.052849651934343489 0 -0.48598145264485831 -0.02728491224803695 0 -0.49583099825110311 -0.052849651934343489 0 -0.47748890114140963 -0.036443372127734748 0 -0.48598145264485831 -0.02728491224803695 0 -0.50000000000000144 -0.053559852644015388 0 -0.48598145264485831 -0.02728491224803695 0 -0.50000000000000144 -0.053559852644015388 0 -0.48598145264485831 -0.02728491224803695 0 -0.5 -0.025161366008633609 0 -0.49583099825110311 -0.052849651934343489 0 -0.47748890114140963 -0.036443372127734748 0 -0.47748890114140963 -0.036443372127734748 0 -0.48598145264485831 -0.02728491224803695 0 -0.47748890114140963 -0.036443372127734748 0 -0.47194379404182718 -0.042423275915137587 0 -0.48227324058185622 -0.051334552649559453 0 -0.47748890114140963 -0.036443372127734748 0 -0.47194379404182718 -0.042423275915137587 0 -0.47748890114140963 -0.036443372127734748 0 -0.47194379404182718 -0.042423275915137587 0 -0.47056077858213702 -0.03024644074295027 0 -0.47194379404182718 -0.042423275915137587 0 -0.46539503278239303 -0.037082973767017267 0 -0.47056077858213702 -0.03024644074295027 0 -0.47194379404182718 -0.042423275915137587 0 -0.47056077858213702 -0.03024644074295027 0 -0.47748890114140963 -0.036443372127734748 0 -0.47056077858213702 -0.03024644074295027 0 -0.47748890114140963 -0.036443372127734748 0 -0.47056077858213702 -0.03024644074295027 0 -0.47745882259212458 -0.028728106929589409 0 -0.47967839073812912 -0.064727650616396362 0 -0.47491389520024407 -0.068573693827893439 0 -0.47194379404182718 -0.042423275915137587 0 -0.47967839073812912 -0.064727650616396362 0 -0.47194379404182718 -0.042423275915137587 0 -0.48227324058185622 -0.051334552649559453 0 -0.47491389520024407 -0.068573693827893439 0 -0.47194379404182718 -0.042423275915137587 0 -0.47967839073812912 -0.064727650616396362 0 -0.48794163871831331 -0.064119883023254248 0 -0.48227324058185622 -0.051334552649559453 0 -0.47491389520024407 -0.068573693827893439 0 -0.47194379404182718 -0.042423275915137587 0 -0.45893666683642192 -0.056450303318209168 0 -0.45893666683642192 -0.056450303318209168 0 -0.45743491846808387 -0.04563500224908737 0 -0.44544580640037118 -0.056213229689383748 0 -0.47194379404182718 -0.042423275915137587 0 -0.45893666683642192 -0.056450303318209168 0 -0.45743491846808387 -0.04563500224908737 0 -0.47194379404182718 -0.042423275915137587 0 -0.45893666683642192 -0.056450303318209168 0 -0.46539503278239303 -0.037082973767017267 0 -0.44890774518284438 -0.02927164544362729 0 -0.46539503278239303 -0.037082973767017267 0 -0.45215967652477718 -0.036640332234541717 0 -0.44890774518284438 -0.02927164544362729 0 -0.46539503278239303 -0.037082973767017267 0 -0.44890774518284438 -0.02927164544362729 0 -0.46189821575704781 -0.02986243911986371 0 -0.47194379404182718 -0.042423275915137587 0 -0.46539503278239303 -0.037082973767017267 0 -0.45743491846808387 -0.04563500224908737 0 -0.46539503278239303 -0.037082973767017267 0 -0.46189821575704781 -0.02986243911986371 0 -0.47056077858213702 -0.03024644074295027 0 -0.46539503278239303 -0.037082973767017267 0 -0.45743491846808387 -0.04563500224908737 0 -0.45215967652477718 -0.036640332234541717 0 -0.42981912379901888 -0.030443092666165631 0 -0.45215967652477718 -0.036640332234541717 0 -0.45743491846808387 -0.04563500224908737 0 -0.45215967652477718 -0.036640332234541717 0 -0.43957367317472601 -0.045089571971719818 0 -0.42981912379901888 -0.030443092666165631 0 -0.45215967652477718 -0.036640332234541717 0 -0.43957367317472601 -0.045089571971719818 0 -0.45743491846808387 -0.04563500224908737 0 -0.43957367317472601 -0.045089571971719818 0 -0.44544580640037118 -0.056213229689383748 0 -0.4246600563061857 -0.059067830999859447 0 -0.44592953963101739 -0.07047733072128165 0 -0.44544580640037118 -0.056213229689383748 0 -0.44592953963101739 -0.07047733072128165 0 -0.45893666683642192 -0.056450303318209168 0 -0.44544580640037118 -0.056213229689383748 0 -0.4441818909265971 -0.00998157505946092 0 -0.45588653083934588 0.00041698580085632909 0 -0.44737850259376799 0.0077656591989471307 0 -0.4441818909265971 -0.00998157505946092 0 -0.4570262928383732 -0.018140378997512391 0 -0.45633913854906122 -0.0094275687658610888 0 -0.4441818909265971 -0.00998157505946092 0 -0.45633913854906122 -0.0094275687658610888 0 -0.45588653083934588 0.00041698580085632909 0 -0.43741768347029059 -0.01288367903972009 0 -0.4441818909265971 -0.00998157505946092 0 -0.44890774518284438 -0.02927164544362729 0 -0.42981912379901888 -0.030443092666165631 0 -0.45215967652477718 -0.036640332234541717 0 -0.4392085005598273 -0.024676348383282701 0 -0.4441818909265971 -0.00998157505946092 0 -0.44890774518284438 -0.02927164544362729 0 -0.46258273328813732 -0.023158067004484729 0 -0.43741768347029059 -0.01288367903972009 0 -0.44890774518284438 -0.02927164544362729 0 -0.43741768347029059 -0.01288367903972009 0 -0.4392085005598273 -0.024676348383282701 0 -0.44890774518284438 -0.02927164544362729 0 -0.4392085005598273 -0.024676348383282701 0 -0.44890774518284438 -0.02927164544362729 0 -0.45215967652477718 -0.036640332234541717 0 -0.4392085005598273 -0.024676348383282701 0 -0.44890774518284438 -0.02927164544362729 0 -0.4441818909265971 -0.00998157505946092 0 -0.46258273328813732 -0.023158067004484729 0 -0.46258273328813732 -0.023158067004484729 0 -0.46826183959192841 -0.01000530680732737 0 -0.47056077858213702 -0.03024644074295027 0 -0.4441818909265971 -0.00998157505946092 0 -0.4570262928383732 -0.018140378997512391 0 -0.46258273328813732 -0.023158067004484729 0 -0.4570262928383732 -0.018140378997512391 0 -0.46258273328813732 -0.023158067004484729 0 -0.44890774518284438 -0.02927164544362729 0 -0.46189821575704781 -0.02986243911986371 0 -0.46258273328813732 -0.023158067004484729 0 -0.46258273328813732 -0.023158067004484729 0 -0.47056077858213702 -0.03024644074295027 0 -0.46189821575704781 -0.02986243911986371 0 -0.46258273328813732 -0.023158067004484729 0 -0.47056077858213702 -0.03024644074295027 0 -0.4570262928383732 -0.018140378997512391 0 -0.46258273328813732 -0.023158067004484729 0 -0.46826183959192841 -0.01000530680732737 0 -0.4570262928383732 -0.018140378997512391 0 -0.46826183959192841 -0.01000530680732737 0 -0.45633913854906122 -0.0094275687658610888 0 -0.46826183959192841 -0.01000530680732737 0 -0.45633913854906122 -0.0094275687658610888 0 -0.45588653083934588 0.00041698580085632909 0 -0.46826183959192841 -0.01000530680732737 0 -0.47597217662329228 -0.0085245425598697612 0 -0.4659629006017233 0.010235827128295859 0 -0.46826183959192841 -0.01000530680732737 0 -0.47597217662329228 -0.0085245425598697612 0 -0.47580415800009379 -0.02093770259963601 0 -0.47597217662329228 -0.0085245425598697612 0 -0.48922725890134677 -0.010453537226696331 0 -0.48082517856277007 0.001845263919603602 0 -0.47597217662329228 -0.0085245425598697612 0 -0.47580415800009379 -0.02093770259963601 0 -0.48598145264485831 -0.02728491224803695 0 -0.47597217662329228 -0.0085245425598697612 0 -0.48598145264485831 -0.02728491224803695 0 -0.46826183959192841 -0.01000530680732737 0 -0.47056077858213702 -0.03024644074295027 0 -0.47580415800009379 -0.02093770259963601 0 -0.47597217662329228 -0.0085245425598697612 0 -0.48598145264485831 -0.02728491224803695 0 -0.4893389393206713 -0.02366416211133009 0 -0.46826183959192841 -0.01000530680732737 0 -0.47056077858213702 -0.03024644074295027 0 -0.47056077858213702 -0.03024644074295027 0 -0.47580415800009379 -0.02093770259963601 0 -0.47745882259212458 -0.028728106929589409 0 -0.47580415800009379 -0.02093770259963601 0 -0.47745882259212458 -0.028728106929589409 0 -0.48598145264485831 -0.02728491224803695 0 -0.47748890114140963 -0.036443372127734748 0 -0.47745882259212458 -0.028728106929589409 0 -0.48598145264485831 -0.02728491224803695 0 -0.48598145264485831 -0.02728491224803695 0 -0.4893389393206713 -0.02366416211133009 0 -0.5 -0.025161366008633609 0 -0.48598145264485831 -0.02728491224803695 0 -0.4893389393206713 -0.02366416211133009 0 -0.4893389393206713 -0.02366416211133009 0 -0.5 -0.025161366008633609 0 -0.48922725890134677 -0.010453537226696331 0 -0.48922725890134677 -0.010453537226696331 0 -0.5 0.0032371206267481911 0 -0.48082517856277007 0.001845263919603602 0 -0.5 -0.025161366008633609 0 -0.48922725890134677 -0.010453537226696331 0 -0.5 0.0032371206267481911 0 -0.47597217662329228 -0.0085245425598697612 0 -0.4893389393206713 -0.02366416211133009 0 -0.48922725890134677 -0.010453537226696331 0 -0.5 0.0032371206267481911 0 -0.48596576445654982 0.01457961489688041 0 -0.48082517856277007 0.001845263919603602 0 -0.48596576445654982 0.01457961489688041 0 -0.47541999506787802 0.025418180444172121 0 -0.5 0.031635607262129987 0 -0.5 0.0032371206267481911 0 -0.48596576445654982 0.01457961489688041 0 -0.5 0.031635607262129987 0 -0.48596576445654982 0.01457961489688041 0 -0.47541999506787802 0.025418180444172121 0 -0.47401658579892991 0.013489912392399149 0 -0.47541999506787802 0.025418180444172121 0 -0.46963945276383978 0.01793989872667965 0 -0.47401658579892991 0.013489912392399149 0 -0.47597217662329228 -0.0085245425598697612 0 -0.48082517856277007 0.001845263919603602 0 -0.4659629006017233 0.010235827128295859 0 -0.47401658579892991 0.013489912392399149 0 -0.48082517856277007 0.001845263919603602 0 -0.4659629006017233 0.010235827128295859 0 -0.46963945276383978 0.01793989872667965 0 -0.47401658579892991 0.013489912392399149 0 -0.4659629006017233 0.010235827128295859 0 -0.47597217662329228 -0.0085245425598697612 0 -0.4659629006017233 0.010235827128295859 0 -0.48596576445654982 0.01457961489688041 0 -0.47401658579892991 0.013489912392399149 0 -0.48082517856277007 0.001845263919603602 0 -0.5 0.060034093897511798 0 -0.47816362815030861 0.043832779932641487 0 -0.48068047186290208 0.063626500276227002 0 -0.47541999506787802 0.025418180444172121 0 -0.5 0.031635607262129987 0 -0.47816362815030861 0.043832779932641487 0 -0.5 0.060034093897511798 0 -0.5 0.031635607262129987 0 -0.47816362815030861 0.043832779932641487 0 -0.47541999506787802 0.025418180444172121 0 -0.47816362815030861 0.043832779932641487 0 -0.46442391639916691 0.036471327701905212 0 -0.47816362815030861 0.043832779932641487 0 -0.46119618507356652 0.049359273152949731 0 -0.48068047186290208 0.063626500276227002 0 -0.46119618507356652 0.049359273152949731 0 -0.46103932749027238 0.064238871702306077 0 -0.48068047186290208 0.063626500276227002 0 -0.46119618507356652 0.049359273152949731 0 -0.44286953411296898 0.045255716157198693 0 -0.46103932749027238 0.064238871702306077 0 -0.47816362815030861 0.043832779932641487 0 -0.46119618507356652 0.049359273152949731 0 -0.46442391639916691 0.036471327701905212 0 -0.46119618507356652 0.049359273152949731 0 -0.46442391639916691 0.036471327701905212 0 -0.45082509298125129 0.038608595210277222 0 -0.46442391639916691 0.036471327701905212 0 -0.45082509298125129 0.038608595210277222 0 -0.4583939967914884 0.024422211169287101 0 -0.45082509298125129 0.038608595210277222 0 -0.4583939967914884 0.024422211169287101 0 -0.46119618507356652 0.049359273152949731 0 -0.45082509298125129 0.038608595210277222 0 -0.44286953411296898 0.045255716157198693 0 -0.45082509298125129 0.038608595210277222 0 -0.4405409619944019 0.035432846457562263 0 -0.4458839614772655 0.023387518650519249 0 -0.45082509298125129 0.038608595210277222 0 -0.4405409619944019 0.035432846457562263 0 -0.44286953411296898 0.045255716157198693 0 -0.4405409619944019 0.035432846457562263 0 -0.44286953411296898 0.045255716157198693 0 -0.43229092530358848 0.04451632412921195 0 -0.44286953411296898 0.045255716157198693 0 -0.44282721760043869 0.062046251170956107 0 -0.46103932749027238 0.064238871702306077 0 -0.44286953411296898 0.045255716157198693 0 -0.44282721760043869 0.062046251170956107 0 -0.43188097302969042 0.056955122555226501 0 -0.44286953411296898 0.045255716157198693 0 -0.46103932749027238 0.064238871702306077 0 -0.46826183959192841 -0.01000530680732737 0 -0.45588653083934588 0.00041698580085632909 0 -0.4659629006017233 0.010235827128295859 0 -0.46826183959192841 -0.01000530680732737 0 -0.4659629006017233 0.010235827128295859 0 -0.45609316173783881 0.014082317838893479 0 -0.45588653083934588 0.00041698580085632909 0 -0.4659629006017233 0.010235827128295859 0 -0.46963945276383978 0.01793989872667965 0 -0.4659629006017233 0.010235827128295859 0 -0.4583939967914884 0.024422211169287101 0 -0.4659629006017233 0.010235827128295859 0 -0.4583939967914884 0.024422211169287101 0 -0.47541999506787802 0.025418180444172121 0 -0.46963945276383978 0.01793989872667965 0 -0.4583939967914884 0.024422211169287101 0 -0.47541999506787802 0.025418180444172121 0 -0.46442391639916691 0.036471327701905212 0 -0.4583939967914884 0.024422211169287101 0 -0.45609316173783881 0.014082317838893479 0 -0.4659629006017233 0.010235827128295859 0 -0.4583939967914884 0.024422211169287101 0 -0.45609316173783881 0.014082317838893479 0 -0.4583939967914884 0.024422211169287101 0 -0.4458839614772655 0.023387518650519249 0 -0.45082509298125129 0.038608595210277222 0 -0.4583939967914884 0.024422211169287101 0 -0.4458839614772655 0.023387518650519249 0 -0.4405409619944019 0.035432846457562263 0 -0.4458839614772655 0.023387518650519249 0 -0.43566193494816191 0.02574822372494872 0 -0.4458839614772655 0.023387518650519249 0 -0.4359559447540089 0.01018896392150693 0 -0.43566193494816191 0.02574822372494872 0 -0.4441818909265971 -0.00998157505946092 0 -0.44737850259376799 0.0077656591989471307 0 -0.4359559447540089 0.01018896392150693 0 -0.4458839614772655 0.023387518650519249 0 -0.44737850259376799 0.0077656591989471307 0 -0.4359559447540089 0.01018896392150693 0 -0.45609316173783881 0.014082317838893479 0 -0.4458839614772655 0.023387518650519249 0 -0.44737850259376799 0.0077656591989471307 0 -0.45609316173783881 0.014082317838893479 0 -0.45588653083934588 0.00041698580085632909 0 -0.44737850259376799 0.0077656591989471307 0 -0.4441818909265971 -0.00998157505946092 0 -0.4359559447540089 0.01018896392150693 0 -0.42578104856505677 0.0031949168855625672 0 -0.42578104856505677 0.0031949168855625672 0 -0.41622595309658328 0.016397403714119251 0 -0.42870406893849561 0.019163111370922251 0 -0.4359559447540089 0.01018896392150693 0 -0.42578104856505677 0.0031949168855625672 0 -0.42870406893849561 0.019163111370922251 0 -0.41753789792717189 -0.0038843189997757009 0 -0.42578104856505677 0.0031949168855625672 0 -0.41105156913745711 0.0034129409419674369 0 -0.42578104856505677 0.0031949168855625672 0 -0.40852807671777941 0.0155494406680463 0 -0.41622595309658328 0.016397403714119251 0 -0.42578104856505677 0.0031949168855625672 0 -0.40852807671777941 0.0155494406680463 0 -0.41105156913745711 0.0034129409419674369 0 -0.42578104856505677 0.0031949168855625672 0 -0.40852807671777941 0.0155494406680463 0 -0.42578104856505677 0.0031949168855625672 0 -0.41622595309658328 0.016397403714119251 0 -0.40852807671777941 0.0155494406680463 0 -0.41105156913745711 0.0034129409419674369 0 -0.40262572535869262 0.0089097845909437267 0 -0.40771050441737638 -0.0035262849216432719 0 -0.41105156913745711 0.0034129409419674369 0 -0.40226596945639398 0.0014711925349297271 0 -0.40667085762811028 0.029599890542676258 0 -0.41622595309658328 0.016397403714119251 0 -0.42870406893849561 0.019163111370922251 0 -0.40667085762811028 0.029599890542676258 0 -0.42870406893849561 0.019163111370922251 0 -0.40667085762811028 0.029599890542676258 0 -0.41990433555607742 0.03061685230769556 0 -0.42870406893849561 0.019163111370922251 0 -0.40852807671777941 0.0155494406680463 0 -0.40667085762811028 0.029599890542676258 0 -0.41622595309658328 0.016397403714119251 0 -0.40667085762811028 0.029599890542676258 0 -0.41622595309658328 0.016397403714119251 0 -0.41990433555607742 0.03061685230769556 0 -0.4284463216954002 0.029357354603554459 0 -0.42870406893849561 0.019163111370922251 0 -0.4359559447540089 0.01018896392150693 0 -0.42870406893849561 0.019163111370922251 0 -0.43566193494816191 0.02574822372494872 0 -0.4284463216954002 0.029357354603554459 0 -0.42870406893849561 0.019163111370922251 0 -0.43566193494816191 0.02574822372494872 0 -0.4284463216954002 0.029357354603554459 0 -0.43566193494816191 0.02574822372494872 0 -0.43264023121812112 0.033917661463996759 0 -0.4405409619944019 0.035432846457562263 0 -0.43264023121812112 0.033917661463996759 0 -0.43229092530358848 0.04451632412921195 0 -0.43264023121812112 0.033917661463996759 0 -0.43229092530358848 0.04451632412921195 0 -0.42532103781614489 0.037340924150209003 0 -0.4405409619944019 0.035432846457562263 0 -0.43566193494816191 0.02574822372494872 0 -0.43264023121812112 0.033917661463996759 0 -0.43229092530358848 0.04451632412921195 0 -0.42532103781614489 0.037340924150209003 0 -0.42042490988599091 0.046091327469671317 0 -0.4284463216954002 0.029357354603554459 0 -0.43264023121812112 0.033917661463996759 0 -0.42532103781614489 0.037340924150209003 0 -0.41990433555607742 0.03061685230769556 0 -0.4284463216954002 0.029357354603554459 0 -0.42532103781614489 0.037340924150209003 0 -0.43229092530358848 0.04451632412921195 0 -0.43188097302969042 0.056955122555226501 0 -0.42585725303016408 0.051510102087770737 0 -0.44286953411296898 0.045255716157198693 0 -0.43229092530358848 0.04451632412921195 0 -0.43188097302969042 0.056955122555226501 0 -0.43229092530358848 0.04451632412921195 0 -0.42585725303016408 0.051510102087770737 0 -0.42042490988599091 0.046091327469671317 0 -0.43188097302969042 0.056955122555226501 0 -0.41883220390138681 0.058477634196973202 0 -0.43131469147834472 0.070632617455275076 0 -0.43188097302969042 0.056955122555226501 0 -0.42585725303016408 0.051510102087770737 0 -0.41883220390138681 0.058477634196973202 0 -0.41883220390138681 0.058477634196973202 0 -0.40840220717331749 0.048304634434869917 0 -0.39985653820026013 0.060860810446949978 0 -0.42585725303016408 0.051510102087770737 0 -0.41883220390138681 0.058477634196973202 0 -0.42042490988599091 0.046091327469671317 0 -0.41883220390138681 0.058477634196973202 0 -0.40840220717331749 0.048304634434869917 0 -0.42042490988599091 0.046091327469671317 0 -0.41990433555607742 0.03061685230769556 0 -0.42532103781614489 0.037340924150209003 0 -0.4122967326089878 0.037821593301397609 0 -0.42532103781614489 0.037340924150209003 0 -0.42042490988599091 0.046091327469671317 0 -0.4122967326089878 0.037821593301397609 0 -0.40840220717331749 0.048304634434869917 0 -0.4122967326089878 0.037821593301397609 0 -0.40579981868685489 0.041495006097714962 0 -0.40840220717331749 0.048304634434869917 0 -0.42042490988599091 0.046091327469671317 0 -0.4122967326089878 0.037821593301397609 0 -0.4122967326089878 0.037821593301397609 0 -0.40278544391907911 0.034968452634622761 0 -0.40579981868685489 0.041495006097714962 0 -0.40667085762811028 0.029599890542676258 0 -0.4122967326089878 0.037821593301397609 0 -0.40278544391907911 0.034968452634622761 0 -0.40667085762811028 0.029599890542676258 0 -0.41990433555607742 0.03061685230769556 0 -0.4122967326089878 0.037821593301397609 0 -0.40667085762811028 0.029599890542676258 0 -0.40278544391907911 0.034968452634622761 0 -0.40667085762811028 0.029599890542676258 0 -0.38856614517843069 0.038175802748282091 0 -0.40667085762811028 0.029599890542676258 0 -0.38856614517843069 0.038175802748282091 0 -0.39127510487050182 0.027903964450529759 0 -0.40667085762811028 0.029599890542676258 0 -0.40278544391907911 0.034968452634622761 0 -0.38856614517843069 0.038175802748282091 0 -0.40278544391907911 0.034968452634622761 0 -0.40579981868685489 0.041495006097714962 0 -0.3977250587697031 0.045015474274426849 0 -0.40840220717331749 0.048304634434869917 0 -0.40579981868685489 0.041495006097714962 0 -0.3977250587697031 0.045015474274426849 0 -0.40278544391907911 0.034968452634622761 0 -0.3977250587697031 0.045015474274426849 0 -0.38856614517843069 0.038175802748282091 0 -0.40840220717331749 0.048304634434869917 0 -0.3977250587697031 0.045015474274426849 0 -0.39985653820026013 0.060860810446949978 0 -0.3977250587697031 0.045015474274426849 0 -0.39985653820026013 0.060860810446949978 0 -0.38472691017257071 0.052921849058569698 0 -0.39985653820026013 0.060860810446949978 0 -0.38472691017257071 0.052921849058569698 0 -0.38510762700538009 0.066428587654483159 0 -0.38472691017257071 0.052921849058569698 0 -0.37046143272875132 0.04675171495388801 0 -0.37000681959492809 0.05831264468359916 0 -0.38472691017257071 0.052921849058569698 0 -0.38510762700538009 0.066428587654483159 0 -0.37000681959492809 0.05831264468359916 0 -0.38856614517843069 0.038175802748282091 0 -0.37871402691879819 0.03757115751491092 0 -0.37046143272875132 0.04675171495388801 0 -0.38856614517843069 0.038175802748282091 0 -0.37046143272875132 0.04675171495388801 0 -0.38472691017257071 0.052921849058569698 0 -0.38856614517843069 0.038175802748282091 0 -0.37046143272875132 0.04675171495388801 0 -0.38856614517843069 0.038175802748282091 0 -0.38315308642314733 0.033917821982192238 0 -0.39127510487050182 0.027903964450529759 0 -0.38856614517843069 0.038175802748282091 0 -0.38315308642314733 0.033917821982192238 0 -0.37871402691879819 0.03757115751491092 0 -0.3977250587697031 0.045015474274426849 0 -0.38472691017257071 0.052921849058569698 0 -0.38856614517843069 0.038175802748282091 0 -0.37871402691879819 0.03757115751491092 0 -0.3764786745208083 0.032098692741998169 0 -0.37046143272875132 0.04675171495388801 0 -0.38315308642314733 0.033917821982192238 0 -0.3764786745208083 0.032098692741998169 0 -0.38155727091044611 0.028316364585127811 0 -0.38315308642314733 0.033917821982192238 0 -0.37871402691879819 0.03757115751491092 0 -0.3764786745208083 0.032098692741998169 0 -0.3764786745208083 0.032098692741998169 0 -0.38155727091044611 0.028316364585127811 0 -0.37960108001976323 0.022263106047543741 0 -0.37960108001976323 0.022263106047543741 0 -0.37998819155715241 0.0057865511937031933 0 -0.37123175334181557 0.027162262264614271 0 -0.3764786745208083 0.032098692741998169 0 -0.37960108001976323 0.022263106047543741 0 -0.37123175334181557 0.027162262264614271 0 -0.38155727091044611 0.028316364585127811 0 -0.38533699425949169 0.022674384769296389 0 -0.37960108001976323 0.022263106047543741 0 -0.38155727091044611 0.028316364585127811 0 -0.38533699425949169 0.022674384769296389 0 -0.39127510487050182 0.027903964450529759 0 -0.38315308642314733 0.033917821982192238 0 -0.38155727091044611 0.028316364585127811 0 -0.39127510487050182 0.027903964450529759 0 -0.39054146691731162 0.018060194648231769 0 -0.38533699425949169 0.022674384769296389 0 -0.39127510487050182 0.027903964450529759 0 -0.38533699425949169 0.022674384769296389 0 -0.3837100485794358 0.01682829411504885 0 -0.37960108001976323 0.022263106047543741 0 -0.39054146691731162 0.018060194648231769 0 -0.38533699425949169 0.022674384769296389 0 -0.3837100485794358 0.01682829411504885 0 -0.3837100485794358 0.01682829411504885 0 -0.37960108001976323 0.022263106047543741 0 -0.37998819155715241 0.0057865511937031933 0 -0.37998819155715241 0.0057865511937031933 0 -0.38683543611469601 0.0001369023841863784 0 -0.36064890389212972 0.0125435277679194 0 -0.37998819155715241 0.0057865511937031933 0 -0.38683543611469601 0.0001369023841863784 0 -0.38901012294298121 0.0062908016400105649 0 -0.38683543611469601 0.0001369023841863784 0 -0.38901012294298121 0.0062908016400105649 0 -0.39501457079486157 0.0055715078560810288 0 -0.37998819155715241 0.0057865511937031933 0 -0.38901012294298121 0.0062908016400105649 0 -0.38744744785130802 0.01185902438546781 0 -0.3837100485794358 0.01682829411504885 0 -0.37998819155715241 0.0057865511937031933 0 -0.38744744785130802 0.01185902438546781 0 -0.38901012294298121 0.0062908016400105649 0 -0.38744744785130802 0.01185902438546781 0 -0.39422738021243581 0.01127211946813913 0 -0.39054146691731162 0.018060194648231769 0 -0.3837100485794358 0.01682829411504885 0 -0.38744744785130802 0.01185902438546781 0 -0.39054146691731162 0.018060194648231769 0 -0.39422738021243581 0.01127211946813913 0 -0.39743955081534421 0.016339100765178138 0 -0.39054146691731162 0.018060194648231769 0 -0.38744744785130802 0.01185902438546781 0 -0.39422738021243581 0.01127211946813913 0 -0.39422738021243581 0.01127211946813913 0 -0.39501457079486157 0.0055715078560810288 0 -0.40262572535869262 0.0089097845909437267 0 -0.39422738021243581 0.01127211946813913 0 -0.40262572535869262 0.0089097845909437267 0 -0.39743955081534421 0.016339100765178138 0 -0.38683543611469601 0.0001369023841863784 0 -0.39501457079486157 0.0055715078560810288 0 -0.40226596945639398 0.0014711925349297271 0 -0.38901012294298121 0.0062908016400105649 0 -0.39422738021243581 0.01127211946813913 0 -0.39501457079486157 0.0055715078560810288 0 -0.41105156913745711 0.0034129409419674369 0 -0.40226596945639398 0.0014711925349297271 0 -0.40262572535869262 0.0089097845909437267 0 -0.39501457079486157 0.0055715078560810288 0 -0.40226596945639398 0.0014711925349297271 0 -0.40262572535869262 0.0089097845909437267 0 -0.40852807671777941 0.0155494406680463 0 -0.40262572535869262 0.0089097845909437267 0 -0.39743955081534421 0.016339100765178138 0 -0.40852807671777941 0.0155494406680463 0 -0.39127510487050182 0.027903964450529759 0 -0.40852807671777941 0.0155494406680463 0 -0.40667085762811028 0.029599890542676258 0 -0.39127510487050182 0.027903964450529759 0 -0.40852807671777941 0.0155494406680463 0 -0.39127510487050182 0.027903964450529759 0 -0.39743955081534421 0.016339100765178138 0 -0.39054146691731162 0.018060194648231769 0 -0.39127510487050182 0.027903964450529759 0 -0.39743955081534421 0.016339100765178138 0 -0.39792088922733271 0.1160922105611595 0 -0.40104213778508202 0.092866093853817611 0 -0.41467909406405851 0.1139188519362445 0 -0.39792088922733271 0.1160922105611595 0 -0.3782625711058698 0.101617738696854 0 -0.40104213778508202 0.092866093853817611 0 -0.3782625711058698 0.101617738696854 0 -0.38372255811484618 0.13025780258704611 0 -0.3782625711058698 0.101617738696854 0 -0.38372255811484618 0.13025780258704611 0 -0.36747352968705388 0.12273486311700831 0 -0.39792088922733271 0.1160922105611595 0 -0.3782625711058698 0.101617738696854 0 -0.38372255811484618 0.13025780258704611 0 -0.39792088922733271 0.1160922105611595 0 -0.3782625711058698 0.101617738696854 0 -0.3782625711058698 0.101617738696854 0 -0.40104213778508202 0.092866093853817611 0 -0.37470600383380392 0.082961959162170973 0 -0.39520328107527708 0.075997639864115257 0 -0.40104213778508202 0.092866093853817611 0 -0.37470600383380392 0.082961959162170973 0 -0.3782625711058698 0.101617738696854 0 -0.37470600383380392 0.082961959162170973 0 -0.40104213778508202 0.092866093853817611 0 -0.37470600383380392 0.082961959162170973 0 -0.38510762700538009 0.066428587654483159 0 -0.37000681959492809 0.05831264468359916 0 -0.37470600383380392 0.082961959162170973 0 -0.38510762700538009 0.066428587654483159 0 -0.39520328107527708 0.075997639864115257 0 -0.37470600383380392 0.082961959162170973 0 -0.39985653820026013 0.060860810446949978 0 -0.39520328107527708 0.075997639864115257 0 -0.41322693425173768 0.074694678089132868 0 -0.39985653820026013 0.060860810446949978 0 -0.38510762700538009 0.066428587654483159 0 -0.39520328107527708 0.075997639864115257 0 -0.39520328107527708 0.075997639864115257 0 -0.40104213778508202 0.092866093853817611 0 -0.41322693425173768 0.074694678089132868 0 -0.40104213778508202 0.092866093853817611 0 -0.41322693425173768 0.074694678089132868 0 -0.42957324029363853 0.085693113452461764 0 -0.41883220390138681 0.058477634196973202 0 -0.41322693425173768 0.074694678089132868 0 -0.43131469147834472 0.070632617455275076 0 -0.41883220390138681 0.058477634196973202 0 -0.39985653820026013 0.060860810446949978 0 -0.41322693425173768 0.074694678089132868 0 -0.43131469147834472 0.070632617455275076 0 -0.42957324029363853 0.085693113452461764 0 -0.4470315618909167 0.073148927984774167 0 -0.41322693425173768 0.074694678089132868 0 -0.43131469147834472 0.070632617455275076 0 -0.42957324029363853 0.085693113452461764 0 -0.44282721760043869 0.062046251170956107 0 -0.43188097302969042 0.056955122555226501 0 -0.43131469147834472 0.070632617455275076 0 -0.42957324029363853 0.085693113452461764 0 -0.42737827173636012 0.1027702285454639 0 -0.44343173260412461 0.097571970950778963 0 -0.40104213778508202 0.092866093853817611 0 -0.42737827173636012 0.1027702285454639 0 -0.41467909406405851 0.1139188519362445 0 -0.40104213778508202 0.092866093853817611 0 -0.42737827173636012 0.1027702285454639 0 -0.40104213778508202 0.092866093853817611 0 -0.42957324029363853 0.085693113452461764 0 -0.42737827173636012 0.1027702285454639 0 -0.39792088922733271 0.1160922105611595 0 -0.41467909406405851 0.1139188519362445 0 -0.417579207348795 0.13056668242546571 0 -0.39792088922733271 0.1160922105611595 0 -0.417579207348795 0.13056668242546571 0 -0.41467909406405851 0.1139188519362445 0 -0.42608096723388439 0.1205091241492761 0 -0.417579207348795 0.13056668242546571 0 -0.42737827173636012 0.1027702285454639 0 -0.41467909406405851 0.1139188519362445 0 -0.42608096723388439 0.1205091241492761 0 -0.42737827173636012 0.1027702285454639 0 -0.42608096723388439 0.1205091241492761 0 -0.43826405507869293 0.1195835460605416 0 -0.42608096723388439 0.1205091241492761 0 -0.43826405507869293 0.1195835460605416 0 -0.43293323699752101 0.1317554923945817 0 -0.43826405507869293 0.1195835460605416 0 -0.45371440568763749 0.1126743632371118 0 -0.44901593584904892 0.12912088192892021 0 -0.42737827173636012 0.1027702285454639 0 -0.43826405507869293 0.1195835460605416 0 -0.45371440568763749 0.1126743632371118 0 -0.4523882543875366 0.10983005993361 0 -0.45371440568763749 0.1126743632371118 0 -0.42737827173636012 0.1027702285454639 0 -0.4523882543875366 0.10983005993361 0 -0.44343173260412461 0.097571970950778963 0 -0.42737827173636012 0.1027702285454639 0 -0.4523882543875366 0.10983005993361 0 -0.45371440568763749 0.1126743632371118 0 -0.42737827173636012 0.1027702285454639 0 -0.45371440568763749 0.1126743632371118 0 -0.44343173260412461 0.097571970950778963 0 -0.45084974973894648 0.096020795281878568 0 -0.45306155814551219 0.1028275296158008 0 -0.44343173260412461 0.097571970950778963 0 -0.45084974973894648 0.096020795281878568 0 -0.44733932132275389 0.088290098875458828 0 -0.4523882543875366 0.10983005993361 0 -0.44343173260412461 0.097571970950778963 0 -0.45306155814551219 0.1028275296158008 0 -0.4523882543875366 0.10983005993361 0 -0.45306155814551219 0.1028275296158008 0 -0.45661100561120399 0.109540819014999 0 -0.45306155814551219 0.1028275296158008 0 -0.46084618436187341 0.10490351706993729 0 -0.45661100561120399 0.109540819014999 0 -0.45306155814551219 0.1028275296158008 0 -0.46084618436187341 0.10490351706993729 0 -0.45799439118323759 0.099220837031069903 0 -0.46084618436187341 0.10490351706993729 0 -0.4635407771028337 0.1124237257980706 0 -0.45661100561120399 0.109540819014999 0 -0.45799439118323759 0.099220837031069903 0 -0.46723244863383712 0.097971273043108306 0 -0.45594156200913483 0.091684632610025046 0 -0.45084974973894648 0.096020795281878568 0 -0.45799439118323759 0.099220837031069903 0 -0.45594156200913483 0.091684632610025046 0 -0.45084974973894648 0.096020795281878568 0 -0.45306155814551219 0.1028275296158008 0 -0.45799439118323759 0.099220837031069903 0 -0.46084618436187341 0.10490351706993729 0 -0.45799439118323759 0.099220837031069903 0 -0.46723244863383712 0.097971273043108306 0 -0.46084618436187341 0.10490351706993729 0 -0.46723244863383712 0.097971273043108306 0 -0.46686982756835349 0.1074114054382402 0 -0.46084618436187341 0.10490351706993729 0 -0.46686982756835349 0.1074114054382402 0 -0.4635407771028337 0.1124237257980706 0 -0.45371440568763749 0.1126743632371118 0 -0.46425598871103851 0.13528374379222011 0 -0.4635407771028337 0.1124237257980706 0 -0.45674497769142258 0.1138140594952527 0 -0.46958882025875243 0.12035793204680111 0 -0.46686982756835349 0.1074114054382402 0 -0.4635407771028337 0.1124237257980706 0 -0.47044075898603932 0.11380610730348489 0 -0.4635407771028337 0.1124237257980706 0 -0.46958882025875243 0.12035793204680111 0 -0.47044075898603932 0.11380610730348489 0 -0.45674497769142258 0.1138140594952527 0 -0.45371440568763749 0.1126743632371118 0 -0.46425598871103851 0.13528374379222011 0 -0.45674497769142258 0.1138140594952527 0 -0.46958882025875243 0.12035793204680111 0 -0.46425598871103851 0.13528374379222011 0 -0.4523882543875366 0.10983005993361 0 -0.45661100561120399 0.109540819014999 0 -0.45371440568763749 0.1126743632371118 0 -0.45674497769142258 0.1138140594952527 0 -0.45661100561120399 0.109540819014999 0 -0.45371440568763749 0.1126743632371118 0 -0.45674497769142258 0.1138140594952527 0 -0.45371440568763749 0.1126743632371118 0 -0.4635407771028337 0.1124237257980706 0 -0.45674497769142258 0.1138140594952527 0 -0.45661100561120399 0.109540819014999 0 -0.44282721760043869 0.062046251170956107 0 -0.4470315618909167 0.073148927984774167 0 -0.46103932749027238 0.064238871702306077 0 -0.44282721760043869 0.062046251170956107 0 -0.43131469147834472 0.070632617455275076 0 -0.4470315618909167 0.073148927984774167 0 -0.42957324029363853 0.085693113452461764 0 -0.44343173260412461 0.097571970950778963 0 -0.44733932132275389 0.088290098875458828 0 -0.42957324029363853 0.085693113452461764 0 -0.4470315618909167 0.073148927984774167 0 -0.44733932132275389 0.088290098875458828 0 -0.4470315618909167 0.073148927984774167 0 -0.44733932132275389 0.088290098875458828 0 -0.46047789149500767 0.082617330138573752 0 -0.45084974973894648 0.096020795281878568 0 -0.44733932132275389 0.088290098875458828 0 -0.45594156200913483 0.091684632610025046 0 -0.44733932132275389 0.088290098875458828 0 -0.45594156200913483 0.091684632610025046 0 -0.46047789149500767 0.082617330138573752 0 -0.46723244863383712 0.097971273043108306 0 -0.45594156200913483 0.091684632610025046 0 -0.46047789149500767 0.082617330138573752 0 -0.46047789149500767 0.082617330138573752 0 -0.46103932749027238 0.064238871702306077 0 -0.47920912086757578 0.083222027247413538 0 -0.4470315618909167 0.073148927984774167 0 -0.46047789149500767 0.082617330138573752 0 -0.46103932749027238 0.064238871702306077 0 -0.46103932749027238 0.064238871702306077 0 -0.48068047186290208 0.063626500276227002 0 -0.47920912086757578 0.083222027247413538 0 -0.46103932749027238 0.064238871702306077 0 -0.47920912086757578 0.083222027247413538 0 -0.46723244863383712 0.097971273043108306 0 -0.46047789149500767 0.082617330138573752 0 -0.47920912086757578 0.083222027247413538 0 -0.48068047186290208 0.063626500276227002 0 -0.47920912086757578 0.083222027247413538 0 -0.5 0.088432580532893601 0 -0.47920912086757578 0.083222027247413538 0 -0.49737891424487929 0.102205182792521 0 -0.47920912086757578 0.083222027247413538 0 -0.5 0.088432580532893601 0 -0.49737891424487929 0.102205182792521 0 -0.5 0.060034093897511798 0 -0.48068047186290208 0.063626500276227002 0 -0.5 0.088432580532893601 0 -0.47827810320487629 0.116675775998883 0 -0.48837893466537508 0.1117690854599766 0 -0.4842723158563047 0.1301441798928954 0 -0.47827810320487629 0.116675775998883 0 -0.47512549980118862 0.10796659812409699 0 -0.48837893466537508 0.1117690854599766 0 -0.47827810320487629 0.116675775998883 0 -0.46958882025875243 0.12035793204680111 0 -0.4842723158563047 0.1301441798928954 0 -0.47827810320487629 0.116675775998883 0 -0.47044075898603932 0.11380610730348489 0 -0.47512549980118862 0.10796659812409699 0 -0.46686982756835349 0.1074114054382402 0 -0.47044075898603932 0.11380610730348489 0 -0.47512549980118862 0.10796659812409699 0 -0.47827810320487629 0.116675775998883 0 -0.46958882025875243 0.12035793204680111 0 -0.47044075898603932 0.11380610730348489 0 -0.46723244863383712 0.097971273043108306 0 -0.47512549980118862 0.10796659812409699 0 -0.48162445158666772 0.1005823670901454 0 -0.46723244863383712 0.097971273043108306 0 -0.47920912086757578 0.083222027247413538 0 -0.48162445158666772 0.1005823670901454 0 -0.46723244863383712 0.097971273043108306 0 -0.46686982756835349 0.1074114054382402 0 -0.47512549980118862 0.10796659812409699 0 -0.47512549980118862 0.10796659812409699 0 -0.48162445158666772 0.1005823670901454 0 -0.48837893466537508 0.1117690854599766 0 -0.48162445158666772 0.1005823670901454 0 -0.49737891424487929 0.102205182792521 0 -0.48837893466537508 0.1117690854599766 0 -0.47920912086757578 0.083222027247413538 0 -0.48162445158666772 0.1005823670901454 0 -0.49737891424487929 0.102205182792521 0 -0.5 0.088432580532893601 0 -0.49737891424487929 0.102205182792521 0 -0.5 0.1168310671682755 0 -0.49737891424487929 0.102205182792521 0 -0.5 0.1168310671682755 0 -0.48837893466537508 0.1117690854599766 0 -0.5 0.1168310671682755 0 -0.48837893466537508 0.1117690854599766 0 -0.4842723158563047 0.1301441798928954 0 -0.5 0.1168310671682755 0 -0.4842723158563047 0.1301441798928954 0 -0.5 0.14522955380365729 0 -0.46958882025875243 0.12035793204680111 0 -0.4842723158563047 0.1301441798928954 0 -0.46425598871103851 0.13528374379222011 0 -0.4842723158563047 0.1301441798928954 0 -0.47479757173443998 0.15789312434732811 0 -0.46425598871103851 0.13528374379222011 0 -0.47479757173443998 0.15789312434732811 0 -0.46425598871103851 0.13528374379222011 0 -0.4842723158563047 0.1301441798928954 0 -0.5 0.14522955380365729 0 -0.47479757173443998 0.15789312434732811 0 -0.5 0.14522955380365729 0 -0.49999999999999972 0.17362804043903909 0 -0.47479757173443998 0.15789312434732811 0 -0.49999999999999972 0.17362804043903909 0 -0.47479757173443998 0.15789312434732811 0 -0.49999999999999972 0.17362804043903909 0 -0.49200992699072321 0.1743962810239672 0 -0.47479757173443998 0.15789312434732811 0 -0.48341269367675271 0.17637066895233999 0 -0.49170634683837577 0.1941587336203292 0 -0.49368671912131301 0.1828531969182482 0 -0.49999999999999972 0.17362804043903909 0 -0.5 0.19278741936367841 0 -0.49368671912131301 0.1828531969182482 0 -0.48341269367675271 0.17637066895233999 0 -0.49170634683837577 0.1941587336203292 0 -0.49368671912131301 0.1828531969182482 0 -0.49999999999999972 0.17362804043903909 0 -0.49200992699072321 0.1743962810239672 0 -0.49200992699072321 0.1743962810239672 0 -0.48341269367675271 0.17637066895233999 0 -0.49368671912131301 0.1828531969182482 0 -0.49200992699072321 0.1743962810239672 0 -0.48341269367675271 0.17637066895233999 0 -0.48341269367675271 0.17637066895233999 0 -0.45591042926964898 0.18268667049205081 0 -0.47274380268756999 0.19288508587190861 0 -0.48341269367675271 0.17637066895233999 0 -0.45591042926964898 0.18268667049205081 0 -0.49200992699072321 0.1743962810239672 0 -0.48341269367675271 0.17637066895233999 0 -0.47479757173443998 0.15789312434732811 0 -0.48341269367675271 0.17637066895233999 0 -0.47479757173443998 0.15789312434732811 0 -0.48341269367675271 0.17637066895233999 0 -0.47479757173443998 0.15789312434732811 0 -0.45723956394668003 0.16387676974864759 0 -0.48341269367675271 0.17637066895233999 0 -0.45723956394668003 0.16387676974864759 0 -0.45591042926964898 0.18268667049205081 0 -0.45591042926964898 0.18268667049205081 0 -0.43992511097516529 0.17411109905454999 0 -0.4284081648625454 0.1890026720317621 0 -0.45591042926964898 0.18268667049205081 0 -0.4284081648625454 0.1890026720317621 0 -0.45723956394668003 0.16387676974864759 0 -0.45591042926964898 0.18268667049205081 0 -0.43992511097516529 0.17411109905454999 0 -0.45723956394668003 0.16387676974864759 0 -0.43992511097516529 0.17411109905454999 0 -0.43892522612619872 0.15930650560997939 0 -0.43892522612619872 0.15930650560997939 0 -0.43796764784210812 0.14528805014891141 0 -0.45386540436598038 0.14482430837095511 0 -0.45723956394668003 0.16387676974864759 0 -0.43892522612619872 0.15930650560997939 0 -0.45386540436598038 0.14482430837095511 0 -0.45386540436598038 0.14482430837095511 0 -0.43293323699752101 0.1317554923945817 0 -0.43826405507869293 0.1195835460605416 0 -0.44901593584904892 0.12912088192892021 0 -0.43293323699752101 0.1317554923945817 0 -0.43796764784210812 0.14528805014891141 0 -0.45386540436598038 0.14482430837095511 0 -0.43293323699752101 0.1317554923945817 0 -0.44901593584904892 0.12912088192892021 0 -0.45386540436598038 0.14482430837095511 0 -0.43293323699752101 0.1317554923945817 0 -0.45371440568763749 0.1126743632371118 0 -0.44901593584904892 0.12912088192892021 0 -0.46425598871103851 0.13528374379222011 0 -0.44901593584904892 0.12912088192892021 0 -0.46425598871103851 0.13528374379222011 0 -0.45386540436598038 0.14482430837095511 0 -0.47479757173443998 0.15789312434732811 0 -0.45723956394668003 0.16387676974864759 0 -0.45386540436598038 0.14482430837095511 0 -0.47479757173443998 0.15789312434732811 0 -0.46425598871103851 0.13528374379222011 0 -0.45386540436598038 0.14482430837095511 0 -0.47479757173443998 0.15789312434732811 0 -0.45386540436598038 0.14482430837095511 0 -0.48226153920099157 0.23766317590200001 0 -0.47864167104372218 0.246590621409366 0 -0.48932095354102823 0.25454658797793611 0 -0.47315400564016008 0.2364435414805684 0 -0.47864167104372218 0.246590621409366 0 -0.46938038244821267 0.25133041049185839 0 -0.47315400564016008 0.2364435414805684 0 -0.48226153920099157 0.23766317590200001 0 -0.47864167104372218 0.246590621409366 0 -0.49106398183666961 0.22759324404760359 0 -0.48932095354102823 0.25454658797793611 0 -0.5 0.23810140997737081 0 -0.49106398183666961 0.22759324404760359 0 -0.48932095354102823 0.25454658797793611 0 -0.48226153920099157 0.23766317590200001 0 -0.49106398183666961 0.22759324404760359 0 -0.48932095354102823 0.25454658797793611 0 -0.5 0.23810140997737081 0 -0.49106398183666961 0.22759324404760359 0 -0.50000000000000022 0.21194679828831781 0 -0.49106398183666961 0.22759324404760359 0 -0.47912708394337772 0.2231418845945258 0 -0.48726644121087642 0.21298690825741631 0 -0.48226153920099157 0.23766317590200001 0 -0.49106398183666961 0.22759324404760359 0 -0.47912708394337772 0.2231418845945258 0 -0.47315400564016008 0.2364435414805684 0 -0.48226153920099157 0.23766317590200001 0 -0.47912708394337772 0.2231418845945258 0 -0.47315400564016008 0.2364435414805684 0 -0.47912708394337772 0.2231418845945258 0 -0.46764368341616458 0.22415830119077751 0 -0.47912708394337772 0.2231418845945258 0 -0.47360767850491831 0.20951316246361981 0 -0.46764368341616458 0.22415830119077751 0 -0.47360767850491831 0.20951316246361981 0 -0.48726644121087642 0.21298690825741631 0 -0.49170634683837577 0.1941587336203292 0 -0.47912708394337772 0.2231418845945258 0 -0.47360767850491831 0.20951316246361981 0 -0.48726644121087642 0.21298690825741631 0 -0.49106398183666961 0.22759324404760359 0 -0.50000000000000022 0.21194679828831781 0 -0.48726644121087642 0.21298690825741631 0 -0.50000000000000022 0.21194679828831781 0 -0.48726644121087642 0.21298690825741631 0 -0.49170634683837577 0.1941587336203292 0 -0.50000000000000022 0.21194679828831781 0 -0.49170634683837577 0.1941587336203292 0 -0.50000000000000022 0.21194679828831781 0 -0.5 0.19278741936367841 0 -0.49170634683837577 0.1941587336203292 0 -0.49368671912131301 0.1828531969182482 0 -0.5 0.19278741936367841 0 -0.49170634683837577 0.1941587336203292 0 -0.48341269367675271 0.17637066895233999 0 -0.49170634683837577 0.1941587336203292 0 -0.47274380268756999 0.19288508587190861 0 -0.47360767850491831 0.20951316246361981 0 -0.49170634683837577 0.1941587336203292 0 -0.47274380268756999 0.19288508587190861 0 -0.47360767850491831 0.20951316246361981 0 -0.47274380268756999 0.19288508587190861 0 -0.45820261548712909 0.20353130823034371 0 -0.45591042926964898 0.18268667049205081 0 -0.47274380268756999 0.19288508587190861 0 -0.45820261548712909 0.20353130823034371 0 -0.45591042926964898 0.18268667049205081 0 -0.43516662619925378 0.20614333559983469 0 -0.4284081648625454 0.1890026720317621 0 -0.45591042926964898 0.18268667049205081 0 -0.45820261548712909 0.20353130823034371 0 -0.43516662619925378 0.20614333559983469 0 -0.44192508753596349 0.22328399916790689 0 -0.43516662619925378 0.20614333559983469 0 -0.45032248765871591 0.2151961798839368 0 -0.44192508753596349 0.22328399916790689 0 -0.43516662619925378 0.20614333559983469 0 -0.45032248765871591 0.2151961798839368 0 -0.45820261548712909 0.20353130823034371 0 -0.43516662619925378 0.20614333559983469 0 -0.45032248765871591 0.2151961798839368 0 -0.46109406183397039 0.21551848415653921 0 -0.45620465585954723 0.2251951411450015 0 -0.45032248765871591 0.2151961798839368 0 -0.45820261548712909 0.20353130823034371 0 -0.46109406183397039 0.21551848415653921 0 -0.47360767850491831 0.20951316246361981 0 -0.45820261548712909 0.20353130823034371 0 -0.46109406183397039 0.21551848415653921 0 -0.47360767850491831 0.20951316246361981 0 -0.46109406183397039 0.21551848415653921 0 -0.46764368341616458 0.22415830119077751 0 -0.47315400564016008 0.2364435414805684 0 -0.46764368341616458 0.22415830119077751 0 -0.45925329591452863 0.2407771106774913 0 -0.46764368341616458 0.22415830119077751 0 -0.45620465585954723 0.2251951411450015 0 -0.45925329591452863 0.2407771106774913 0 -0.46109406183397039 0.21551848415653921 0 -0.46764368341616458 0.22415830119077751 0 -0.45620465585954723 0.2251951411450015 0 -0.45032248765871591 0.2151961798839368 0 -0.45620465585954723 0.2251951411450015 0 -0.44192508753596349 0.22328399916790689 0 -0.44192508753596349 0.22328399916790689 0 -0.44062222049055039 0.24203477259657111 0 -0.43146145522804691 0.2313120115293863 0 -0.45620465585954723 0.2251951411450015 0 -0.44062222049055039 0.24203477259657111 0 -0.45620465585954723 0.2251951411450015 0 -0.44192508753596349 0.22328399916790689 0 -0.44062222049055039 0.24203477259657111 0 -0.44062222049055039 0.24203477259657111 0 -0.45046339488490522 0.249057113070103 0 -0.44442574262614493 0.25832327296872359 0 -0.44062222049055039 0.24203477259657111 0 -0.45046339488490522 0.249057113070103 0 -0.45925329591452863 0.2407771106774913 0 -0.45620465585954723 0.2251951411450015 0 -0.44062222049055039 0.24203477259657111 0 -0.45925329591452863 0.2407771106774913 0 -0.45046339488490522 0.249057113070103 0 -0.45925329591452863 0.2407771106774913 0 -0.45807104112411212 0.25534721177055669 0 -0.45925329591452863 0.2407771106774913 0 -0.46938038244821267 0.25133041049185839 0 -0.45807104112411212 0.25534721177055669 0 -0.47315400564016008 0.2364435414805684 0 -0.45925329591452863 0.2407771106774913 0 -0.46938038244821267 0.25133041049185839 0 -0.4198454647722451 0.23985190764030939 0 -0.40081965837488509 0.24074316727492401 0 -0.40585136056822319 0.25674789398696107 0 -0.4198454647722451 0.23985190764030939 0 -0.405480724964072 0.22581663549259839 0 -0.40081965837488509 0.24074316727492401 0 -0.44062222049055039 0.24203477259657111 0 -0.4198454647722451 0.23985190764030939 0 -0.42503978512155383 0.25887440404814072 0 -0.44062222049055039 0.24203477259657111 0 -0.4198454647722451 0.23985190764030939 0 -0.43146145522804691 0.2313120115293863 0 -0.4198454647722451 0.23985190764030939 0 -0.43146145522804691 0.2313120115293863 0 -0.42370673975344808 0.22056464269113771 0 -0.44192508753596349 0.22328399916790689 0 -0.43146145522804691 0.2313120115293863 0 -0.42370673975344808 0.22056464269113771 0 -0.4198454647722451 0.23985190764030939 0 -0.42370673975344808 0.22056464269113771 0 -0.405480724964072 0.22581663549259839 0 -0.42370673975344808 0.22056464269113771 0 -0.40708390191205951 0.20882890034131879 0 -0.405480724964072 0.22581663549259839 0 -0.42370673975344808 0.22056464269113771 0 -0.40708390191205951 0.20882890034131879 0 -0.42107335870595469 0.2022269477122331 0 -0.44192508753596349 0.22328399916790689 0 -0.42370673975344808 0.22056464269113771 0 -0.43516662619925378 0.20614333559983469 0 -0.42370673975344808 0.22056464269113771 0 -0.43516662619925378 0.20614333559983469 0 -0.42107335870595469 0.2022269477122331 0 -0.43516662619925378 0.20614333559983469 0 -0.4284081648625454 0.1890026720317621 0 -0.42107335870595469 0.2022269477122331 0 -0.43516662619925378 0.20614333559983469 0 -0.4284081648625454 0.1890026720317621 0 -0.4284081648625454 0.1890026720317621 0 -0.40915969581062839 0.19342315750049971 0 -0.4284081648625454 0.1890026720317621 0 -0.42107335870595469 0.2022269477122331 0 -0.40915969581062839 0.19342315750049971 0 -0.40708390191205951 0.20882890034131879 0 -0.42107335870595469 0.2022269477122331 0 -0.40915969581062839 0.19342315750049971 0 -0.40708390191205951 0.20882890034131879 0 -0.40915969581062839 0.19342315750049971 0 -0.38991122675871148 0.19784364296923759 0 -0.40915969581062839 0.19342315750049971 0 -0.38991122675871148 0.19784364296923759 0 -0.40915969581062839 0.19342315750049971 0 -0.38991122675871148 0.19784364296923759 0 -0.39569501158598158 0.17813944679546001 0 -0.39158905321283283 0.2136173787495643 0 -0.38435338999826391 0.22831720607051781 0 -0.36414166766971379 0.2074649771098355 0 -0.38991122675871148 0.19784364296923759 0 -0.39158905321283283 0.2136173787495643 0 -0.36414166766971379 0.2074649771098355 0 -0.40708390191205951 0.20882890034131879 0 -0.39158905321283283 0.2136173787495643 0 -0.405480724964072 0.22581663549259839 0 -0.40708390191205951 0.20882890034131879 0 -0.38991122675871148 0.19784364296923759 0 -0.39158905321283283 0.2136173787495643 0 -0.405480724964072 0.22581663549259839 0 -0.38435338999826391 0.22831720607051781 0 -0.40081965837488509 0.24074316727492401 0 -0.39158905321283283 0.2136173787495643 0 -0.405480724964072 0.22581663549259839 0 -0.38435338999826391 0.22831720607051781 0 -0.37619177155740557 0.24036243622333081 0 -0.38790582398472923 0.24962922847932231 0 -0.36318679658289171 0.25196182354824148 0 -0.38435338999826391 0.22831720607051781 0 -0.37619177155740557 0.24036243622333081 0 -0.38790582398472923 0.24962922847932231 0 -0.38435338999826391 0.22831720607051781 0 -0.38790582398472923 0.24962922847932231 0 -0.40081965837488509 0.24074316727492401 0 -0.38790582398472923 0.24962922847932231 0 -0.40081965837488509 0.24074316727492401 0 -0.40585136056822319 0.25674789398696107 0 -0.40926453963391513 0.14045102348790381 0 -0.42614672387873248 0.14526589422012931 0 -0.41883635224822963 0.16472684775983329 0 -0.40926453963391513 0.14045102348790381 0 -0.41883635224822963 0.16472684775983329 0 -0.40926453963391513 0.14045102348790381 0 -0.41883635224822963 0.16472684775983329 0 -0.40029434983296169 0.15790366282291429 0 -0.40926453963391513 0.14045102348790381 0 -0.417579207348795 0.13056668242546571 0 -0.40026410281127539 0.13237877311027449 0 -0.40926453963391513 0.14045102348790381 0 -0.417579207348795 0.13056668242546571 0 -0.42614672387873248 0.14526589422012931 0 -0.417579207348795 0.13056668242546571 0 -0.43293323699752101 0.1317554923945817 0 -0.42614672387873248 0.14526589422012931 0 -0.42608096723388439 0.1205091241492761 0 -0.417579207348795 0.13056668242546571 0 -0.43293323699752101 0.1317554923945817 0 -0.43796764784210812 0.14528805014891141 0 -0.43293323699752101 0.1317554923945817 0 -0.42614672387873248 0.14526589422012931 0 -0.43892522612619872 0.15930650560997939 0 -0.43796764784210812 0.14528805014891141 0 -0.42614672387873248 0.14526589422012931 0 -0.43892522612619872 0.15930650560997939 0 -0.42614672387873248 0.14526589422012931 0 -0.41883635224822963 0.16472684775983329 0 -0.43992511097516529 0.17411109905454999 0 -0.43892522612619872 0.15930650560997939 0 -0.41883635224822963 0.16472684775983329 0 -0.4284081648625454 0.1890026720317621 0 -0.41883635224822963 0.16472684775983329 0 -0.43992511097516529 0.17411109905454999 0 -0.4284081648625454 0.1890026720317621 0 -0.41883635224822963 0.16472684775983329 0 -0.40915969581062839 0.19342315750049971 0 -0.41883635224822963 0.16472684775983329 0 -0.39569501158598158 0.17813944679546001 0 -0.4284081648625454 0.1890026720317621 0 -0.40915969581062839 0.19342315750049971 0 -0.41883635224822963 0.16472684775983329 0 -0.40029434983296169 0.15790366282291429 0 -0.39569501158598158 0.17813944679546001 0 -0.38484252596519369 0.16167484958157691 0 -0.41883635224822963 0.16472684775983329 0 -0.40029434983296169 0.15790366282291429 0 -0.39569501158598158 0.17813944679546001 0 -0.39569501158598158 0.17813944679546001 0 -0.38484252596519369 0.16167484958157691 0 -0.36525228834216061 0.17922160577889321 0 -0.38991122675871148 0.19784364296923759 0 -0.39569501158598158 0.17813944679546001 0 -0.36525228834216061 0.17922160577889321 0 -0.39283331973148827 0.14452614648979731 0 -0.38372255811484618 0.13025780258704611 0 -0.36636290901460722 0.1509782344479508 0 -0.38484252596519369 0.16167484958157691 0 -0.39283331973148827 0.14452614648979731 0 -0.36636290901460722 0.1509782344479508 0 -0.40029434983296169 0.15790366282291429 0 -0.38484252596519369 0.16167484958157691 0 -0.39283331973148827 0.14452614648979731 0 -0.40926453963391513 0.14045102348790381 0 -0.40029434983296169 0.15790366282291429 0 -0.39283331973148827 0.14452614648979731 0 -0.39283331973148827 0.14452614648979731 0 -0.40026410281127539 0.13237877311027449 0 -0.38372255811484618 0.13025780258704611 0 -0.39792088922733271 0.1160922105611595 0 -0.417579207348795 0.13056668242546571 0 -0.40026410281127539 0.13237877311027449 0 -0.39792088922733271 0.1160922105611595 0 -0.40026410281127539 0.13237877311027449 0 -0.38372255811484618 0.13025780258704611 0 -0.40926453963391513 0.14045102348790381 0 -0.39283331973148827 0.14452614648979731 0 -0.40026410281127539 0.13237877311027449 0 -0.38372255811484618 0.13025780258704611 0 -0.36636290901460722 0.1509782344479508 0 -0.36747352968705388 0.12273486311700831 0 -0.36636290901460722 0.1509782344479508 0 -0.36747352968705388 0.12273486311700831 0 -0.35528769071996391 0.12689780186549679 0 -0.36636290901460722 0.1509782344479508 0 -0.36747352968705388 0.12273486311700831 0 -0.35528769071996391 0.12689780186549679 0 -0.33512599087492562 0.1447950320020088 0 -0.35528769071996391 0.12689780186549679 0 -0.35168351666373848 0.14314256241625531 0 -0.33512599087492562 0.1447950320020088 0 -0.35528769071996391 0.12689780186549679 0 -0.33512599087492562 0.1447950320020088 0 -0.34115039425197219 0.12498493974687711 0 -0.35528769071996391 0.12689780186549679 0 -0.35168351666373848 0.14314256241625531 0 -0.36636290901460722 0.1509782344479508 0 -0.35168351666373848 0.14314256241625531 0 -0.36636290901460722 0.1509782344479508 0 -0.34333519974196419 0.16612441953572921 0 -0.38484252596519369 0.16167484958157691 0 -0.36636290901460722 0.1509782344479508 0 -0.36525228834216061 0.17922160577889321 0 -0.36636290901460722 0.1509782344479508 0 -0.36525228834216061 0.17922160577889321 0 -0.36525228834216061 0.17922160577889321 0 -0.34333519974196419 0.16612441953572921 0 -0.34654591437965571 0.19533490523866279 0 -0.36636290901460722 0.1509782344479508 0 -0.36525228834216061 0.17922160577889321 0 -0.34333519974196419 0.16612441953572921 0 -0.34333519974196419 0.16612441953572921 0 -0.31496429102988749 0.16269226213852109 0 -0.33512599087492562 0.1447950320020088 0 -0.34333519974196419 0.16612441953572921 0 -0.34654591437965571 0.19533490523866279 0 -0.32412519241006588 0.1878495682783011 0 -0.31496429102988749 0.16269226213852109 0 -0.32412519241006588 0.1878495682783011 0 -0.34333519974196419 0.16612441953572921 0 -0.31496429102988749 0.16269226213852109 0 -0.32412519241006588 0.1878495682783011 0 -0.31303823693556859 0.17707572181323081 0 -0.31496429102988749 0.16269226213852109 0 -0.32412519241006588 0.1878495682783011 0 -0.31303823693556859 0.17707572181323081 0 -0.32412519241006588 0.1878495682783011 0 -0.3108046026399135 0.18379038091696129 0 -0.31496429102988749 0.16269226213852109 0 -0.31353256245119709 0.1587605055712967 0 -0.31354631638020197 0.13395604467094269 0 -0.33512599087492562 0.1447950320020088 0 -0.3122891553291075 0.14635758184588041 0 -0.31353256245119709 0.1587605055712967 0 -0.33512599087492562 0.1447950320020088 0 -0.3122891553291075 0.14635758184588041 0 -0.31496429102988749 0.16269226213852109 0 -0.31353256245119709 0.1587605055712967 0 -0.33512599087492562 0.1447950320020088 0 -0.31496429102988749 0.16269226213852109 0 -0.33512599087492562 0.1447950320020088 0 -0.31354631638020197 0.13395604467094269 0 -0.32917568526667751 0.12578156900391591 0 -0.33512599087492562 0.1447950320020088 0 -0.31354631638020197 0.13395604467094269 0 -0.32917568526667751 0.12578156900391591 0 -0.32114709127587232 0.11611322513389059 0 -0.32917568526667751 0.12578156900391591 0 -0.33512599087492562 0.1447950320020088 0 -0.34115039425197219 0.12498493974687711 0 -0.35168351666373848 0.14314256241625531 0 -0.34333519974196419 0.16612441953572921 0 -0.33512599087492562 0.1447950320020088 0 -0.36303104699726713 0.23570834844077809 0 -0.34244699517042121 0.23816418055786151 0 -0.36318679658289171 0.25196182354824148 0 -0.34244699517042121 0.23816418055786151 0 -0.36318679658289171 0.25196182354824148 0 -0.33952374355129727 0.25899057541505788 0 -0.37619177155740557 0.24036243622333081 0 -0.36303104699726713 0.23570834844077809 0 -0.36318679658289171 0.25196182354824148 0 -0.38435338999826391 0.22831720607051781 0 -0.37619177155740557 0.24036243622333081 0 -0.36303104699726713 0.23570834844077809 0 -0.38435338999826391 0.22831720607051781 0 -0.36303104699726713 0.23570834844077809 0 -0.36414166766971379 0.2074649771098355 0 -0.36303104699726713 0.23570834844077809 0 -0.36414166766971379 0.2074649771098355 0 -0.36303104699726713 0.23570834844077809 0 -0.35084793517488477 0.2210857468323085 0 -0.34244699517042121 0.23816418055786151 0 -0.36303104699726713 0.23570834844077809 0 -0.35084793517488477 0.2210857468323085 0 -0.36414166766971379 0.2074649771098355 0 -0.35084793517488477 0.2210857468323085 0 -0.36414166766971379 0.2074649771098355 0 -0.34654591437965571 0.19533490523866279 0 -0.36525228834216061 0.17922160577889321 0 -0.36414166766971379 0.2074649771098355 0 -0.38991122675871148 0.19784364296923759 0 -0.36525228834216061 0.17922160577889321 0 -0.36414166766971379 0.2074649771098355 0 -0.36525228834216061 0.17922160577889321 0 -0.36414166766971379 0.2074649771098355 0 -0.34654591437965571 0.19533490523866279 0 -0.32412519241006588 0.1878495682783011 0 -0.33328609379024349 0.2130068744180813 0 -0.34654591437965571 0.19533490523866279 0 -0.32412519241006588 0.1878495682783011 0 -0.33328609379024349 0.2130068744180813 0 -0.32412519241006588 0.1878495682783011 0 -0.33328609379024349 0.2130068744180813 0 -0.31080006153106382 0.20197173666100501 0 -0.32412519241006588 0.1878495682783011 0 -0.31080006153106382 0.20197173666100501 0 -0.3108046026399135 0.18379038091696129 0 -0.33328609379024349 0.2130068744180813 0 -0.31873218963182409 0.22654972870499029 0 -0.31080006153106382 0.20197173666100501 0 -0.35084793517488477 0.2210857468323085 0 -0.34654591437965571 0.19533490523866279 0 -0.33328609379024349 0.2130068744180813 0 -0.35084793517488477 0.2210857468323085 0 -0.33328609379024349 0.2130068744180813 0 -0.34244699517042121 0.23816418055786151 0 -0.33328609379024349 0.2130068744180813 0 -0.34244699517042121 0.23816418055786151 0 -0.33328609379024349 0.2130068744180813 0 -0.31873218963182409 0.22654972870499029 0 -0.34244699517042121 0.23816418055786151 0 -0.31873218963182409 0.22654972870499029 0 -0.32200613725511351 0.24850726385495631 0 -0.34244699517042121 0.23816418055786151 0 -0.31873218963182409 0.22654972870499029 0 -0.32200613725511351 0.24850726385495631 0 -0.30672251365844311 0.23743048015470111 0 -0.32200613725511351 0.24850726385495631 0 -0.34244699517042121 0.23816418055786151 0 -0.33952374355129727 0.25899057541505788 0 -0.29125564533142001 0.24067530578368901 0 -0.30672251365844311 0.23743048015470111 0 -0.30640548876467488 0.25787073169030861 0 -0.32200613725511351 0.24850726385495631 0 -0.30672251365844311 0.23743048015470111 0 -0.30640548876467488 0.25787073169030861 0 -0.29125564533142001 0.24067530578368901 0 -0.30672251365844311 0.23743048015470111 0 -0.29521310730918271 0.21354937073956171 0 -0.31873218963182409 0.22654972870499029 0 -0.30672251365844311 0.23743048015470111 0 -0.29521310730918271 0.21354937073956171 0 -0.29125564533142001 0.24067530578368901 0 -0.29521310730918271 0.21354937073956171 0 -0.29125564533142001 0.24067530578368901 0 -0.29521310730918271 0.21354937073956171 0 -0.27258595833473342 0.22149207507906341 0 -0.29521310730918271 0.21354937073956171 0 -0.28878760701375322 0.1984352968903606 0 -0.27490594785389072 0.20112241201531189 0 -0.31873218963182409 0.22654972870499029 0 -0.29521310730918271 0.21354937073956171 0 -0.31080006153106382 0.20197173666100501 0 -0.29521310730918271 0.21354937073956171 0 -0.29917056928694541 0.1864234356954344 0 -0.29521310730918271 0.21354937073956171 0 -0.31080006153106382 0.20197173666100501 0 -0.29917056928694541 0.1864234356954344 0 -0.31080006153106382 0.20197173666100501 0 -0.3108046026399135 0.18379038091696129 0 -0.29917056928694541 0.1864234356954344 0 -0.28878760701375322 0.1984352968903606 0 -0.29917056928694541 0.1864234356954344 0 -0.28955343229492791 0.1852490896997587 0 -0.29521310730918271 0.21354937073956171 0 -0.28878760701375322 0.1984352968903606 0 -0.29917056928694541 0.1864234356954344 0 -0.28878760701375322 0.1984352968903606 0 -0.27938784373491388 0.18917199981814359 0 -0.28955343229492791 0.1852490896997587 0 -0.27938784373491388 0.18917199981814359 0 -0.27490594785389072 0.20112241201531189 0 -0.26439180367967152 0.18225540552070321 0 -0.28878760701375322 0.1984352968903606 0 -0.27938784373491388 0.18917199981814359 0 -0.27490594785389072 0.20112241201531189 0 -0.27490594785389072 0.20112241201531189 0 -0.25370102580463139 0.2052288024824625 0 -0.26439180367967152 0.18225540552070321 0 -0.25370102580463139 0.2052288024824625 0 -0.26439180367967152 0.18225540552070321 0 -0.23359887481107691 0.1809086922627815 0 -0.27490594785389072 0.20112241201531189 0 -0.25370102580463139 0.2052288024824625 0 -0.27258595833473342 0.22149207507906341 0 -0.29521310730918271 0.21354937073956171 0 -0.27490594785389072 0.20112241201531189 0 -0.27258595833473342 0.22149207507906341 0 -0.29125564533142001 0.24067530578368901 0 -0.27258595833473342 0.22149207507906341 0 -0.26834113505385238 0.23837358332174549 0 -0.27258595833473342 0.22149207507906341 0 -0.25272375818517617 0.22994970808158929 0 -0.26834113505385238 0.23837358332174549 0 -0.25370102580463139 0.2052288024824625 0 -0.27258595833473342 0.22149207507906341 0 -0.25272375818517617 0.22994970808158929 0 -0.25272375818517617 0.22994970808158929 0 -0.25621817608628389 0.2460965770837312 0 -0.26834113505385238 0.23837358332174549 0 -0.25621817608628389 0.2460965770837312 0 -0.26834113505385238 0.23837358332174549 0 -0.26892213733164849 0.25365425058065472 0 -0.29125564533142001 0.24067530578368901 0 -0.26834113505385238 0.23837358332174549 0 -0.26892213733164849 0.25365425058065472 0 -0.29370567785695612 0.15770531643225719 0 -0.28412418886142132 0.16518528890623771 0 -0.28065913062351988 0.14575155473079041 0 -0.30159211447790629 0.14759241864651959 0 -0.29370567785695612 0.15770531643225719 0 -0.28065913062351988 0.14575155473079041 0 -0.29682817834931757 0.13068013418198679 0 -0.30159211447790629 0.14759241864651959 0 -0.28065913062351988 0.14575155473079041 0 -0.29682817834931757 0.13068013418198679 0 -0.28065913062351988 0.14575155473079041 0 -0.28285123447775751 0.1183560919224374 0 -0.31354631638020197 0.13395604467094269 0 -0.29682817834931757 0.13068013418198679 0 -0.30159211447790629 0.14759241864651959 0 -0.31354631638020197 0.13395604467094269 0 -0.3122891553291075 0.14635758184588041 0 -0.30159211447790629 0.14759241864651959 0 -0.31353256245119709 0.1587605055712967 0 -0.3122891553291075 0.14635758184588041 0 -0.30159211447790629 0.14759241864651959 0 -0.31496429102988749 0.16269226213852109 0 -0.31353256245119709 0.1587605055712967 0 -0.30488677357152572 0.1641353808659653 0 -0.30159211447790629 0.14759241864651959 0 -0.30488677357152572 0.1641353808659653 0 -0.29370567785695612 0.15770531643225719 0 -0.31353256245119709 0.1587605055712967 0 -0.30159211447790629 0.14759241864651959 0 -0.30488677357152572 0.1641353808659653 0 -0.31496429102988749 0.16269226213852109 0 -0.30225886166240762 0.17397067591913981 0 -0.31303823693556859 0.17707572181323081 0 -0.31496429102988749 0.16269226213852109 0 -0.30225886166240762 0.17397067591913981 0 -0.31496429102988749 0.16269226213852109 0 -0.30488677357152572 0.1641353808659653 0 -0.30225886166240762 0.17397067591913981 0 -0.30488677357152572 0.1641353808659653 0 -0.30225886166240762 0.17397067591913981 0 -0.29597535979189887 0.1670989905046398 0 -0.30488677357152572 0.1641353808659653 0 -0.29370567785695612 0.15770531643225719 0 -0.29597535979189887 0.1670989905046398 0 -0.31303823693556859 0.17707572181323081 0 -0.3108046026399135 0.18379038091696129 0 -0.30225886166240762 0.17397067591913981 0 -0.30225886166240762 0.17397067591913981 0 -0.29917056928694541 0.1864234356954344 0 -0.28955343229492791 0.1852490896997587 0 -0.3108046026399135 0.18379038091696129 0 -0.30225886166240762 0.17397067591913981 0 -0.29917056928694541 0.1864234356954344 0 -0.30225886166240762 0.17397067591913981 0 -0.28955343229492791 0.1852490896997587 0 -0.30225886166240762 0.17397067591913981 0 -0.28955343229492791 0.1852490896997587 0 -0.29024545837739651 0.173916500811098 0 -0.28955343229492791 0.1852490896997587 0 -0.29024545837739651 0.173916500811098 0 -0.27889874324695868 0.17762520371433099 0 -0.29024545837739651 0.173916500811098 0 -0.28412418886142132 0.16518528890623771 0 -0.27889874324695868 0.17762520371433099 0 -0.27938784373491388 0.18917199981814359 0 -0.28955343229492791 0.1852490896997587 0 -0.27889874324695868 0.17762520371433099 0 -0.29370567785695612 0.15770531643225719 0 -0.29597535979189887 0.1670989905046398 0 -0.28412418886142132 0.16518528890623771 0 -0.30225886166240762 0.17397067591913981 0 -0.29024545837739651 0.173916500811098 0 -0.29597535979189887 0.1670989905046398 0 -0.29024545837739651 0.173916500811098 0 -0.29597535979189887 0.1670989905046398 0 -0.28412418886142132 0.16518528890623771 0 -0.28412418886142132 0.16518528890623771 0 -0.26844272787379447 0.16268744982768751 0 -0.27889874324695868 0.17762520371433099 0 -0.28412418886142132 0.16518528890623771 0 -0.26844272787379447 0.16268744982768751 0 -0.28065913062351988 0.14575155473079041 0 -0.26844272787379447 0.16268744982768751 0 -0.27889874324695868 0.17762520371433099 0 -0.26439180367967152 0.18225540552070321 0 -0.27938784373491388 0.18917199981814359 0 -0.27889874324695868 0.17762520371433099 0 -0.26439180367967152 0.18225540552070321 0 -0.26844272787379447 0.16268744982768751 0 -0.26439180367967152 0.18225540552070321 0 -0.247018622616726 0.15992587597476091 0 -0.26844272787379447 0.16268744982768751 0 -0.25846103874104392 0.14702121199507179 0 -0.247018622616726 0.15992587597476091 0 -0.26844272787379447 0.16268744982768751 0 -0.25846103874104392 0.14702121199507179 0 -0.28065913062351988 0.14575155473079041 0 -0.25846103874104392 0.14702121199507179 0 -0.28065913062351988 0.14575155473079041 0 -0.25922316449870308 0.12628093809151891 0 -0.28065913062351988 0.14575155473079041 0 -0.25922316449870308 0.12628093809151891 0 -0.28285123447775751 0.1183560919224374 0 -0.25846103874104392 0.14702121199507179 0 -0.25922316449870308 0.12628093809151891 0 -0.2369615480924761 0.1404602413506009 0 -0.25922316449870308 0.12628093809151891 0 -0.25136603029008331 0.1103208693098497 0 -0.26687835675477128 0.1014348965859585 0 -0.25136603029008331 0.1103208693098497 0 -0.26687835675477128 0.1014348965859585 0 -0.24377998071086901 0.096378574065869249 0 -0.26687835675477128 0.1014348965859585 0 -0.28737892951993471 0.098967158637655914 0 -0.27569457229827071 0.081243623470509244 0 -0.26687835675477128 0.1014348965859585 0 -0.28285123447775751 0.1183560919224374 0 -0.28737892951993471 0.098967158637655914 0 -0.25922316449870308 0.12628093809151891 0 -0.26687835675477128 0.1014348965859585 0 -0.28285123447775751 0.1183560919224374 0 -0.29682817834931757 0.13068013418198679 0 -0.28285123447775751 0.1183560919224374 0 -0.30549209578720232 0.10774456093924389 0 -0.28285123447775751 0.1183560919224374 0 -0.28737892951993471 0.098967158637655914 0 -0.30549209578720232 0.10774456093924389 0 -0.28737892951993471 0.098967158637655914 0 -0.30549209578720232 0.10774456093924389 0 -0.29743787519420251 0.08153307720754506 0 -0.30549209578720232 0.10774456093924389 0 -0.29743787519420251 0.08153307720754506 0 -0.31354631638020197 0.13395604467094269 0 -0.29682817834931757 0.13068013418198679 0 -0.30549209578720232 0.10774456093924389 0 -0.31354631638020197 0.13395604467094269 0 -0.30549209578720232 0.10774456093924389 0 -0.29926204670725021 0.066629363318123747 0 -0.30931237829482389 0.073252958087475881 0 -0.31697319293959142 0.061410437985649477 0 -0.29926204670725021 0.066629363318123747 0 -0.30931237829482389 0.073252958087475881 0 -0.29743787519420251 0.08153307720754506 0 -0.30549209578720232 0.10774456093924389 0 -0.29743787519420251 0.08153307720754506 0 -0.31312795334666071 0.083579729522452809 0 -0.30931237829482389 0.073252958087475881 0 -0.29743787519420251 0.08153307720754506 0 -0.31312795334666071 0.083579729522452809 0 -0.28737892951993471 0.098967158637655914 0 -0.29743787519420251 0.08153307720754506 0 -0.27569457229827071 0.081243623470509244 0 -0.29743787519420251 0.08153307720754506 0 -0.28743776060402371 0.060458689408765323 0 -0.28938365460120269 0.05532159347584624 0 -0.29743787519420251 0.08153307720754506 0 -0.28938365460120269 0.05532159347584624 0 -0.29926204670725021 0.066629363318123747 0 -0.29743787519420251 0.08153307720754506 0 -0.28938365460120269 0.05532159347584624 0 -0.29743787519420251 0.08153307720754506 0 -0.27569457229827071 0.081243623470509244 0 -0.28743776060402371 0.060458689408765323 0 -0.27569457229827071 0.081243623470509244 0 -0.26257114212692878 0.06573449919026883 0 -0.28743776060402371 0.060458689408765323 0 -0.26257114212692878 0.06573449919026883 0 -0.28743776060402371 0.060458689408765323 0 -0.26687835675477128 0.1014348965859585 0 -0.25261226255175379 0.080423606239198905 0 -0.24377998071086901 0.096378574065869249 0 -0.26687835675477128 0.1014348965859585 0 -0.27569457229827071 0.081243623470509244 0 -0.25261226255175379 0.080423606239198905 0 -0.26257114212692878 0.06573449919026883 0 -0.23770452364983391 0.071010308971772351 0 -0.25261226255175379 0.080423606239198905 0 -0.26257114212692878 0.06573449919026883 0 -0.23770452364983391 0.071010308971772351 0 -0.27569457229827071 0.081243623470509244 0 -0.25261226255175379 0.080423606239198905 0 -0.26257114212692878 0.06573449919026883 0 -0.2522816967992324 0.037264740289820159 0 -0.27263172987273521 0.051913181220590639 0 -0.24906194248509719 0.058488871325365822 0 -0.26257114212692878 0.06573449919026883 0 -0.27263172987273521 0.051913181220590639 0 -0.24906194248509719 0.058488871325365822 0 -0.2522816967992324 0.037264740289820159 0 -0.2684979789729644 0.03593820420606865 0 -0.27263172987273521 0.051913181220590639 0 -0.2684979789729644 0.03593820420606865 0 -0.27263172987273521 0.051913181220590639 0 -0.28132943400820298 0.02911010974414751 0 -0.27263172987273521 0.051913181220590639 0 -0.28132943400820298 0.02911010974414751 0 -0.28938365460120269 0.05532159347584624 0 -0.26257114212692878 0.06573449919026883 0 -0.27263172987273521 0.051913181220590639 0 -0.28743776060402371 0.060458689408765323 0 -0.25267499080189931 -0.0034516002120552492 0 -0.26909988492935111 -0.0018655285383734981 0 -0.25157722050270093 0.012682655753942951 0 -0.26909988492935111 -0.0018655285383734981 0 -0.25157722050270093 0.012682655753942951 0 -0.27200359261247947 0.017754051058092819 0 -0.2522816967992324 0.037264740289820159 0 -0.25157722050270093 0.012682655753942951 0 -0.27200359261247947 0.017754051058092819 0 -0.2522816967992324 0.037264740289820159 0 -0.2684979789729644 0.03593820420606865 0 -0.27200359261247947 0.017754051058092819 0 -0.2522816967992324 0.037264740289820159 0 -0.27200359261247947 0.017754051058092819 0 -0.27200359261247947 0.017754051058092819 0 -0.28831373269731447 0.017122983851404761 0 -0.28132943400820298 0.02911010974414751 0 -0.2684979789729644 0.03593820420606865 0 -0.27200359261247947 0.017754051058092819 0 -0.28132943400820298 0.02911010974414751 0 -0.26909988492935111 -0.0018655285383734981 0 -0.2917254884257266 -0.0017566381736345419 0 -0.27200359261247947 0.017754051058092819 0 -0.2917254884257266 -0.0017566381736345419 0 -0.27200359261247947 0.017754051058092819 0 -0.28831373269731447 0.017122983851404761 0 -0.2917254884257266 -0.0017566381736345419 0 -0.28831373269731447 0.017122983851404761 0 -0.29997880334656019 0.01439552450637107 0 -0.2917254884257266 -0.0017566381736345419 0 -0.27200359261247947 0.017754051058092819 0 -0.28831373269731447 0.017122983851404761 0 -0.29656482898857922 0.02610767777843559 0 -0.29997880334656019 0.01439552450637107 0 -0.28831373269731447 0.017122983851404761 0 -0.28132943400820298 0.02911010974414751 0 -0.29656482898857922 0.02610767777843559 0 -0.28132943400820298 0.02911010974414751 0 -0.29656482898857922 0.02610767777843559 0 -0.29344050585463782 0.03493273697686209 0 -0.29656482898857922 0.02610767777843559 0 -0.31039051656375261 0.022327184027059441 0 -0.30541723396373921 0.038711125382435783 0 -0.31039051656375261 0.022327184027059441 0 -0.30541723396373921 0.038711125382435783 0 -0.32038394146944787 0.031620215762440292 0 -0.29656482898857922 0.02610767777843559 0 -0.31039051656375261 0.022327184027059441 0 -0.29997880334656019 0.01439552450637107 0 -0.31039051656375261 0.022327184027059441 0 -0.31177688145040278 0.0050359958776742568 0 -0.29997880334656019 0.01439552450637107 0 -0.2917254884257266 -0.0017566381736345419 0 -0.31177688145040278 0.0050359958776742568 0 -0.29997880334656019 0.01439552450637107 0 -0.27263172987273521 0.051913181220590639 0 -0.28743776060402371 0.060458689408765323 0 -0.28938365460120269 0.05532159347584624 0 -0.28938365460120269 0.05532159347584624 0 -0.29045052645802971 0.045802035002429492 0 -0.29738278035354182 0.050541329601553678 0 -0.28938365460120269 0.05532159347584624 0 -0.29738278035354182 0.050541329601553678 0 -0.29780899910201009 0.056562827273038227 0 -0.29926204670725021 0.066629363318123747 0 -0.28938365460120269 0.05532159347584624 0 -0.29780899910201009 0.056562827273038227 0 -0.28132943400820298 0.02911010974414751 0 -0.28938365460120269 0.05532159347584624 0 -0.29045052645802971 0.045802035002429492 0 -0.28132943400820298 0.02911010974414751 0 -0.28938365460120269 0.05532159347584624 0 -0.28132943400820298 0.02911010974414751 0 -0.29344050585463782 0.03493273697686209 0 -0.29045052645802971 0.045802035002429492 0 -0.29344050585463782 0.03493273697686209 0 -0.29045052645802971 0.045802035002429492 0 -0.30541723396373921 0.038711125382435783 0 -0.29045052645802971 0.045802035002429492 0 -0.30541723396373921 0.038711125382435783 0 -0.29738278035354182 0.050541329601553678 0 -0.29045052645802971 0.045802035002429492 0 -0.30541723396373921 0.038711125382435783 0 -0.29656482898857922 0.02610767777843559 0 -0.29344050585463782 0.03493273697686209 0 -0.30541723396373921 0.038711125382435783 0 -0.30541723396373921 0.038711125382435783 0 -0.30520751474604563 0.05375902269662923 0 -0.31780711793698518 0.045521831715634557 0 -0.29926204670725021 0.066629363318123747 0 -0.30520751474604563 0.05375902269662923 0 -0.31697319293959142 0.061410437985649477 0 -0.30541723396373921 0.038711125382435783 0 -0.30520751474604563 0.05375902269662923 0 -0.29738278035354182 0.050541329601553678 0 -0.30520751474604563 0.05375902269662923 0 -0.29738278035354182 0.050541329601553678 0 -0.29780899910201009 0.056562827273038227 0 -0.29926204670725021 0.066629363318123747 0 -0.30520751474604563 0.05375902269662923 0 -0.29780899910201009 0.056562827273038227 0 -0.32553678940662539 0.052415823907368687 0 -0.31780711793698518 0.045521831715634557 0 -0.33422422494732851 0.04449049745268327 0 -0.31697319293959142 0.061410437985649477 0 -0.32553678940662539 0.052415823907368687 0 -0.31780711793698518 0.045521831715634557 0 -0.30520751474604563 0.05375902269662923 0 -0.31697319293959142 0.061410437985649477 0 -0.31780711793698518 0.045521831715634557 0 -0.31697319293959142 0.061410437985649477 0 -0.32808937753058609 0.059947696530402161 0 -0.32553678940662539 0.052415823907368687 0 -0.31780711793698518 0.045521831715634557 0 -0.32038394146944787 0.031620215762440292 0 -0.33422422494732851 0.04449049745268327 0 -0.30541723396373921 0.038711125382435783 0 -0.31780711793698518 0.045521831715634557 0 -0.32038394146944787 0.031620215762440292 0 -0.30541723396373921 0.038711125382435783 0 -0.32038394146944787 0.031620215762440292 0 -0.32038394146944787 0.031620215762440292 0 -0.33422422494732851 0.04449049745268327 0 -0.33422422494732851 0.04449049745268327 0 -0.34051642268078958 0.02208187176518148 0 -0.34924074101412461 0.03711639968071382 0 -0.32038394146944787 0.031620215762440292 0 -0.33422422494732851 0.04449049745268327 0 -0.34051642268078958 0.02208187176518148 0 -0.33422422494732851 0.04449049745268327 0 -0.34715076893326918 0.04673829876922056 0 -0.34924074101412461 0.03711639968071382 0 -0.33422422494732851 0.04449049745268327 0 -0.34806450842520742 0.057360779142928031 0 -0.34715076893326918 0.04673829876922056 0 -0.33422422494732851 0.04449049745268327 0 -0.34806450842520742 0.057360779142928031 0 -0.33422422494732851 0.04449049745268327 0 -0.33482930480244999 0.055095026294593591 0 -0.34806450842520742 0.057360779142928031 0 -0.3407399656121517 0.06083029771636933 0 -0.33482930480244999 0.055095026294593591 0 -0.33440717105718593 0.063083878638897639 0 -0.3407399656121517 0.06083029771636933 0 -0.33482930480244999 0.055095026294593591 0 -0.34806450842520742 0.057360779142928031 0 -0.32808937753058609 0.059947696530402161 0 -0.33482930480244999 0.055095026294593591 0 -0.33440717105718593 0.063083878638897639 0 -0.32808937753058609 0.059947696530402161 0 -0.32553678940662539 0.052415823907368687 0 -0.33482930480244999 0.055095026294593591 0 -0.32553678940662539 0.052415823907368687 0 -0.33422422494732851 0.04449049745268327 0 -0.33482930480244999 0.055095026294593591 0 -0.31039051656375261 0.022327184027059441 0 -0.31177688145040278 0.0050359958776742568 0 -0.3261420213634148 0.01391490981329808 0 -0.32828291010712762 -0.0049346835118845543 0 -0.31177688145040278 0.0050359958776742568 0 -0.3261420213634148 0.01391490981329808 0 -0.31039051656375261 0.022327184027059441 0 -0.32038394146944787 0.031620215762440292 0 -0.3261420213634148 0.01391490981329808 0 -0.31039051656375261 0.022327184027059441 0 -0.32038394146944787 0.031620215762440292 0 -0.32038394146944787 0.031620215762440292 0 -0.34051642268078958 0.02208187176518148 0 -0.32038394146944787 0.031620215762440292 0 -0.3261420213634148 0.01391490981329808 0 -0.34051642268078958 0.02208187176518148 0 -0.3261420213634148 0.01391490981329808 0 -0.34051642268078958 0.02208187176518148 0 -0.34055428987364128 0.0059527955302196532 0 -0.32828291010712762 -0.0049346835118845543 0 -0.3261420213634148 0.01391490981329808 0 -0.34055428987364128 0.0059527955302196532 0 -0.34051642268078958 0.02208187176518148 0 -0.34055428987364128 0.0059527955302196532 0 -0.36064890389212972 0.0125435277679194 0 -0.34718119132474479 -0.01384164818341615 0 -0.34055428987364128 0.0059527955302196532 0 -0.36064890389212972 0.0125435277679194 0 -0.34051642268078958 0.02208187176518148 0 -0.36064890389212972 0.0125435277679194 0 -0.34051642268078958 0.02208187176518148 0 -0.35699945364537122 0.027147445145089769 0 -0.34924074101412461 0.03711639968071382 0 -0.34051642268078958 0.02208187176518148 0 -0.35699945364537122 0.027147445145089769 0 -0.36064890389212972 0.0125435277679194 0 -0.35699945364537122 0.027147445145089769 0 -0.36163302121541668 0.029781402687577421 0 -0.35940737946489582 0.035374977024224222 0 -0.37998819155715241 0.0057865511937031933 0 -0.36738966121720701 0.029980518529024301 0 -0.37123175334181557 0.027162262264614271 0 -0.37998819155715241 0.0057865511937031933 0 -0.36738966121720701 0.029980518529024301 0 -0.3645477689834325 0.020181962352102071 0 -0.37998819155715241 0.0057865511937031933 0 -0.36738966121720701 0.029980518529024301 0 -0.36273559053419291 0.026622670051971411 0 -0.36738966121720701 0.029980518529024301 0 -0.3645477689834325 0.020181962352102071 0 -0.35699945364537122 0.027147445145089769 0 -0.36163302121541668 0.029781402687577421 0 -0.36273559053419291 0.026622670051971411 0 -0.35699945364537122 0.027147445145089769 0 -0.36273559053419291 0.026622670051971411 0 -0.3645477689834325 0.020181962352102071 0 -0.36163302121541668 0.029781402687577421 0 -0.36273559053419291 0.026622670051971411 0 -0.36738966121720701 0.029980518529024301 0 -0.35699945364537122 0.027147445145089769 0 -0.3645477689834325 0.020181962352102071 0 -0.36064890389212972 0.0125435277679194 0 -0.3645477689834325 0.020181962352102071 0 -0.36064890389212972 0.0125435277679194 0 -0.37998819155715241 0.0057865511937031933 0 -0.3645477689834325 0.020181962352102071 0 -0.36064890389212972 0.0125435277679194 0 -0.38683543611469601 0.0001369023841863784 0 -0.36064890389212972 0.0125435277679194 0 -0.37474494217865062 -0.0022388935110706832 0 -0.38683543611469601 0.0001369023841863784 0 -0.36064890389212972 0.0125435277679194 0 -0.37474494217865062 -0.0022388935110706832 0 -0.36307869926690151 -0.00068504054922277494 0 -0.36064890389212972 0.0125435277679194 0 -0.35479113087726238 0.05417448586434577 0 -0.34715076893326918 0.04673829876922056 0 -0.35593663516940488 0.04278932274017315 0 -0.35479113087726238 0.05417448586434577 0 -0.35147867423579721 0.06053566178096708 0 -0.3622197730044176 0.060127746183944272 0 -0.35479113087726238 0.05417448586434577 0 -0.35147867423579721 0.06053566178096708 0 -0.35479113087726238 0.05417448586434577 0 -0.34806450842520742 0.057360779142928031 0 -0.35147867423579721 0.06053566178096708 0 -0.35479113087726238 0.05417448586434577 0 -0.34806450842520742 0.057360779142928031 0 -0.34806450842520742 0.057360779142928031 0 -0.35147867423579721 0.06053566178096708 0 -0.3447014191436914 0.063951910484466787 0 -0.34806450842520742 0.057360779142928031 0 -0.35147867423579721 0.06053566178096708 0 -0.3407399656121517 0.06083029771636933 0 -0.34806450842520742 0.057360779142928031 0 -0.3407399656121517 0.06083029771636933 0 -0.34806450842520742 0.057360779142928031 0 -0.3447014191436914 0.063951910484466787 0 -0.35479113087726238 0.05417448586434577 0 -0.34806450842520742 0.057360779142928031 0 -0.34715076893326918 0.04673829876922056 0 -0.34715076893326918 0.04673829876922056 0 -0.34924074101412461 0.03711639968071382 0 -0.35593663516940488 0.04278932274017315 0 -0.36738966121720701 0.029980518529024301 0 -0.35479113087726238 0.05417448586434577 0 -0.35593663516940488 0.04278932274017315 0 -0.35699945364537122 0.027147445145089769 0 -0.34924074101412461 0.03711639968071382 0 -0.35940737946489582 0.035374977024224222 0 -0.34924074101412461 0.03711639968071382 0 -0.35593663516940488 0.04278932274017315 0 -0.35940737946489582 0.035374977024224222 0 -0.36738966121720701 0.029980518529024301 0 -0.35479113087726238 0.05417448586434577 0 -0.36677646394688163 0.041367990420506082 0 -0.37123175334181557 0.027162262264614271 0 -0.37046143272875132 0.04675171495388801 0 -0.36738966121720701 0.029980518529024301 0 -0.35479113087726238 0.05417448586434577 0 -0.37123175334181557 0.027162262264614271 0 -0.36677646394688163 0.041367990420506082 0 -0.37046143272875132 0.04675171495388801 0 -0.3764786745208083 0.032098692741998169 0 -0.37123175334181557 0.027162262264614271 0 -0.37046143272875132 0.04675171495388801 0 -0.36163302121541668 0.029781402687577421 0 -0.36738966121720701 0.029980518529024301 0 -0.35940737946489582 0.035374977024224222 0 -0.36738966121720701 0.029980518529024301 0 -0.35593663516940488 0.04278932274017315 0 -0.35940737946489582 0.035374977024224222 0 -0.36738966121720701 0.029980518529024301 0 -0.37123175334181557 0.027162262264614271 0 -0.36677646394688163 0.041367990420506082 0 -0.36677646394688163 0.041367990420506082 0 -0.37046143272875132 0.04675171495388801 0 -0.36802302346639398 0.047906750352184523 0 -0.36677646394688163 0.041367990420506082 0 -0.36802302346639398 0.047906750352184523 0 -0.37046143272875132 0.04675171495388801 0 -0.37000681959492809 0.05831264468359916 0 -0.36802302346639398 0.047906750352184523 0 -0.37000681959492809 0.05831264468359916 0 -0.37046143272875132 0.04675171495388801 0 -0.36802302346639398 0.047906750352184523 0 -0.37000681959492809 0.05831264468359916 0 -0.37046143272875132 0.04675171495388801 0 -0.36802302346639398 0.047906750352184523 0 -0.35479113087726238 0.05417448586434577 0 -0.36802302346639398 0.047906750352184523 0 -0.35479113087726238 0.05417448586434577 0 -0.36802302346639398 0.047906750352184523 0 -0.3622197730044176 0.060127746183944272 0 -0.35479113087726238 0.05417448586434577 0 -0.36677646394688163 0.041367990420506082 0 -0.36802302346639398 0.047906750352184523 0 -0.36802302346639398 0.047906750352184523 0 -0.3622197730044176 0.060127746183944272 0 -0.37000681959492809 0.05831264468359916 0 -0.35147867423579721 0.06053566178096708 0 -0.36926886504626422 0.077079019973005369 0 -0.3622197730044176 0.060127746183944272 0 -0.37000681959492809 0.05831264468359916 0 -0.36926886504626422 0.077079019973005369 0 -0.37000681959492809 0.05831264468359916 0 -0.36926886504626422 0.077079019973005369 0 -0.37079498002478778 0.078498176574577722 0 -0.36926886504626422 0.077079019973005369 0 -0.34551673285671652 0.071984855543133663 0 -0.36912013352382872 0.080861301107253064 0 -0.37000681959492809 0.05831264468359916 0 -0.37079498002478778 0.078498176574577722 0 -0.37470600383380392 0.082961959162170973 0 -0.35147867423579721 0.06053566178096708 0 -0.3622197730044176 0.060127746183944272 0 -0.36926886504626422 0.077079019973005369 0 -0.37000681959492809 0.05831264468359916 0 -0.37470600383380392 0.082961959162170973 0 -0.37000681959492809 0.05831264468359916 0 -0.36926886504626422 0.077079019973005369 0 -0.36926886504626422 0.077079019973005369 0 -0.37079498002478778 0.078498176574577722 0 -0.34551673285671652 0.071984855543133663 0 -0.34763839367566191 0.079069075487607554 0 -0.36912013352382872 0.080861301107253064 0 -0.34551673285671652 0.071984855543133663 0 -0.36912013352382872 0.080861301107253064 0 -0.35147867423579721 0.06053566178096708 0 -0.36926886504626422 0.077079019973005369 0 -0.34551673285671652 0.071984855543133663 0 -0.34408269824063842 0.074738747125954852 0 -0.34763839367566191 0.079069075487607554 0 -0.34179116264722731 0.080399472229040897 0 -0.34408269824063842 0.074738747125954852 0 -0.34551673285671652 0.071984855543133663 0 -0.34763839367566191 0.079069075487607554 0 -0.34408269824063842 0.074738747125954852 0 -0.34551673285671652 0.071984855543133663 0 -0.35147867423579721 0.06053566178096708 0 -0.34551673285671652 0.071984855543133663 0 -0.3447014191436914 0.063951910484466787 0 -0.35147867423579721 0.06053566178096708 0 -0.34551673285671652 0.071984855543133663 0 -0.34763839367566191 0.079069075487607554 0 -0.36858415035949882 0.094491491786065696 0 -0.34763839367566191 0.079069075487607554 0 -0.36858415035949882 0.094491491786065696 0 -0.35198293914272999 0.094145145766245733 0 -0.34456144318064219 0.08667329674911145 0 -0.34763839367566191 0.079069075487607554 0 -0.35198293914272999 0.094145145766245733 0 -0.34456144318064219 0.08667329674911145 0 -0.35198293914272999 0.094145145766245733 0 -0.34431035454597703 0.093789606507308373 0 -0.34456144318064219 0.08667329674911145 0 -0.34763839367566191 0.079069075487607554 0 -0.34179116264722731 0.080399472229040897 0 -0.3782625711058698 0.101617738696854 0 -0.37470600383380392 0.082961959162170973 0 -0.36858415035949882 0.094491491786065696 0 -0.34763839367566191 0.079069075487607554 0 -0.36912013352382872 0.080861301107253064 0 -0.36858415035949882 0.094491491786065696 0 -0.36926886504626422 0.077079019973005369 0 -0.37079498002478778 0.078498176574577722 0 -0.36912013352382872 0.080861301107253064 0 -0.36926886504626422 0.077079019973005369 0 -0.36912013352382872 0.080861301107253064 0 -0.36912013352382872 0.080861301107253064 0 -0.37470600383380392 0.082961959162170973 0 -0.37079498002478778 0.078498176574577722 0 -0.36912013352382872 0.080861301107253064 0 -0.37470600383380392 0.082961959162170973 0 -0.36912013352382872 0.080861301107253064 0 -0.37470600383380392 0.082961959162170973 0 -0.36858415035949882 0.094491491786065696 0 -0.36912013352382872 0.080861301107253064 0 -0.36858415035949882 0.094491491786065696 0 -0.36858415035949882 0.094491491786065696 0 -0.36747352968705388 0.12273486311700831 0 -0.3782625711058698 0.101617738696854 0 -0.36858415035949882 0.094491491786065696 0 -0.36858415035949882 0.094491491786065696 0 -0.36006702585218792 0.10838608290929221 0 -0.35198293914272999 0.094145145766245733 0 -0.36858415035949882 0.094491491786065696 0 -0.36006702585218792 0.10838608290929221 0 -0.36747352968705388 0.12273486311700831 0 -0.3782625711058698 0.101617738696854 0 -0.36858415035949882 0.094491491786065696 0 -0.36747352968705388 0.12273486311700831 0 -0.36006702585218792 0.10838608290929221 0 -0.36747352968705388 0.12273486311700831 0 -0.35832203275528268 0.1183511860346923 0 -0.35528769071996391 0.12689780186549679 0 -0.36747352968705388 0.12273486311700831 0 -0.35832203275528268 0.1183511860346923 0 -0.35528769071996391 0.12689780186549679 0 -0.35832203275528268 0.1183511860346923 0 -0.35045988476192508 0.115385996246972 0 -0.36006702585218792 0.10838608290929221 0 -0.35832203275528268 0.1183511860346923 0 -0.35045988476192508 0.115385996246972 0 -0.35045988476192508 0.115385996246972 0 -0.34547580274860562 0.10394098399483009 0 -0.33570271963636877 0.11206429961599181 0 -0.35528769071996391 0.12689780186549679 0 -0.35045988476192508 0.115385996246972 0 -0.34115039425197219 0.12498493974687711 0 -0.36006702585218792 0.10838608290929221 0 -0.35198293914272999 0.094145145766245733 0 -0.34547580274860562 0.10394098399483009 0 -0.36006702585218792 0.10838608290929221 0 -0.35045988476192508 0.115385996246972 0 -0.34547580274860562 0.10394098399483009 0 -0.35198293914272999 0.094145145766245733 0 -0.34547580274860562 0.10394098399483009 0 -0.34431035454597703 0.093789606507308373 0 -0.34547580274860562 0.10394098399483009 0 -0.34431035454597703 0.093789606507308373 0 -0.335413749579693 0.097286071719103154 0 -0.34547580274860562 0.10394098399483009 0 -0.335413749579693 0.097286071719103154 0 -0.33570271963636877 0.11206429961599181 0 -0.335413749579693 0.097286071719103154 0 -0.33570271963636877 0.11206429961599181 0 -0.32444247844199348 0.1047035033472971 0 -0.35045988476192508 0.115385996246972 0 -0.34115039425197219 0.12498493974687711 0 -0.33570271963636877 0.11206429961599181 0 -0.32917568526667751 0.12578156900391591 0 -0.33570271963636877 0.11206429961599181 0 -0.32114709127587232 0.11611322513389059 0 -0.32917568526667751 0.12578156900391591 0 -0.34115039425197219 0.12498493974687711 0 -0.33570271963636877 0.11206429961599181 0 -0.31354631638020197 0.13395604467094269 0 -0.30549209578720232 0.10774456093924389 0 -0.32114709127587232 0.11611322513389059 0 -0.30549209578720232 0.10774456093924389 0 -0.32114709127587232 0.11611322513389059 0 -0.32444247844199348 0.1047035033472971 0 -0.33570271963636877 0.11206429961599181 0 -0.32114709127587232 0.11611322513389059 0 -0.32444247844199348 0.1047035033472971 0 -0.30549209578720232 0.10774456093924389 0 -0.32444247844199348 0.1047035033472971 0 -0.32445673593083119 0.090309359328255762 0 -0.30549209578720232 0.10774456093924389 0 -0.32445673593083119 0.090309359328255762 0 -0.31312795334666071 0.083579729522452809 0 -0.335413749579693 0.097286071719103154 0 -0.32444247844199348 0.1047035033472971 0 -0.32445673593083119 0.090309359328255762 0 -0.32445673593083119 0.090309359328255762 0 -0.3275606083710243 0.080211281293741998 0 -0.31312795334666071 0.083579729522452809 0 -0.3275606083710243 0.080211281293741998 0 -0.31312795334666071 0.083579729522452809 0 -0.31976082328641481 0.073112182403608325 0 -0.30931237829482389 0.073252958087475881 0 -0.31312795334666071 0.083579729522452809 0 -0.31976082328641481 0.073112182403608325 0 -0.30931237829482389 0.073252958087475881 0 -0.31697319293959142 0.061410437985649477 0 -0.31976082328641481 0.073112182403608325 0 -0.31697319293959142 0.061410437985649477 0 -0.31976082328641481 0.073112182403608325 0 -0.32886731949388731 0.069155273298144179 0 -0.31697319293959142 0.061410437985649477 0 -0.32808937753058609 0.059947696530402161 0 -0.32886731949388731 0.069155273298144179 0 -0.3275606083710243 0.080211281293741998 0 -0.31976082328641481 0.073112182403608325 0 -0.32886731949388731 0.069155273298144179 0 -0.32886731949388731 0.069155273298144179 0 -0.33770721458858299 0.069047958238937293 0 -0.336378655355973 0.076693290193422539 0 -0.3275606083710243 0.080211281293741998 0 -0.32886731949388731 0.069155273298144179 0 -0.336378655355973 0.076693290193422539 0 -0.33440717105718593 0.063083878638897639 0 -0.32886731949388731 0.069155273298144179 0 -0.33770721458858299 0.069047958238937293 0 -0.32808937753058609 0.059947696530402161 0 -0.33440717105718593 0.063083878638897639 0 -0.32886731949388731 0.069155273298144179 0 -0.3407399656121517 0.06083029771636933 0 -0.33440717105718593 0.063083878638897639 0 -0.33770721458858299 0.069047958238937293 0 -0.3407399656121517 0.06083029771636933 0 -0.3447014191436914 0.063951910484466787 0 -0.33770721458858299 0.069047958238937293 0 -0.34551673285671652 0.071984855543133663 0 -0.3447014191436914 0.063951910484466787 0 -0.33770721458858299 0.069047958238937293 0 -0.34408269824063842 0.074738747125954852 0 -0.33770721458858299 0.069047958238937293 0 -0.336378655355973 0.076693290193422539 0 -0.34408269824063842 0.074738747125954852 0 -0.34551673285671652 0.071984855543133663 0 -0.33770721458858299 0.069047958238937293 0 -0.34551673285671652 0.071984855543133663 0 -0.33770721458858299 0.069047958238937293 0 -0.34408269824063842 0.074738747125954852 0 -0.336378655355973 0.076693290193422539 0 -0.34179116264722731 0.080399472229040897 0 -0.336378655355973 0.076693290193422539 0 -0.34179116264722731 0.080399472229040897 0 -0.33708436589161489 0.085963183755354639 0 -0.34456144318064219 0.08667329674911145 0 -0.34179116264722731 0.080399472229040897 0 -0.33708436589161489 0.085963183755354639 0 -0.34456144318064219 0.08667329674911145 0 -0.34431035454597703 0.093789606507308373 0 -0.33708436589161489 0.085963183755354639 0 -0.34431035454597703 0.093789606507308373 0 -0.335413749579693 0.097286071719103154 0 -0.33708436589161489 0.085963183755354639 0 -0.335413749579693 0.097286071719103154 0 -0.32445673593083119 0.090309359328255762 0 -0.33708436589161489 0.085963183755354639 0 -0.32445673593083119 0.090309359328255762 0 -0.3275606083710243 0.080211281293741998 0 -0.33708436589161489 0.085963183755354639 0 -0.3275606083710243 0.080211281293741998 0 -0.336378655355973 0.076693290193422539 0 -0.33708436589161489 0.085963183755354639 0 -0.38891458820749281 0.47713565504117422 0 -0.42172655890518862 0.5 0 -0.3640375775585698 0.5 0 -0.38891458820749281 0.47713565504117422 0 -0.37103467036260362 0.45695891695805302 0 -0.36943712044780219 0.47475959506207249 0 -0.39694697642853649 0.45370639251272787 0 -0.37103467036260362 0.45695891695805302 0 -0.38891458820749281 0.47713565504117422 0 -0.39694697642853649 0.45370639251272787 0 -0.37103467036260362 0.45695891695805302 0 -0.38249991962136642 0.44345487931465249 0 -0.39694697642853649 0.45370639251272787 0 -0.37103467036260362 0.45695891695805302 0 -0.38249991962136642 0.44345487931465249 0 -0.39694697642853649 0.45370639251272787 0 -0.40464661760035381 0.43350824459614162 0 -0.38891458820749281 0.47713565504117422 0 -0.39694697642853649 0.45370639251272787 0 -0.41631826774707797 0.4711213942969617 0 -0.39694697642853649 0.45370639251272787 0 -0.42285928249446952 0.45045386806740279 0 -0.41631826774707797 0.4711213942969617 0 -0.42285928249446952 0.45045386806740279 0 -0.42501824733507809 0.43459816807542118 0 -0.40464661760035381 0.43350824459614162 0 -0.39694697642853649 0.45370639251272787 0 -0.42285928249446952 0.45045386806740279 0 -0.39694697642853649 0.45370639251272787 0 -0.42285928249446952 0.45045386806740279 0 -0.40464661760035381 0.43350824459614162 0 -0.42285928249446952 0.45045386806740279 0 -0.43521244088076849 0.46107148678855758 0 -0.44877158856040261 0.44720134362207808 0 -0.42285928249446952 0.45045386806740279 0 -0.44877158856040261 0.44720134362207808 0 -0.42285928249446952 0.45045386806740279 0 -0.43592409671607729 0.44045812782560079 0 -0.44877158856040261 0.44720134362207808 0 -0.42285928249446952 0.45045386806740279 0 -0.43592409671607729 0.44045812782560079 0 -0.42501824733507809 0.43459816807542118 0 -0.42285928249446952 0.45045386806740279 0 -0.43521244088076849 0.46107148678855758 0 -0.41631826774707797 0.4711213942969617 0 -0.41631826774707797 0.4711213942969617 0 -0.42172655890518862 0.5 0 -0.43935827984199688 0.47473889959161758 0 -0.43521244088076849 0.46107148678855758 0 -0.41631826774707797 0.4711213942969617 0 -0.43935827984199688 0.47473889959161758 0 -0.38891458820749281 0.47713565504117422 0 -0.41631826774707797 0.4711213942969617 0 -0.42172655890518862 0.5 0 -0.42172655890518862 0.5 0 -0.43935827984199688 0.47473889959161758 0 -0.47784082473980471 0.47626967285504462 0 -0.42172655890518862 0.5 0 -0.5 0.5 0 -0.47784082473980471 0.47626967285504462 0 -0.43935827984199688 0.47473889959161758 0 -0.47784082473980471 0.47626967285504462 0 -0.4487547857598953 0.46184192836472759 0 -0.5 0.5 0 -0.47784082473980471 0.47626967285504462 0 -0.49999999999999589 0.44077113011354369 0 -0.47784082473980471 0.47626967285504462 0 -0.47438579428019922 0.44398623686781052 0 -0.4627013265822788 0.4545376326069438 0 -0.47784082473980471 0.47626967285504462 0 -0.49999999999999589 0.44077113011354369 0 -0.47438579428019922 0.44398623686781052 0 -0.49999999999999589 0.44077113011354369 0 -0.47438579428019922 0.44398623686781052 0 -0.48180565015534738 0.42787197640755792 0 -0.49999999999999589 0.44077113011354369 0 -0.47438579428019922 0.44398623686781052 0 -0.47438579428019922 0.44398623686781052 0 -0.4627013265822788 0.4545376326069438 0 -0.44877158856040261 0.44720134362207808 0 -0.47438579428019922 0.44398623686781052 0 -0.44877158856040261 0.44720134362207808 0 -0.47438579428019922 0.44398623686781052 0 -0.44877158856040261 0.44720134362207808 0 -0.46289485375526918 0.43579199928955081 0 -0.44877158856040261 0.44720134362207808 0 -0.44878504691792248 0.43547483269414872 0 -0.46289485375526918 0.43579199928955081 0 -0.47784082473980471 0.47626967285504462 0 -0.4627013265822788 0.4545376326069438 0 -0.4487547857598953 0.46184192836472759 0 -0.4627013265822788 0.4545376326069438 0 -0.4487547857598953 0.46184192836472759 0 -0.44877158856040261 0.44720134362207808 0 -0.4487547857598953 0.46184192836472759 0 -0.44877158856040261 0.44720134362207808 0 -0.43521244088076849 0.46107148678855758 0 -0.4487547857598953 0.46184192836472759 0 -0.44877158856040261 0.44720134362207808 0 -0.43521244088076849 0.46107148678855758 0 -0.43935827984199688 0.47473889959161758 0 -0.4487547857598953 0.46184192836472759 0 -0.44877158856040261 0.44720134362207808 0 -0.44508566455651338 0.43839632914573512 0 -0.44878504691792248 0.43547483269414872 0 -0.44877158856040261 0.44720134362207808 0 -0.44878504691792248 0.43547483269414872 0 -0.43592409671607729 0.44045812782560079 0 -0.44877158856040261 0.44720134362207808 0 -0.44508566455651338 0.43839632914573512 0 -0.44531233658805403 0.42513554986162888 0 -0.44878504691792248 0.43547483269414872 0 -0.44880957839306629 0.41410011360809668 0 -0.44878504691792248 0.43547483269414872 0 -0.44880957839306629 0.41410011360809668 0 -0.43788570063392329 0.43164093021736671 0 -0.44531233658805403 0.42513554986162888 0 -0.44878504691792248 0.43547483269414872 0 -0.43592409671607729 0.44045812782560079 0 -0.44508566455651338 0.43839632914573512 0 -0.43788570063392329 0.43164093021736671 0 -0.44508566455651338 0.43839632914573512 0 -0.43788570063392329 0.43164093021736671 0 -0.44878504691792248 0.43547483269414872 0 -0.44508566455651338 0.43839632914573512 0 -0.44878504691792248 0.43547483269414872 0 -0.44531233658805403 0.42513554986162888 0 -0.44880957839306629 0.41410011360809668 0 -0.42391867717568832 0.41711337076656618 0 -0.44880957839306629 0.41410011360809668 0 -0.46585669794528167 0.42199291516666237 0 -0.4641229039382897 0.40091036417177778 0 -0.44878504691792248 0.43547483269414872 0 -0.46585669794528167 0.42199291516666237 0 -0.44878504691792248 0.43547483269414872 0 -0.44880957839306629 0.41410011360809668 0 -0.46585669794528167 0.42199291516666237 0 -0.44878504691792248 0.43547483269414872 0 -0.46585669794528167 0.42199291516666237 0 -0.46289485375526918 0.43579199928955081 0 -0.47438579428019922 0.44398623686781052 0 -0.46289485375526918 0.43579199928955081 0 -0.48180565015534738 0.42787197640755792 0 -0.46585669794528167 0.42199291516666237 0 -0.46289485375526918 0.43579199928955081 0 -0.48180565015534738 0.42787197640755792 0 -0.46585669794528167 0.42199291516666237 0 -0.48292834897264081 0.4085109976391762 0 -0.4641229039382897 0.40091036417177778 0 -0.46585669794528167 0.42199291516666237 0 -0.48292834897264081 0.4085109976391762 0 -0.46585669794528167 0.42199291516666237 0 -0.48180565015534738 0.42787197640755792 0 -0.48292834897264081 0.4085109976391762 0 -0.48292834897264081 0.4085109976391762 0 -0.5 0.41790010511261683 0 -0.5 0.39502908011169002 0 -0.48180565015534738 0.42787197640755792 0 -0.48292834897264081 0.4085109976391762 0 -0.5 0.41790010511261683 0 -0.49999999999999589 0.44077113011354369 0 -0.48180565015534738 0.42787197640755792 0 -0.5 0.41790010511261683 0 -0.48850556386005051 0.3766603246979251 0 -0.5 0.39502908011169002 0 -0.47832653283541199 0.38608194873200979 0 -0.48850556386005051 0.3766603246979251 0 -0.5 0.39502908011169002 0 -0.5 0.36887446842263683 0 -0.48292834897264081 0.4085109976391762 0 -0.5 0.39502908011169002 0 -0.47832653283541199 0.38608194873200979 0 -0.48292834897264081 0.4085109976391762 0 -0.5 0.39502908011169002 0 -0.48292834897264081 0.4085109976391762 0 -0.47832653283541199 0.38608194873200979 0 -0.4641229039382897 0.40091036417177778 0 -0.48850556386005051 0.3766603246979251 0 -0.47832653283541199 0.38608194873200979 0 -0.48259334700195489 0.36409898273387958 0 -0.47832653283541199 0.38608194873200979 0 -0.46059005399087027 0.38292215568240928 0 -0.4641229039382897 0.40091036417177778 0 -0.47832653283541199 0.38608194873200979 0 -0.46059005399087027 0.38292215568240928 0 -0.46572599417265398 0.36772482908493609 0 -0.44880957839306629 0.41410011360809668 0 -0.4641229039382897 0.40091036417177778 0 -0.44883410986820999 0.3927253945220448 0 -0.46059005399087027 0.38292215568240928 0 -0.4641229039382897 0.40091036417177778 0 -0.44883410986820999 0.3927253945220448 0 -0.44880957839306629 0.41410011360809668 0 -0.44883410986820999 0.3927253945220448 0 -0.43699833754743561 0.40294499431243458 0 -0.44880957839306629 0.41410011360809668 0 -0.44883410986820999 0.3927253945220448 0 -0.44883410986820999 0.3927253945220448 0 -0.43978391516082421 0.3912231797547942 0 -0.43699833754743561 0.40294499431243458 0 -0.44883410986820999 0.3927253945220448 0 -0.43978391516082421 0.3912231797547942 0 -0.44802713623065987 0.37645115623263098 0 -0.44883410986820999 0.3927253945220448 0 -0.44885864134335329 0.37135067543599282 0 -0.44883410986820999 0.3927253945220448 0 -0.44802713623065987 0.37645115623263098 0 -0.44885864134335329 0.37135067543599282 0 -0.43978391516082421 0.3912231797547942 0 -0.44802713623065987 0.37645115623263098 0 -0.42527607699699133 0.39277117395206662 0 -0.46059005399087027 0.38292215568240928 0 -0.44883410986820999 0.3927253945220448 0 -0.44885864134335329 0.37135067543599282 0 -0.44802713623065987 0.37645115623263098 0 -0.4250431626101242 0.37647010748543319 0 -0.42527607699699133 0.39277117395206662 0 -0.44802713623065987 0.37645115623263098 0 -0.42527607699699133 0.39277117395206662 0 -0.4250431626101242 0.37647010748543319 0 -0.4134887672477453 0.38574914578498593 0 -0.40122768387689522 0.38158953953487368 0 -0.4250431626101242 0.37647010748543319 0 -0.40122768387689522 0.38158953953487368 0 -0.4250431626101242 0.37647010748543319 0 -0.4134887672477453 0.38574914578498593 0 -0.42527607699699133 0.39277117395206662 0 -0.4250431626101242 0.37647010748543319 0 -0.40122768387689522 0.38158953953487368 0 -0.40086489287733429 0.37467411733839928 0 -0.4134887672477453 0.38574914578498593 0 -0.40798835104355652 0.39359067917546098 0 -0.40557429982823212 0.38794008425198068 0 -0.4134887672477453 0.38574914578498593 0 -0.40122768387689522 0.38158953953487368 0 -0.40557429982823212 0.38794008425198068 0 -0.40798835104355652 0.39359067917546098 0 -0.42527607699699133 0.39277117395206662 0 -0.40252501776332311 0.40909119167150271 0 -0.42527607699699133 0.39277117395206662 0 -0.40252501776332311 0.40909119167150271 0 -0.4134887672477453 0.38574914578498593 0 -0.40798835104355652 0.39359067917546098 0 -0.42527607699699133 0.39277117395206662 0 -0.42527607699699133 0.39277117395206662 0 -0.43699833754743561 0.40294499431243458 0 -0.42391867717568832 0.41711337076656618 0 -0.43978391516082421 0.3912231797547942 0 -0.42527607699699133 0.39277117395206662 0 -0.43699833754743561 0.40294499431243458 0 -0.44880957839306629 0.41410011360809668 0 -0.43699833754743561 0.40294499431243458 0 -0.42391867717568832 0.41711337076656618 0 -0.44531233658805403 0.42513554986162888 0 -0.42391867717568832 0.41711337076656618 0 -0.43788570063392329 0.43164093021736671 0 -0.44531233658805403 0.42513554986162888 0 -0.42391867717568832 0.41711337076656618 0 -0.43788570063392329 0.43164093021736671 0 -0.42391867717568832 0.41711337076656618 0 -0.42501824733507809 0.43459816807542118 0 -0.43592409671607729 0.44045812782560079 0 -0.43788570063392329 0.43164093021736671 0 -0.42501824733507809 0.43459816807542118 0 -0.42391867717568832 0.41711337076656618 0 -0.42501824733507809 0.43459816807542118 0 -0.40464661760035381 0.43350824459614162 0 -0.42527607699699133 0.39277117395206662 0 -0.42391867717568832 0.41711337076656618 0 -0.40252501776332311 0.40909119167150271 0 -0.42391867717568832 0.41711337076656618 0 -0.40252501776332311 0.40909119167150271 0 -0.40464661760035381 0.43350824459614162 0 -0.42391867717568832 0.41711337076656618 0 -0.40252501776332311 0.40909119167150271 0 -0.40252501776332311 0.40909119167150271 0 -0.37875820238401509 0.42613984176471847 0 -0.40252501776332311 0.40909119167150271 0 -0.40464661760035381 0.43350824459614162 0 -0.37875820238401509 0.42613984176471847 0 -0.38249991962136642 0.44345487931465249 0 -0.40464661760035381 0.43350824459614162 0 -0.37875820238401509 0.42613984176471847 0 -0.40252501776332311 0.40909119167150271 0 -0.37875820238401509 0.42613984176471847 0 -0.37769092578324193 0.39977892163450779 0 -0.37769092578324193 0.39977892163450779 0 -0.38963770449155072 0.39285491215608792 0 -0.37686086334024771 0.38257038446795849 0 -0.40252501776332311 0.40909119167150271 0 -0.37769092578324193 0.39977892163450779 0 -0.38963770449155072 0.39285491215608792 0 -0.40252501776332311 0.40909119167150271 0 -0.37769092578324193 0.39977892163450779 0 -0.37686086334024771 0.38257038446795849 0 -0.39363670834615189 0.38450398520198442 0 -0.40086489287733429 0.37467411733839928 0 -0.38963770449155072 0.39285491215608792 0 -0.37686086334024771 0.38257038446795849 0 -0.39363670834615189 0.38450398520198442 0 -0.37686086334024771 0.38257038446795849 0 -0.40086489287733429 0.37467411733839928 0 -0.37686086334024771 0.38257038446795849 0 -0.40086489287733429 0.37467411733839928 0 -0.39033592763893787 0.37070590072739279 0 -0.39363670834615189 0.38450398520198442 0 -0.40122768387689522 0.38158953953487368 0 -0.39959239714473138 0.39083097251260251 0 -0.38963770449155072 0.39285491215608792 0 -0.39363670834615189 0.38450398520198442 0 -0.39959239714473138 0.39083097251260251 0 -0.39363670834615189 0.38450398520198442 0 -0.40122768387689522 0.38158953953487368 0 -0.40086489287733429 0.37467411733839928 0 -0.40122768387689522 0.38158953953487368 0 -0.40557429982823212 0.38794008425198068 0 -0.39959239714473138 0.39083097251260251 0 -0.40798835104355652 0.39359067917546098 0 -0.40557429982823212 0.38794008425198068 0 -0.39959239714473138 0.39083097251260251 0 -0.40252501776332311 0.40909119167150271 0 -0.38963770449155072 0.39285491215608792 0 -0.39959239714473138 0.39083097251260251 0 -0.40798835104355652 0.39359067917546098 0 -0.40252501776332311 0.40909119167150271 0 -0.39959239714473138 0.39083097251260251 0 -0.3926828114571661 0.35541775914535301 0 -0.40105078960399698 0.34662517948293931 0 -0.40586906590548888 0.3393029225754271 0 -0.3926828114571661 0.35541775914535301 0 -0.39400561065841477 0.34382680172727831 0 -0.40586906590548888 0.3393029225754271 0 -0.3926828114571661 0.35541775914535301 0 -0.40586906590548888 0.3393029225754271 0 -0.3926828114571661 0.35541775914535301 0 -0.39969836615416421 0.35756427730283669 0 -0.39341808057325789 0.36431669671432632 0 -0.3926828114571661 0.35541775914535301 0 -0.40105078960399698 0.34662517948293931 0 -0.39969836615416421 0.35756427730283669 0 -0.3926828114571661 0.35541775914535301 0 -0.39400561065841477 0.34382680172727831 0 -0.38539473684528258 0.34837828204789067 0 -0.40105078960399698 0.34662517948293931 0 -0.40525205349158999 0.35429039595711992 0 -0.40888688292129022 0.34941903462410451 0 -0.40105078960399698 0.34662517948293931 0 -0.4080564418273247 0.34368885170405422 0 -0.40888688292129022 0.34941903462410451 0 -0.40105078960399698 0.34662517948293931 0 -0.40525205349158999 0.35429039595711992 0 -0.39969836615416421 0.35756427730283669 0 -0.40525205349158999 0.35429039595711992 0 -0.39969836615416421 0.35756427730283669 0 -0.40553625032349627 0.36037170931698131 0 -0.40553625032349627 0.36037170931698131 0 -0.40544017780568847 0.3661562974108753 0 -0.40025021147547779 0.36436392320030081 0 -0.40544017780568847 0.3661562974108753 0 -0.40025021147547779 0.36436392320030081 0 -0.397742957241214 0.36844985128713797 0 -0.39969836615416421 0.35756427730283669 0 -0.40553625032349627 0.36037170931698131 0 -0.40025021147547779 0.36436392320030081 0 -0.40544017780568847 0.3661562974108753 0 -0.40086489287733429 0.37467411733839928 0 -0.397742957241214 0.36844985128713797 0 -0.40086489287733429 0.37467411733839928 0 -0.397742957241214 0.36844985128713797 0 -0.39033592763893787 0.37070590072739279 0 -0.397742957241214 0.36844985128713797 0 -0.39341808057325789 0.36431669671432632 0 -0.39033592763893787 0.37070590072739279 0 -0.39969836615416421 0.35756427730283669 0 -0.40025021147547779 0.36436392320030081 0 -0.39341808057325789 0.36431669671432632 0 -0.40025021147547779 0.36436392320030081 0 -0.397742957241214 0.36844985128713797 0 -0.39341808057325789 0.36431669671432632 0 -0.3926828114571661 0.35541775914535301 0 -0.39341808057325789 0.36431669671432632 0 -0.37949655700884349 0.37153259571527891 0 -0.37949655700884349 0.37153259571527891 0 -0.37823932191431281 0.35548757599615399 0 -0.37024808467873749 0.36543132639488701 0 -0.3926828114571661 0.35541775914535301 0 -0.37949655700884349 0.37153259571527891 0 -0.37823932191431281 0.35548757599615399 0 -0.3926828114571661 0.35541775914535301 0 -0.37949655700884349 0.37153259571527891 0 -0.39341808057325789 0.36431669671432632 0 -0.39033592763893787 0.37070590072739279 0 -0.37949655700884349 0.37153259571527891 0 -0.37686086334024771 0.38257038446795849 0 -0.39033592763893787 0.37070590072739279 0 -0.37949655700884349 0.37153259571527891 0 -0.37823932191431281 0.35548757599615399 0 -0.38539473684528258 0.34837828204789067 0 -0.3787015959315434 0.33902802614693439 0 -0.3926828114571661 0.35541775914535301 0 -0.37823932191431281 0.35548757599615399 0 -0.38539473684528258 0.34837828204789067 0 -0.3787015959315434 0.33902802614693439 0 -0.37816355277066899 0.32985684687273281 0 -0.39158393304450312 0.32769252248945308 0 -0.39400561065841477 0.34382680172727831 0 -0.38539473684528258 0.34837828204789067 0 -0.3787015959315434 0.33902802614693439 0 -0.39158393304450312 0.32769252248945308 0 -0.37442838800096029 0.32044424157556423 0 -0.37816355277066899 0.32985684687273281 0 -0.39158393304450312 0.32769252248945308 0 -0.37442838800096029 0.32044424157556423 0 -0.38613629988198012 0.31665983269396758 0 -0.39158393304450312 0.32769252248945308 0 -0.37442838800096029 0.32044424157556423 0 -0.38613629988198012 0.31665983269396758 0 -0.37442838800096029 0.32044424157556423 0 -0.37415321332832258 0.31386652142517069 0 -0.39158393304450312 0.32769252248945308 0 -0.4039094095666334 0.320812311378052 0 -0.40925887999808552 0.33516025262174892 0 -0.38613629988198012 0.31665983269396758 0 -0.39830358576524327 0.31266849694114901 0 -0.39158393304450312 0.32769252248945308 0 -0.39830358576524327 0.31266849694114901 0 -0.39158393304450312 0.32769252248945308 0 -0.4039094095666334 0.320812311378052 0 -0.39830358576524327 0.31266849694114901 0 -0.4039094095666334 0.320812311378052 0 -0.40826549608127172 0.31275764886218971 0 -0.3787015959315434 0.33902802614693439 0 -0.40777024278950652 0.33697950655941222 0 -0.39158393304450312 0.32769252248945308 0 -0.40925887999808552 0.33516025262174892 0 -0.39158393304450312 0.32769252248945308 0 -0.40777024278950652 0.33697950655941222 0 -0.40925887999808552 0.33516025262174892 0 -0.3787015959315434 0.33902802614693439 0 -0.39158393304450312 0.32769252248945308 0 -0.40777024278950652 0.33697950655941222 0 -0.39400561065841477 0.34382680172727831 0 -0.3787015959315434 0.33902802614693439 0 -0.40777024278950652 0.33697950655941222 0 -0.39400561065841477 0.34382680172727831 0 -0.40586906590548888 0.3393029225754271 0 -0.40777024278950652 0.33697950655941222 0 -0.40105078960399698 0.34662517948293931 0 -0.40586906590548888 0.3393029225754271 0 -0.40105078960399698 0.34662517948293931 0 -0.40586906590548888 0.3393029225754271 0 -0.4080564418273247 0.34368885170405422 0 -0.4080564418273247 0.34368885170405422 0 -0.41125860555200922 0.34134685969384471 0 -0.40895905381070002 0.33957121871677393 0 -0.40586906590548888 0.3393029225754271 0 -0.4080564418273247 0.34368885170405422 0 -0.40895905381070002 0.33957121871677393 0 -0.4080564418273247 0.34368885170405422 0 -0.41125860555200922 0.34134685969384471 0 -0.41366919887348358 0.34576378073699821 0 -0.41125860555200922 0.34134685969384471 0 -0.41273643032526569 0.33662953043248711 0 -0.41433336845197538 0.3415594658204692 0 -0.41125860555200922 0.34134685969384471 0 -0.41433336845197538 0.3415594658204692 0 -0.41366919887348358 0.34576378073699821 0 -0.41125860555200922 0.34134685969384471 0 -0.41273643032526569 0.33662953043248711 0 -0.40895905381070002 0.33957121871677393 0 -0.41273643032526569 0.33662953043248711 0 -0.40777024278950652 0.33697950655941222 0 -0.41273643032526569 0.33662953043248711 0 -0.40895905381070002 0.33957121871677393 0 -0.40777024278950652 0.33697950655941222 0 -0.41273643032526569 0.33662953043248711 0 -0.40777024278950652 0.33697950655941222 0 -0.40925887999808552 0.33516025262174892 0 -0.40777024278950652 0.33697950655941222 0 -0.40925887999808552 0.33516025262174892 0 -0.40586906590548888 0.3393029225754271 0 -0.40895905381070002 0.33957121871677393 0 -0.40777024278950652 0.33697950655941222 0 -0.40586906590548888 0.3393029225754271 0 -0.40777024278950652 0.33697950655941222 0 -0.41273643032526569 0.33662953043248711 0 -0.40925887999808552 0.33516025262174892 0 -0.40925887999808552 0.33516025262174892 0 -0.42024067891477529 0.32173946694831868 0 -0.40925887999808552 0.33516025262174892 0 -0.42071708592719742 0.33131558094746122 0 -0.42024067891477529 0.32173946694831868 0 -0.41273643032526569 0.33662953043248711 0 -0.40925887999808552 0.33516025262174892 0 -0.42071708592719742 0.33131558094746122 0 -0.41273643032526569 0.33662953043248711 0 -0.4199209072431685 0.34318781838679219 0 -0.41433336845197538 0.3415594658204692 0 -0.4199209072431685 0.34318781838679219 0 -0.41433336845197538 0.3415594658204692 0 -0.41366919887348358 0.34576378073699821 0 -0.40925887999808552 0.33516025262174892 0 -0.41892768793075841 0.31754462100172592 0 -0.42141481873501418 0.31567829233095179 0 -0.40925887999808552 0.33516025262174892 0 -0.411263050936583 0.31954773430139438 0 -0.41892768793075841 0.31754462100172592 0 -0.40925887999808552 0.33516025262174892 0 -0.42141481873501418 0.31567829233095179 0 -0.40925887999808552 0.33516025262174892 0 -0.42024067891477529 0.32173946694831868 0 -0.42141481873501418 0.31567829233095179 0 -0.411263050936583 0.31954773430139438 0 -0.40826549608127172 0.31275764886218971 0 -0.41647318301620623 0.31168328686166002 0 -0.4039094095666334 0.320812311378052 0 -0.411263050936583 0.31954773430139438 0 -0.40826549608127172 0.31275764886218971 0 -0.4039094095666334 0.320812311378052 0 -0.40925887999808552 0.33516025262174892 0 -0.411263050936583 0.31954773430139438 0 -0.411263050936583 0.31954773430139438 0 -0.41892768793075841 0.31754462100172592 0 -0.41647318301620623 0.31168328686166002 0 -0.41892768793075841 0.31754462100172592 0 -0.42141481873501418 0.31567829233095179 0 -0.41892768793075841 0.31754462100172592 0 -0.42141481873501418 0.31567829233095179 0 -0.41647318301620623 0.31168328686166002 0 -0.42024067891477529 0.32173946694831868 0 -0.43790895006943947 0.32081412042189511 0 -0.43122247783146522 0.30831868127488848 0 -0.42024067891477529 0.32173946694831868 0 -0.42938605365092247 0.3272194948190838 0 -0.43790895006943947 0.32081412042189511 0 -0.42024067891477529 0.32173946694831868 0 -0.42141481873501418 0.31567829233095179 0 -0.43122247783146522 0.30831868127488848 0 -0.42024067891477529 0.32173946694831868 0 -0.43122247783146522 0.30831868127488848 0 -0.42071708592719742 0.33131558094746122 0 -0.42024067891477529 0.32173946694831868 0 -0.42938605365092247 0.3272194948190838 0 -0.42938605365092247 0.3272194948190838 0 -0.43674098495811231 0.33493788649063261 0 -0.43790895006943947 0.32081412042189511 0 -0.43790895006943947 0.32081412042189511 0 -0.4401847358662575 0.3127477530096977 0 -0.43122247783146522 0.30831868127488848 0 -0.41273643032526569 0.33662953043248711 0 -0.43674098495811231 0.33493788649063261 0 -0.42071708592719742 0.33131558094746122 0 -0.42938605365092247 0.3272194948190838 0 -0.43674098495811231 0.33493788649063261 0 -0.41273643032526569 0.33662953043248711 0 -0.4199209072431685 0.34318781838679219 0 -0.43385085243219867 0.34555045147446217 0 -0.41273643032526569 0.33662953043248711 0 -0.42071708592719742 0.33131558094746122 0 -0.43674098495811231 0.33493788649063261 0 -0.41273643032526569 0.33662953043248711 0 -0.43385085243219867 0.34555045147446217 0 -0.41273643032526569 0.33662953043248711 0 -0.43674098495811231 0.33493788649063261 0 -0.43385085243219867 0.34555045147446217 0 -0.43385085243219867 0.34555045147446217 0 -0.4302486007270056 0.35272204188882378 0 -0.42573384958437638 0.34916959158482058 0 -0.43385085243219867 0.34555045147446217 0 -0.43539550265875948 0.35741731211322858 0 -0.44110397924445488 0.35756373905142852 0 -0.43539550265875948 0.35741731211322858 0 -0.4302486007270056 0.35272204188882378 0 -0.42757171946388478 0.35850981688022993 0 -0.43385085243219867 0.34555045147446217 0 -0.43539550265875948 0.35741731211322858 0 -0.4302486007270056 0.35272204188882378 0 -0.4302486007270056 0.35272204188882378 0 -0.42480748600639012 0.35482075793933809 0 -0.42573384958437638 0.34916959158482058 0 -0.4302486007270056 0.35272204188882378 0 -0.42757171946388478 0.35850981688022993 0 -0.42480748600639012 0.35482075793933809 0 -0.42757171946388478 0.35850981688022993 0 -0.42480748600639012 0.35482075793933809 0 -0.42195212413097077 0.36043988011418487 0 -0.4199209072431685 0.34318781838679219 0 -0.43385085243219867 0.34555045147446217 0 -0.42573384958437638 0.34916959158482058 0 -0.42480748600639012 0.35482075793933809 0 -0.42573384958437638 0.34916959158482058 0 -0.41984140151311927 0.3495668882346864 0 -0.4199209072431685 0.34318781838679219 0 -0.42573384958437638 0.34916959158482058 0 -0.41984140151311927 0.3495668882346864 0 -0.4199209072431685 0.34318781838679219 0 -0.41984140151311927 0.3495668882346864 0 -0.41366919887348358 0.34576378073699821 0 -0.41984140151311927 0.3495668882346864 0 -0.41366919887348358 0.34576378073699821 0 -0.41404230344944593 0.35073751764187411 0 -0.42480748600639012 0.35482075793933809 0 -0.41984140151311927 0.3495668882346864 0 -0.41755863725870102 0.35684421707679032 0 -0.42480748600639012 0.35482075793933809 0 -0.41755863725870102 0.35684421707679032 0 -0.42195212413097077 0.36043988011418487 0 -0.41984140151311927 0.3495668882346864 0 -0.41755863725870102 0.35684421707679032 0 -0.41404230344944593 0.35073751764187411 0 -0.41755863725870102 0.35684421707679032 0 -0.41125051028190041 0.35540848222164118 0 -0.41404230344944593 0.35073751764187411 0 -0.41125051028190041 0.35540848222164118 0 -0.40888688292129022 0.34941903462410451 0 -0.41404230344944593 0.35073751764187411 0 -0.41755863725870102 0.35684421707679032 0 -0.41125051028190041 0.35540848222164118 0 -0.41142088061722581 0.36176204086772412 0 -0.40553625032349627 0.36037170931698131 0 -0.41125051028190041 0.35540848222164118 0 -0.41142088061722581 0.36176204086772412 0 -0.40525205349158999 0.35429039595711992 0 -0.40553625032349627 0.36037170931698131 0 -0.41125051028190041 0.35540848222164118 0 -0.40525205349158999 0.35429039595711992 0 -0.41125051028190041 0.35540848222164118 0 -0.40888688292129022 0.34941903462410451 0 -0.4080564418273247 0.34368885170405422 0 -0.40888688292129022 0.34941903462410451 0 -0.41366919887348358 0.34576378073699821 0 -0.40888688292129022 0.34941903462410451 0 -0.41366919887348358 0.34576378073699821 0 -0.41404230344944593 0.35073751764187411 0 -0.4250431626101242 0.37647010748543319 0 -0.40086489287733429 0.37467411733839928 0 -0.42486892241442098 0.36677785020884007 0 -0.40086489287733429 0.37467411733839928 0 -0.42486892241442098 0.36677785020884007 0 -0.40086489287733429 0.37467411733839928 0 -0.41378193274770297 0.36450427419225789 0 -0.42486892241442098 0.36677785020884007 0 -0.40544017780568847 0.3661562974108753 0 -0.40086489287733429 0.37467411733839928 0 -0.41378193274770297 0.36450427419225789 0 -0.40544017780568847 0.3661562974108753 0 -0.41142088061722581 0.36176204086772412 0 -0.41378193274770297 0.36450427419225789 0 -0.40553625032349627 0.36037170931698131 0 -0.40544017780568847 0.3661562974108753 0 -0.41142088061722581 0.36176204086772412 0 -0.41755863725870102 0.35684421707679032 0 -0.41378193274770297 0.36450427419225789 0 -0.42195212413097077 0.36043988011418487 0 -0.41378193274770297 0.36450427419225789 0 -0.42486892241442098 0.36677785020884007 0 -0.42195212413097077 0.36043988011418487 0 -0.41755863725870102 0.35684421707679032 0 -0.41142088061722581 0.36176204086772412 0 -0.41378193274770297 0.36450427419225789 0 -0.4250431626101242 0.37647010748543319 0 -0.44885864134335329 0.37135067543599282 0 -0.4250431626101242 0.37647010748543319 0 -0.42486892241442098 0.36677785020884007 0 -0.44885864134335329 0.37135067543599282 0 -0.42486892241442098 0.36677785020884007 0 -0.448872951951507 0.35888158307927881 0 -0.43539550265875948 0.35741731211322858 0 -0.42486892241442098 0.36677785020884007 0 -0.44110397924445488 0.35756373905142852 0 -0.43539550265875948 0.35741731211322858 0 -0.42757171946388478 0.35850981688022993 0 -0.42486892241442098 0.36677785020884007 0 -0.42757171946388478 0.35850981688022993 0 -0.42486892241442098 0.36677785020884007 0 -0.42195212413097077 0.36043988011418487 0 -0.42486892241442098 0.36677785020884007 0 -0.44885864134335329 0.37135067543599282 0 -0.448872951951507 0.35888158307927881 0 -0.44802713623065987 0.37645115623263098 0 -0.4250431626101242 0.37647010748543319 0 -0.44885864134335329 0.37135067543599282 0 -0.42486892241442098 0.36677785020884007 0 -0.44110397924445488 0.35756373905142852 0 -0.448872951951507 0.35888158307927881 0 -0.44885864134335329 0.37135067543599282 0 -0.448872951951507 0.35888158307927881 0 -0.44885864134335329 0.37135067543599282 0 -0.448872951951507 0.35888158307927881 0 -0.45634368000688869 0.36512471152292858 0 -0.43385085243219867 0.34555045147446217 0 -0.45496527453913199 0.35447137251643651 0 -0.44889299330712729 0.34242966823447613 0 -0.43385085243219867 0.34555045147446217 0 -0.45496527453913199 0.35447137251643651 0 -0.43385085243219867 0.34555045147446217 0 -0.44887533288597797 0.35680703170406669 0 -0.45496527453913199 0.35447137251643651 0 -0.43385085243219867 0.34555045147446217 0 -0.44110397924445488 0.35756373905142852 0 -0.44887533288597797 0.35680703170406669 0 -0.44110397924445488 0.35756373905142852 0 -0.44887533288597797 0.35680703170406669 0 -0.448872951951507 0.35888158307927881 0 -0.44887533288597797 0.35680703170406669 0 -0.448872951951507 0.35888158307927881 0 -0.44887533288597797 0.35680703170406669 0 -0.448872951951507 0.35888158307927881 0 -0.45496527453913199 0.35447137251643651 0 -0.448872951951507 0.35888158307927881 0 -0.45496527453913199 0.35447137251643651 0 -0.47186707529616939 0.3513175305497272 0 -0.448872951951507 0.35888158307927881 0 -0.47186707529616939 0.3513175305497272 0 -0.448872951951507 0.35888158307927881 0 -0.45634368000688869 0.36512471152292858 0 -0.47186707529616939 0.3513175305497272 0 -0.45911772068334677 0.34536620346235469 0 -0.45496527453913199 0.35447137251643651 0 -0.47186707529616939 0.3513175305497272 0 -0.45911772068334677 0.34536620346235469 0 -0.45496527453913199 0.35447137251643651 0 -0.44889299330712729 0.34242966823447613 0 -0.46572599417265398 0.36772482908493609 0 -0.45634368000688869 0.36512471152292858 0 -0.47186707529616939 0.3513175305497272 0 -0.46059005399087027 0.38292215568240928 0 -0.44885864134335329 0.37135067543599282 0 -0.46572599417265398 0.36772482908493609 0 -0.44885864134335329 0.37135067543599282 0 -0.46572599417265398 0.36772482908493609 0 -0.44885864134335329 0.37135067543599282 0 -0.46572599417265398 0.36772482908493609 0 -0.45634368000688869 0.36512471152292858 0 -0.47832653283541199 0.38608194873200979 0 -0.46572599417265398 0.36772482908493609 0 -0.48259334700195489 0.36409898273387958 0 -0.46572599417265398 0.36772482908493609 0 -0.48259334700195489 0.36409898273387958 0 -0.47186707529616939 0.3513175305497272 0 -0.46572599417265398 0.36772482908493609 0 -0.48259334700195489 0.36409898273387958 0 -0.47186707529616939 0.3513175305497272 0 -0.494861198640831 0.34375347802017348 0 -0.47186707529616939 0.3513175305497272 0 -0.48536711719674469 0.35339641184703091 0 -0.494861198640831 0.34375347802017348 0 -0.48259334700195489 0.36409898273387958 0 -0.47186707529616939 0.3513175305497272 0 -0.48536711719674469 0.35339641184703091 0 -0.48259334700195489 0.36409898273387958 0 -0.49214684784802371 0.35441565608434311 0 -0.48536711719674469 0.35339641184703091 0 -0.49214684784802371 0.35441565608434311 0 -0.5 0.36887446842263683 0 -0.5 0.34271985673358363 0 -0.49214684784802371 0.35441565608434311 0 -0.48536711719674469 0.35339641184703091 0 -0.494861198640831 0.34375347802017348 0 -0.49214684784802371 0.35441565608434311 0 -0.494861198640831 0.34375347802017348 0 -0.5 0.34271985673358363 0 -0.48850556386005051 0.3766603246979251 0 -0.48259334700195489 0.36409898273387958 0 -0.5 0.36887446842263683 0 -0.48259334700195489 0.36409898273387958 0 -0.49214684784802371 0.35441565608434311 0 -0.5 0.36887446842263683 0 -0.485708092488497 0.3189911195031831 0 -0.5 0.31656524504453032 0 -0.48475009422380527 0.3315545986069256 0 -0.485708092488497 0.3189911195031831 0 -0.5 0.31656524504453032 0 -0.48583489694974541 0.30845327583860088 0 -0.5 0.31656524504453032 0 -0.5 0.34271985673358363 0 -0.48475009422380527 0.3315545986069256 0 -0.494861198640831 0.34375347802017348 0 -0.5 0.34271985673358363 0 -0.48475009422380527 0.3315545986069256 0 -0.48475009422380527 0.3315545986069256 0 -0.46074553959095882 0.3332462425487791 0 -0.47186707529616939 0.3513175305497272 0 -0.494861198640831 0.34375347802017348 0 -0.48475009422380527 0.3315545986069256 0 -0.47186707529616939 0.3513175305497272 0 -0.48475009422380527 0.3315545986069256 0 -0.46074553959095882 0.3332462425487791 0 -0.48475009422380527 0.3315545986069256 0 -0.47224737878043732 0.31939135852267558 0 -0.46074553959095882 0.3332462425487791 0 -0.485708092488497 0.3189911195031831 0 -0.48475009422380527 0.3315545986069256 0 -0.47224737878043732 0.31939135852267558 0 -0.485708092488497 0.3189911195031831 0 -0.47224737878043732 0.31939135852267558 0 -0.48583489694974541 0.30845327583860088 0 -0.47224737878043732 0.31939135852267558 0 -0.46258830912673421 0.31343425170936878 0 -0.46074553959095882 0.3332462425487791 0 -0.46258830912673421 0.31343425170936878 0 -0.46074553959095882 0.3332462425487791 0 -0.45107709460752138 0.31557533431346357 0 -0.45911772068334677 0.34536620346235469 0 -0.47186707529616939 0.3513175305497272 0 -0.46074553959095882 0.3332462425487791 0 -0.45911772068334677 0.34536620346235469 0 -0.46074553959095882 0.3332462425487791 0 -0.44889299330712729 0.34242966823447613 0 -0.43674098495811231 0.33493788649063261 0 -0.46074553959095882 0.3332462425487791 0 -0.43674098495811231 0.33493788649063261 0 -0.46074553959095882 0.3332462425487791 0 -0.44889299330712729 0.34242966823447613 0 -0.43674098495811231 0.33493788649063261 0 -0.46074553959095882 0.3332462425487791 0 -0.43790895006943947 0.32081412042189511 0 -0.43674098495811231 0.33493788649063261 0 -0.43385085243219867 0.34555045147446217 0 -0.44889299330712729 0.34242966823447613 0 -0.46074553959095882 0.3332462425487791 0 -0.45107709460752138 0.31557533431346357 0 -0.43790895006943947 0.32081412042189511 0 -0.45107709460752138 0.31557533431346357 0 -0.43790895006943947 0.32081412042189511 0 -0.4401847358662575 0.3127477530096977 0 -0.44444415583193408 0.29216055381020578 0 -0.43122247783146522 0.30831868127488848 0 -0.44810052680614793 0.29565349026271098 0 -0.43122247783146522 0.30831868127488848 0 -0.44368336155109173 0.30649675881006838 0 -0.44810052680614793 0.29565349026271098 0 -0.43122247783146522 0.30831868127488848 0 -0.4401847358662575 0.3127477530096977 0 -0.44368336155109173 0.30649675881006838 0 -0.43122247783146522 0.30831868127488848 0 -0.44444415583193408 0.29216055381020578 0 -0.44810052680614793 0.29565349026271098 0 -0.43122247783146522 0.30831868127488848 0 -0.45107709460752138 0.31557533431346357 0 -0.4401847358662575 0.3127477530096977 0 -0.44368336155109173 0.30649675881006838 0 -0.44368336155109173 0.30649675881006838 0 -0.44996115485610377 0.3015940899144034 0 -0.4551770389262465 0.30483297142504889 0 -0.44368336155109173 0.30649675881006838 0 -0.44996115485610377 0.3015940899144034 0 -0.44810052680614793 0.29565349026271098 0 -0.45288369214092922 0.29939313915978533 0 -0.44996115485610377 0.3015940899144034 0 -0.44810052680614793 0.29565349026271098 0 -0.45288369214092922 0.29939313915978533 0 -0.44996115485610377 0.3015940899144034 0 -0.4551770389262465 0.30483297142504889 0 -0.45107709460752138 0.31557533431346357 0 -0.44368336155109173 0.30649675881006838 0 -0.4551770389262465 0.30483297142504889 0 -0.44702735364695217 0.27675533545947301 0 -0.43422108619098299 0.29621681389521232 0 -0.44444415583193408 0.29216055381020578 0 -0.44702735364695217 0.27675533545947301 0 -0.43422108619098299 0.29621681389521232 0 -0.44702735364695217 0.27675533545947301 0 -0.43274811138672559 0.28469846643612018 0 -0.43422108619098299 0.29621681389521232 0 -0.44810052680614793 0.29565349026271098 0 -0.4493542421043164 0.28919027156790111 0 -0.45395006383388498 0.28587005882998617 0 -0.44444415583193408 0.29216055381020578 0 -0.44810052680614793 0.29565349026271098 0 -0.4493542421043164 0.28919027156790111 0 -0.44444415583193408 0.29216055381020578 0 -0.4493542421043164 0.28919027156790111 0 -0.44702735364695217 0.27675533545947301 0 -0.4493542421043164 0.28919027156790111 0 -0.45395006383388498 0.28587005882998617 0 -0.44702735364695217 0.27675533545947301 0 -0.44810052680614793 0.29565349026271098 0 -0.45395006383388498 0.28587005882998617 0 -0.46497857578083068 0.28298829925053381 0 -0.44810052680614793 0.29565349026271098 0 -0.4593999708052337 0.29480301670676529 0 -0.46497857578083068 0.28298829925053381 0 -0.44810052680614793 0.29565349026271098 0 -0.46497857578083068 0.28298829925053381 0 -0.45288369214092922 0.29939313915978533 0 -0.44810052680614793 0.29565349026271098 0 -0.4593999708052337 0.29480301670676529 0 -0.4593999708052337 0.29480301670676529 0 -0.46827174088950307 0.29409138505043392 0 -0.46497857578083068 0.28298829925053381 0 -0.46258830912673421 0.31343425170936878 0 -0.45107709460752138 0.31557533431346357 0 -0.4551770389262465 0.30483297142504889 0 -0.45288369214092922 0.29939313915978533 0 -0.4593999708052337 0.29480301670676529 0 -0.4551770389262465 0.30483297142504889 0 -0.4593999708052337 0.29480301670676529 0 -0.4551770389262465 0.30483297142504889 0 -0.46625021185001803 0.30380681263807602 0 -0.4593999708052337 0.29480301670676529 0 -0.46827174088950307 0.29409138505043392 0 -0.46625021185001803 0.30380681263807602 0 -0.47224737878043732 0.31939135852267558 0 -0.46258830912673421 0.31343425170936878 0 -0.46625021185001803 0.30380681263807602 0 -0.46258830912673421 0.31343425170936878 0 -0.4551770389262465 0.30483297142504889 0 -0.46625021185001803 0.30380681263807602 0 -0.47551717359816043 0.30301602212345602 0 -0.4769183937012712 0.29196404103452073 0 -0.48583489694974541 0.30845327583860088 0 -0.47224737878043732 0.31939135852267558 0 -0.46625021185001803 0.30380681263807602 0 -0.47551717359816043 0.30301602212345602 0 -0.47224737878043732 0.31939135852267558 0 -0.47551717359816043 0.30301602212345602 0 -0.48583489694974541 0.30845327583860088 0 -0.46827174088950307 0.29409138505043392 0 -0.46625021185001803 0.30380681263807602 0 -0.47551717359816043 0.30301602212345602 0 -0.46827174088950307 0.29409138505043392 0 -0.46497857578083068 0.28298829925053381 0 -0.4769183937012712 0.29196404103452073 0 -0.4769183937012712 0.29196404103452073 0 -0.48757792524538679 0.2814999319082685 0 -0.48583489694974541 0.30845327583860088 0 -0.46827174088950307 0.29409138505043392 0 -0.47551717359816043 0.30301602212345602 0 -0.4769183937012712 0.29196404103452073 0 -0.46497857578083068 0.28298829925053381 0 -0.47783287987075052 0.28169384510791978 0 -0.4769183937012712 0.29196404103452073 0 -0.47783287987075052 0.28169384510791978 0 -0.4769183937012712 0.29196404103452073 0 -0.48757792524538679 0.2814999319082685 0 -0.5 0.29041063335547701 0 -0.48757792524538679 0.2814999319082685 0 -0.48583489694974541 0.30845327583860088 0 -0.48757792524538679 0.2814999319082685 0 -0.48583489694974541 0.30845327583860088 0 -0.5 0.31656524504453032 0 -0.5 0.29041063335547701 0 -0.48583489694974541 0.30845327583860088 0 -0.5 0.23810140997737081 0 -0.5 0.26425602166642381 0 -0.48932095354102823 0.25454658797793611 0 -0.48757792524538679 0.2814999319082685 0 -0.48932095354102823 0.25454658797793611 0 -0.48366697684514259 0.26703881783025729 0 -0.48757792524538679 0.2814999319082685 0 -0.5 0.26425602166642381 0 -0.48932095354102823 0.25454658797793611 0 -0.48757792524538679 0.2814999319082685 0 -0.48932095354102823 0.25454658797793611 0 -0.5 0.29041063335547701 0 -0.48757792524538679 0.2814999319082685 0 -0.5 0.26425602166642381 0 -0.46497857578083068 0.28298829925053381 0 -0.48185662475551339 0.27032310823835648 0 -0.46497857578083068 0.28298829925053381 0 -0.47783287987075052 0.28169384510791978 0 -0.48185662475551339 0.27032310823835648 0 -0.48366697684514259 0.26703881783025729 0 -0.45893043448094739 0.2699305570534084 0 -0.48757792524538679 0.2814999319082685 0 -0.48366697684514259 0.26703881783025729 0 -0.48185662475551339 0.27032310823835648 0 -0.48366697684514259 0.26703881783025729 0 -0.48185662475551339 0.27032310823835648 0 -0.47235815296560851 0.27257019559313889 0 -0.46497857578083068 0.28298829925053381 0 -0.48185662475551339 0.27032310823835648 0 -0.47235815296560851 0.27257019559313889 0 -0.48366697684514259 0.26703881783025729 0 -0.46959483388743167 0.25994315597580908 0 -0.45893043448094739 0.2699305570534084 0 -0.48366697684514259 0.26703881783025729 0 -0.47235815296560851 0.27257019559313889 0 -0.45893043448094739 0.2699305570534084 0 -0.47783287987075052 0.28169384510791978 0 -0.48757792524538679 0.2814999319082685 0 -0.48185662475551339 0.27032310823835648 0 -0.48932095354102823 0.25454658797793611 0 -0.48366697684514259 0.26703881783025729 0 -0.47792533453874358 0.25606878273296479 0 -0.48366697684514259 0.26703881783025729 0 -0.46959483388743167 0.25994315597580908 0 -0.47792533453874358 0.25606878273296479 0 -0.47864167104372218 0.246590621409366 0 -0.48932095354102823 0.25454658797793611 0 -0.47792533453874358 0.25606878273296479 0 -0.47864167104372218 0.246590621409366 0 -0.47792533453874358 0.25606878273296479 0 -0.46938038244821267 0.25133041049185839 0 -0.46959483388743167 0.25994315597580908 0 -0.47792533453874358 0.25606878273296479 0 -0.46938038244821267 0.25133041049185839 0 -0.46959483388743167 0.25994315597580908 0 -0.46938038244821267 0.25133041049185839 0 -0.45807104112411212 0.25534721177055669 0 -0.46959483388743167 0.25994315597580908 0 -0.45807104112411212 0.25534721177055669 0 -0.45893043448094739 0.2699305570534084 0 -0.45807104112411212 0.25534721177055669 0 -0.45893043448094739 0.2699305570534084 0 -0.44442574262614493 0.25832327296872359 0 -0.45395006383388498 0.28587005882998617 0 -0.46497857578083068 0.28298829925053381 0 -0.45893043448094739 0.2699305570534084 0 -0.45395006383388498 0.28587005882998617 0 -0.45893043448094739 0.2699305570534084 0 -0.44702735364695217 0.27675533545947301 0 -0.46497857578083068 0.28298829925053381 0 -0.47235815296560851 0.27257019559313889 0 -0.45893043448094739 0.2699305570534084 0 -0.45893043448094739 0.2699305570534084 0 -0.43419389211675241 0.27282229627655952 0 -0.45893043448094739 0.2699305570534084 0 -0.44442574262614493 0.25832327296872359 0 -0.43419389211675241 0.27282229627655952 0 -0.45893043448094739 0.2699305570534084 0 -0.44702735364695217 0.27675533545947301 0 -0.43419389211675241 0.27282229627655952 0 -0.44702735364695217 0.27675533545947301 0 -0.43419389211675241 0.27282229627655952 0 -0.43274811138672559 0.28469846643612018 0 -0.45046339488490522 0.249057113070103 0 -0.45807104112411212 0.25534721177055669 0 -0.44442574262614493 0.25832327296872359 0 -0.44062222049055039 0.24203477259657111 0 -0.44442574262614493 0.25832327296872359 0 -0.42503978512155383 0.25887440404814072 0 -0.44062222049055039 0.24203477259657111 0 -0.42503978512155383 0.25887440404814072 0 -0.44442574262614493 0.25832327296872359 0 -0.42503978512155383 0.25887440404814072 0 -0.43419389211675241 0.27282229627655952 0 -0.42503978512155383 0.25887440404814072 0 -0.40945734975255721 0.27571403549971041 0 -0.40585136056822319 0.25674789398696107 0 -0.4198454647722451 0.23985190764030939 0 -0.42503978512155383 0.25887440404814072 0 -0.40585136056822319 0.25674789398696107 0 -0.40945734975255721 0.27571403549971041 0 -0.43419389211675241 0.27282229627655952 0 -0.42503978512155383 0.25887440404814072 0 -0.40945734975255721 0.27571403549971041 0 -0.42503978512155383 0.25887440404814072 0 -0.40945734975255721 0.27571403549971041 0 -0.43419389211675241 0.27282229627655952 0 -0.40945734975255721 0.27571403549971041 0 -0.43419389211675241 0.27282229627655952 0 -0.4229835889384117 0.28415291652507912 0 -0.43419389211675241 0.27282229627655952 0 -0.43274811138672559 0.28469846643612018 0 -0.4229835889384117 0.28415291652507912 0 -0.43274811138672559 0.28469846643612018 0 -0.43422108619098299 0.29621681389521232 0 -0.42519236151645012 0.29288975242762622 0 -0.43274811138672559 0.28469846643612018 0 -0.42519236151645012 0.29288975242762622 0 -0.4229835889384117 0.28415291652507912 0 -0.42141481873501418 0.31567829233095179 0 -0.43422108619098299 0.29621681389521232 0 -0.42141481873501418 0.31567829233095179 0 -0.43422108619098299 0.29621681389521232 0 -0.42237726971740519 0.30236741203524931 0 -0.44444415583193408 0.29216055381020578 0 -0.43422108619098299 0.29621681389521232 0 -0.43122247783146522 0.30831868127488848 0 -0.42141481873501418 0.31567829233095179 0 -0.43422108619098299 0.29621681389521232 0 -0.43122247783146522 0.30831868127488848 0 -0.43422108619098299 0.29621681389521232 0 -0.42519236151645012 0.29288975242762622 0 -0.42237726971740519 0.30236741203524931 0 -0.42141481873501418 0.31567829233095179 0 -0.43122247783146522 0.30831868127488848 0 -0.42237726971740519 0.30236741203524931 0 -0.41647318301620623 0.31168328686166002 0 -0.40812109447663159 0.30329838776079099 0 -0.42141481873501418 0.31567829233095179 0 -0.42237726971740519 0.30236741203524931 0 -0.41647318301620623 0.31168328686166002 0 -0.42237726971740519 0.30236741203524931 0 -0.40812109447663159 0.30329838776079099 0 -0.41256551749876041 0.29129965580367562 0 -0.40826549608127172 0.31275764886218971 0 -0.41647318301620623 0.31168328686166002 0 -0.40812109447663159 0.30329838776079099 0 -0.40945734975255721 0.27571403549971041 0 -0.4229835889384117 0.28415291652507912 0 -0.41256551749876041 0.29129965580367562 0 -0.42519236151645012 0.29288975242762622 0 -0.4229835889384117 0.28415291652507912 0 -0.41256551749876041 0.29129965580367562 0 -0.42519236151645012 0.29288975242762622 0 -0.42237726971740519 0.30236741203524931 0 -0.41256551749876041 0.29129965580367562 0 -0.40945734975255721 0.27571403549971041 0 -0.39180528154043992 0.29479027846244049 0 -0.39350738277932218 0.27757861076756318 0 -0.40945734975255721 0.27571403549971041 0 -0.39180528154043992 0.29479027846244049 0 -0.40812109447663159 0.30329838776079099 0 -0.41256551749876041 0.29129965580367562 0 -0.39180528154043992 0.29479027846244049 0 -0.40945734975255721 0.27571403549971041 0 -0.41256551749876041 0.29129965580367562 0 -0.39180528154043992 0.29479027846244049 0 -0.38613629988198012 0.31665983269396758 0 -0.39830358576524327 0.31266849694114901 0 -0.39180528154043992 0.29479027846244049 0 -0.39830358576524327 0.31266849694114901 0 -0.40812109447663159 0.30329838776079099 0 -0.39180528154043992 0.29479027846244049 0 -0.39830358576524327 0.31266849694114901 0 -0.40826549608127172 0.31275764886218971 0 -0.40812109447663159 0.30329838776079099 0 -0.39180528154043992 0.29479027846244049 0 -0.37819889022761238 0.29924868842846319 0 -0.37415321332832258 0.31386652142517069 0 -0.38613629988198012 0.31665983269396758 0 -0.39180528154043992 0.29479027846244049 0 -0.37415321332832258 0.31386652142517069 0 -0.39180528154043992 0.29479027846244049 0 -0.37415321332832258 0.31386652142517069 0 -0.39180528154043992 0.29479027846244049 0 -0.37819889022761238 0.29924868842846319 0 -0.37870614451813112 0.28175948497688769 0 -0.39180528154043992 0.29479027846244049 0 -0.37870614451813112 0.28175948497688769 0 -0.39350738277932218 0.27757861076756318 0 -0.37870614451813112 0.28175948497688769 0 -0.37647038179830861 0.26645711442365799 0 -0.39350738277932218 0.27757861076756318 0 -0.37647038179830861 0.26645711442365799 0 -0.39336972403141229 0.26369738761855421 0 -0.39350738277932218 0.27757861076756318 0 -0.38790582398472923 0.24962922847932231 0 -0.37647038179830861 0.26645711442365799 0 -0.39336972403141229 0.26369738761855421 0 -0.38790582398472923 0.24962922847932231 0 -0.37647038179830861 0.26645711442365799 0 -0.36318679658289171 0.25196182354824148 0 -0.40945734975255721 0.27571403549971041 0 -0.40585136056822319 0.25674789398696107 0 -0.39336972403141229 0.26369738761855421 0 -0.38790582398472923 0.24962922847932231 0 -0.40585136056822319 0.25674789398696107 0 -0.39336972403141229 0.26369738761855421 0 -0.40945734975255721 0.27571403549971041 0 -0.39336972403141229 0.26369738761855421 0 -0.39350738277932218 0.27757861076756318 0 -0.40945734975255721 0.27571403549971041 0 -0.39350738277932218 0.27757861076756318 0 -0.35583614606747688 0.27501819518035592 0 -0.36318679658289171 0.25196182354824148 0 -0.33952374355129727 0.25899057541505788 0 -0.37647038179830861 0.26645711442365799 0 -0.35583614606747688 0.27501819518035592 0 -0.36318679658289171 0.25196182354824148 0 -0.37870614451813112 0.28175948497688769 0 -0.37647038179830861 0.26645711442365799 0 -0.35583614606747688 0.27501819518035592 0 -0.37819889022761238 0.29924868842846319 0 -0.37870614451813112 0.28175948497688769 0 -0.36775571630023218 0.2927315942663431 0 -0.37870614451813112 0.28175948497688769 0 -0.35583614606747688 0.27501819518035592 0 -0.36775571630023218 0.2927315942663431 0 -0.37819889022761238 0.29924868842846319 0 -0.36899777432263853 0.30469822459034263 0 -0.37415321332832258 0.31386652142517069 0 -0.36899777432263853 0.30469822459034263 0 -0.36272901898995358 0.31473918551029578 0 -0.37415321332832258 0.31386652142517069 0 -0.37819889022761238 0.29924868842846319 0 -0.36775571630023218 0.2927315942663431 0 -0.36899777432263853 0.30469822459034263 0 -0.36775571630023218 0.2927315942663431 0 -0.36899777432263853 0.30469822459034263 0 -0.35931620367806588 0.30475084950198522 0 -0.36775571630023218 0.2927315942663431 0 -0.35931620367806588 0.30475084950198522 0 -0.35261706249820868 0.29381533636168528 0 -0.36899777432263853 0.30469822459034263 0 -0.35931620367806588 0.30475084950198522 0 -0.36272901898995358 0.31473918551029578 0 -0.35931620367806588 0.30475084950198522 0 -0.35261706249820868 0.29381533636168528 0 -0.34344143829887858 0.30736403781452232 0 -0.35931620367806588 0.30475084950198522 0 -0.34344143829887858 0.30736403781452232 0 -0.35467675850453528 0.31743756764607989 0 -0.35931620367806588 0.30475084950198522 0 -0.35467675850453528 0.31743756764607989 0 -0.36272901898995358 0.31473918551029578 0 -0.35583614606747688 0.27501819518035592 0 -0.36775571630023218 0.2927315942663431 0 -0.35261706249820868 0.29381533636168528 0 -0.35583614606747688 0.27501819518035592 0 -0.35261706249820868 0.29381533636168528 0 -0.33673580814638959 0.28921200504521999 0 -0.35261706249820868 0.29381533636168528 0 -0.33673580814638959 0.28921200504521999 0 -0.34344143829887858 0.30736403781452232 0 -0.33673580814638959 0.28921200504521999 0 -0.32075162894010661 0.28280614760534989 0 -0.33379142081270979 0.2734424933293601 0 -0.34344143829887858 0.30736403781452232 0 -0.31699951866320542 0.30755322334125379 0 -0.34344143829887858 0.30736403781452232 0 -0.31699951866320542 0.30755322334125379 0 -0.33459812393413729 0.32207732583041709 0 -0.33673580814638959 0.28921200504521999 0 -0.34344143829887858 0.30736403781452232 0 -0.31699951866320542 0.30755322334125379 0 -0.33673580814638959 0.28921200504521999 0 -0.31699951866320542 0.30755322334125379 0 -0.32075162894010661 0.28280614760534989 0 -0.31699951866320542 0.30755322334125379 0 -0.32075162894010661 0.28280614760534989 0 -0.30493521127791462 0.28695781074044469 0 -0.32075162894010661 0.28280614760534989 0 -0.31931282352829687 0.26617321261290411 0 -0.33379142081270979 0.2734424933293601 0 -0.32075162894010661 0.28280614760534989 0 -0.31931282352829687 0.26617321261290411 0 -0.30493521127791462 0.28695781074044469 0 -0.35583614606747688 0.27501819518035592 0 -0.33673580814638959 0.28921200504521999 0 -0.33379142081270979 0.2734424933293601 0 -0.35583614606747688 0.27501819518035592 0 -0.33379142081270979 0.2734424933293601 0 -0.33952374355129727 0.25899057541505788 0 -0.31931282352829687 0.26617321261290411 0 -0.33379142081270979 0.2734424933293601 0 -0.33952374355129727 0.25899057541505788 0 -0.32200613725511351 0.24850726385495631 0 -0.31931282352829687 0.26617321261290411 0 -0.33952374355129727 0.25899057541505788 0 -0.32200613725511351 0.24850726385495631 0 -0.31931282352829687 0.26617321261290411 0 -0.30640548876467488 0.25787073169030861 0 -0.31931282352829687 0.26617321261290411 0 -0.30640548876467488 0.25787073169030861 0 -0.3010630097917536 0.27273037638764702 0 -0.31931282352829687 0.26617321261290411 0 -0.3010630097917536 0.27273037638764702 0 -0.30493521127791462 0.28695781074044469 0 -0.31931282352829687 0.26617321261290411 0 -0.30493521127791462 0.28695781074044469 0 -0.3010630097917536 0.27273037638764702 0 -0.29309283898050847 0.28048055459605348 0 -0.30493521127791462 0.28695781074044469 0 -0.3010630097917536 0.27273037638764702 0 -0.29309283898050847 0.28048055459605348 0 -0.28156868640737281 0.27216957229852412 0 -0.30640548876467488 0.25787073169030861 0 -0.3010630097917536 0.27273037638764702 0 -0.28156868640737281 0.27216957229852412 0 -0.30640548876467488 0.25787073169030861 0 -0.28156868640737281 0.27216957229852412 0 -0.28729818335365731 0.26780124082781631 0 -0.28156868640737281 0.27216957229852412 0 -0.28729818335365731 0.26780124082781631 0 -0.27880962639343299 0.26078065685839158 0 -0.29309283898050847 0.28048055459605348 0 -0.28156868640737281 0.27216957229852412 0 -0.28401529333418091 0.28255904946725641 0 -0.30640548876467488 0.25787073169030861 0 -0.28156868640737281 0.27216957229852412 0 -0.29125564533142001 0.24067530578368901 0 -0.30640548876467488 0.25787073169030861 0 -0.28729818335365731 0.26780124082781631 0 -0.29125564533142001 0.24067530578368901 0 -0.28729818335365731 0.26780124082781631 0 -0.27880962639343299 0.26078065685839158 0 -0.29125564533142001 0.24067530578368901 0 -0.28729818335365731 0.26780124082781631 0 -0.29125564533142001 0.24067530578368901 0 -0.26892213733164849 0.25365425058065472 0 -0.27880962639343299 0.26078065685839158 0 -0.26892213733164849 0.25365425058065472 0 -0.27880962639343299 0.26078065685839158 0 -0.26500347954306669 0.26960291480127369 0 -0.28156868640737281 0.27216957229852412 0 -0.25673188405007052 0.28646841290673969 0 -0.28156868640737281 0.27216957229852412 0 -0.26500347954306669 0.26960291480127369 0 -0.25673188405007052 0.28646841290673969 0 -0.28156868640737281 0.27216957229852412 0 -0.27880962639343299 0.26078065685839158 0 -0.26500347954306669 0.26960291480127369 0 -0.28156868640737281 0.27216957229852412 0 -0.27479408276187339 0.28687287199942368 0 -0.28401529333418091 0.28255904946725641 0 -0.26500347954306669 0.26960291480127369 0 -0.25265925142613249 0.26128234508680298 0 -0.25673188405007052 0.28646841290673969 0 -0.26892213733164849 0.25365425058065472 0 -0.26500347954306669 0.26960291480127369 0 -0.25265925142613249 0.26128234508680298 0 -0.25621817608628389 0.2460965770837312 0 -0.26892213733164849 0.25365425058065472 0 -0.25265925142613249 0.26128234508680298 0 -0.25505401324638421 0.30366623925853881 0 -0.26661761067819428 0.2958317928062858 0 -0.26721257633701828 0.30790943684761429 0 -0.25505401324638421 0.30366623925853881 0 -0.26721257633701828 0.30790943684761429 0 -0.25901197930261888 0.31383205914145501 0 -0.26721257633701828 0.30790943684761429 0 -0.25901197930261888 0.31383205914145501 0 -0.26528599585519008 0.31471464054907522 0 -0.25505401324638421 0.30366623925853881 0 -0.25901197930261888 0.31383205914145501 0 -0.24885494741763489 0.31718848033418301 0 -0.25505401324638421 0.30366623925853881 0 -0.25673188405007052 0.28646841290673969 0 -0.26661761067819428 0.2958317928062858 0 -0.26661761067819428 0.2958317928062858 0 -0.27573637841232751 0.29432500902679382 0 -0.27326763327687947 0.30016750757533939 0 -0.28156868640737281 0.27216957229852412 0 -0.25673188405007052 0.28646841290673969 0 -0.27479408276187339 0.28687287199942368 0 -0.26661761067819428 0.2958317928062858 0 -0.27479408276187339 0.28687287199942368 0 -0.27573637841232751 0.29432500902679382 0 -0.25673188405007052 0.28646841290673969 0 -0.26661761067819428 0.2958317928062858 0 -0.27479408276187339 0.28687287199942368 0 -0.27479408276187339 0.28687287199942368 0 -0.28401529333418091 0.28255904946725641 0 -0.28313816676434478 0.29069510378855717 0 -0.27479408276187339 0.28687287199942368 0 -0.27573637841232751 0.29432500902679382 0 -0.28313816676434478 0.29069510378855717 0 -0.27573637841232751 0.29432500902679382 0 -0.28086439858034518 0.29805776896436298 0 -0.28313816676434478 0.29069510378855717 0 -0.28086439858034518 0.29805776896436298 0 -0.27753065875984329 0.30327410754998058 0 -0.28274061889410179 0.30278083970340541 0 -0.27753065875984329 0.30327410754998058 0 -0.27514776209796898 0.30785266251660498 0 -0.28274061889410179 0.30278083970340541 0 -0.27753065875984329 0.30327410754998058 0 -0.27326763327687947 0.30016750757533939 0 -0.27348155140824082 0.30658246875079598 0 -0.28086439858034518 0.29805776896436298 0 -0.27753065875984329 0.30327410754998058 0 -0.27326763327687947 0.30016750757533939 0 -0.27573637841232751 0.29432500902679382 0 -0.28086439858034518 0.29805776896436298 0 -0.27326763327687947 0.30016750757533939 0 -0.26661761067819428 0.2958317928062858 0 -0.27326763327687947 0.30016750757533939 0 -0.26721257633701828 0.30790943684761429 0 -0.26721257633701828 0.30790943684761429 0 -0.27514776209796898 0.30785266251660498 0 -0.27123720609067609 0.3158529302113221 0 -0.26721257633701828 0.30790943684761429 0 -0.27348155140824082 0.30658246875079598 0 -0.27514776209796898 0.30785266251660498 0 -0.26721257633701828 0.30790943684761429 0 -0.27514776209796898 0.30785266251660498 0 -0.27326763327687947 0.30016750757533939 0 -0.26721257633701828 0.30790943684761429 0 -0.27348155140824082 0.30658246875079598 0 -0.27514776209796898 0.30785266251660498 0 -0.2851872012256097 0.31550597615259851 0 -0.27753065875984329 0.30327410754998058 0 -0.27348155140824082 0.30658246875079598 0 -0.27514776209796898 0.30785266251660498 0 -0.27348155140824082 0.30658246875079598 0 -0.27514776209796898 0.30785266251660498 0 -0.27514776209796898 0.30785266251660498 0 -0.2905575990275322 0.30774240886798532 0 -0.27514776209796898 0.30785266251660498 0 -0.2905575990275322 0.30774240886798532 0 -0.2851872012256097 0.31550597615259851 0 -0.2896026760048197 0.2969772506180926 0 -0.2905575990275322 0.30774240886798532 0 -0.30493521127791462 0.28695781074044469 0 -0.27514776209796898 0.30785266251660498 0 -0.28274061889410179 0.30278083970340541 0 -0.2905575990275322 0.30774240886798532 0 -0.2905575990275322 0.30774240886798532 0 -0.2851872012256097 0.31550597615259851 0 -0.28274061889410179 0.30278083970340541 0 -0.2896026760048197 0.2969772506180926 0 -0.2905575990275322 0.30774240886798532 0 -0.28086439858034518 0.29805776896436298 0 -0.28274061889410179 0.30278083970340541 0 -0.2896026760048197 0.2969772506180926 0 -0.28401529333418091 0.28255904946725641 0 -0.28313816676434478 0.29069510378855717 0 -0.29095683727235372 0.28753395384208091 0 -0.28086439858034518 0.29805776896436298 0 -0.2896026760048197 0.2969772506180926 0 -0.28313816676434478 0.29069510378855717 0 -0.2896026760048197 0.2969772506180926 0 -0.28313816676434478 0.29069510378855717 0 -0.29095683727235372 0.28753395384208091 0 -0.2896026760048197 0.2969772506180926 0 -0.29095683727235372 0.28753395384208091 0 -0.30493521127791462 0.28695781074044469 0 -0.29309283898050847 0.28048055459605348 0 -0.29095683727235372 0.28753395384208091 0 -0.30493521127791462 0.28695781074044469 0 -0.29309283898050847 0.28048055459605348 0 -0.28401529333418091 0.28255904946725641 0 -0.29095683727235372 0.28753395384208091 0 -0.31699951866320542 0.30755322334125379 0 -0.2905575990275322 0.30774240886798532 0 -0.30563014257680821 0.31779627416788381 0 -0.31699951866320542 0.30755322334125379 0 -0.2905575990275322 0.30774240886798532 0 -0.2905575990275322 0.30774240886798532 0 -0.30493521127791462 0.28695781074044469 0 -0.31699951866320542 0.30755322334125379 0 -0.2905575990275322 0.30774240886798532 0 -0.30493521127791462 0.28695781074044469 0 -0.30538608464820588 0.33090408634228141 0 -0.28942706780696309 0.31873813168532672 0 -0.30563014257680821 0.31779627416788381 0 -0.30538608464820588 0.33090408634228141 0 -0.31811651498789978 0.32488887006413791 0 -0.30563014257680821 0.31779627416788381 0 -0.30538608464820588 0.33090408634228141 0 -0.2937791937433501 0.31637108240395312 0 -0.30538608464820588 0.33090408634228141 0 -0.3017933608705089 0.344447887165377 0 -0.32134510148944728 0.34307004099923799 0 -0.30538608464820588 0.33090408634228141 0 -0.29093013722955491 0.33661105704622479 0 -0.3017933608705089 0.344447887165377 0 -0.30538608464820588 0.33090408634228141 0 -0.29093013722955491 0.33661105704622479 0 -0.2885751077852815 0.32830696870384862 0 -0.29093013722955491 0.33661105704622479 0 -0.28224162025157051 0.34582573333151501 0 -0.3017933608705089 0.344447887165377 0 -0.2885751077852815 0.32830696870384862 0 -0.28146834572906437 0.33465123959114113 0 -0.2790455690922089 0.3243844570517187 0 -0.29093013722955491 0.33661105704622479 0 -0.2885751077852815 0.32830696870384862 0 -0.28146834572906437 0.33465123959114113 0 -0.29093013722955491 0.33661105704622479 0 -0.28146834572906437 0.33465123959114113 0 -0.28224162025157051 0.34582573333151501 0 -0.30538608464820588 0.33090408634228141 0 -0.2885751077852815 0.32830696870384862 0 -0.28942706780696309 0.31873813168532672 0 -0.30538608464820588 0.33090408634228141 0 -0.28942706780696309 0.31873813168532672 0 -0.2937791937433501 0.31637108240395312 0 -0.28942706780696309 0.31873813168532672 0 -0.2937791937433501 0.31637108240395312 0 -0.2851872012256097 0.31550597615259851 0 -0.2905575990275322 0.30774240886798532 0 -0.30563014257680821 0.31779627416788381 0 -0.2937791937433501 0.31637108240395312 0 -0.2905575990275322 0.30774240886798532 0 -0.2937791937433501 0.31637108240395312 0 -0.2851872012256097 0.31550597615259851 0 -0.28942706780696309 0.31873813168532672 0 -0.2937791937433501 0.31637108240395312 0 -0.2885751077852815 0.32830696870384862 0 -0.28942706780696309 0.31873813168532672 0 -0.2790455690922089 0.3243844570517187 0 -0.28942706780696309 0.31873813168532672 0 -0.2790455690922089 0.3243844570517187 0 -0.2851872012256097 0.31550597615259851 0 -0.2790455690922089 0.3243844570517187 0 -0.28942706780696309 0.31873813168532672 0 -0.2851872012256097 0.31550597615259851 0 -0.2790455690922089 0.3243844570517187 0 -0.28942706780696309 0.31873813168532672 0 -0.2851872012256097 0.31550597615259851 0 -0.27514776209796898 0.30785266251660498 0 -0.2851872012256097 0.31550597615259851 0 -0.27699557949655113 0.31645322234696882 0 -0.2851872012256097 0.31550597615259851 0 -0.27699557949655113 0.31645322234696882 0 -0.2790455690922089 0.3243844570517187 0 -0.27514776209796898 0.30785266251660498 0 -0.27699557949655113 0.31645322234696882 0 -0.27123720609067609 0.3158529302113221 0 -0.27001263578126711 0.32263717043347712 0 -0.2790455690922089 0.3243844570517187 0 -0.25910260253645218 0.33523110656146687 0 -0.26721257633701828 0.30790943684761429 0 -0.27123720609067609 0.3158529302113221 0 -0.26528599585519008 0.31471464054907522 0 -0.27699557949655113 0.31645322234696882 0 -0.27123720609067609 0.3158529302113221 0 -0.27001263578126711 0.32263717043347712 0 -0.27123720609067609 0.3158529302113221 0 -0.26528599585519008 0.31471464054907522 0 -0.26368222169044719 0.32126413599590953 0 -0.27123720609067609 0.3158529302113221 0 -0.27001263578126711 0.32263717043347712 0 -0.26368222169044719 0.32126413599590953 0 -0.27699557949655113 0.31645322234696882 0 -0.27001263578126711 0.32263717043347712 0 -0.2790455690922089 0.3243844570517187 0 -0.2790455690922089 0.3243844570517187 0 -0.25910260253645218 0.33523110656146687 0 -0.2790455690922089 0.3243844570517187 0 -0.26824012707650141 0.34000504592112352 0 -0.28146834572906437 0.33465123959114113 0 -0.2790455690922089 0.3243844570517187 0 -0.26824012707650141 0.34000504592112352 0 -0.2790455690922089 0.3243844570517187 0 -0.26824012707650141 0.34000504592112352 0 -0.25910260253645218 0.33523110656146687 0 -0.28146834572906437 0.33465123959114113 0 -0.26824012707650141 0.34000504592112352 0 -0.28224162025157051 0.34582573333151501 0 -0.25910260253645218 0.33523110656146687 0 -0.25407523553642281 0.3497448278934856 0 -0.23915963598069589 0.34607775607121571 0 -0.25910260253645218 0.33523110656146687 0 -0.25407523553642281 0.3497448278934856 0 -0.26309588156361569 0.34576168367824162 0 -0.26824012707650141 0.34000504592112352 0 -0.25910260253645218 0.33523110656146687 0 -0.26309588156361569 0.34576168367824162 0 -0.25910260253645218 0.33523110656146687 0 -0.25451497659773847 0.32559442806853028 0 -0.24843663428782739 0.33758714710907461 0 -0.25451497659773847 0.32559442806853028 0 -0.25901197930261888 0.31383205914145501 0 -0.24885494741763489 0.31718848033418301 0 -0.25451497659773847 0.32559442806853028 0 -0.25901197930261888 0.31383205914145501 0 -0.26368222169044719 0.32126413599590953 0 -0.25901197930261888 0.31383205914145501 0 -0.26528599585519008 0.31471464054907522 0 -0.26368222169044719 0.32126413599590953 0 -0.27001263578126711 0.32263717043347712 0 -0.25910260253645218 0.33523110656146687 0 -0.26368222169044719 0.32126413599590953 0 -0.25910260253645218 0.33523110656146687 0 -0.25451497659773847 0.32559442806853028 0 -0.26368222169044719 0.32126413599590953 0 -0.26470209097228098 0.37140351159401941 0 -0.25562758441007077 0.36194187249828802 0 -0.266880351992417 0.3582272519812631 0 -0.26470209097228098 0.37140351159401941 0 -0.25213085833087667 0.37355178257669552 0 -0.25562758441007077 0.36194187249828802 0 -0.25213085833087667 0.37355178257669552 0 -0.25562758441007077 0.36194187249828802 0 -0.24329038266145239 0.36134909741814653 0 -0.25562758441007077 0.36194187249828802 0 -0.25407523553642281 0.3497448278934856 0 -0.24329038266145239 0.36134909741814653 0 -0.25407523553642281 0.3497448278934856 0 -0.26309588156361569 0.34576168367824162 0 -0.266880351992417 0.3582272519812631 0 -0.25562758441007077 0.36194187249828802 0 -0.25407523553642281 0.3497448278934856 0 -0.266880351992417 0.3582272519812631 0 -0.266880351992417 0.3582272519812631 0 -0.27640009279511962 0.35155878343443242 0 -0.28837447244510311 0.36628710188532532 0 -0.26309588156361569 0.34576168367824162 0 -0.266880351992417 0.3582272519812631 0 -0.27640009279511962 0.35155878343443242 0 -0.26824012707650141 0.34000504592112352 0 -0.26309588156361569 0.34576168367824162 0 -0.27640009279511962 0.35155878343443242 0 -0.26824012707650141 0.34000504592112352 0 -0.27640009279511962 0.35155878343443242 0 -0.28224162025157051 0.34582573333151501 0 -0.266880351992417 0.3582272519812631 0 -0.28837447244510311 0.36628710188532532 0 -0.266880351992417 0.3582272519812631 0 -0.28837447244510311 0.36628710188532532 0 -0.27747916353329311 0.37529003384729942 0 -0.26470209097228098 0.37140351159401941 0 -0.266880351992417 0.3582272519812631 0 -0.27747916353329311 0.37529003384729942 0 -0.28837447244510311 0.36628710188532532 0 -0.28714059247178902 0.37543321948423419 0 -0.27747916353329311 0.37529003384729942 0 -0.28837447244510311 0.36628710188532532 0 -0.28956810344150979 0.35324588380912608 0 -0.30292150033679799 0.36018321991941088 0 -0.28837447244510311 0.36628710188532532 0 -0.29874239202075642 0.37528196759933868 0 -0.28714059247178902 0.37543321948423419 0 -0.28224162025157051 0.34582573333151501 0 -0.3017933608705089 0.344447887165377 0 -0.28224162025157051 0.34582573333151501 0 -0.28956810344150979 0.35324588380912608 0 -0.3017933608705089 0.344447887165377 0 -0.27640009279511962 0.35155878343443242 0 -0.28224162025157051 0.34582573333151501 0 -0.28956810344150979 0.35324588380912608 0 -0.27640009279511962 0.35155878343443242 0 -0.28837447244510311 0.36628710188532532 0 -0.28956810344150979 0.35324588380912608 0 -0.3017933608705089 0.344447887165377 0 -0.31193410579265052 0.3536039280541286 0 -0.30292150033679799 0.36018321991941088 0 -0.28956810344150979 0.35324588380912608 0 -0.3017933608705089 0.344447887165377 0 -0.30292150033679799 0.36018321991941088 0 -0.3017933608705089 0.344447887165377 0 -0.32134510148944728 0.34307004099923799 0 -0.3017933608705089 0.344447887165377 0 -0.31193410579265052 0.3536039280541286 0 -0.32134510148944728 0.34307004099923799 0 -0.31193410579265052 0.3536039280541286 0 -0.30292150033679799 0.36018321991941088 0 -0.31340485972314069 0.36375751913665871 0 -0.28837447244510311 0.36628710188532532 0 -0.30292150033679799 0.36018321991941088 0 -0.30986859289778912 0.37434695178938759 0 -0.28837447244510311 0.36628710188532532 0 -0.30986859289778912 0.37434695178938759 0 -0.28837447244510311 0.36628710188532532 0 -0.30986859289778912 0.37434695178938759 0 -0.29874239202075642 0.37528196759933868 0 -0.30292150033679799 0.36018321991941088 0 -0.30986859289778912 0.37434695178938759 0 -0.31340485972314069 0.36375751913665871 0 -0.30986859289778912 0.37434695178938759 0 -0.31340485972314069 0.36375751913665871 0 -0.32167824364597858 0.36970754211250728 0 -0.31340485972314069 0.36375751913665871 0 -0.32243327870136801 0.35950699838777223 0 -0.32167824364597858 0.36970754211250728 0 -0.32243327870136801 0.35950699838777223 0 -0.32167824364597858 0.36970754211250728 0 -0.33132177355711989 0.36851943955526861 0 -0.32167824364597858 0.36970754211250728 0 -0.33132177355711989 0.36851943955526861 0 -0.33136271335047512 0.38240680169344993 0 -0.32243327870136801 0.35950699838777223 0 -0.33132177355711989 0.36851943955526861 0 -0.33989838930305449 0.35721367281084643 0 -0.33132177355711989 0.36851943955526861 0 -0.34304766554360439 0.37232322735168022 0 -0.33136271335047512 0.38240680169344993 0 -0.33132177355711989 0.36851943955526861 0 -0.34304766554360439 0.37232322735168022 0 -0.33989838930305449 0.35721367281084643 0 -0.33989838930305449 0.35721367281084643 0 -0.32134510148944728 0.34307004099923799 0 -0.33989838930305449 0.35721367281084643 0 -0.32134510148944728 0.34307004099923799 0 -0.3500233487104954 0.34104903357308669 0 -0.32243327870136801 0.35950699838777223 0 -0.33989838930305449 0.35721367281084643 0 -0.32134510148944728 0.34307004099923799 0 -0.31193410579265052 0.3536039280541286 0 -0.32243327870136801 0.35950699838777223 0 -0.32134510148944728 0.34307004099923799 0 -0.31193410579265052 0.3536039280541286 0 -0.31340485972314069 0.36375751913665871 0 -0.32243327870136801 0.35950699838777223 0 -0.30538608464820588 0.33090408634228141 0 -0.32134510148944728 0.34307004099923799 0 -0.30538608464820588 0.33090408634228141 0 -0.32134510148944728 0.34307004099923799 0 -0.31811651498789978 0.32488887006413791 0 -0.32134510148944728 0.34307004099923799 0 -0.31811651498789978 0.32488887006413791 0 -0.33459812393413729 0.32207732583041709 0 -0.31699951866320542 0.30755322334125379 0 -0.30563014257680821 0.31779627416788381 0 -0.31811651498789978 0.32488887006413791 0 -0.31699951866320542 0.30755322334125379 0 -0.31811651498789978 0.32488887006413791 0 -0.33459812393413729 0.32207732583041709 0 -0.32134510148944728 0.34307004099923799 0 -0.34342889555096417 0.33131534648734451 0 -0.3500233487104954 0.34104903357308669 0 -0.32134510148944728 0.34307004099923799 0 -0.33459812393413729 0.32207732583041709 0 -0.34342889555096417 0.33131534648734451 0 -0.32134510148944728 0.34307004099923799 0 -0.3500233487104954 0.34104903357308669 0 -0.3500233487104954 0.34104903357308669 0 -0.35650114511620551 0.33294276438790088 0 -0.36794029410566942 0.33226259727897972 0 -0.34342889555096417 0.33131534648734451 0 -0.3500233487104954 0.34104903357308669 0 -0.35650114511620551 0.33294276438790088 0 -0.33459812393413729 0.32207732583041709 0 -0.34342889555096417 0.33131534648734451 0 -0.35467675850453528 0.31743756764607989 0 -0.34344143829887858 0.30736403781452232 0 -0.33459812393413729 0.32207732583041709 0 -0.35467675850453528 0.31743756764607989 0 -0.35650114511620551 0.33294276438790088 0 -0.35467675850453528 0.31743756764607989 0 -0.36272901898995358 0.31473918551029578 0 -0.34342889555096417 0.33131534648734451 0 -0.35650114511620551 0.33294276438790088 0 -0.35467675850453528 0.31743756764607989 0 -0.35650114511620551 0.33294276438790088 0 -0.36272901898995358 0.31473918551029578 0 -0.37415321332832258 0.31386652142517069 0 -0.35650114511620551 0.33294276438790088 0 -0.37415321332832258 0.31386652142517069 0 -0.35650114511620551 0.33294276438790088 0 -0.37442838800096029 0.32044424157556423 0 -0.37415321332832258 0.31386652142517069 0 -0.37816355277066899 0.32985684687273281 0 -0.37442838800096029 0.32044424157556423 0 -0.36794029410566942 0.33226259727897972 0 -0.3787015959315434 0.33902802614693439 0 -0.3500233487104954 0.34104903357308669 0 -0.36794029410566942 0.33226259727897972 0 -0.35650114511620551 0.33294276438790088 0 -0.37442838800096029 0.32044424157556423 0 -0.36794029410566942 0.33226259727897972 0 -0.3787015959315434 0.33902802614693439 0 -0.3500233487104954 0.34104903357308669 0 -0.3787015959315434 0.33902802614693439 0 -0.37816355277066899 0.32985684687273281 0 -0.36794029410566942 0.33226259727897972 0 -0.3787015959315434 0.33902802614693439 0 -0.3500233487104954 0.34104903357308669 0 -0.36501658974902518 0.35367198233662939 0 -0.37823932191431281 0.35548757599615399 0 -0.3787015959315434 0.33902802614693439 0 -0.36501658974902518 0.35367198233662939 0 -0.37823932191431281 0.35548757599615399 0 -0.36501658974902518 0.35367198233662939 0 -0.37024808467873749 0.36543132639488701 0 -0.36501658974902518 0.35367198233662939 0 -0.37024808467873749 0.36543132639488701 0 -0.35845167711666143 0.37135730462245548 0 -0.37949655700884349 0.37153259571527891 0 -0.37024808467873749 0.36543132639488701 0 -0.36758280318953013 0.37627165255961892 0 -0.37024808467873749 0.36543132639488701 0 -0.35845167711666143 0.37135730462245548 0 -0.36758280318953013 0.37627165255961892 0 -0.36501658974902518 0.35367198233662939 0 -0.35845167711666143 0.37135730462245548 0 -0.35334750121980912 0.35582299833575448 0 -0.34304766554360439 0.37232322735168022 0 -0.33989838930305449 0.35721367281084643 0 -0.35845167711666143 0.37135730462245548 0 -0.33989838930305449 0.35721367281084643 0 -0.35845167711666143 0.37135730462245548 0 -0.35334750121980912 0.35582299833575448 0 -0.33989838930305449 0.35721367281084643 0 -0.35845167711666143 0.37135730462245548 0 -0.33989838930305449 0.35721367281084643 0 -0.3500233487104954 0.34104903357308669 0 -0.35334750121980912 0.35582299833575448 0 -0.3500233487104954 0.34104903357308669 0 -0.36501658974902518 0.35367198233662939 0 -0.35334750121980912 0.35582299833575448 0 -0.35285683380316007 0.39046665159751448 0 -0.36027192889352422 0.40897543894708011 0 -0.34270265381785459 0.40768080501023862 0 -0.34304766554360439 0.37232322735168022 0 -0.35845167711666143 0.37135730462245548 0 -0.35285683380316007 0.39046665159751448 0 -0.37686086334024771 0.38257038446795849 0 -0.35285683380316007 0.39046665159751448 0 -0.37686086334024771 0.38257038446795849 0 -0.35285683380316007 0.39046665159751448 0 -0.36758280318953013 0.37627165255961892 0 -0.35845167711666143 0.37135730462245548 0 -0.35285683380316007 0.39046665159751448 0 -0.36758280318953013 0.37627165255961892 0 -0.37686086334024771 0.38257038446795849 0 -0.37949655700884349 0.37153259571527891 0 -0.36758280318953013 0.37627165255961892 0 -0.37769092578324193 0.39977892163450779 0 -0.35285683380316007 0.39046665159751448 0 -0.37769092578324193 0.39977892163450779 0 -0.37686086334024771 0.38257038446795849 0 -0.35285683380316007 0.39046665159751448 0 -0.37769092578324193 0.39977892163450779 0 -0.35285683380316007 0.39046665159751448 0 -0.36027192889352422 0.40897543894708011 0 -0.37875820238401509 0.42613984176471847 0 -0.37769092578324193 0.39977892163450779 0 -0.36027192889352422 0.40897543894708011 0 -0.37875820238401509 0.42613984176471847 0 -0.36027192889352422 0.40897543894708011 0 -0.36048507512927641 0.42545129427310208 0 -0.37875820238401509 0.42613984176471847 0 -0.36048507512927641 0.42545129427310208 0 -0.35499138700470761 0.44318849185793469 0 -0.37875820238401509 0.42613984176471847 0 -0.35499138700470761 0.44318849185793469 0 -0.34691622899781399 0.42161541908905831 0 -0.33223168701086447 0.43660936806356893 0 -0.35499138700470761 0.44318849185793469 0 -0.36048507512927641 0.42545129427310208 0 -0.34691622899781399 0.42161541908905831 0 -0.35499138700470761 0.44318849185793469 0 -0.36027192889352422 0.40897543894708011 0 -0.34691622899781399 0.42161541908905831 0 -0.34270265381785459 0.40768080501023862 0 -0.36027192889352422 0.40897543894708011 0 -0.36048507512927641 0.42545129427310208 0 -0.34691622899781399 0.42161541908905831 0 -0.34270265381785459 0.40768080501023862 0 -0.32841174735063311 0.41773478988879181 0 -0.32505653004414181 0.39961172552874852 0 -0.34691622899781399 0.42161541908905831 0 -0.34270265381785459 0.40768080501023862 0 -0.32841174735063311 0.41773478988879181 0 -0.34691622899781399 0.42161541908905831 0 -0.32841174735063311 0.41773478988879181 0 -0.33223168701086447 0.43660936806356893 0 -0.32841174735063311 0.41773478988879181 0 -0.33223168701086447 0.43660936806356893 0 -0.31148998866141242 0.43181261152586448 0 -0.32841174735063311 0.41773478988879181 0 -0.31441363705571701 0.41408607272300291 0 -0.32505653004414181 0.39961172552874852 0 -0.32841174735063311 0.41773478988879181 0 -0.31441363705571701 0.41408607272300291 0 -0.31148998866141242 0.43181261152586448 0 -0.32505653004414181 0.39961172552874852 0 -0.31219235154091651 0.39185403334122892 0 -0.30619500853749271 0.39725637532293351 0 -0.32505653004414181 0.39961172552874852 0 -0.31778050989885959 0.38527433798844479 0 -0.31219235154091651 0.39185403334122892 0 -0.35285683380316007 0.39046665159751448 0 -0.32505653004414181 0.39961172552874852 0 -0.33136271335047512 0.38240680169344993 0 -0.35285683380316007 0.39046665159751448 0 -0.34270265381785459 0.40768080501023862 0 -0.32505653004414181 0.39961172552874852 0 -0.35285683380316007 0.39046665159751448 0 -0.32505653004414181 0.39961172552874852 0 -0.35285683380316007 0.39046665159751448 0 -0.33136271335047512 0.38240680169344993 0 -0.34304766554360439 0.37232322735168022 0 -0.35285683380316007 0.39046665159751448 0 -0.33136271335047512 0.38240680169344993 0 -0.30986859289778912 0.37434695178938759 0 -0.32167824364597858 0.36970754211250728 0 -0.33136271335047512 0.38240680169344993 0 -0.30986859289778912 0.37434695178938759 0 -0.33136271335047512 0.38240680169344993 0 -0.32505653004414181 0.39961172552874852 0 -0.33136271335047512 0.38240680169344993 0 -0.31778050989885959 0.38527433798844479 0 -0.30986859289778912 0.37434695178938759 0 -0.33136271335047512 0.38240680169344993 0 -0.31778050989885959 0.38527433798844479 0 -0.30986859289778912 0.37434695178938759 0 -0.31778050989885959 0.38527433798844479 0 -0.30574515252343709 0.38648905476423068 0 -0.30986859289778912 0.37434695178938759 0 -0.30574515252343709 0.38648905476423068 0 -0.29874239202075642 0.37528196759933868 0 -0.30574515252343709 0.38648905476423068 0 -0.29874239202075642 0.37528196759933868 0 -0.29146244090030071 0.40289140707507309 0 -0.31778050989885959 0.38527433798844479 0 -0.30574515252343709 0.38648905476423068 0 -0.31219235154091651 0.39185403334122892 0 -0.32505653004414181 0.39961172552874852 0 -0.30619500853749271 0.39725637532293351 0 -0.29725622628512233 0.40875679945997928 0 -0.32505653004414181 0.39961172552874852 0 -0.29725622628512233 0.40875679945997928 0 -0.30574515252343709 0.38648905476423068 0 -0.30619500853749271 0.39725637532293351 0 -0.29146244090030071 0.40289140707507309 0 -0.30574515252343709 0.38648905476423068 0 -0.31219235154091651 0.39185403334122892 0 -0.30619500853749271 0.39725637532293351 0 -0.30619500853749271 0.39725637532293351 0 -0.29146244090030071 0.40289140707507309 0 -0.29725622628512233 0.40875679945997928 0 -0.29146244090030071 0.40289140707507309 0 -0.2882496590958894 0.39023794275143442 0 -0.278827461574497 0.39790462172635238 0 -0.28396634188800352 0.38487377460497352 0 -0.2882496590958894 0.39023794275143442 0 -0.278827461574497 0.39790462172635238 0 -0.29146244090030071 0.40289140707507309 0 -0.278827461574497 0.39790462172635238 0 -0.27940045790464241 0.41220012044695847 0 -0.29874239202075642 0.37528196759933868 0 -0.29146244090030071 0.40289140707507309 0 -0.29874239202075642 0.37528196759933868 0 -0.29146244090030071 0.40289140707507309 0 -0.2882496590958894 0.39023794275143442 0 -0.29874239202075642 0.37528196759933868 0 -0.28396634188800352 0.38487377460497352 0 -0.28714059247178902 0.37543321948423419 0 -0.29874239202075642 0.37528196759933868 0 -0.28396634188800352 0.38487377460497352 0 -0.2882496590958894 0.39023794275143442 0 -0.28396634188800352 0.38487377460497352 0 -0.28714059247178902 0.37543321948423419 0 -0.27747916353329311 0.37529003384729942 0 -0.28396634188800352 0.38487377460497352 0 -0.27747916353329311 0.37529003384729942 0 -0.26775424033426293 0.38456849691175748 0 -0.28396634188800352 0.38487377460497352 0 -0.26775424033426293 0.38456849691175748 0 -0.278827461574497 0.39790462172635238 0 -0.26470209097228098 0.37140351159401941 0 -0.27747916353329311 0.37529003384729942 0 -0.26775424033426293 0.38456849691175748 0 -0.278827461574497 0.39790462172635238 0 -0.26298604578065232 0.3973558675440883 0 -0.2677584473194361 0.40899541659639099 0 -0.26775424033426293 0.38456849691175748 0 -0.278827461574497 0.39790462172635238 0 -0.26298604578065232 0.3973558675440883 0 -0.26298604578065232 0.3973558675440883 0 -0.25152819264859128 0.38883491631829081 0 -0.2490618870264745 0.40647588616764979 0 -0.26298604578065232 0.3973558675440883 0 -0.2677584473194361 0.40899541659639099 0 -0.2490618870264745 0.40647588616764979 0 -0.25213085833087667 0.37355178257669552 0 -0.26775424033426293 0.38456849691175748 0 -0.25152819264859128 0.38883491631829081 0 -0.26775424033426293 0.38456849691175748 0 -0.26298604578065232 0.3973558675440883 0 -0.25152819264859128 0.38883491631829081 0 -0.26470209097228098 0.37140351159401941 0 -0.25213085833087667 0.37355178257669552 0 -0.26775424033426293 0.38456849691175748 0 -0.2572482915111563 0.42152384209731297 0 -0.26330490497154813 0.43976041958731371 0 -0.24092688658692171 0.43286849171069308 0 -0.2572482915111563 0.42152384209731297 0 -0.27163392734069919 0.42205675226444578 0 -0.26330490497154813 0.43976041958731371 0 -0.2572482915111563 0.42152384209731297 0 -0.2677584473194361 0.40899541659639099 0 -0.2490618870264745 0.40647588616764979 0 -0.2572482915111563 0.42152384209731297 0 -0.2677584473194361 0.40899541659639099 0 -0.27163392734069919 0.42205675226444578 0 -0.27940045790464241 0.41220012044695847 0 -0.27163392734069919 0.42205675226444578 0 -0.28418248977984512 0.43050084655080739 0 -0.2677584473194361 0.40899541659639099 0 -0.27940045790464241 0.41220012044695847 0 -0.27163392734069919 0.42205675226444578 0 -0.278827461574497 0.39790462172635238 0 -0.2677584473194361 0.40899541659639099 0 -0.27940045790464241 0.41220012044695847 0 -0.27163392734069919 0.42205675226444578 0 -0.28418248977984512 0.43050084655080739 0 -0.26330490497154813 0.43976041958731371 0 -0.28418248977984512 0.43050084655080739 0 -0.29943060469912958 0.42576946359573847 0 -0.28981068171355151 0.44369098771903792 0 -0.29146244090030071 0.40289140707507309 0 -0.28418248977984512 0.43050084655080739 0 -0.29146244090030071 0.40289140707507309 0 -0.27940045790464241 0.41220012044695847 0 -0.28418248977984512 0.43050084655080739 0 -0.28418248977984512 0.43050084655080739 0 -0.29725622628512233 0.40875679945997928 0 -0.29943060469912958 0.42576946359573847 0 -0.29146244090030071 0.40289140707507309 0 -0.28418248977984512 0.43050084655080739 0 -0.29725622628512233 0.40875679945997928 0 -0.31441363705571701 0.41408607272300291 0 -0.32505653004414181 0.39961172552874852 0 -0.29725622628512233 0.40875679945997928 0 -0.31441363705571701 0.41408607272300291 0 -0.29725622628512233 0.40875679945997928 0 -0.29943060469912958 0.42576946359573847 0 -0.31441363705571701 0.41408607272300291 0 -0.29943060469912958 0.42576946359573847 0 -0.31148998866141242 0.43181261152586448 0 -0.29943060469912958 0.42576946359573847 0 -0.31148998866141242 0.43181261152586448 0 -0.28981068171355151 0.44369098771903792 0 -0.31148998866141242 0.43181261152586448 0 -0.30120616623050861 0.45239726712555162 0 -0.31718999816658727 0.45065056632578487 0 -0.31148998866141242 0.43181261152586448 0 -0.30120616623050861 0.45239726712555162 0 -0.31148998866141242 0.43181261152586448 0 -0.30120616623050861 0.45239726712555162 0 -0.28981068171355151 0.44369098771903792 0 -0.30120616623050861 0.45239726712555162 0 -0.29092234379960469 0.47298192272523881 0 -0.30745775624609217 0.47728579204436761 0 -0.30120616623050861 0.45239726712555162 0 -0.30745775624609217 0.47728579204436761 0 -0.31718999816658727 0.45065056632578487 0 -0.2852957606144535 0.45730244818253718 0 -0.28186649269177161 0.46567885888970018 0 -0.29092234379960469 0.47298192272523881 0 -0.30120616623050861 0.45239726712555162 0 -0.29092234379960469 0.47298192272523881 0 -0.30120616623050861 0.45239726712555162 0 -0.2852957606144535 0.45730244818253718 0 -0.29092234379960469 0.47298192272523881 0 -0.2852957606144535 0.45730244818253718 0 -0.28186649269177161 0.46567885888970018 0 -0.27690253865938408 0.45811028602654041 0 -0.28418248977984512 0.43050084655080739 0 -0.28981068171355151 0.44369098771903792 0 -0.27690253865938408 0.45811028602654041 0 -0.30120616623050861 0.45239726712555162 0 -0.2852957606144535 0.45730244818253718 0 -0.28981068171355151 0.44369098771903792 0 -0.2852957606144535 0.45730244818253718 0 -0.28981068171355151 0.44369098771903792 0 -0.27690253865938408 0.45811028602654041 0 -0.28418248977984512 0.43050084655080739 0 -0.27690253865938408 0.45811028602654041 0 -0.28418248977984512 0.43050084655080739 0 -0.27690253865938408 0.45811028602654041 0 -0.26330490497154813 0.43976041958731371 0 -0.2852957606144535 0.45730244818253718 0 -0.27690253865938408 0.45811028602654041 0 -0.28186649269177161 0.46567885888970018 0 -0.27690253865938408 0.45811028602654041 0 -0.27835780074514338 0.47366975871288508 0 -0.27690253865938408 0.45811028602654041 0 -0.25345677561811758 0.46036691342989022 0 -0.27690253865938408 0.45811028602654041 0 -0.25345677561811758 0.46036691342989022 0 -0.26590293397843329 0.47057525233348851 0 -0.25345677561811758 0.46036691342989022 0 -0.25315469521642581 0.4750486889203015 0 -0.26590293397843329 0.47057525233348851 0 -0.25345677561811758 0.46036691342989022 0 -0.26330490497154813 0.43976041958731371 0 -0.24129970279445639 0.44943490890582899 0 -0.27690253865938408 0.45811028602654041 0 -0.25345677561811758 0.46036691342989022 0 -0.26330490497154813 0.43976041958731371 0 -0.26169037092037989 0.4910190989046625 0 -0.25397816739109252 0.5 0 -0.27113802145370669 0.49283981386083792 0 -0.26169037092037989 0.4910190989046625 0 -0.25474868654415728 0.48692894813519849 0 -0.26689660829256312 0.48430763362261348 0 -0.26169037092037989 0.4910190989046625 0 -0.25397816739109252 0.5 0 -0.25474868654415728 0.48692894813519849 0 -0.25315469521642581 0.4750486889203015 0 -0.26689660829256312 0.48430763362261348 0 -0.25315469521642581 0.4750486889203015 0 -0.26689660829256312 0.48430763362261348 0 -0.26590293397843329 0.47057525233348851 0 -0.25474868654415728 0.48692894813519849 0 -0.25315469521642581 0.4750486889203015 0 -0.26689660829256312 0.48430763362261348 0 -0.27690253865938408 0.45811028602654041 0 -0.26590293397843329 0.47057525233348851 0 -0.26946370716205509 0.4860372782758946 0 -0.27690253865938408 0.45811028602654041 0 -0.26946370716205509 0.4860372782758946 0 -0.27690253865938408 0.45811028602654041 0 -0.27835780074514338 0.47366975871288508 0 -0.26946370716205509 0.4860372782758946 0 -0.26689660829256312 0.48430763362261348 0 -0.26590293397843329 0.47057525233348851 0 -0.26946370716205509 0.4860372782758946 0 -0.28186649269177161 0.46567885888970018 0 -0.27835780074514338 0.47366975871288508 0 -0.28298297564177088 0.4743823417855309 0 -0.27835780074514338 0.47366975871288508 0 -0.2798907507987049 0.48286402398659151 0 -0.28298297564177088 0.4743823417855309 0 -0.27835780074514338 0.47366975871288508 0 -0.2798907507987049 0.48286402398659151 0 -0.26946370716205509 0.4860372782758946 0 -0.26946370716205509 0.4860372782758946 0 -0.28063852136870049 0.49356657832492562 0 -0.26946370716205509 0.4860372782758946 0 -0.27113802145370669 0.49283981386083792 0 -0.28063852136870049 0.49356657832492562 0 -0.2798907507987049 0.48286402398659151 0 -0.26946370716205509 0.4860372782758946 0 -0.28063852136870049 0.49356657832492562 0 -0.25397816739109252 0.5 0 -0.27113802145370669 0.49283981386083792 0 -0.27742446875513049 0.50000000000000155 0 -0.26689660829256312 0.48430763362261348 0 -0.26946370716205509 0.4860372782758946 0 -0.27113802145370669 0.49283981386083792 0 -0.26169037092037989 0.4910190989046625 0 -0.26689660829256312 0.48430763362261348 0 -0.27113802145370669 0.49283981386083792 0 -0.26689660829256312 0.48430763362261348 0 -0.26946370716205509 0.4860372782758946 0 -0.27113802145370669 0.49283981386083792 0 -0.28063852136870049 0.49356657832492562 0 -0.27742446875513049 0.50000000000000155 0 -0.28063852136870049 0.49356657832492562 0 -0.27742446875513049 0.50000000000000155 0 -0.28063852136870049 0.49356657832492562 0 -0.27742446875513049 0.50000000000000155 0 -0.29018685806186229 0.50000000000000122 0 -0.28063852136870049 0.49356657832492562 0 -0.29018685806186229 0.50000000000000122 0 -0.29092234379960469 0.47298192272523881 0 -0.28063852136870049 0.49356657832492562 0 -0.29018685806186229 0.50000000000000122 0 -0.29018685806186229 0.50000000000000122 0 -0.29092234379960469 0.47298192272523881 0 -0.30745775624609217 0.47728579204436761 0 -0.28063852136870049 0.49356657832492562 0 -0.29092234379960469 0.47298192272523881 0 -0.2798907507987049 0.48286402398659151 0 -0.28063852136870049 0.49356657832492562 0 -0.29092234379960469 0.47298192272523881 0 -0.28186649269177161 0.46567885888970018 0 -0.28298297564177088 0.4743823417855309 0 -0.29092234379960469 0.47298192272523881 0 -0.2798907507987049 0.48286402398659151 0 -0.28298297564177088 0.4743823417855309 0 -0.29092234379960469 0.47298192272523881 0 -0.29018685806186229 0.50000000000000122 0 -0.30745775624609217 0.47728579204436761 0 -0.3640375775585698 0.5 0 -0.30745775624609217 0.47728579204436761 0 -0.33122457162539992 0.46023714195115112 0 -0.3640375775585698 0.5 0 -0.30745775624609217 0.47728579204436761 0 -0.33122457162539992 0.46023714195115112 0 -0.30745775624609217 0.47728579204436761 0 -0.31718999816658727 0.45065056632578487 0 -0.33122457162539992 0.46023714195115112 0 -0.33223168701086447 0.43660936806356893 0 -0.31148998866141242 0.43181261152586448 0 -0.31718999816658727 0.45065056632578487 0 -0.33223168701086447 0.43660936806356893 0 -0.31718999816658727 0.45065056632578487 0 -0.33122457162539992 0.46023714195115112 0 -0.33122457162539992 0.46023714195115112 0 -0.35499138700470761 0.44318849185793469 0 -0.33223168701086447 0.43660936806356893 0 -0.33122457162539992 0.46023714195115112 0 -0.35499138700470761 0.44318849185793469 0 -0.33122457162539992 0.46023714195115112 0 -0.35376164566254242 0.46494380824906301 0 -0.35499138700470761 0.44318849185793469 0 -0.38249991962136642 0.44345487931465249 0 -0.35499138700470761 0.44318849185793469 0 -0.37103467036260362 0.45695891695805302 0 -0.38249991962136642 0.44345487931465249 0 -0.37875820238401509 0.42613984176471847 0 -0.35499138700470761 0.44318849185793469 0 -0.35376164566254242 0.46494380824906301 0 -0.35499138700470761 0.44318849185793469 0 -0.37103467036260362 0.45695891695805302 0 -0.35376164566254242 0.46494380824906301 0 -0.37103467036260362 0.45695891695805302 0 -0.36943712044780219 0.47475959506207249 0 -0.33122457162539992 0.46023714195115112 0 -0.35376164566254242 0.46494380824906301 0 -0.3640375775585698 0.5 0 -0.38891458820749281 0.47713565504117422 0 -0.36943712044780219 0.47475959506207249 0 -0.3640375775585698 0.5 0 -0.35376164566254242 0.46494380824906301 0 -0.36943712044780219 0.47475959506207249 0 -0.3640375775585698 0.5 0 -0.1410608215807003 0.47118489318428192 0 -0.1506389915883973 0.47451242435581331 0 -0.15779819732271971 0.4695739402503486 0 -0.1410608215807003 0.47118489318428192 0 -0.15779819732271971 0.4695739402503486 0 -0.1455325599989582 0.47665965757352818 0 -0.14983465253105441 0.48099067897208148 0 -0.1405957742956809 0.47995063378193648 0 -0.14983465253105441 0.48099067897208148 0 -0.14427471349546869 0.48965289008050411 0 -0.1405957742956809 0.47995063378193648 0 -0.1455325599989582 0.47665965757352818 0 -0.1410608215807003 0.47118489318428192 0 -0.1506389915883973 0.47451242435581331 0 -0.1455325599989582 0.47665965757352818 0 -0.1410608215807003 0.47118489318428192 0 -0.1405957742956809 0.47995063378193648 0 -0.1506389915883973 0.47451242435581331 0 -0.15682389603308189 0.47748605108520858 0 -0.15779819732271971 0.4695739402503486 0 -0.1506389915883973 0.47451242435581331 0 -0.14983465253105441 0.48099067897208148 0 -0.15682389603308189 0.47748605108520858 0 -0.1455325599989582 0.47665965757352818 0 -0.1506389915883973 0.47451242435581331 0 -0.14983465253105441 0.48099067897208148 0 -0.14983465253105441 0.48099067897208148 0 -0.1558122254133027 0.48316327461493752 0 -0.15682389603308189 0.47748605108520858 0 -0.14983465253105441 0.48099067897208148 0 -0.1558122254133027 0.48316327461493752 0 -0.15140604362779489 0.486968875654338 0 -0.1558122254133027 0.48316327461493752 0 -0.15140604362779489 0.486968875654338 0 -0.15545271364459581 0.49281799385228547 0 -0.14983465253105441 0.48099067897208148 0 -0.15140604362779489 0.486968875654338 0 -0.14427471349546869 0.48965289008050411 0 -0.15140604362779489 0.486968875654338 0 -0.15545271364459581 0.49281799385228547 0 -0.14427471349546869 0.48965289008050411 0 -0.15453849507163009 0.5 0 -0.14427471349546869 0.48965289008050411 0 -0.12543772684428189 0.5 0 -0.15453849507163009 0.5 0 -0.15545271364459581 0.49281799385228547 0 -0.14427471349546869 0.48965289008050411 0 -0.14427471349546869 0.48965289008050411 0 -0.12543772684428189 0.5 0 -0.13178312884530541 0.48627570230508688 0 -0.14427471349546869 0.48965289008050411 0 -0.13178312884530541 0.48627570230508688 0 -0.1405957742956809 0.47995063378193648 0 -0.13178312884530541 0.48627570230508688 0 -0.1317912103042716 0.47600940211286807 0 -0.11642361318749669 0.48420448820259387 0 -0.1317912103042716 0.47600940211286807 0 -0.14083201439797821 0.46516349611765162 0 -0.12052644250191399 0.4682622397032008 0 -0.13178312884530541 0.48627570230508688 0 -0.1405957742956809 0.47995063378193648 0 -0.1317912103042716 0.47600940211286807 0 -0.1410608215807003 0.47118489318428192 0 -0.1405957742956809 0.47995063378193648 0 -0.1317912103042716 0.47600940211286807 0 -0.1410608215807003 0.47118489318428192 0 -0.1317912103042716 0.47600940211286807 0 -0.14083201439797821 0.46516349611765162 0 -0.12618187852634369 0.45882241462805679 0 -0.14083201439797821 0.46516349611765162 0 -0.12052644250191399 0.4682622397032008 0 -0.14083201439797821 0.46516349611765162 0 -0.12052644250191399 0.4682622397032008 0 -0.12618187852634369 0.45882241462805679 0 -0.13621980461969219 0.45775649261309698 0 -0.13482926781972801 0.45201676164804122 0 -0.13621980461969219 0.45775649261309698 0 -0.13482926781972801 0.45201676164804122 0 -0.1430360577347192 0.45502329805863873 0 -0.13621980461969219 0.45775649261309698 0 -0.14083201439797821 0.46516349611765162 0 -0.1430360577347192 0.45502329805863873 0 -0.12618187852634369 0.45882241462805679 0 -0.13621980461969219 0.45775649261309698 0 -0.14083201439797821 0.46516349611765162 0 -0.12618187852634369 0.45882241462805679 0 -0.13482926781972801 0.45201676164804122 0 -0.1248743097581413 0.44162978393037222 0 -0.13482926781972801 0.45201676164804122 0 -0.13973201497409549 0.44099892737807922 0 -0.1415241139788854 0.4488412036993919 0 -0.13482926781972801 0.45201676164804122 0 -0.1415241139788854 0.4488412036993919 0 -0.1430360577347192 0.45502329805863873 0 -0.13973201497409549 0.44099892737807922 0 -0.13491063247587859 0.43073185275000708 0 -0.1248743097581413 0.44162978393037222 0 -0.13482926781972801 0.45201676164804122 0 -0.13973201497409549 0.44099892737807922 0 -0.1248743097581413 0.44162978393037222 0 -0.13973201497409549 0.44099892737807922 0 -0.14849911538699881 0.44732582771280882 0 -0.14949031039727409 0.43903968606904947 0 -0.14849911538699881 0.44732582771280882 0 -0.1430360577347192 0.45502329805863873 0 -0.15230793746503779 0.45507497120342549 0 -0.13973201497409549 0.44099892737807922 0 -0.1415241139788854 0.4488412036993919 0 -0.14849911538699881 0.44732582771280882 0 -0.1415241139788854 0.4488412036993919 0 -0.14849911538699881 0.44732582771280882 0 -0.1430360577347192 0.45502329805863873 0 -0.14849911538699881 0.44732582771280882 0 -0.15230793746503779 0.45507497120342549 0 -0.15767924869329919 0.44641741059368378 0 -0.14949031039727409 0.43903968606904947 0 -0.15767924869329919 0.44641741059368378 0 -0.15912083936695831 0.4347249498771325 0 -0.14849911538699881 0.44732582771280882 0 -0.14949031039727409 0.43903968606904947 0 -0.15767924869329919 0.44641741059368378 0 -0.14083201439797821 0.46516349611765162 0 -0.16113758629404229 0.46206475253210239 0 -0.15779819732271971 0.4695739402503486 0 -0.1410608215807003 0.47118489318428192 0 -0.14083201439797821 0.46516349611765162 0 -0.15779819732271971 0.4695739402503486 0 -0.14083201439797821 0.46516349611765162 0 -0.16113758629404229 0.46206475253210239 0 -0.14083201439797821 0.46516349611765162 0 -0.15230793746503779 0.45507497120342549 0 -0.16113758629404229 0.46206475253210239 0 -0.14083201439797821 0.46516349611765162 0 -0.1430360577347192 0.45502329805863873 0 -0.15230793746503779 0.45507497120342549 0 -0.16113758629404229 0.46206475253210239 0 -0.16940388650370539 0.44815354093755089 0 -0.18144315819010631 0.45896600894655282 0 -0.16113758629404229 0.46206475253210239 0 -0.18144315819010631 0.45896600894655282 0 -0.16113758629404229 0.46206475253210239 0 -0.17453557306473899 0.46796298731641428 0 -0.15779819732271971 0.4695739402503486 0 -0.15230793746503779 0.45507497120342549 0 -0.16113758629404229 0.46206475253210239 0 -0.16013216473902109 0.45292766881669072 0 -0.16113758629404229 0.46206475253210239 0 -0.16013216473902109 0.45292766881669072 0 -0.16940388650370539 0.44815354093755089 0 -0.15767924869329919 0.44641741059368378 0 -0.16940388650370539 0.44815354093755089 0 -0.15912083936695831 0.4347249498771325 0 -0.15230793746503779 0.45507497120342549 0 -0.16013216473902109 0.45292766881669072 0 -0.15767924869329919 0.44641741059368378 0 -0.16013216473902109 0.45292766881669072 0 -0.15767924869329919 0.44641741059368378 0 -0.16940388650370539 0.44815354093755089 0 -0.1829590266345629 0.45699162349075462 0 -0.18255950863604661 0.43173185523385532 0 -0.1829590266345629 0.45699162349075462 0 -0.19557533522393281 0.44055915781337712 0 -0.18255950863604661 0.43173185523385532 0 -0.16940388650370539 0.44815354093755089 0 -0.1829590266345629 0.45699162349075462 0 -0.18255950863604661 0.43173185523385532 0 -0.16113758629404229 0.46206475253210239 0 -0.17453557306473899 0.46796298731641428 0 -0.18144315819010631 0.45896600894655282 0 -0.17453557306473899 0.46796298731641428 0 -0.18144315819010631 0.45896600894655282 0 -0.17453557306473899 0.46796298731641428 0 -0.18311948649431831 0.46713679563994498 0 -0.16940388650370539 0.44815354093755089 0 -0.18144315819010631 0.45896600894655282 0 -0.1829590266345629 0.45699162349075462 0 -0.18144315819010631 0.45896600894655282 0 -0.1829590266345629 0.45699162349075462 0 -0.18144315819010631 0.45896600894655282 0 -0.1829865290739871 0.45873048193697258 0 -0.1829590266345629 0.45699162349075462 0 -0.18144315819010631 0.45896600894655282 0 -0.1829865290739871 0.45873048193697258 0 -0.1829865290739871 0.45873048193697258 0 -0.1829590266345629 0.45699162349075462 0 -0.17453557306473899 0.46796298731641428 0 -0.18144315819010631 0.45896600894655282 0 -0.18311948649431831 0.46713679563994498 0 -0.1829865290739871 0.45873048193697258 0 -0.18311948649431831 0.46713679563994498 0 -0.18144315819010631 0.45896600894655282 0 -0.1829865290739871 0.45873048193697258 0 -0.18311948649431831 0.46713679563994498 0 -0.18311948649431831 0.46713679563994498 0 -0.18337937489664821 0.48356839781997168 0 -0.19511197543601369 0.47606725323690458 0 -0.18311948649431831 0.46713679563994498 0 -0.18337937489664821 0.48356839781997168 0 -0.18311948649431831 0.46713679563994498 0 -0.18337937489664821 0.48356839781997168 0 -0.17485937494801759 0.47808814193434568 0 -0.17453557306473899 0.46796298731641428 0 -0.18311948649431831 0.46713679563994498 0 -0.17485937494801759 0.47808814193434568 0 -0.17453557306473899 0.46796298731641428 0 -0.15779819732271971 0.4695739402503486 0 -0.17453557306473899 0.46796298731641428 0 -0.16499414335466689 0.48039049058434952 0 -0.17453557306473899 0.46796298731641428 0 -0.16499414335466689 0.48039049058434952 0 -0.15779819732271971 0.4695739402503486 0 -0.17453557306473899 0.46796298731641428 0 -0.17485937494801759 0.47808814193434568 0 -0.16499414335466689 0.48039049058434952 0 -0.17485937494801759 0.47808814193434568 0 -0.16499414335466689 0.48039049058434952 0 -0.1699453859209171 0.49288017845899518 0 -0.1558122254133027 0.48316327461493752 0 -0.16499414335466689 0.48039049058434952 0 -0.15682389603308189 0.47748605108520858 0 -0.16499414335466689 0.48039049058434952 0 -0.15682389603308189 0.47748605108520858 0 -0.15779819732271971 0.4695739402503486 0 -0.15453849507163009 0.5 0 -0.1699453859209171 0.49288017845899518 0 -0.18363926329897839 0.49999999999999828 0 -0.15453849507163009 0.5 0 -0.15545271364459581 0.49281799385228547 0 -0.1699453859209171 0.49288017845899518 0 -0.15545271364459581 0.49281799385228547 0 -0.16499414335466689 0.48039049058434952 0 -0.1699453859209171 0.49288017845899518 0 -0.15545271364459581 0.49281799385228547 0 -0.16499414335466689 0.48039049058434952 0 -0.1558122254133027 0.48316327461493752 0 -0.15545271364459581 0.49281799385228547 0 -0.16499414335466689 0.48039049058434952 0 -0.18337937489664821 0.48356839781997168 0 -0.18363926329897839 0.49999999999999828 0 -0.18337937489664821 0.48356839781997168 0 -0.1699453859209171 0.49288017845899518 0 -0.18363926329897839 0.49999999999999828 0 -0.18337937489664821 0.48356839781997168 0 -0.17485937494801759 0.47808814193434568 0 -0.1699453859209171 0.49288017845899518 0 -0.18337937489664821 0.48356839781997168 0 -0.18363926329897839 0.49999999999999828 0 -0.19848883175809501 0.48685236178056529 0 -0.18363926329897839 0.49999999999999828 0 -0.19848883175809501 0.48685236178056529 0 -0.20708556466301639 0.5 0 -0.18311948649431831 0.46713679563994498 0 -0.19511197543601369 0.47606725323690458 0 -0.20656524953558469 0.46488016823659339 0 -0.18337937489664821 0.48356839781997168 0 -0.19848883175809501 0.48685236178056529 0 -0.19511197543601369 0.47606725323690458 0 -0.19848883175809501 0.48685236178056529 0 -0.19511197543601369 0.47606725323690458 0 -0.206747867840962 0.47700509082497228 0 -0.19511197543601369 0.47606725323690458 0 -0.206747867840962 0.47700509082497228 0 -0.20656524953558469 0.46488016823659339 0 -0.19848883175809501 0.48685236178056529 0 -0.206747867840962 0.47700509082497228 0 -0.21585796601610141 0.48648558657266339 0 -0.206747867840962 0.47700509082497228 0 -0.21852396914967101 0.47285401242330122 0 -0.20656524953558469 0.46488016823659339 0 -0.206747867840962 0.47700509082497228 0 -0.21852396914967101 0.47285401242330122 0 -0.21585796601610141 0.48648558657266339 0 -0.20708556466301639 0.5 0 -0.21585796601610141 0.48648558657266339 0 -0.23053186602705439 0.5 0 -0.19848883175809501 0.48685236178056529 0 -0.20708556466301639 0.5 0 -0.21585796601610141 0.48648558657266339 0 -0.21585796601610141 0.48648558657266339 0 -0.23053186602705439 0.5 0 -0.2373192826940049 0.48342253064983348 0 -0.21852396914967101 0.47285401242330122 0 -0.2373192826940049 0.48342253064983348 0 -0.23001101257685119 0.46262354083324181 0 -0.21852396914967101 0.47285401242330122 0 -0.21585796601610141 0.48648558657266339 0 -0.2373192826940049 0.48342253064983348 0 -0.25474868654415728 0.48692894813519849 0 -0.25315469521642581 0.4750486889203015 0 -0.2373192826940049 0.48342253064983348 0 -0.25315469521642581 0.4750486889203015 0 -0.2373192826940049 0.48342253064983348 0 -0.23001101257685119 0.46262354083324181 0 -0.25397816739109252 0.5 0 -0.23053186602705439 0.5 0 -0.2373192826940049 0.48342253064983348 0 -0.25397816739109252 0.5 0 -0.25474868654415728 0.48692894813519849 0 -0.2373192826940049 0.48342253064983348 0 -0.26330490497154813 0.43976041958731371 0 -0.24129970279445639 0.44943490890582899 0 -0.24092688658692171 0.43286849171069308 0 -0.24129970279445639 0.44943490890582899 0 -0.2242493546558077 0.44235471361969553 0 -0.24092688658692171 0.43286849171069308 0 -0.25345677561811758 0.46036691342989022 0 -0.23001101257685119 0.46262354083324181 0 -0.25345677561811758 0.46036691342989022 0 -0.24129970279445639 0.44943490890582899 0 -0.23001101257685119 0.46262354083324181 0 -0.25345677561811758 0.46036691342989022 0 -0.25315469521642581 0.4750486889203015 0 -0.23001101257685119 0.46262354083324181 0 -0.24129970279445639 0.44943490890582899 0 -0.23001101257685119 0.46262354083324181 0 -0.2242493546558077 0.44235471361969553 0 -0.23001101257685119 0.46262354083324181 0 -0.2242493546558077 0.44235471361969553 0 -0.2144914677851314 0.45380351874251162 0 -0.2242493546558077 0.44235471361969553 0 -0.20880164963731279 0.443380440886459 0 -0.2144914677851314 0.45380351874251162 0 -0.20880164963731279 0.443380440886459 0 -0.2144914677851314 0.45380351874251162 0 -0.20415969833182021 0.45549933815243238 0 -0.23001101257685119 0.46262354083324181 0 -0.2144914677851314 0.45380351874251162 0 -0.20656524953558469 0.46488016823659339 0 -0.21852396914967101 0.47285401242330122 0 -0.23001101257685119 0.46262354083324181 0 -0.20656524953558469 0.46488016823659339 0 -0.23001101257685119 0.46262354083324181 0 -0.20656524953558469 0.46488016823659339 0 -0.2144914677851314 0.45380351874251162 0 -0.20415969833182021 0.45549933815243238 0 -0.20656524953558469 0.46488016823659339 0 -0.1829865290739871 0.45873048193697258 0 -0.1829590266345629 0.45699162349075462 0 -0.20415969833182021 0.45549933815243238 0 -0.1829865290739871 0.45873048193697258 0 -0.20415969833182021 0.45549933815243238 0 -0.18311948649431831 0.46713679563994498 0 -0.20415969833182021 0.45549933815243238 0 -0.20656524953558469 0.46488016823659339 0 -0.1829865290739871 0.45873048193697258 0 -0.18311948649431831 0.46713679563994498 0 -0.20415969833182021 0.45549933815243238 0 -0.18311948649431831 0.46713679563994498 0 -0.20656524953558469 0.46488016823659339 0 -0.1829590266345629 0.45699162349075462 0 -0.19557533522393281 0.44055915781337712 0 -0.1829590266345629 0.45699162349075462 0 -0.20415969833182021 0.45549933815243238 0 -0.19557533522393281 0.44055915781337712 0 -0.20880164963731279 0.443380440886459 0 -0.20415969833182021 0.45549933815243238 0 -0.19557533522393281 0.44055915781337712 0 -0.19557533522393281 0.44055915781337712 0 -0.20819164381331129 0.42412669213600601 0 -0.19557533522393281 0.44055915781337712 0 -0.19413142888046839 0.4217351031076268 0 -0.18255950863604661 0.43173185523385532 0 -0.19557533522393281 0.44055915781337712 0 -0.19413142888046839 0.4217351031076268 0 -0.20819164381331129 0.42412669213600601 0 -0.19413142888046839 0.4217351031076268 0 -0.20819164381331129 0.42412669213600601 0 -0.2021706660915297 0.40578572337793972 0 -0.19413142888046839 0.4217351031076268 0 -0.2021706660915297 0.40578572337793972 0 -0.18215999063752189 0.40647208697695608 0 -0.20819164381331129 0.42412669213600601 0 -0.22405449890785839 0.40643558214578251 0 -0.2021706660915297 0.40578572337793972 0 -0.20880164963731279 0.443380440886459 0 -0.19557533522393281 0.44055915781337712 0 -0.20819164381331129 0.42412669213600601 0 -0.2242493546558077 0.44235471361969553 0 -0.20880164963731279 0.443380440886459 0 -0.20819164381331129 0.42412669213600601 0 -0.2242493546558077 0.44235471361969553 0 -0.20819164381331129 0.42412669213600601 0 -0.22600929792909111 0.42518400498706249 0 -0.2242493546558077 0.44235471361969553 0 -0.22600929792909111 0.42518400498706249 0 -0.24092688658692171 0.43286849171069308 0 -0.20819164381331129 0.42412669213600601 0 -0.22600929792909111 0.42518400498706249 0 -0.22405449890785839 0.40643558214578251 0 -0.22600929792909111 0.42518400498706249 0 -0.22405449890785839 0.40643558214578251 0 -0.2382988550227183 0.41778448946306668 0 -0.2572482915111563 0.42152384209731297 0 -0.2382988550227183 0.41778448946306668 0 -0.2490618870264745 0.40647588616764979 0 -0.22405449890785839 0.40643558214578251 0 -0.2382988550227183 0.41778448946306668 0 -0.2490618870264745 0.40647588616764979 0 -0.2572482915111563 0.42152384209731297 0 -0.2382988550227183 0.41778448946306668 0 -0.24092688658692171 0.43286849171069308 0 -0.22600929792909111 0.42518400498706249 0 -0.2382988550227183 0.41778448946306668 0 -0.24092688658692171 0.43286849171069308 0 -0.24000210142933509 0.37809552861286783 0 -0.23801773827758249 0.39392053259368742 0 -0.22567210936962789 0.38582584627882549 0 -0.25152819264859128 0.38883491631829081 0 -0.24000210142933509 0.37809552861286783 0 -0.23801773827758249 0.39392053259368742 0 -0.25213085833087667 0.37355178257669552 0 -0.25152819264859128 0.38883491631829081 0 -0.24000210142933509 0.37809552861286783 0 -0.25152819264859128 0.38883491631829081 0 -0.2490618870264745 0.40647588616764979 0 -0.23801773827758249 0.39392053259368742 0 -0.22405449890785839 0.40643558214578251 0 -0.2490618870264745 0.40647588616764979 0 -0.23801773827758249 0.39392053259368742 0 -0.22405449890785839 0.40643558214578251 0 -0.22567210936962789 0.38582584627882549 0 -0.2099895612515065 0.38861519238670661 0 -0.22405449890785839 0.40643558214578251 0 -0.23801773827758249 0.39392053259368742 0 -0.22567210936962789 0.38582584627882549 0 -0.22567210936962789 0.38582584627882549 0 -0.21752164111765379 0.37637519474985792 0 -0.23054114355980421 0.3681661286558337 0 -0.24000210142933509 0.37809552861286783 0 -0.22567210936962789 0.38582584627882549 0 -0.23054114355980421 0.3681661286558337 0 -0.22567210936962789 0.38582584627882549 0 -0.21752164111765379 0.37637519474985792 0 -0.2099895612515065 0.38861519238670661 0 -0.21752164111765379 0.37637519474985792 0 -0.2099895612515065 0.38861519238670661 0 -0.20825127389149589 0.37038948781896619 0 -0.2099895612515065 0.38861519238670661 0 -0.1956253707180633 0.37355818799515828 0 -0.20825127389149589 0.37038948781896619 0 -0.22405449890785839 0.40643558214578251 0 -0.2099895612515065 0.38861519238670661 0 -0.2021706660915297 0.40578572337793972 0 -0.2021706660915297 0.40578572337793972 0 -0.19434121226752371 0.39112870189136351 0 -0.18215999063752189 0.40647208697695608 0 -0.2099895612515065 0.38861519238670661 0 -0.2021706660915297 0.40578572337793972 0 -0.19434121226752371 0.39112870189136351 0 -0.2099895612515065 0.38861519238670661 0 -0.19434121226752371 0.39112870189136351 0 -0.1956253707180633 0.37355818799515828 0 -0.19434121226752371 0.39112870189136351 0 -0.18176047263899719 0.38121231872005679 0 -0.1956253707180633 0.37355818799515828 0 -0.18176047263899719 0.38121231872005679 0 -0.16585623702428451 0.39107516703040651 0 -0.16689278400863089 0.37048631692620287 0 -0.16585623702428451 0.39107516703040651 0 -0.1532541744773912 0.375434017343177 0 -0.15169756500005979 0.38990146883471011 0 -0.16585623702428451 0.39107516703040651 0 -0.1532541744773912 0.375434017343177 0 -0.16689278400863089 0.37048631692620287 0 -0.16585623702428451 0.39107516703040651 0 -0.1665369108918931 0.40914444316194981 0 -0.1556916669008335 0.40278409093046019 0 -0.16585623702428451 0.39107516703040651 0 -0.18215999063752189 0.40647208697695608 0 -0.1665369108918931 0.40914444316194981 0 -0.16585623702428451 0.39107516703040651 0 -0.15169756500005979 0.38990146883471011 0 -0.1556916669008335 0.40278409093046019 0 -0.18176047263899719 0.38121231872005679 0 -0.16585623702428451 0.39107516703040651 0 -0.18215999063752189 0.40647208697695608 0 -0.18176047263899719 0.38121231872005679 0 -0.18215999063752189 0.40647208697695608 0 -0.19434121226752371 0.39112870189136351 0 -0.18176047263899719 0.38121231872005679 0 -0.18215999063752189 0.40647208697695608 0 -0.18215999063752189 0.40647208697695608 0 -0.18255950863604661 0.43173185523385532 0 -0.18215999063752189 0.40647208697695608 0 -0.16958367679162159 0.42493542776846188 0 -0.1665369108918931 0.40914444316194981 0 -0.19413142888046839 0.4217351031076268 0 -0.18215999063752189 0.40647208697695608 0 -0.18255950863604661 0.43173185523385532 0 -0.18215999063752189 0.40647208697695608 0 -0.18255950863604661 0.43173185523385532 0 -0.16958367679162159 0.42493542776846188 0 -0.16940388650370539 0.44815354093755089 0 -0.18255950863604661 0.43173185523385532 0 -0.16958367679162159 0.42493542776846188 0 -0.16940388650370539 0.44815354093755089 0 -0.16958367679162159 0.42493542776846188 0 -0.15912083936695831 0.4347249498771325 0 -0.16958367679162159 0.42493542776846188 0 -0.15912083936695831 0.4347249498771325 0 -0.15604886632200479 0.41831593774319042 0 -0.16958367679162159 0.42493542776846188 0 -0.1665369108918931 0.40914444316194981 0 -0.15604886632200479 0.41831593774319042 0 -0.1665369108918931 0.40914444316194981 0 -0.15604886632200479 0.41831593774319042 0 -0.1556916669008335 0.40278409093046019 0 -0.15604886632200479 0.41831593774319042 0 -0.14768726638806501 0.40958107086639878 0 -0.1556916669008335 0.40278409093046019 0 -0.15604886632200479 0.41831593774319042 0 -0.1455440964649429 0.41771164433310332 0 -0.14575226394851429 0.42876386523653243 0 -0.15604886632200479 0.41831593774319042 0 -0.1455440964649429 0.41771164433310332 0 -0.14768726638806501 0.40958107086639878 0 -0.1455440964649429 0.41771164433310332 0 -0.14768726638806501 0.40958107086639878 0 -0.13820848934052041 0.41088683445876423 0 -0.15912083936695831 0.4347249498771325 0 -0.15604886632200479 0.41831593774319042 0 -0.14575226394851429 0.42876386523653243 0 -0.14949031039727409 0.43903968606904947 0 -0.15912083936695831 0.4347249498771325 0 -0.14575226394851429 0.42876386523653243 0 -0.1455440964649429 0.41771164433310332 0 -0.14575226394851429 0.42876386523653243 0 -0.13557398954387551 0.42076075412316039 0 -0.13973201497409549 0.44099892737807922 0 -0.14949031039727409 0.43903968606904947 0 -0.14575226394851429 0.42876386523653243 0 -0.13491063247587859 0.43073185275000708 0 -0.1242188050129694 0.42501783294758849 0 -0.1248743097581413 0.44162978393037222 0 -0.13973201497409549 0.44099892737807922 0 -0.14575226394851429 0.42876386523653243 0 -0.13491063247587859 0.43073185275000708 0 -0.14575226394851429 0.42876386523653243 0 -0.13491063247587859 0.43073185275000708 0 -0.13557398954387551 0.42076075412316039 0 -0.13491063247587859 0.43073185275000708 0 -0.13557398954387551 0.42076075412316039 0 -0.1242188050129694 0.42501783294758849 0 -0.13820848934052041 0.41088683445876423 0 -0.13557398954387551 0.42076075412316039 0 -0.12623023605756489 0.41143854881348008 0 -0.1455440964649429 0.41771164433310332 0 -0.13820848934052041 0.41088683445876423 0 -0.13557398954387551 0.42076075412316039 0 -0.13557398954387551 0.42076075412316039 0 -0.12623023605756489 0.41143854881348008 0 -0.1242188050129694 0.42501783294758849 0 -0.13820848934052041 0.41088683445876423 0 -0.12623023605756489 0.41143854881348008 0 -0.13398515235888339 0.40371564514020769 0 -0.12997925716256209 0.39431640422262348 0 -0.14074253368576661 0.38200722200303072 0 -0.1429432129120235 0.39820684686647628 0 -0.12623023605756489 0.41143854881348008 0 -0.13398515235888339 0.40371564514020769 0 -0.12997925716256209 0.39431640422262348 0 -0.13398515235888339 0.40371564514020769 0 -0.12997925716256209 0.39431640422262348 0 -0.1429432129120235 0.39820684686647628 0 -0.13820848934052041 0.41088683445876423 0 -0.13398515235888339 0.40371564514020769 0 -0.1429432129120235 0.39820684686647628 0 -0.12997925716256209 0.39431640422262348 0 -0.14074253368576661 0.38200722200303072 0 -0.12523428666698541 0.37069662222368049 0 -0.12997925716256209 0.39431640422262348 0 -0.12523428666698541 0.37069662222368049 0 -0.12103247972044499 0.39311621374447298 0 -0.14074253368576661 0.38200722200303072 0 -0.15169756500005979 0.38990146883471011 0 -0.1429432129120235 0.39820684686647628 0 -0.14074253368576661 0.38200722200303072 0 -0.1532541744773912 0.375434017343177 0 -0.15169756500005979 0.38990146883471011 0 -0.15169756500005979 0.38990146883471011 0 -0.1556916669008335 0.40278409093046019 0 -0.1429432129120235 0.39820684686647628 0 -0.14768726638806501 0.40958107086639878 0 -0.1556916669008335 0.40278409093046019 0 -0.1429432129120235 0.39820684686647628 0 -0.14768726638806501 0.40958107086639878 0 -0.13820848934052041 0.41088683445876423 0 -0.1429432129120235 0.39820684686647628 0 -0.14407255521749979 0.34403263722221961 0 -0.15504053286571459 0.3545366000593369 0 -0.14129669608781389 0.36249735492572199 0 -0.14407255521749979 0.34403263722221961 0 -0.15504053286571459 0.3545366000593369 0 -0.1549481930100888 0.34056708499864929 0 -0.14074253368576661 0.38200722200303072 0 -0.1532541744773912 0.375434017343177 0 -0.14129669608781389 0.36249735492572199 0 -0.1532541744773912 0.375434017343177 0 -0.15504053286571459 0.3545366000593369 0 -0.14129669608781389 0.36249735492572199 0 -0.14129669608781389 0.36249735492572199 0 -0.12523428666698541 0.37069662222368049 0 -0.1294360936135257 0.3482770307028879 0 -0.12523428666698541 0.37069662222368049 0 -0.1294360936135257 0.3482770307028879 0 -0.14074253368576661 0.38200722200303072 0 -0.14129669608781389 0.36249735492572199 0 -0.12523428666698541 0.37069662222368049 0 -0.14407255521749979 0.34403263722221961 0 -0.14129669608781389 0.36249735492572199 0 -0.1294360936135257 0.3482770307028879 0 -0.1294360936135257 0.3482770307028879 0 -0.13363790056006589 0.32585743918209531 0 -0.14407255521749979 0.34403263722221961 0 -0.1294360936135257 0.3482770307028879 0 -0.13363790056006589 0.32585743918209531 0 -0.1294360936135257 0.3482770307028879 0 -0.13363790056006589 0.32585743918209531 0 -0.1154499742120704 0.34086754873962172 0 -0.12722248981549561 0.3181430308760943 0 -0.13363790056006589 0.32585743918209531 0 -0.1360408951285694 0.3130357752318072 0 -0.12722248981549561 0.3181430308760943 0 -0.1360408951285694 0.3130357752318072 0 -0.12136448477009221 0.30951812845445109 0 -0.12722248981549561 0.3181430308760943 0 -0.13363790056006589 0.32585743918209531 0 -0.12142985306419619 0.32461006626398298 0 -0.13363790056006589 0.32585743918209531 0 -0.12142985306419619 0.32461006626398298 0 -0.13363790056006589 0.32585743918209531 0 -0.1360408951285694 0.3130357752318072 0 -0.14290423209994971 0.32095809222069871 0 -0.13363790056006589 0.32585743918209531 0 -0.1360408951285694 0.3130357752318072 0 -0.14290423209994971 0.32095809222069871 0 -0.1532404752523272 0.32269894785805692 0 -0.1464174014568787 0.29836992735667278 0 -0.13363790056006589 0.32585743918209531 0 -0.14290423209994971 0.32095809222069871 0 -0.15729966860100811 0.32827511069417059 0 -0.13363790056006589 0.32585743918209531 0 -0.15729966860100811 0.32827511069417059 0 -0.14290423209994971 0.32095809222069871 0 -0.1532404752523272 0.32269894785805692 0 -0.15729966860100811 0.32827511069417059 0 -0.1532404752523272 0.32269894785805692 0 -0.15943794807189979 0.31595908059817063 0 -0.1547819877644892 0.3091453549012102 0 -0.14407255521749979 0.34403263722221961 0 -0.13363790056006589 0.32585743918209531 0 -0.14748957934716561 0.33468306802428371 0 -0.13363790056006589 0.32585743918209531 0 -0.14748957934716561 0.33468306802428371 0 -0.15729966860100811 0.32827511069417059 0 -0.14748957934716561 0.33468306802428371 0 -0.1549481930100888 0.34056708499864929 0 -0.15729966860100811 0.32827511069417059 0 -0.14407255521749979 0.34403263722221961 0 -0.14748957934716561 0.33468306802428371 0 -0.1549481930100888 0.34056708499864929 0 -0.15729966860100811 0.32827511069417059 0 -0.18096143664194889 0.33069278220625808 0 -0.1549481930100888 0.34056708499864929 0 -0.15729966860100811 0.32827511069417059 0 -0.16781010436956259 0.34240718275037813 0 -0.15729966860100811 0.32827511069417059 0 -0.16781010436956259 0.34240718275037813 0 -0.18096143664194889 0.33069278220625808 0 -0.15729966860100811 0.32827511069417059 0 -0.17028988351433311 0.32233995817617028 0 -0.18096143664194889 0.33069278220625808 0 -0.15943794807189979 0.31595908059817063 0 -0.16495134068588049 0.31685297469802859 0 -0.1638395481514221 0.30983277085387728 0 -0.1532404752523272 0.32269894785805692 0 -0.15943794807189979 0.31595908059817063 0 -0.16037638850537991 0.32126535467967993 0 -0.15943794807189979 0.31595908059817063 0 -0.16037638850537991 0.32126535467967993 0 -0.16495134068588049 0.31685297469802859 0 -0.15729966860100811 0.32827511069417059 0 -0.16037638850537991 0.32126535467967993 0 -0.17028988351433311 0.32233995817617028 0 -0.1532404752523272 0.32269894785805692 0 -0.15729966860100811 0.32827511069417059 0 -0.16037638850537991 0.32126535467967993 0 -0.16495134068588049 0.31685297469802859 0 -0.17285953122972289 0.31090601179704258 0 -0.1638395481514221 0.30983277085387728 0 -0.17028988351433311 0.32233995817617028 0 -0.16495134068588049 0.31685297469802859 0 -0.17285953122972289 0.31090601179704258 0 -0.16037638850537991 0.32126535467967993 0 -0.17028988351433311 0.32233995817617028 0 -0.16495134068588049 0.31685297469802859 0 -0.18077272512400111 0.31876138179813301 0 -0.17285953122972289 0.31090601179704258 0 -0.17028988351433311 0.32233995817617028 0 -0.18077272512400111 0.31876138179813301 0 -0.17285953122972289 0.31090601179704258 0 -0.17028988351433311 0.32233995817617028 0 -0.18077272512400111 0.31876138179813301 0 -0.18096143664194889 0.33069278220625808 0 -0.18077272512400111 0.31876138179813301 0 -0.19386790912735871 0.33176087567547108 0 -0.18077272512400111 0.31876138179813301 0 -0.18096143664194889 0.33069278220625808 0 -0.18077272512400111 0.31876138179813301 0 -0.18096143664194889 0.33069278220625808 0 -0.19386790912735871 0.33176087567547108 0 -0.18096143664194889 0.33069278220625808 0 -0.1813609546404725 0.35595255046315749 0 -0.18096143664194889 0.33069278220625808 0 -0.1813609546404725 0.35595255046315749 0 -0.19258948339875709 0.33633707034479371 0 -0.16781010436956259 0.34240718275037813 0 -0.18096143664194889 0.33069278220625808 0 -0.1813609546404725 0.35595255046315749 0 -0.18096143664194889 0.33069278220625808 0 -0.19386790912735871 0.33176087567547108 0 -0.15504053286571459 0.3545366000593369 0 -0.16781010436956259 0.34240718275037813 0 -0.1813609546404725 0.35595255046315749 0 -0.15504053286571459 0.3545366000593369 0 -0.1549481930100888 0.34056708499864929 0 -0.16781010436956259 0.34240718275037813 0 -0.1532541744773912 0.375434017343177 0 -0.15504053286571459 0.3545366000593369 0 -0.16689278400863089 0.37048631692620287 0 -0.15504053286571459 0.3545366000593369 0 -0.1813609546404725 0.35595255046315749 0 -0.16689278400863089 0.37048631692620287 0 -0.18176047263899719 0.38121231872005679 0 -0.1813609546404725 0.35595255046315749 0 -0.18176047263899719 0.38121231872005679 0 -0.1813609546404725 0.35595255046315749 0 -0.1956253707180633 0.37355818799515828 0 -0.18176047263899719 0.38121231872005679 0 -0.1813609546404725 0.35595255046315749 0 -0.16689278400863089 0.37048631692620287 0 -0.1813609546404725 0.35595255046315749 0 -0.1956253707180633 0.37355818799515828 0 -0.2000380028121157 0.35856944723279938 0 -0.1956253707180633 0.37355818799515828 0 -0.2000380028121157 0.35856944723279938 0 -0.20825127389149589 0.37038948781896619 0 -0.1813609546404725 0.35595255046315749 0 -0.1951678646333711 0.34883535218340811 0 -0.19258948339875709 0.33633707034479371 0 -0.1813609546404725 0.35595255046315749 0 -0.1951678646333711 0.34883535218340811 0 -0.2000380028121157 0.35856944723279938 0 -0.1951678646333711 0.34883535218340811 0 -0.2000380028121157 0.35856944723279938 0 -0.20668301768213909 0.34448234069288158 0 -0.20668301768213909 0.34448234069288158 0 -0.2120127789660084 0.36084248239747968 0 -0.21921666942493959 0.3569244055809645 0 -0.2000380028121157 0.35856944723279938 0 -0.20668301768213909 0.34448234069288158 0 -0.2120127789660084 0.36084248239747968 0 -0.2120127789660084 0.36084248239747968 0 -0.21921666942493959 0.3569244055809645 0 -0.20668301768213909 0.34448234069288158 0 -0.21921666942493959 0.3569244055809645 0 -0.22158808080033929 0.34557455345049992 0 -0.20668301768213909 0.34448234069288158 0 -0.21921666942493959 0.3569244055809645 0 -0.2000380028121157 0.35856944723279938 0 -0.20825127389149589 0.37038948781896619 0 -0.2120127789660084 0.36084248239747968 0 -0.2120127789660084 0.36084248239747968 0 -0.2199937556016836 0.36693485901855288 0 -0.21921666942493959 0.3569244055809645 0 -0.20825127389149589 0.37038948781896619 0 -0.2120127789660084 0.36084248239747968 0 -0.2199937556016836 0.36693485901855288 0 -0.21752164111765379 0.37637519474985792 0 -0.20825127389149589 0.37038948781896619 0 -0.2199937556016836 0.36693485901855288 0 -0.21752164111765379 0.37637519474985792 0 -0.23054114355980421 0.3681661286558337 0 -0.2199937556016836 0.36693485901855288 0 -0.23054114355980421 0.3681661286558337 0 -0.21921666942493959 0.3569244055809645 0 -0.23305195790672301 0.35812934693154008 0 -0.23054114355980421 0.3681661286558337 0 -0.2199937556016836 0.36693485901855288 0 -0.21921666942493959 0.3569244055809645 0 -0.23054114355980421 0.3681661286558337 0 -0.21921666942493959 0.3569244055809645 0 -0.21921666942493959 0.3569244055809645 0 -0.22158808080033929 0.34557455345049992 0 -0.23915963598069589 0.34607775607121571 0 -0.21921666942493959 0.3569244055809645 0 -0.23915963598069589 0.34607775607121571 0 -0.21921666942493959 0.3569244055809645 0 -0.23305195790672301 0.35812934693154008 0 -0.23915963598069589 0.34607775607121571 0 -0.23305195790672301 0.35812934693154008 0 -0.23915963598069589 0.34607775607121571 0 -0.24329038266145239 0.36134909741814653 0 -0.25407523553642281 0.3497448278934856 0 -0.23915963598069589 0.34607775607121571 0 -0.24329038266145239 0.36134909741814653 0 -0.25213085833087667 0.37355178257669552 0 -0.24000210142933509 0.37809552861286783 0 -0.24329038266145239 0.36134909741814653 0 -0.24000210142933509 0.37809552861286783 0 -0.23054114355980421 0.3681661286558337 0 -0.24329038266145239 0.36134909741814653 0 -0.23054114355980421 0.3681661286558337 0 -0.23305195790672301 0.35812934693154008 0 -0.24329038266145239 0.36134909741814653 0 -0.23582541811145999 0.32679902143390172 0 -0.24885494741763489 0.31718848033418301 0 -0.23189508169276829 0.30076725351495531 0 -0.23582541811145999 0.32679902143390172 0 -0.24885494741763489 0.31718848033418301 0 -0.24633099797708269 0.32737693631841108 0 -0.25451497659773847 0.32559442806853028 0 -0.24885494741763489 0.31718848033418301 0 -0.24633099797708269 0.32737693631841108 0 -0.24843663428782739 0.33758714710907461 0 -0.22129300011358269 0.33481371145693772 0 -0.25451497659773847 0.32559442806853028 0 -0.24633099797708269 0.32737693631841108 0 -0.24843663428782739 0.33758714710907461 0 -0.25910260253645218 0.33523110656146687 0 -0.23915963598069589 0.34607775607121571 0 -0.23582541811145999 0.32679902143390172 0 -0.24633099797708269 0.32737693631841108 0 -0.24843663428782739 0.33758714710907461 0 -0.25910260253645218 0.33523110656146687 0 -0.23915963598069589 0.34607775607121571 0 -0.24843663428782739 0.33758714710907461 0 -0.23582541811145999 0.32679902143390172 0 -0.24843663428782739 0.33758714710907461 0 -0.22129300011358269 0.33481371145693772 0 -0.23915963598069589 0.34607775607121571 0 -0.24843663428782739 0.33758714710907461 0 -0.22129300011358269 0.33481371145693772 0 -0.22158808080033929 0.34557455345049992 0 -0.23915963598069589 0.34607775607121571 0 -0.22129300011358269 0.33481371145693772 0 -0.23582541811145999 0.32679902143390172 0 -0.21954464392232159 0.31820766509236142 0 -0.23189508169276829 0.30076725351495531 0 -0.23582541811145999 0.32679902143390172 0 -0.22129300011358269 0.33481371145693772 0 -0.21954464392232159 0.31820766509236142 0 -0.21954464392232159 0.31820766509236142 0 -0.20492818889453221 0.32276220977772679 0 -0.20060783596013981 0.3076349397264902 0 -0.22129300011358269 0.33481371145693772 0 -0.21954464392232159 0.31820766509236142 0 -0.20492818889453221 0.32276220977772679 0 -0.22129300011358269 0.33481371145693772 0 -0.20492818889453221 0.32276220977772679 0 -0.19386790912735871 0.33176087567547108 0 -0.22129300011358269 0.33481371145693772 0 -0.19386790912735871 0.33176087567547108 0 -0.20668301768213909 0.34448234069288158 0 -0.22129300011358269 0.33481371145693772 0 -0.19386790912735871 0.33176087567547108 0 -0.20668301768213909 0.34448234069288158 0 -0.22158808080033929 0.34557455345049992 0 -0.22129300011358269 0.33481371145693772 0 -0.20668301768213909 0.34448234069288158 0 -0.19386790912735871 0.33176087567547108 0 -0.19258948339875709 0.33633707034479371 0 -0.20668301768213909 0.34448234069288158 0 -0.19386790912735871 0.33176087567547108 0 -0.1951678646333711 0.34883535218340811 0 -0.20668301768213909 0.34448234069288158 0 -0.19258948339875709 0.33633707034479371 0 -0.18096143664194889 0.33069278220625808 0 -0.19386790912735871 0.33176087567547108 0 -0.19258948339875709 0.33633707034479371 0 -0.19386790912735871 0.33176087567547108 0 -0.19258948339875709 0.33633707034479371 0 -0.18077272512400111 0.31876138179813301 0 -0.19386790912735871 0.33176087567547108 0 -0.20060783596013981 0.3076349397264902 0 -0.20492818889453221 0.32276220977772679 0 -0.19386790912735871 0.33176087567547108 0 -0.20060783596013981 0.3076349397264902 0 -0.19386790912735871 0.33176087567547108 0 -0.20060783596013981 0.3076349397264902 0 -0.20060783596013981 0.3076349397264902 0 -0.20734776279292019 0.28350900377750898 0 -0.23189508169276829 0.30076725351495531 0 -0.21954464392232159 0.31820766509236142 0 -0.20060783596013981 0.3076349397264902 0 -0.23189508169276829 0.30076725351495531 0 -0.20060783596013981 0.3076349397264902 0 -0.20734776279292019 0.28350900377750898 0 -0.18034630435624241 0.29180066960649809 0 -0.20734776279292019 0.28350900377750898 0 -0.19375927737912041 0.2730469699042487 0 -0.18034630435624241 0.29180066960649809 0 -0.20060783596013981 0.3076349397264902 0 -0.20734776279292019 0.28350900377750898 0 -0.20734776279292019 0.28350900377750898 0 -0.23189508169276829 0.30076725351495531 0 -0.22396762922540969 0.27514125130055722 0 -0.23189508169276829 0.30076725351495531 0 -0.2378434694439332 0.28391349183279069 0 -0.22396762922540969 0.27514125130055722 0 -0.25673188405007052 0.28646841290673969 0 -0.23189508169276829 0.30076725351495531 0 -0.2378434694439332 0.28391349183279069 0 -0.25673188405007052 0.28646841290673969 0 -0.23189508169276829 0.30076725351495531 0 -0.25505401324638421 0.30366623925853881 0 -0.25673188405007052 0.28646841290673969 0 -0.23189508169276829 0.30076725351495531 0 -0.25505401324638421 0.30366623925853881 0 -0.24885494741763489 0.31718848033418301 0 -0.23189508169276829 0.30076725351495531 0 -0.25265925142613249 0.26128234508680298 0 -0.23885305679183191 0.2684477152547543 0 -0.23951274761537589 0.2474853768326048 0 -0.23885305679183191 0.2684477152547543 0 -0.22811192938500721 0.25829645972706228 0 -0.23951274761537589 0.2474853768326048 0 -0.25621817608628389 0.2460965770837312 0 -0.25265925142613249 0.26128234508680298 0 -0.23951274761537589 0.2474853768326048 0 -0.25673188405007052 0.28646841290673969 0 -0.2378434694439332 0.28391349183279069 0 -0.23885305679183191 0.2684477152547543 0 -0.25265925142613249 0.26128234508680298 0 -0.25673188405007052 0.28646841290673969 0 -0.23885305679183191 0.2684477152547543 0 -0.23885305679183191 0.2684477152547543 0 -0.22396762922540969 0.27514125130055722 0 -0.22811192938500721 0.25829645972706228 0 -0.2378434694439332 0.28391349183279069 0 -0.23885305679183191 0.2684477152547543 0 -0.22396762922540969 0.27514125130055722 0 -0.22811192938500721 0.25829645972706228 0 -0.22371849106378741 0.2462845034026982 0 -0.23951274761537589 0.2474853768326048 0 -0.22396762922540969 0.27514125130055722 0 -0.22811192938500721 0.25829645972706228 0 -0.21408768962570049 0.25938306782852782 0 -0.22811192938500721 0.25829645972706228 0 -0.21408768962570049 0.25938306782852782 0 -0.22371849106378741 0.2462845034026982 0 -0.21408768962570049 0.25938306782852782 0 -0.19928355658839081 0.25766712263582692 0 -0.2066863838603582 0.24242880758937649 0 -0.21408768962570049 0.25938306782852782 0 -0.20163280817849061 0.26608937016207479 0 -0.19928355658839081 0.25766712263582692 0 -0.20734776279292019 0.28350900377750898 0 -0.21408768962570049 0.25938306782852782 0 -0.20734776279292019 0.28350900377750898 0 -0.22396762922540969 0.27514125130055722 0 -0.21408768962570049 0.25938306782852782 0 -0.20734776279292019 0.28350900377750898 0 -0.21408768962570049 0.25938306782852782 0 -0.20163280817849061 0.26608937016207479 0 -0.20734776279292019 0.28350900377750898 0 -0.20163280817849061 0.26608937016207479 0 -0.19375927737912041 0.2730469699042487 0 -0.20163280817849061 0.26608937016207479 0 -0.19375927737912041 0.2730469699042487 0 -0.19160269433399771 0.26436194023610149 0 -0.19375927737912041 0.2730469699042487 0 -0.19160269433399771 0.26436194023610149 0 -0.17991988358848049 0.26483995741486333 0 -0.19928355658839081 0.25766712263582692 0 -0.18259587964237009 0.2606558300825601 0 -0.2066863838603582 0.24242880758937649 0 -0.18259587964237009 0.2606558300825601 0 -0.19333963139412971 0.24385714112684301 0 -0.19928355658839081 0.25766712263582692 0 -0.19160269433399771 0.26436194023610149 0 -0.18259587964237009 0.2606558300825601 0 -0.18259587964237009 0.2606558300825601 0 -0.2066863838603582 0.24242880758937649 0 -0.20163280817849061 0.26608937016207479 0 -0.19928355658839081 0.25766712263582692 0 -0.19160269433399771 0.26436194023610149 0 -0.17991988358848049 0.26483995741486333 0 -0.17951502337729761 0.2392424245160312 0 -0.17991988358848049 0.26483995741486333 0 -0.17042143569771079 0.26099360542817968 0 -0.17951502337729761 0.2392424245160312 0 -0.18259587964237009 0.2606558300825601 0 -0.17991988358848049 0.26483995741486333 0 -0.17951502337729761 0.2392424245160312 0 -0.19160269433399771 0.26436194023610149 0 -0.18259587964237009 0.2606558300825601 0 -0.17991988358848049 0.26483995741486333 0 -0.18259587964237009 0.2606558300825601 0 -0.17991988358848049 0.26483995741486333 0 -0.17991988358848049 0.26483995741486333 0 -0.17042143569771079 0.26099360542817968 0 -0.17716480609589361 0.26914773470870201 0 -0.17042143569771079 0.26099360542817968 0 -0.1627301728603629 0.26968240911070368 0 -0.1532221513837192 0.25419418888983192 0 -0.17042143569771079 0.26099360542817968 0 -0.1532221513837192 0.25419418888983192 0 -0.17951502337729761 0.2392424245160312 0 -0.1627301728603629 0.26968240911070368 0 -0.1620479085915319 0.28265904931380531 0 -0.15271877240598841 0.27446820953958367 0 -0.17042143569771079 0.26099360542817968 0 -0.1627301728603629 0.26968240911070368 0 -0.1699765768805111 0.26885491792894611 0 -0.1627301728603629 0.26968240911070368 0 -0.1699765768805111 0.26885491792894611 0 -0.16860704672851359 0.27535934789532951 0 -0.1627301728603629 0.26968240911070368 0 -0.16860704672851359 0.27535934789532951 0 -0.1620479085915319 0.28265904931380531 0 -0.16860704672851359 0.27535934789532951 0 -0.17077339862397739 0.28423195702734899 0 -0.1620479085915319 0.28265904931380531 0 -0.17991988358848049 0.26483995741486333 0 -0.18034630435624241 0.29180066960649809 0 -0.17991988358848049 0.26483995741486333 0 -0.17716480609589361 0.26914773470870201 0 -0.18034630435624241 0.29180066960649809 0 -0.16860704672851359 0.27535934789532951 0 -0.17716480609589361 0.26914773470870201 0 -0.17077339862397739 0.28423195702734899 0 -0.19375927737912041 0.2730469699042487 0 -0.17991988358848049 0.26483995741486333 0 -0.18034630435624241 0.29180066960649809 0 -0.17042143569771079 0.26099360542817968 0 -0.1699765768805111 0.26885491792894611 0 -0.17716480609589361 0.26914773470870201 0 -0.1699765768805111 0.26885491792894611 0 -0.16860704672851359 0.27535934789532951 0 -0.17716480609589361 0.26914773470870201 0 -0.17991988358848049 0.26483995741486333 0 -0.17716480609589361 0.26914773470870201 0 -0.17716480609589361 0.26914773470870201 0 -0.18034630435624241 0.29180066960649809 0 -0.17077339862397739 0.28423195702734899 0 -0.18034630435624241 0.29180066960649809 0 -0.16501618616712291 0.29775164083812761 0 -0.17077339862397739 0.28423195702734899 0 -0.18077272512400111 0.31876138179813301 0 -0.18034630435624241 0.29180066960649809 0 -0.18077272512400111 0.31876138179813301 0 -0.18034630435624241 0.29180066960649809 0 -0.17285953122972289 0.31090601179704258 0 -0.18034630435624241 0.29180066960649809 0 -0.17285953122972289 0.31090601179704258 0 -0.16501618616712291 0.29775164083812761 0 -0.18077272512400111 0.31876138179813301 0 -0.20060783596013981 0.3076349397264902 0 -0.18034630435624241 0.29180066960649809 0 -0.16501618616712291 0.29775164083812761 0 -0.15329008091572741 0.28945008379417048 0 -0.1547819877644892 0.3091453549012102 0 -0.17285953122972289 0.31090601179704258 0 -0.16501618616712291 0.29775164083812761 0 -0.1638395481514221 0.30983277085387728 0 -0.16501618616712291 0.29775164083812761 0 -0.1638395481514221 0.30983277085387728 0 -0.1547819877644892 0.3091453549012102 0 -0.15943794807189979 0.31595908059817063 0 -0.1638395481514221 0.30983277085387728 0 -0.1547819877644892 0.3091453549012102 0 -0.16501618616712291 0.29775164083812761 0 -0.17077339862397739 0.28423195702734899 0 -0.1620479085915319 0.28265904931380531 0 -0.16501618616712291 0.29775164083812761 0 -0.1620479085915319 0.28265904931380531 0 -0.15329008091572741 0.28945008379417048 0 -0.1464174014568787 0.29836992735667278 0 -0.13959432766143021 0.2740409068552887 0 -0.1620479085915319 0.28265904931380531 0 -0.15329008091572741 0.28945008379417048 0 -0.15271877240598841 0.27446820953958367 0 -0.15329008091572741 0.28945008379417048 0 -0.1464174014568787 0.29836992735667278 0 -0.13959432766143021 0.2740409068552887 0 -0.15329008091572741 0.28945008379417048 0 -0.1464174014568787 0.29836992735667278 0 -0.1547819877644892 0.3091453549012102 0 -0.1532404752523272 0.32269894785805692 0 -0.1464174014568787 0.29836992735667278 0 -0.1360408951285694 0.3130357752318072 0 -0.14290423209994971 0.32095809222069871 0 -0.1464174014568787 0.29836992735667278 0 -0.1532404752523272 0.32269894785805692 0 -0.1464174014568787 0.29836992735667278 0 -0.1547819877644892 0.3091453549012102 0 -0.1360408951285694 0.3130357752318072 0 -0.1264253840414637 0.29528772621663357 0 -0.12136448477009221 0.30951812845445109 0 -0.1360408951285694 0.3130357752318072 0 -0.1464174014568787 0.29836992735667278 0 -0.1264253840414637 0.29528772621663357 0 -0.1464174014568787 0.29836992735667278 0 -0.1264253840414637 0.29528772621663357 0 -0.13959432766143021 0.2740409068552887 0 -0.1264253840414637 0.29528772621663357 0 -0.13959432766143021 0.2740409068552887 0 -0.1185373796182298 0.27837978510360878 0 -0.13959432766143021 0.2740409068552887 0 -0.1327712538659816 0.24971188635390451 0 -0.13959432766143021 0.2740409068552887 0 -0.116744543106582 0.25728181003509248 0 -0.1327712538659816 0.24971188635390451 0 -0.13959432766143021 0.2740409068552887 0 -0.1532221513837192 0.25419418888983192 0 -0.1327712538659816 0.24971188635390451 0 -0.1627301728603629 0.26968240911070368 0 -0.1532221513837192 0.25419418888983192 0 -0.15271877240598841 0.27446820953958367 0 -0.13959432766143021 0.2740409068552887 0 -0.1532221513837192 0.25419418888983192 0 -0.15271877240598841 0.27446820953958367 0 -0.15329008091572741 0.28945008379417048 0 -0.13959432766143021 0.2740409068552887 0 -0.15271877240598841 0.27446820953958367 0 -0.1061606963602142 0.26761343855331338 0 -0.1001789302111205 0.27974269320078388 0 -0.1185373796182298 0.27837978510360878 0 -0.1061606963602142 0.26761343855331338 0 -0.1001789302111205 0.27974269320078388 0 -0.092613028744971265 0.26767711662392979 0 -0.1061606963602142 0.26761343855331338 0 -0.10005120432924321 0.25626016583208688 0 -0.116744543106582 0.25728181003509248 0 -0.1061606963602142 0.26761343855331338 0 -0.10005120432924321 0.25626016583208688 0 -0.092613028744971265 0.26767711662392979 0 -0.10005120432924321 0.25626016583208688 0 -0.116744543106582 0.25728181003509248 0 -0.1045487088169635 0.24438495162540061 0 -0.13959432766143021 0.2740409068552887 0 -0.116744543106582 0.25728181003509248 0 -0.1185373796182298 0.27837978510360878 0 -0.1061606963602142 0.26761343855331338 0 -0.116744543106582 0.25728181003509248 0 -0.1185373796182298 0.27837978510360878 0 -0.1264253840414637 0.29528772621663357 0 -0.1127724140037699 0.30190213115774378 0 -0.1091517300735869 0.29135078386346752 0 -0.1264253840414637 0.29528772621663357 0 -0.1185373796182298 0.27837978510360878 0 -0.1091517300735869 0.29135078386346752 0 -0.1264253840414637 0.29528772621663357 0 -0.12136448477009221 0.30951812845445109 0 -0.1127724140037699 0.30190213115774378 0 -0.12136448477009221 0.30951812845445109 0 -0.1127724140037699 0.30190213115774378 0 -0.1061991548417472 0.31213959050036899 0 -0.1127724140037699 0.30190213115774378 0 -0.1061991548417472 0.31213959050036899 0 -0.1005146973405663 0.30141191014932889 0 -0.1127724140037699 0.30190213115774378 0 -0.1005146973405663 0.30141191014932889 0 -0.1091517300735869 0.29135078386346752 0 -0.1005146973405663 0.30141191014932889 0 -0.094430836728355921 0.29177030977787999 0 -0.089068024122243669 0.30112896568664949 0 -0.1061991548417472 0.31213959050036899 0 -0.1005146973405663 0.30141191014932889 0 -0.090928135519314904 0.31087631578889069 0 -0.1001789302111205 0.27974269320078388 0 -0.1185373796182298 0.27837978510360878 0 -0.1091517300735869 0.29135078386346752 0 -0.1005146973405663 0.30141191014932889 0 -0.1091517300735869 0.29135078386346752 0 -0.094430836728355921 0.29177030977787999 0 -0.1001789302111205 0.27974269320078388 0 -0.1091517300735869 0.29135078386346752 0 -0.094430836728355921 0.29177030977787999 0 -0.1001789302111205 0.27974269320078388 0 -0.094430836728355921 0.29177030977787999 0 -0.086145563619835275 0.2816538088019015 0 -0.094430836728355921 0.29177030977787999 0 -0.086145563619835275 0.2816538088019015 0 -0.081526075002782958 0.29533369696514911 0 -0.094430836728355921 0.29177030977787999 0 -0.081526075002782958 0.29533369696514911 0 -0.089068024122243669 0.30112896568664949 0 -0.086145563619835275 0.2816538088019015 0 -0.081526075002782958 0.29533369696514911 0 -0.070830210313899522 0.29195808219782299 0 -0.090928135519314904 0.31087631578889069 0 -0.079482369404140468 0.30560554845979909 0 -0.074915307566508993 0.31649039264194578 0 -0.090928135519314904 0.31087631578889069 0 -0.089068024122243669 0.30112896568664949 0 -0.079482369404140468 0.30560554845979909 0 -0.1005146973405663 0.30141191014932889 0 -0.090928135519314904 0.31087631578889069 0 -0.089068024122243669 0.30112896568664949 0 -0.081526075002782958 0.29533369696514911 0 -0.089068024122243669 0.30112896568664949 0 -0.079482369404140468 0.30560554845979909 0 -0.054647974243728172 0.30430181459310768 0 -0.074915307566508993 0.31649039264194578 0 -0.079482369404140468 0.30560554845979909 0 -0.068661557073843291 0.3005821027458685 0 -0.074915307566508993 0.31649039264194578 0 -0.068661557073843291 0.3005821027458685 0 -0.054647974243728172 0.30430181459310768 0 -0.074915307566508993 0.31649039264194578 0 -0.081526075002782958 0.29533369696514911 0 -0.079482369404140468 0.30560554845979909 0 -0.068661557073843291 0.3005821027458685 0 -0.070830210313899522 0.29195808219782299 0 -0.067453711470644842 0.27023673344429472 0 -0.052574645638654917 0.28480468584225688 0 -0.081526075002782958 0.29533369696514911 0 -0.068661557073843291 0.3005821027458685 0 -0.070830210313899522 0.29195808219782299 0 -0.068661557073843291 0.3005821027458685 0 -0.070830210313899522 0.29195808219782299 0 -0.068661557073843291 0.3005821027458685 0 -0.070830210313899522 0.29195808219782299 0 -0.059610011597539182 0.29372125904316332 0 -0.086145563619835275 0.2816538088019015 0 -0.070830210313899522 0.29195808219782299 0 -0.077256670317037021 0.26667642926106078 0 -0.070830210313899522 0.29195808219782299 0 -0.067453711470644842 0.27023673344429472 0 -0.070830210313899522 0.29195808219782299 0 -0.077256670317037021 0.26667642926106078 0 -0.070830210313899522 0.29195808219782299 0 -0.067453711470644842 0.27023673344429472 0 -0.077256670317037021 0.26667642926106078 0 -0.086145563619835275 0.2816538088019015 0 -0.077256670317037021 0.26667642926106078 0 -0.092613028744971265 0.26767711662392979 0 -0.1001789302111205 0.27974269320078388 0 -0.086145563619835275 0.2816538088019015 0 -0.092613028744971265 0.26767711662392979 0 -0.077256670317037021 0.26667642926106078 0 -0.086302411784292182 0.25447467192259482 0 -0.083666647235009842 0.24139059785004849 0 -0.077256670317037021 0.26667642926106078 0 -0.083666647235009842 0.24139059785004849 0 -0.10005120432924321 0.25626016583208688 0 -0.086302411784292182 0.25447467192259482 0 -0.094679029848152713 0.24609146959404629 0 -0.10005120432924321 0.25626016583208688 0 -0.092613028744971265 0.26767711662392979 0 -0.086302411784292182 0.25447467192259482 0 -0.077256670317037021 0.26667642926106078 0 -0.092613028744971265 0.26767711662392979 0 -0.086302411784292182 0.25447467192259482 0 -0.077256670317037021 0.26667642926106078 0 -0.064077212627390134 0.24851538469076631 0 -0.083666647235009842 0.24139059785004849 0 -0.067453711470644842 0.27023673344429472 0 -0.077256670317037021 0.26667642926106078 0 -0.064077212627390134 0.24851538469076631 0 -0.067453711470644842 0.27023673344429472 0 -0.064077212627390134 0.24851538469076631 0 -0.067453711470644842 0.27023673344429472 0 -0.04634179854296408 0.26632715615711849 0 -0.064077212627390134 0.24851538469076631 0 -0.04634179854296408 0.26632715615711849 0 -0.064077212627390134 0.24851538469076631 0 -0.046578861792199937 0.24361118962503389 0 -0.067453711470644842 0.27023673344429472 0 -0.04634179854296408 0.26632715615711849 0 -0.052574645638654917 0.28480468584225688 0 -0.04634179854296408 0.26632715615711849 0 -0.034380640920947357 0.29211323654426968 0 -0.052574645638654917 0.28480468584225688 0 -0.04634179854296408 0.26632715615711849 0 -0.022607631921228569 0.27169805167723737 0 -0.034380640920947357 0.29211323654426968 0 -0.04634179854296408 0.26632715615711849 0 -0.03068766995985707 0.25286978792993342 0 -0.022607631921228569 0.27169805167723737 0 -0.04634179854296408 0.26632715615711849 0 -0.03068766995985707 0.25286978792993342 0 -0.046578861792199937 0.24361118962503389 0 -0.03068766995985707 0.25286978792993342 0 -0.022607631921228569 0.27169805167723737 0 -0.0098044441781452579 0.25473951632571468 0 -0.022607631921228569 0.27169805167723737 0 -0.015153941911089409 0.29208252597919021 0 3.3590645499582607e-05 0.27236849017123349 0 -0.022607631921228569 0.27169805167723737 0 -0.0098044441781452579 0.25473951632571468 0 3.3590645499582607e-05 0.27236849017123349 0 -0.0098044441781452579 0.25473951632571468 0 0.0073806355134042019 0.25529449578482938 0 3.3590645499582607e-05 0.27236849017123349 0 -0.0088759444352828343 0.31092800175718183 0 -0.015153941911089409 0.29208252597919021 0 0.0083336089875100904 0.29343585490586271 0 -0.015153941911089409 0.29208252597919021 0 0.0083336089875100904 0.29343585490586271 0 3.3590645499582607e-05 0.27236849017123349 0 -0.022607631921228569 0.27169805167723737 0 -0.015153941911089409 0.29208252597919021 0 -0.034380640920947357 0.29211323654426968 0 -0.0088759444352828343 0.31092800175718183 0 -0.015153941911089409 0.29208252597919021 0 -0.03508050583840458 0.3127012881250415 0 -0.015153941911089409 0.29208252597919021 0 -0.034380640920947357 0.29211323654426968 0 -0.03508050583840458 0.3127012881250415 0 -0.034380640920947357 0.29211323654426968 0 -0.054647974243728172 0.30430181459310768 0 -0.034380640920947357 0.29211323654426968 0 -0.054647974243728172 0.30430181459310768 0 -0.03508050583840458 0.3127012881250415 0 -0.034380640920947357 0.29211323654426968 0 -0.052574645638654917 0.28480468584225688 0 -0.054647974243728172 0.30430181459310768 0 -0.052574645638654917 0.28480468584225688 0 -0.059610011597539182 0.29372125904316332 0 -0.054647974243728172 0.30430181459310768 0 -0.070830210313899522 0.29195808219782299 0 -0.052574645638654917 0.28480468584225688 0 -0.059610011597539182 0.29372125904316332 0 -0.068661557073843291 0.3005821027458685 0 -0.059610011597539182 0.29372125904316332 0 -0.054647974243728172 0.30430181459310768 0 -0.058679851530075752 0.32054224196392622 0 -0.045885169747561752 0.33132665820789581 0 -0.073191842414501496 0.33174208285196288 0 -0.054647974243728172 0.30430181459310768 0 -0.058679851530075752 0.32054224196392622 0 -0.03508050583840458 0.3127012881250415 0 -0.045885169747561752 0.33132665820789581 0 -0.067541502003893042 0.3482616942848048 0 -0.073191842414501496 0.33174208285196288 0 -0.045885169747561752 0.33132665820789581 0 -0.073191842414501496 0.33174208285196288 0 -0.045885169747561752 0.33132665820789581 0 -0.018578497080621779 0.33091123356382868 0 -0.045885169747561752 0.33132665820789581 0 -0.03508050583840458 0.3127012881250415 0 -0.018578497080621779 0.33091123356382868 0 -0.058679851530075752 0.32054224196392622 0 -0.045885169747561752 0.33132665820789581 0 -0.03508050583840458 0.3127012881250415 0 -0.0088759444352828343 0.31092800175718183 0 -0.03508050583840458 0.3127012881250415 0 -0.018578497080621779 0.33091123356382868 0 -0.018578497080621779 0.33091123356382868 0 -0.0050552824635438226 0.34569829691311771 0 -0.02749858990914332 0.35301881799134821 0 -0.045885169747561752 0.33132665820789581 0 -0.018578497080621779 0.33091123356382868 0 -0.02749858990914332 0.35301881799134821 0 -0.018578497080621779 0.33091123356382868 0 -0.0050552824635438226 0.34569829691311771 0 0.0064742168078369342 0.3347740657525386 0 -0.018578497080621779 0.33091123356382868 0 0.0087281755863181168 0.33049580891976171 0 -0.018578497080621779 0.33091123356382868 0 0.0064742168078369342 0.3347740657525386 0 0.0087281755863181168 0.33049580891976171 0 -0.018578497080621779 0.33091123356382868 0 -0.003280447873963227 0.32161399115684158 0 0.0087281755863181168 0.33049580891976171 0 -0.0088759444352828343 0.31092800175718183 0 -0.018578497080621779 0.33091123356382868 0 -0.003280447873963227 0.32161399115684158 0 -0.0088759444352828343 0.31092800175718183 0 -0.003280447873963227 0.32161399115684158 0 0.0056044744337335906 0.31412092038659428 0 -0.0052616759920083916 0.36132776784546622 0 -0.0045342830833226501 0.3863935686212247 0 -0.0052616759920083916 0.36132776784546622 0 -0.024169526760701381 0.37267007813580277 0 -0.0045342830833226501 0.3863935686212247 0 -0.0052616759920083916 0.36132776784546622 0 -0.0045342830833226501 0.3863935686212247 0 0.0079023355216259559 0.37348921158265391 0 -0.0052616759920083916 0.36132776784546622 0 -0.0050552824635438226 0.34569829691311771 0 0.0061318462344260851 0.35417601161121459 0 -0.0052616759920083916 0.36132776784546622 0 -0.0050552824635438226 0.34569829691311771 0 -0.02749858990914332 0.35301881799134821 0 -0.02749858990914332 0.35301881799134821 0 -0.024169526760701381 0.37267007813580277 0 -0.04149310004589906 0.37124785083274592 0 -0.0052616759920083916 0.36132776784546622 0 -0.02749858990914332 0.35301881799134821 0 -0.024169526760701381 0.37267007813580277 0 -0.02749858990914332 0.35301881799134821 0 -0.04149310004589906 0.37124785083274592 0 -0.051818441616049399 0.35735321764765782 0 -0.045885169747561752 0.33132665820789581 0 -0.02749858990914332 0.35301881799134821 0 -0.051818441616049399 0.35735321764765782 0 -0.045885169747561752 0.33132665820789581 0 -0.051818441616049399 0.35735321764765782 0 -0.067541502003893042 0.3482616942848048 0 -0.04149310004589906 0.37124785083274592 0 -0.051818441616049399 0.35735321764765782 0 -0.056875823715872062 0.37631267096962301 0 -0.051818441616049399 0.35735321764765782 0 -0.069616273344600341 0.3650636543096733 0 -0.056875823715872062 0.37631267096962301 0 -0.069616273344600341 0.3650636543096733 0 -0.085055645225370236 0.37193713089684588 0 -0.071788917171084016 0.3809272333041443 0 -0.069616273344600341 0.3650636543096733 0 -0.071788917171084016 0.3809272333041443 0 -0.056875823715872062 0.37631267096962301 0 -0.069616273344600341 0.3650636543096733 0 -0.085055645225370236 0.37193713089684588 0 -0.084100884505446297 0.3554636863979832 0 -0.085055645225370236 0.37193713089684588 0 -0.084100884505446297 0.3554636863979832 0 -0.1008292236537022 0.36036332390371462 0 -0.084100884505446297 0.3554636863979832 0 -0.067541502003893042 0.3482616942848048 0 -0.085709514220790303 0.34113927750747819 0 -0.084100884505446297 0.3554636863979832 0 -0.085709514220790303 0.34113927750747819 0 -0.099722393067727538 0.34687368244968458 0 -0.069616273344600341 0.3650636543096733 0 -0.084100884505446297 0.3554636863979832 0 -0.067541502003893042 0.3482616942848048 0 -0.051818441616049399 0.35735321764765782 0 -0.069616273344600341 0.3650636543096733 0 -0.067541502003893042 0.3482616942848048 0 -0.067541502003893042 0.3482616942848048 0 -0.073191842414501496 0.33174208285196288 0 -0.085709514220790303 0.34113927750747819 0 -0.058679851530075752 0.32054224196392622 0 -0.073191842414501496 0.33174208285196288 0 -0.074915307566508993 0.31649039264194578 0 -0.054647974243728172 0.30430181459310768 0 -0.058679851530075752 0.32054224196392622 0 -0.074915307566508993 0.31649039264194578 0 -0.073191842414501496 0.33174208285196288 0 -0.074915307566508993 0.31649039264194578 0 -0.095182640889289766 0.32867897069078372 0 -0.090928135519314904 0.31087631578889069 0 -0.074915307566508993 0.31649039264194578 0 -0.095182640889289766 0.32867897069078372 0 -0.074915307566508993 0.31649039264194578 0 -0.095182640889289766 0.32867897069078372 0 -0.073191842414501496 0.33174208285196288 0 -0.085709514220790303 0.34113927750747819 0 -0.095182640889289766 0.32867897069078372 0 -0.085709514220790303 0.34113927750747819 0 -0.095182640889289766 0.32867897069078372 0 -0.099722393067727538 0.34687368244968458 0 -0.095182640889289766 0.32867897069078372 0 -0.1154499742120704 0.34086754873962172 0 -0.095182640889289766 0.32867897069078372 0 -0.1098512680755149 0.32470257897991811 0 -0.1154499742120704 0.34086754873962172 0 -0.095182640889289766 0.32867897069078372 0 -0.1154499742120704 0.34086754873962172 0 -0.099722393067727538 0.34687368244968458 0 -0.1061991548417472 0.31213959050036899 0 -0.090928135519314904 0.31087631578889069 0 -0.095182640889289766 0.32867897069078372 0 -0.1061991548417472 0.31213959050036899 0 -0.095182640889289766 0.32867897069078372 0 -0.1098512680755149 0.32470257897991811 0 -0.1061991548417472 0.31213959050036899 0 -0.115330384384618 0.31728312261503783 0 -0.1098512680755149 0.32470257897991811 0 -0.12136448477009221 0.30951812845445109 0 -0.1061991548417472 0.31213959050036899 0 -0.115330384384618 0.31728312261503783 0 -0.115330384384618 0.31728312261503783 0 -0.1098512680755149 0.32470257897991811 0 -0.12142985306419619 0.32461006626398298 0 -0.12722248981549561 0.3181430308760943 0 -0.115330384384618 0.31728312261503783 0 -0.12142985306419619 0.32461006626398298 0 -0.12722248981549561 0.3181430308760943 0 -0.12136448477009221 0.30951812845445109 0 -0.115330384384618 0.31728312261503783 0 -0.1098512680755149 0.32470257897991811 0 -0.12142985306419619 0.32461006626398298 0 -0.1154499742120704 0.34086754873962172 0 -0.13363790056006589 0.32585743918209531 0 -0.12142985306419619 0.32461006626398298 0 -0.1154499742120704 0.34086754873962172 0 -0.12523428666698541 0.37069662222368049 0 -0.1294360936135257 0.3482770307028879 0 -0.1154159689866658 0.35521970897278921 0 -0.1154499742120704 0.34086754873962172 0 -0.1154159689866658 0.35521970897278921 0 -0.099722393067727538 0.34687368244968458 0 -0.1294360936135257 0.3482770307028879 0 -0.1154499742120704 0.34086754873962172 0 -0.1154159689866658 0.35521970897278921 0 -0.12523428666698541 0.37069662222368049 0 -0.1154159689866658 0.35521970897278921 0 -0.11117961403065831 0.36839673047223442 0 -0.12523428666698541 0.37069662222368049 0 -0.11117961403065831 0.36839673047223442 0 -0.1123930043347208 0.38073562172137532 0 -0.11117961403065831 0.36839673047223442 0 -0.1008292236537022 0.36036332390371462 0 -0.09970079949094271 0.37763208900548878 0 -0.1154159689866658 0.35521970897278921 0 -0.11117961403065831 0.36839673047223442 0 -0.1008292236537022 0.36036332390371462 0 -0.085055645225370236 0.37193713089684588 0 -0.1008292236537022 0.36036332390371462 0 -0.09970079949094271 0.37763208900548878 0 -0.084100884505446297 0.3554636863979832 0 -0.1008292236537022 0.36036332390371462 0 -0.099722393067727538 0.34687368244968458 0 -0.1154159689866658 0.35521970897278921 0 -0.1008292236537022 0.36036332390371462 0 -0.099722393067727538 0.34687368244968458 0 -0.1036554482544351 0.39516830989393792 0 -0.1102807352191843 0.41378788895710661 0 -0.09259379641793411 0.40948313349934218 0 -0.1036554482544351 0.39516830989393792 0 -0.09970079949094271 0.37763208900548878 0 -0.1123930043347208 0.38073562172137532 0 -0.1036554482544351 0.39516830989393792 0 -0.09970079949094271 0.37763208900548878 0 -0.084297773186445962 0.39217279846007119 0 -0.11117961403065831 0.36839673047223442 0 -0.09970079949094271 0.37763208900548878 0 -0.1123930043347208 0.38073562172137532 0 -0.12523428666698541 0.37069662222368049 0 -0.1123930043347208 0.38073562172137532 0 -0.12103247972044499 0.39311621374447298 0 -0.1036554482544351 0.39516830989393792 0 -0.1123930043347208 0.38073562172137532 0 -0.12103247972044499 0.39311621374447298 0 -0.12523428666698541 0.37069662222368049 0 -0.12103247972044499 0.39311621374447298 0 -0.1036554482544351 0.39516830989393792 0 -0.12103247972044499 0.39311621374447298 0 -0.1102807352191843 0.41378788895710661 0 -0.12997925716256209 0.39431640422262348 0 -0.1102807352191843 0.41378788895710661 0 -0.12997925716256209 0.39431640422262348 0 -0.12103247972044499 0.39311621374447298 0 -0.1102807352191843 0.41378788895710661 0 -0.12623023605756489 0.41143854881348008 0 -0.1102807352191843 0.41378788895710661 0 -0.1242188050129694 0.42501783294758849 0 -0.12623023605756489 0.41143854881348008 0 -0.12997925716256209 0.39431640422262348 0 -0.1102807352191843 0.41378788895710661 0 -0.1102807352191843 0.41378788895710661 0 -0.1104760497445479 0.43296770510105842 0 -0.1242188050129694 0.42501783294758849 0 -0.1104760497445479 0.43296770510105842 0 -0.1242188050129694 0.42501783294758849 0 -0.1248743097581413 0.44162978393037222 0 -0.1102807352191843 0.41378788895710661 0 -0.090582213275806372 0.43325937369158968 0 -0.1102807352191843 0.41378788895710661 0 -0.1104760497445479 0.43296770510105842 0 -0.090582213275806372 0.43325937369158968 0 -0.1102807352191843 0.41378788895710661 0 -0.09259379641793411 0.40948313349934218 0 -0.090582213275806372 0.43325937369158968 0 -0.09259379641793411 0.40948313349934218 0 -0.090582213275806372 0.43325937369158968 0 -0.074152812153798875 0.41302729649400538 0 -0.090582213275806372 0.43325937369158968 0 -0.066022972602334681 0.42956105407568013 0 -0.074152812153798875 0.41302729649400538 0 -0.066022972602334681 0.42956105407568013 0 -0.074152812153798875 0.41302729649400538 0 -0.049329429094603867 0.41198700835812702 0 -0.074152812153798875 0.41302729649400538 0 -0.063154715464804681 0.39516467689365731 0 -0.084297773186445962 0.39217279846007119 0 -0.09259379641793411 0.40948313349934218 0 -0.074152812153798875 0.41302729649400538 0 -0.084297773186445962 0.39217279846007119 0 -0.1036554482544351 0.39516830989393792 0 -0.09259379641793411 0.40948313349934218 0 -0.084297773186445962 0.39217279846007119 0 -0.085055645225370236 0.37193713089684588 0 -0.09970079949094271 0.37763208900548878 0 -0.084297773186445962 0.39217279846007119 0 -0.085055645225370236 0.37193713089684588 0 -0.084297773186445962 0.39217279846007119 0 -0.071788917171084016 0.3809272333041443 0 -0.063154715464804681 0.39516467689365731 0 -0.084297773186445962 0.39217279846007119 0 -0.071788917171084016 0.3809272333041443 0 -0.063154715464804681 0.39516467689365731 0 -0.071788917171084016 0.3809272333041443 0 -0.056875823715872062 0.37631267096962301 0 -0.04149310004589906 0.37124785083274592 0 -0.056875823715872062 0.37631267096962301 0 -0.04338349465279491 0.38811939282985902 0 -0.063154715464804681 0.39516467689365731 0 -0.056875823715872062 0.37631267096962301 0 -0.04338349465279491 0.38811939282985902 0 -0.063154715464804681 0.39516467689365731 0 -0.04338349465279491 0.38811939282985902 0 -0.049329429094603867 0.41198700835812702 0 -0.04338349465279491 0.38811939282985902 0 -0.024844401122877391 0.39948633252540261 0 -0.049329429094603867 0.41198700835812702 0 -0.024169526760701381 0.37267007813580277 0 -0.04149310004589906 0.37124785083274592 0 -0.04338349465279491 0.38811939282985902 0 -0.024169526760701381 0.37267007813580277 0 -0.04338349465279491 0.38811939282985902 0 -0.024844401122877391 0.39948633252540261 0 -0.024169526760701381 0.37267007813580277 0 -0.024844401122877391 0.39948633252540261 0 -0.0045342830833226501 0.3863935686212247 0 -0.024844401122877391 0.39948633252540261 0 -0.0045342830833226501 0.3863935686212247 0 -0.0038092142255275289 0.41137928311071797 0 -0.0045342830833226501 0.3863935686212247 0 -0.0038092142255275289 0.41137928311071797 0 -0.024169526760701381 0.37267007813580277 0 -0.0045342830833226501 0.3863935686212247 0 -0.0030841453677343121 0.43636499760021141 0 -0.0038092142255275289 0.41137928311071797 0 -0.026324668085478481 0.42779129271708288 0 -0.0030841453677343121 0.43636499760021141 0 -0.0038092142255275289 0.41137928311071797 0 -0.024844401122877391 0.39948633252540261 0 -0.0038092142255275289 0.41137928311071797 0 -0.026324668085478481 0.42779129271708288 0 -0.026324668085478481 0.42779129271708288 0 -0.049329429094603867 0.41198700835812702 0 -0.049413859365407042 0.43472239834070731 0 -0.024844401122877391 0.39948633252540261 0 -0.026324668085478481 0.42779129271708288 0 -0.049329429094603867 0.41198700835812702 0 -0.074152812153798875 0.41302729649400538 0 -0.063154715464804681 0.39516467689365731 0 -0.049329429094603867 0.41198700835812702 0 -0.066022972602334681 0.42956105407568013 0 -0.049329429094603867 0.41198700835812702 0 -0.049413859365407042 0.43472239834070731 0 -0.066022972602334681 0.42956105407568013 0 -0.049413859365407042 0.43472239834070731 0 -0.0708836913324285 0.45273085842607269 0 -0.0393713920190637 0.45112048084748302 0 -0.052402143273794041 0.47435943831340011 0 -0.0708836913324285 0.45273085842607269 0 -0.049413859365407042 0.43472239834070731 0 -0.0393713920190637 0.45112048084748302 0 -0.0708836913324285 0.45273085842607269 0 -0.0393713920190637 0.45112048084748302 0 -0.02876560419008364 0.47203163756026523 0 -0.052402143273794041 0.47435943831340011 0 -0.026324668085478481 0.42779129271708288 0 -0.049413859365407042 0.43472239834070731 0 -0.0393713920190637 0.45112048084748302 0 -0.0030841453677343121 0.43636499760021141 0 -0.026324668085478481 0.42779129271708288 0 -0.01888650882967766 0.45329231687868837 0 -0.026324668085478481 0.42779129271708288 0 -0.0393713920190637 0.45112048084748302 0 -0.01888650882967766 0.45329231687868837 0 -0.0393713920190637 0.45112048084748302 0 -0.01888650882967766 0.45329231687868837 0 -0.02876560419008364 0.47203163756026523 0 -0.01888650882967766 0.45329231687868837 0 -0.01341416680576474 0.47109478045738301 0 -0.02876560419008364 0.47203163756026523 0 -0.01888650882967766 0.45329231687868837 0 -0.002359076509941094 0.46135071208970457 0 -0.01341416680576474 0.47109478045738301 0 -0.0030841453677343121 0.43636499760021141 0 -0.01888650882967766 0.45329231687868837 0 -0.002359076509941094 0.46135071208970457 0 -0.0030841453677343121 0.43636499760021141 0 -0.002359076509941094 0.46135071208970457 0 -0.0090346539348886701 0.5 0 -0.0016340076521478781 0.48633642657919801 0 -0.017460482120078509 0.48648722646036041 0 -0.0016340076521478781 0.48633642657919801 0 -0.01341416680576474 0.47109478045738301 0 -0.017460482120078509 0.48648722646036041 0 -0.002359076509941094 0.46135071208970457 0 -0.0016340076521478781 0.48633642657919801 0 -0.01341416680576474 0.47109478045738301 0 -0.002359076509941094 0.46135071208970457 0 -0.0016340076521478781 0.48633642657919801 0 -0.002359076509941094 0.46135071208970457 0 -0.0016340076521478781 0.48633642657919801 0 0.0036787250480955699 0.47408322248379448 0 -0.01341416680576474 0.47109478045738301 0 -0.02876560419008364 0.47203163756026523 0 -0.017460482120078509 0.48648722646036041 0 -0.02876560419008364 0.47203163756026523 0 -0.017460482120078509 0.48648722646036041 0 -0.038135422162237087 0.5 0 -0.0090346539348886701 0.5 0 -0.017460482120078509 0.48648722646036041 0 -0.038135422162237087 0.5 0 -0.02876560419008364 0.47203163756026523 0 -0.038135422162237087 0.5 0 -0.052402143273794041 0.47435943831340011 0 -0.038135422162237087 0.5 0 -0.052402143273794041 0.47435943831340011 0 -0.067236190389585393 0.5 0 -0.052402143273794041 0.47435943831340011 0 -0.067236190389585393 0.5 0 -0.073349005429332273 0.47921852398434828 0 -0.067236190389585393 0.5 0 -0.073349005429332273 0.47921852398434828 0 -0.096336958616933588 0.5 0 -0.073349005429332273 0.47921852398434828 0 -0.096336958616933588 0.5 0 -0.093805091172543903 0.47224368257650851 0 -0.052402143273794041 0.47435943831340011 0 -0.073349005429332273 0.47921852398434828 0 -0.0708836913324285 0.45273085842607269 0 -0.0708836913324285 0.45273085842607269 0 -0.1043361340672995 0.45358667135048331 0 -0.093805091172543903 0.47224368257650851 0 -0.090582213275806372 0.43325937369158968 0 -0.0708836913324285 0.45273085842607269 0 -0.1043361340672995 0.45358667135048331 0 -0.090582213275806372 0.43325937369158968 0 -0.066022972602334681 0.42956105407568013 0 -0.0708836913324285 0.45273085842607269 0 -0.090582213275806372 0.43325937369158968 0 -0.0708836913324285 0.45273085842607269 0 -0.073349005429332273 0.47921852398434828 0 -0.0708836913324285 0.45273085842607269 0 -0.093805091172543903 0.47224368257650851 0 -0.1043361340672995 0.45358667135048331 0 -0.12052644250191399 0.4682622397032008 0 -0.093805091172543903 0.47224368257650851 0 -0.1104760497445479 0.43296770510105842 0 -0.090582213275806372 0.43325937369158968 0 -0.1043361340672995 0.45358667135048331 0 -0.12618187852634369 0.45882241462805679 0 -0.1043361340672995 0.45358667135048331 0 -0.1248743097581413 0.44162978393037222 0 -0.1104760497445479 0.43296770510105842 0 -0.1043361340672995 0.45358667135048331 0 -0.1248743097581413 0.44162978393037222 0 -0.12618187852634369 0.45882241462805679 0 -0.1043361340672995 0.45358667135048331 0 -0.12052644250191399 0.4682622397032008 0 -0.1317912103042716 0.47600940211286807 0 -0.12052644250191399 0.4682622397032008 0 -0.11642361318749669 0.48420448820259387 0 -0.12052644250191399 0.4682622397032008 0 -0.11642361318749669 0.48420448820259387 0 -0.093805091172543903 0.47224368257650851 0 -0.12543772684428189 0.5 0 -0.11642361318749669 0.48420448820259387 0 -0.096336958616933588 0.5 0 -0.12543772684428189 0.5 0 -0.13178312884530541 0.48627570230508688 0 -0.11642361318749669 0.48420448820259387 0 -0.11642361318749669 0.48420448820259387 0 -0.096336958616933588 0.5 0 -0.093805091172543903 0.47224368257650851 0 -0.1693268494853358 0.079538523923443544 0 -0.16945340910355561 0.089496265134995978 0 -0.1618062267740645 0.07958177760614682 0 -0.16945340910355561 0.089496265134995978 0 -0.1618062267740645 0.07958177760614682 0 -0.1616157516695074 0.095139316102685473 0 -0.1618062267740645 0.07958177760614682 0 -0.1616157516695074 0.095139316102685473 0 -0.14767322655010931 0.084806545451415583 0 -0.1618062267740645 0.07958177760614682 0 -0.16640070467345031 0.07104807823334372 0 -0.15517576509654349 0.068304766057398533 0 -0.16640070467345031 0.07104807823334372 0 -0.15517576509654349 0.068304766057398533 0 -0.16451238623864939 0.061110077383343737 0 -0.16640070467345031 0.07104807823334372 0 -0.17354141001077031 0.063798093567348918 0 -0.16451238623864939 0.061110077383343737 0 -0.17157411485926041 0.074087910936242465 0 -0.16640070467345031 0.07104807823334372 0 -0.17354141001077031 0.063798093567348918 0 -0.1693268494853358 0.079538523923443544 0 -0.17157411485926041 0.074087910936242465 0 -0.16640070467345031 0.07104807823334372 0 -0.1693268494853358 0.079538523923443544 0 -0.1618062267740645 0.07958177760614682 0 -0.16640070467345031 0.07104807823334372 0 -0.17354141001077031 0.063798093567348918 0 -0.17702749526748529 0.081966948020833708 0 -0.17656426821359539 0.052679136019797047 0 -0.18185637422210199 0.067243003367259677 0 -0.17702749526748529 0.081966948020833708 0 -0.17656426821359539 0.052679136019797047 0 -0.17702749526748529 0.081966948020833708 0 -0.17656426821359539 0.052679136019797047 0 -0.17157411485926041 0.074087910936242465 0 -0.17354141001077031 0.063798093567348918 0 -0.17702749526748529 0.081966948020833708 0 -0.18185637422210199 0.067243003367259677 0 -0.1853153676200878 0.058850167416455039 0 -0.18892740292417859 0.064703221589215376 0 -0.18185637422210199 0.067243003367259677 0 -0.19050021368002351 0.072419239531055349 0 -0.18892740292417859 0.064703221589215376 0 -0.18185637422210199 0.067243003367259677 0 -0.18141962227324601 0.075216957450553817 0 -0.17702749526748529 0.081966948020833708 0 -0.18185637422210199 0.067243003367259677 0 -0.18141962227324601 0.075216957450553817 0 -0.19050021368002351 0.072419239531055349 0 -0.18141962227324601 0.075216957450553817 0 -0.1867192510276118 0.077748512173410014 0 -0.19050021368002351 0.072419239531055349 0 -0.18141962227324601 0.075216957450553817 0 -0.1867192510276118 0.077748512173410014 0 -0.1819129998543452 0.079414551687582866 0 -0.18248563084903771 0.082725789105533951 0 -0.17702749526748529 0.081966948020833708 0 -0.17749072232138041 0.1112547600218704 0 -0.1867192510276118 0.077748512173410014 0 -0.18248563084903771 0.082725789105533951 0 -0.1819129998543452 0.079414551687582866 0 -0.18141962227324601 0.075216957450553817 0 -0.1819129998543452 0.079414551687582866 0 -0.17702749526748529 0.081966948020833708 0 -0.18248563084903771 0.082725789105533951 0 -0.1819129998543452 0.079414551687582866 0 -0.17702749526748529 0.081966948020833708 0 -0.1693268494853358 0.079538523923443544 0 -0.16945340910355561 0.089496265134995978 0 -0.17702749526748529 0.081966948020833708 0 -0.1693268494853358 0.079538523923443544 0 -0.17157411485926041 0.074087910936242465 0 -0.17702749526748529 0.081966948020833708 0 -0.17702749526748529 0.081966948020833708 0 -0.17749072232138041 0.1112547600218704 0 -0.16945340910355561 0.089496265134995978 0 -0.17702749526748529 0.081966948020833708 0 -0.17749072232138041 0.1112547600218704 0 -0.17749072232138041 0.1112547600218704 0 -0.1951643137470572 0.093770439387570487 0 -0.18248563084903771 0.082725789105533951 0 -0.17749072232138041 0.1112547600218704 0 -0.1951643137470572 0.093770439387570487 0 -0.17749072232138041 0.1112547600218704 0 -0.19150979458678249 0.1243728737611647 0 -0.17789558253256721 0.1368522929207025 0 -0.17749072232138041 0.1112547600218704 0 -0.17789558253256721 0.1368522929207025 0 -0.17749072232138041 0.1112547600218704 0 -0.16113979031376621 0.12743058591966341 0 -0.17749072232138041 0.1112547600218704 0 -0.15084139672814201 0.110160429760413 0 -0.16113979031376621 0.12743058591966341 0 -0.17749072232138041 0.1112547600218704 0 -0.1616157516695074 0.095139316102685473 0 -0.15084139672814201 0.110160429760413 0 -0.16945340910355561 0.089496265134995978 0 -0.17749072232138041 0.1112547600218704 0 -0.1616157516695074 0.095139316102685473 0 -0.1616157516695074 0.095139316102685473 0 -0.15084139672814201 0.110160429760413 0 -0.14767322655010931 0.084806545451415583 0 -0.15084139672814201 0.110160429760413 0 -0.1348328660863515 0.097215266237156234 0 -0.14767322655010931 0.084806545451415583 0 -0.15084139672814201 0.110160429760413 0 -0.13137241316615089 0.11357835761918721 0 -0.14300315410871919 0.1253406317882016 0 -0.15084139672814201 0.110160429760413 0 -0.16113979031376621 0.12743058591966341 0 -0.14300315410871919 0.1253406317882016 0 -0.13137241316615089 0.11357835761918721 0 -0.14300315410871919 0.1253406317882016 0 -0.12687331202938101 0.13192737382428379 0 -0.13137241316615089 0.11357835761918721 0 -0.1348328660863515 0.097215266237156234 0 -0.1198812247159142 0.095002477965890675 0 -0.15084139672814201 0.110160429760413 0 -0.13137241316615089 0.11357835761918721 0 -0.1348328660863515 0.097215266237156234 0 -0.1348328660863515 0.097215266237156234 0 -0.12533951967512769 0.078274991835817334 0 -0.1198812247159142 0.095002477965890675 0 -0.1348328660863515 0.097215266237156234 0 -0.12533951967512769 0.078274991835817334 0 -0.14767322655010931 0.084806545451415583 0 -0.1618062267740645 0.07958177760614682 0 -0.14767322655010931 0.084806545451415583 0 -0.15517576509654349 0.068304766057398533 0 -0.14767322655010931 0.084806545451415583 0 -0.15517576509654349 0.068304766057398533 0 -0.14001017723872511 0.063978020277280875 0 -0.12533951967512769 0.078274991835817334 0 -0.14767322655010931 0.084806545451415583 0 -0.14001017723872511 0.063978020277280875 0 -0.12533951967512769 0.078274991835817334 0 -0.14001017723872511 0.063978020277280875 0 -0.1248745965026067 0.059896082918310993 0 -0.14001017723872511 0.063978020277280875 0 -0.13626681081840961 0.042829268155062397 0 -0.1248745965026067 0.059896082918310993 0 -0.13626681081840961 0.042829268155062397 0 -0.1339340902388827 0.022300844741854581 0 -0.1180188049733784 0.030804183747700629 0 -0.13626681081840961 0.042829268155062397 0 -0.1339340902388827 0.022300844741854581 0 -0.15968783393996419 0.037567277286728401 0 -0.13626681081840961 0.042829268155062397 0 -0.15351002702878311 0.053877414325468623 0 -0.15968783393996419 0.037567277286728401 0 -0.13626681081840961 0.042829268155062397 0 -0.15968783393996419 0.037567277286728401 0 -0.14001017723872511 0.063978020277280875 0 -0.13626681081840961 0.042829268155062397 0 -0.15351002702878311 0.053877414325468623 0 -0.15517576509654349 0.068304766057398533 0 -0.14001017723872511 0.063978020277280875 0 -0.15351002702878311 0.053877414325468623 0 -0.12735709500343681 0.004015926865657337 0 -0.15177498865293759 0.016606981474429749 0 -0.12735709500343681 0.004015926865657337 0 -0.1339340902388827 0.022300844741854581 0 -0.15177498865293759 0.016606981474429749 0 -0.12735709500343681 0.004015926865657337 0 -0.1339340902388827 0.022300844741854581 0 -0.11835839359799651 0.016938700943610479 0 -0.1339340902388827 0.022300844741854581 0 -0.15177498865293759 0.016606981474429749 0 -0.15968783393996419 0.037567277286728401 0 -0.1339340902388827 0.022300844741854581 0 -0.15968783393996419 0.037567277286728401 0 -0.12735709500343681 0.004015926865657337 0 -0.15177498865293759 0.016606981474429749 0 -0.14801408494475049 0.0031182785745780331 0 -0.15177498865293759 0.016606981474429749 0 -0.14801408494475049 0.0031182785745780331 0 -0.1619193683370386 0.0066468078375689294 0 -0.15773416148281841 -0.0035868741371463562 0 -0.14801408494475049 0.0031182785745780331 0 -0.1619193683370386 0.0066468078375689294 0 -0.15177498865293759 0.016606981474429749 0 -0.1619193683370386 0.0066468078375689294 0 -0.16760309597538539 0.015861310899326669 0 -0.16716832075785379 -0.0032078365625175 0 -0.1619193683370386 0.0066468078375689294 0 -0.17584419881677341 0.0071523107965592754 0 -0.1619193683370386 0.0066468078375689294 0 -0.16760309597538539 0.015861310899326669 0 -0.17584419881677341 0.0071523107965592754 0 -0.15177498865293759 0.016606981474429749 0 -0.17619288230243149 0.029198036083215671 0 -0.15177498865293759 0.016606981474429749 0 -0.17619288230243149 0.029198036083215671 0 -0.15968783393996419 0.037567277286728401 0 -0.15177498865293759 0.016606981474429749 0 -0.16760309597538539 0.015861310899326669 0 -0.17619288230243149 0.029198036083215671 0 -0.17619288230243149 0.029198036083215671 0 -0.1852069371874478 0.015311100034367831 0 -0.17584419881677341 0.0071523107965592754 0 -0.17619288230243149 0.029198036083215671 0 -0.17584419881677341 0.0071523107965592754 0 -0.16760309597538539 0.015861310899326669 0 -0.17619288230243149 0.029198036083215671 0 -0.17584419881677341 0.0071523107965592754 0 -0.17619288230243149 0.029198036083215671 0 -0.19572946351785711 0.039272048382664133 0 -0.19029700863621521 0.024089069561314659 0 -0.17619288230243149 0.029198036083215671 0 -0.1852069371874478 0.015311100034367831 0 -0.19029700863621521 0.024089069561314659 0 -0.1852069371874478 0.015311100034367831 0 -0.18717715497560061 0.0062623078557712403 0 -0.17584419881677341 0.0071523107965592754 0 -0.18154179604087481 -0.0036104187285780349 0 -0.18717715497560061 0.0062623078557712403 0 -0.17584419881677341 0.0071523107965592754 0 -0.15351002702878311 0.053877414325468623 0 -0.1659033968134131 0.050269055427132232 0 -0.15968783393996419 0.037567277286728401 0 -0.1659033968134131 0.050269055427132232 0 -0.16451238623864939 0.061110077383343737 0 -0.17656426821359539 0.052679136019797047 0 -0.17354141001077031 0.063798093567348918 0 -0.16451238623864939 0.061110077383343737 0 -0.17656426821359539 0.052679136019797047 0 -0.16451238623864939 0.061110077383343737 0 -0.17656426821359539 0.052679136019797047 0 -0.15351002702878311 0.053877414325468623 0 -0.1659033968134131 0.050269055427132232 0 -0.16451238623864939 0.061110077383343737 0 -0.15517576509654349 0.068304766057398533 0 -0.15351002702878311 0.053877414325468623 0 -0.16451238623864939 0.061110077383343737 0 -0.15968783393996419 0.037567277286728401 0 -0.1762663423330757 0.033842591165095401 0 -0.1659033968134131 0.050269055427132232 0 -0.15968783393996419 0.037567277286728401 0 -0.1764827173319595 0.047523031967639129 0 -0.17619288230243149 0.029198036083215671 0 -0.15968783393996419 0.037567277286728401 0 -0.1762663423330757 0.033842591165095401 0 -0.15968783393996419 0.037567277286728401 0 -0.1764827173319595 0.047523031967639129 0 -0.15968783393996419 0.037567277286728401 0 -0.1762663423330757 0.033842591165095401 0 -0.1764827173319595 0.047523031967639129 0 -0.17619288230243149 0.029198036083215671 0 -0.19572946351785711 0.039272048382664133 0 -0.181281627628781 0.040827380692469641 0 -0.18051660755046151 0.049914261515807259 0 -0.1764827173319595 0.047523031967639129 0 -0.17619288230243149 0.029198036083215671 0 -0.1762663423330757 0.033842591165095401 0 -0.19572946351785711 0.039272048382664133 0 -0.1762663423330757 0.033842591165095401 0 -0.181281627628781 0.040827380692469641 0 -0.19572946351785711 0.039272048382664133 0 -0.1762663423330757 0.033842591165095401 0 -0.181281627628781 0.040827380692469641 0 -0.1764827173319595 0.047523031967639129 0 -0.1762663423330757 0.033842591165095401 0 -0.1764827173319595 0.047523031967639129 0 -0.17619288230243149 0.029198036083215671 0 -0.1762663423330757 0.033842591165095401 0 -0.181281627628781 0.040827380692469641 0 -0.18051660755046151 0.049914261515807259 0 -0.19572946351785711 0.039272048382664133 0 -0.18051660755046151 0.049914261515807259 0 -0.17656426821359539 0.052679136019797047 0 -0.1853153676200878 0.058850167416455039 0 -0.18051660755046151 0.049914261515807259 0 -0.1764827173319595 0.047523031967639129 0 -0.1764827173319595 0.047523031967639129 0 -0.17656426821359539 0.052679136019797047 0 -0.1659033968134131 0.050269055427132232 0 -0.1764827173319595 0.047523031967639129 0 -0.17656426821359539 0.052679136019797047 0 -0.18051660755046151 0.049914261515807259 0 -0.1764827173319595 0.047523031967639129 0 -0.17656426821359539 0.052679136019797047 0 -0.18051660755046151 0.049914261515807259 0 -0.17656426821359539 0.052679136019797047 0 -0.18185637422210199 0.067243003367259677 0 -0.17656426821359539 0.052679136019797047 0 -0.1853153676200878 0.058850167416455039 0 -0.1853153676200878 0.058850167416455039 0 -0.19803765617450109 0.060300476042091433 0 -0.18892740292417859 0.064703221589215376 0 -0.18051660755046151 0.049914261515807259 0 -0.19803765617450109 0.060300476042091433 0 -0.1977866825790292 0.05007637869738242 0 -0.18051660755046151 0.049914261515807259 0 -0.1853153676200878 0.058850167416455039 0 -0.19803765617450109 0.060300476042091433 0 -0.18051660755046151 0.049914261515807259 0 -0.19803765617450109 0.060300476042091433 0 -0.19803765617450109 0.060300476042091433 0 -0.1977866825790292 0.05007637869738242 0 -0.2066297839190599 0.054855205218219752 0 -0.18051660755046151 0.049914261515807259 0 -0.1977866825790292 0.05007637869738242 0 -0.19572946351785711 0.039272048382664133 0 -0.18051660755046151 0.049914261515807259 0 -0.19572946351785711 0.039272048382664133 0 -0.19572946351785711 0.039272048382664133 0 -0.2098237389609823 0.029412342647955388 0 -0.1977866825790292 0.05007637869738242 0 -0.19572946351785711 0.039272048382664133 0 -0.2073344650466164 0.045256152092875389 0 -0.19572946351785711 0.039272048382664133 0 -0.2073344650466164 0.045256152092875389 0 -0.2073344650466164 0.045256152092875389 0 -0.21702036639386221 0.038769314305699548 0 -0.2098237389609823 0.029412342647955388 0 -0.19572946351785711 0.039272048382664133 0 -0.2073344650466164 0.045256152092875389 0 -0.2098237389609823 0.029412342647955388 0 -0.21702036639386221 0.038769314305699548 0 -0.2098237389609823 0.029412342647955388 0 -0.2284051488343061 0.035137669629428533 0 -0.2073344650466164 0.045256152092875389 0 -0.21702036639386221 0.038769314305699548 0 -0.22251811273354419 0.045271092852538893 0 -0.2073344650466164 0.045256152092875389 0 -0.21769334509658461 0.055951218203848879 0 -0.22251811273354419 0.045271092852538893 0 -0.21769334509658461 0.055951218203848879 0 -0.20947987249717179 0.060448397508133619 0 -0.2066297839190599 0.054855205218219752 0 -0.21769334509658461 0.055951218203848879 0 -0.20947987249717179 0.060448397508133619 0 -0.2155587047985415 0.070686690568374386 0 -0.19803765617450109 0.060300476042091433 0 -0.20947987249717179 0.060448397508133619 0 -0.2066297839190599 0.054855205218219752 0 -0.1977866825790292 0.05007637869738242 0 -0.2073344650466164 0.045256152092875389 0 -0.2066297839190599 0.054855205218219752 0 -0.2073344650466164 0.045256152092875389 0 -0.21769334509658461 0.055951218203848879 0 -0.2066297839190599 0.054855205218219752 0 -0.1989264366345522 -0.0080023544535597537 0 -0.1965234412062255 0.0098537758749781944 0 -0.20713549204565579 6.5395444916274768e-05 0 -0.19066530249761049 -0.0041303576494283751 0 -0.18717715497560061 0.0062623078557712403 0 -0.1965234412062255 0.0098537758749781944 0 -0.1852069371874478 0.015311100034367831 0 -0.18717715497560061 0.0062623078557712403 0 -0.1965234412062255 0.0098537758749781944 0 -0.1965234412062255 0.0098537758749781944 0 -0.20113962024173071 0.02227838771243261 0 -0.2107847094499361 0.011405203725301251 0 -0.19572946351785711 0.039272048382664133 0 -0.20113962024173071 0.02227838771243261 0 -0.2098237389609823 0.029412342647955388 0 -0.19572946351785711 0.039272048382664133 0 -0.20113962024173071 0.02227838771243261 0 -0.19029700863621521 0.024089069561314659 0 -0.1965234412062255 0.0098537758749781944 0 -0.20113962024173071 0.02227838771243261 0 -0.19029700863621521 0.024089069561314659 0 -0.1852069371874478 0.015311100034367831 0 -0.1965234412062255 0.0098537758749781944 0 -0.19029700863621521 0.024089069561314659 0 -0.2098237389609823 0.029412342647955388 0 -0.2107847094499361 0.011405203725301251 0 -0.22391801440410891 0.019552636913248388 0 -0.20113962024173071 0.02227838771243261 0 -0.2098237389609823 0.029412342647955388 0 -0.2107847094499361 0.011405203725301251 0 -0.2098237389609823 0.029412342647955388 0 -0.22391801440410891 0.019552636913248388 0 -0.21702438745170211 -0.0043907958627755336 0 -0.2107847094499361 0.011405203725301251 0 -0.20713549204565579 6.5395444916274768e-05 0 -0.21702438745170211 -0.0043907958627755336 0 -0.2107847094499361 0.011405203725301251 0 -0.22391801440410891 0.019552636913248388 0 -0.1965234412062255 0.0098537758749781944 0 -0.2107847094499361 0.011405203725301251 0 -0.20713549204565579 6.5395444916274768e-05 0 -0.22867745033346079 0.0038692188645070222 0 -0.22391801440410891 0.019552636913248388 0 -0.2344599051246074 0.012178015861532989 0 -0.21702438745170211 -0.0043907958627755336 0 -0.22391801440410891 0.019552636913248388 0 -0.21702438745170211 -0.0043907958627755336 0 -0.22867745033346079 0.0038692188645070222 0 -0.22391801440410891 0.019552636913248388 0 -0.22391801440410891 0.019552636913248388 0 -0.2403792472176362 0.02548084658656756 0 -0.2344599051246074 0.012178015861532989 0 -0.2098237389609823 0.029412342647955388 0 -0.22391801440410891 0.019552636913248388 0 -0.2284051488343061 0.035137669629428533 0 -0.22391801440410891 0.019552636913248388 0 -0.2403792472176362 0.02548084658656756 0 -0.2284051488343061 0.035137669629428533 0 -0.22391801440410891 0.019552636913248388 0 -0.2344599051246074 0.012178015861532989 0 -0.22391801440410891 0.019552636913248388 0 -0.2284051488343061 0.035137669629428533 0 -0.2522816967992324 0.037264740289820159 0 -0.25157722050270093 0.012682655753942951 0 -0.2403792472176362 0.02548084658656756 0 -0.25157722050270093 0.012682655753942951 0 -0.2403792472176362 0.02548084658656756 0 -0.2344599051246074 0.012178015861532989 0 -0.25267499080189931 -0.0034516002120552492 0 -0.25157722050270093 0.012682655753942951 0 -0.2401015516947359 0.00075261550232862703 0 -0.25157722050270093 0.012682655753942951 0 -0.2344599051246074 0.012178015861532989 0 -0.2401015516947359 0.00075261550232862703 0 -0.22867745033346079 0.0038692188645070222 0 -0.2344599051246074 0.012178015861532989 0 -0.2401015516947359 0.00075261550232862703 0 -0.21769334509658461 0.055951218203848879 0 -0.23255980098598539 0.056775429521547523 0 -0.2155587047985415 0.070686690568374386 0 -0.23289228326450309 0.050722702345608793 0 -0.22641588552015429 0.052180110730886013 0 -0.22251811273354419 0.045271092852538893 0 -0.23289228326450309 0.050722702345608793 0 -0.23255980098598539 0.056775429521547523 0 -0.22641588552015429 0.052180110730886013 0 -0.21769334509658461 0.055951218203848879 0 -0.23255980098598539 0.056775429521547523 0 -0.22641588552015429 0.052180110730886013 0 -0.21769334509658461 0.055951218203848879 0 -0.22641588552015429 0.052180110730886013 0 -0.22251811273354419 0.045271092852538893 0 -0.21702036639386221 0.038769314305699548 0 -0.22251811273354419 0.045271092852538893 0 -0.2284051488343061 0.035137669629428533 0 -0.23289228326450309 0.050722702345608793 0 -0.22251811273354419 0.045271092852538893 0 -0.2284051488343061 0.035137669629428533 0 -0.23289228326450309 0.050722702345608793 0 -0.2284051488343061 0.035137669629428533 0 -0.2522816967992324 0.037264740289820159 0 -0.2403792472176362 0.02548084658656756 0 -0.2284051488343061 0.035137669629428533 0 -0.2522816967992324 0.037264740289820159 0 -0.23289228326450309 0.050722702345608793 0 -0.2284051488343061 0.035137669629428533 0 -0.2522816967992324 0.037264740289820159 0 -0.23289228326450309 0.050722702345608793 0 -0.23255980098598539 0.056775429521547523 0 -0.2522816967992324 0.037264740289820159 0 -0.23255980098598539 0.056775429521547523 0 -0.2522816967992324 0.037264740289820159 0 -0.23255980098598539 0.056775429521547523 0 -0.24906194248509719 0.058488871325365822 0 -0.23255980098598539 0.056775429521547523 0 -0.24906194248509719 0.058488871325365822 0 -0.23770452364983391 0.071010308971772351 0 -0.26257114212692878 0.06573449919026883 0 -0.24906194248509719 0.058488871325365822 0 -0.23770452364983391 0.071010308971772351 0 -0.25261226255175379 0.080423606239198905 0 -0.23770452364983391 0.071010308971772351 0 -0.23158356521460469 0.085326977986282804 0 -0.25261226255175379 0.080423606239198905 0 -0.23158356521460469 0.085326977986282804 0 -0.24377998071086901 0.096378574065869249 0 -0.23158356521460469 0.085326977986282804 0 -0.21283790517273879 0.076286118753275345 0 -0.22135706029896429 0.097751395037259853 0 -0.23158356521460469 0.085326977986282804 0 -0.22135706029896429 0.097751395037259853 0 -0.24377998071086901 0.096378574065869249 0 -0.23255980098598539 0.056775429521547523 0 -0.21283790517273879 0.076286118753275345 0 -0.23770452364983391 0.071010308971772351 0 -0.23158356521460469 0.085326977986282804 0 -0.21283790517273879 0.076286118753275345 0 -0.23255980098598539 0.056775429521547523 0 -0.23770452364983391 0.071010308971772351 0 -0.21283790517273879 0.076286118753275345 0 -0.23255980098598539 0.056775429521547523 0 -0.21283790517273879 0.076286118753275345 0 -0.2155587047985415 0.070686690568374386 0 -0.23770452364983391 0.071010308971772351 0 -0.21283790517273879 0.076286118753275345 0 -0.19803765617450109 0.060300476042091433 0 -0.20947987249717179 0.060448397508133619 0 -0.2155587047985415 0.070686690568374386 0 -0.19803765617450109 0.060300476042091433 0 -0.20333782300263301 0.070680183335342567 0 -0.2155587047985415 0.070686690568374386 0 -0.19803765617450109 0.060300476042091433 0 -0.2155587047985415 0.070686690568374386 0 -0.21283790517273879 0.076286118753275345 0 -0.19766176801088831 0.079505953929404904 0 -0.20333782300263301 0.070680183335342567 0 -0.21283790517273879 0.076286118753275345 0 -0.19766176801088831 0.079505953929404904 0 -0.20333782300263301 0.070680183335342567 0 -0.21283790517273879 0.076286118753275345 0 -0.2155587047985415 0.070686690568374386 0 -0.21283790517273879 0.076286118753275345 0 -0.1951643137470572 0.093770439387570487 0 -0.22135706029896429 0.097751395037259853 0 -0.21283790517273879 0.076286118753275345 0 -0.1951643137470572 0.093770439387570487 0 -0.21283790517273879 0.076286118753275345 0 -0.19766176801088831 0.079505953929404904 0 -0.1951643137470572 0.093770439387570487 0 -0.18248563084903771 0.082725789105533951 0 -0.19766176801088831 0.079505953929404904 0 -0.1951643137470572 0.093770439387570487 0 -0.1867192510276118 0.077748512173410014 0 -0.18248563084903771 0.082725789105533951 0 -0.19766176801088831 0.079505953929404904 0 -0.18248563084903771 0.082725789105533951 0 -0.19766176801088831 0.079505953929404904 0 -0.1867192510276118 0.077748512173410014 0 -0.19766176801088831 0.079505953929404904 0 -0.19050021368002351 0.072419239531055349 0 -0.19803765617450109 0.060300476042091433 0 -0.19050021368002351 0.072419239531055349 0 -0.18892740292417859 0.064703221589215376 0 -0.19803765617450109 0.060300476042091433 0 -0.20333782300263301 0.070680183335342567 0 -0.19050021368002351 0.072419239531055349 0 -0.20333782300263301 0.070680183335342567 0 -0.19766176801088831 0.079505953929404904 0 -0.19050021368002351 0.072419239531055349 0 -0.17749072232138041 0.1112547600218704 0 -0.19150979458678249 0.1243728737611647 0 -0.1951643137470572 0.093770439387570487 0 -0.19150979458678249 0.1243728737611647 0 -0.1951643137470572 0.093770439387570487 0 -0.20994497012605751 0.11823125198409511 0 -0.1951643137470572 0.093770439387570487 0 -0.20994497012605751 0.11823125198409511 0 -0.22135706029896429 0.097751395037259853 0 -0.20994497012605751 0.11823125198409511 0 -0.2348316268224595 0.11651500804646669 0 -0.2235388627286797 0.12965651036182041 0 -0.20994497012605751 0.11823125198409511 0 -0.22135706029896429 0.097751395037259853 0 -0.2348316268224595 0.11651500804646669 0 -0.22135706029896429 0.097751395037259853 0 -0.24377998071086901 0.096378574065869249 0 -0.2348316268224595 0.11651500804646669 0 -0.25136603029008331 0.1103208693098497 0 -0.24377998071086901 0.096378574065869249 0 -0.2348316268224595 0.11651500804646669 0 -0.25922316449870308 0.12628093809151891 0 -0.25136603029008331 0.1103208693098497 0 -0.2348316268224595 0.11651500804646669 0 -0.25922316449870308 0.12628093809151891 0 -0.2348316268224595 0.11651500804646669 0 -0.2369615480924761 0.1404602413506009 0 -0.2369615480924761 0.1404602413506009 0 -0.2235388627286797 0.12965651036182041 0 -0.2124173058737257 0.14341954006611901 0 -0.2348316268224595 0.11651500804646669 0 -0.2369615480924761 0.1404602413506009 0 -0.2235388627286797 0.12965651036182041 0 -0.2369615480924761 0.1404602413506009 0 -0.22679867445049531 0.16064067306310431 0 -0.2124173058737257 0.14341954006611901 0 -0.2369615480924761 0.1404602413506009 0 -0.247018622616726 0.15992587597476091 0 -0.22679867445049531 0.16064067306310431 0 -0.25846103874104392 0.14702121199507179 0 -0.2369615480924761 0.1404602413506009 0 -0.247018622616726 0.15992587597476091 0 -0.247018622616726 0.15992587597476091 0 -0.23359887481107691 0.1809086922627815 0 -0.247018622616726 0.15992587597476091 0 -0.23359887481107691 0.1809086922627815 0 -0.22679867445049531 0.16064067306310431 0 -0.26439180367967152 0.18225540552070321 0 -0.247018622616726 0.15992587597476091 0 -0.23359887481107691 0.1809086922627815 0 -0.23359887481107691 0.1809086922627815 0 -0.20517995294037331 0.17379218369948349 0 -0.2201791270054278 0.2018915085508021 0 -0.23359887481107691 0.1809086922627815 0 -0.22679867445049531 0.16064067306310431 0 -0.20517995294037331 0.17379218369948349 0 -0.22679867445049531 0.16064067306310431 0 -0.20517995294037331 0.17379218369948349 0 -0.2124173058737257 0.14341954006611901 0 -0.20517995294037331 0.17379218369948349 0 -0.19274338499996449 0.14807478539393409 0 -0.17830044274374979 0.16244982581953471 0 -0.19150979458678249 0.1243728737611647 0 -0.19274338499996449 0.14807478539393409 0 -0.2124173058737257 0.14341954006611901 0 -0.20994497012605751 0.11823125198409511 0 -0.2235388627286797 0.12965651036182041 0 -0.2124173058737257 0.14341954006611901 0 -0.19150979458678249 0.1243728737611647 0 -0.20994497012605751 0.11823125198409511 0 -0.2124173058737257 0.14341954006611901 0 -0.20517995294037331 0.17379218369948349 0 -0.19274338499996449 0.14807478539393409 0 -0.2124173058737257 0.14341954006611901 0 -0.22371849106378741 0.2462845034026982 0 -0.23019370483249479 0.22382880503591951 0 -0.2066863838603582 0.24242880758937649 0 -0.22371849106378741 0.2462845034026982 0 -0.23951274761537589 0.2474853768326048 0 -0.23019370483249479 0.22382880503591951 0 -0.25272375818517617 0.22994970808158929 0 -0.25621817608628389 0.2460965770837312 0 -0.23951274761537589 0.2474853768326048 0 -0.25370102580463139 0.2052288024824625 0 -0.25272375818517617 0.22994970808158929 0 -0.23019370483249479 0.22382880503591951 0 -0.25272375818517617 0.22994970808158929 0 -0.23951274761537589 0.2474853768326048 0 -0.23019370483249479 0.22382880503591951 0 -0.25370102580463139 0.2052288024824625 0 -0.23359887481107691 0.1809086922627815 0 -0.2201791270054278 0.2018915085508021 0 -0.25370102580463139 0.2052288024824625 0 -0.23019370483249479 0.22382880503591951 0 -0.2201791270054278 0.2018915085508021 0 -0.23019370483249479 0.22382880503591951 0 -0.2201791270054278 0.2018915085508021 0 -0.20675937919977869 0.22287432483882261 0 -0.25370102580463139 0.2052288024824625 0 -0.23019370483249479 0.22382880503591951 0 -0.23359887481107691 0.1809086922627815 0 -0.2201791270054278 0.2018915085508021 0 -0.20517995294037331 0.17379218369948349 0 -0.2201791270054278 0.2018915085508021 0 -0.19686056424972551 0.20437535499954981 0 -0.20517995294037331 0.17379218369948349 0 -0.19686056424972551 0.20437535499954981 0 -0.17870530295493239 0.18804735871836689 0 -0.19686056424972551 0.20437535499954981 0 -0.20675937919977869 0.22287432483882261 0 -0.19122946023172571 0.22600186257262461 0 -0.19686056424972551 0.20437535499954981 0 -0.19122946023172571 0.22600186257262461 0 -0.179110163166115 0.21364489161719899 0 -0.2201791270054278 0.2018915085508021 0 -0.19686056424972551 0.20437535499954981 0 -0.20675937919977869 0.22287432483882261 0 -0.2201791270054278 0.2018915085508021 0 -0.20675937919977869 0.22287432483882261 0 -0.23019370483249479 0.22382880503591951 0 -0.2066863838603582 0.24242880758937649 0 -0.23019370483249479 0.22382880503591951 0 -0.20675937919977869 0.22287432483882261 0 -0.2066863838603582 0.24242880758937649 0 -0.20675937919977869 0.22287432483882261 0 -0.19333963139412971 0.24385714112684301 0 -0.20675937919977869 0.22287432483882261 0 -0.19122946023172571 0.22600186257262461 0 -0.19333963139412971 0.24385714112684301 0 -0.19122946023172571 0.22600186257262461 0 -0.19333963139412971 0.24385714112684301 0 -0.17951502337729761 0.2392424245160312 0 -0.20675937919977869 0.22287432483882261 0 -0.19333963139412971 0.24385714112684301 0 -0.2066863838603582 0.24242880758937649 0 -0.18259587964237009 0.2606558300825601 0 -0.19333963139412971 0.24385714112684301 0 -0.2066863838603582 0.24242880758937649 0 -0.21408768962570049 0.25938306782852782 0 -0.22371849106378741 0.2462845034026982 0 -0.2066863838603582 0.24242880758937649 0 -0.1532221513837192 0.25419418888983192 0 -0.17951502337729761 0.2392424245160312 0 -0.15110003921584569 0.22881829817408891 0 -0.18259587964237009 0.2606558300825601 0 -0.19333963139412971 0.24385714112684301 0 -0.17951502337729761 0.2392424245160312 0 -0.17951502337729761 0.2392424245160312 0 -0.1619547442009632 0.2162214427956837 0 -0.179110163166115 0.21364489161719899 0 -0.19122946023172571 0.22600186257262461 0 -0.17951502337729761 0.2392424245160312 0 -0.179110163166115 0.21364489161719899 0 -0.17951502337729761 0.2392424245160312 0 -0.179110163166115 0.21364489161719899 0 -0.17951502337729761 0.2392424245160312 0 -0.1619547442009632 0.2162214427956837 0 -0.15110003921584569 0.22881829817408891 0 -0.1619547442009632 0.2162214427956837 0 -0.179110163166115 0.21364489161719899 0 -0.17870530295493239 0.18804735871836689 0 -0.19686056424972551 0.20437535499954981 0 -0.179110163166115 0.21364489161719899 0 -0.17870530295493239 0.18804735871836689 0 -0.179110163166115 0.21364489161719899 0 -0.17870530295493239 0.18804735871836689 0 -0.1619547442009632 0.2162214427956837 0 -0.17870530295493239 0.18804735871836689 0 -0.15775407484820861 0.18727827749961631 0 -0.14804225966403101 0.20585853828705919 0 -0.15775407484820861 0.18727827749961631 0 -0.13876353146598761 0.18223131465273959 0 -0.1619547442009632 0.2162214427956837 0 -0.14804225966403101 0.20585853828705919 0 -0.15775407484820861 0.18727827749961631 0 -0.13876353146598761 0.18223131465273959 0 -0.1245765098090509 0.17966052017845999 0 -0.1190175871807343 0.20067046473278771 0 -0.14804225966403101 0.20585853828705919 0 -0.13876353146598761 0.18223131465273959 0 -0.1190175871807343 0.20067046473278771 0 -0.14804225966403101 0.20585853828705919 0 -0.13479108425045189 0.2189379304695287 0 -0.1190175871807343 0.20067046473278771 0 -0.13479108425045189 0.2189379304695287 0 -0.12594818007053379 0.2253828658525201 0 -0.1190175871807343 0.20067046473278771 0 -0.1619547442009632 0.2162214427956837 0 -0.14804225966403101 0.20585853828705919 0 -0.15110003921584569 0.22881829817408891 0 -0.14804225966403101 0.20585853828705919 0 -0.15110003921584569 0.22881829817408891 0 -0.13479108425045189 0.2189379304695287 0 -0.15110003921584569 0.22881829817408891 0 -0.13479108425045189 0.2189379304695287 0 -0.1378537507735782 0.22769286600650679 0 -0.15110003921584569 0.22881829817408891 0 -0.1378537507735782 0.22769286600650679 0 -0.13827307027013019 0.2362506378269415 0 -0.13479108425045189 0.2189379304695287 0 -0.12594818007053379 0.2253828658525201 0 -0.1378537507735782 0.22769286600650679 0 -0.12594818007053379 0.2253828658525201 0 -0.1378537507735782 0.22769286600650679 0 -0.13827307027013019 0.2362506378269415 0 -0.12594818007053379 0.2253828658525201 0 -0.13827307027013019 0.2362506378269415 0 -0.1327712538659816 0.24971188635390451 0 -0.12594818007053379 0.2253828658525201 0 -0.1327712538659816 0.24971188635390451 0 -0.1532221513837192 0.25419418888983192 0 -0.15110003921584569 0.22881829817408891 0 -0.13827307027013019 0.2362506378269415 0 -0.1532221513837192 0.25419418888983192 0 -0.13827307027013019 0.2362506378269415 0 -0.1327712538659816 0.24971188635390451 0 -0.16317411874061041 0.14897554401654969 0 -0.16113979031376621 0.12743058591966341 0 -0.1447888583061562 0.1436064118174607 0 -0.16317411874061041 0.14897554401654969 0 -0.16113979031376621 0.12743058591966341 0 -0.17789558253256721 0.1368522929207025 0 -0.17749072232138041 0.1112547600218704 0 -0.16113979031376621 0.12743058591966341 0 -0.17789558253256721 0.1368522929207025 0 -0.19150979458678249 0.1243728737611647 0 -0.19274338499996449 0.14807478539393409 0 -0.17789558253256721 0.1368522929207025 0 -0.16317411874061041 0.14897554401654969 0 -0.17789558253256721 0.1368522929207025 0 -0.17830044274374979 0.16244982581953471 0 -0.17789558253256721 0.1368522929207025 0 -0.17830044274374979 0.16244982581953471 0 -0.19274338499996449 0.14807478539393409 0 -0.17789558253256721 0.1368522929207025 0 -0.17830044274374979 0.16244982581953471 0 -0.20517995294037331 0.17379218369948349 0 -0.17870530295493239 0.18804735871836689 0 -0.17830044274374979 0.16244982581953471 0 -0.17870530295493239 0.18804735871836689 0 -0.17830044274374979 0.16244982581953471 0 -0.17870530295493239 0.18804735871836689 0 -0.17830044274374979 0.16244982581953471 0 -0.15775407484820861 0.18727827749961631 0 -0.17830044274374979 0.16244982581953471 0 -0.15775407484820861 0.18727827749961631 0 -0.15245232938168229 0.1648839185887534 0 -0.16317411874061041 0.14897554401654969 0 -0.17830044274374979 0.16244982581953471 0 -0.15245232938168229 0.1648839185887534 0 -0.15775407484820861 0.18727827749961631 0 -0.15245232938168229 0.1648839185887534 0 -0.13876353146598761 0.18223131465273959 0 -0.13876353146598761 0.18223131465273959 0 -0.12843792629854631 0.15978223771525801 0 -0.1245765098090509 0.17966052017845999 0 -0.15245232938168229 0.1648839185887534 0 -0.13876353146598761 0.18223131465273959 0 -0.12843792629854631 0.15978223771525801 0 -0.12843792629854631 0.15978223771525801 0 -0.1447888583061562 0.1436064118174607 0 -0.12843792629854631 0.15978223771525801 0 -0.1447888583061562 0.1436064118174607 0 -0.1204435081575875 0.14623213693654391 0 -0.16317411874061041 0.14897554401654969 0 -0.15245232938168229 0.1648839185887534 0 -0.1447888583061562 0.1436064118174607 0 -0.15245232938168229 0.1648839185887534 0 -0.12843792629854631 0.15978223771525801 0 -0.1447888583061562 0.1436064118174607 0 -0.16113979031376621 0.12743058591966341 0 -0.1447888583061562 0.1436064118174607 0 -0.14300315410871919 0.1253406317882016 0 -0.16113979031376621 0.12743058591966341 0 -0.1447888583061562 0.1436064118174607 0 -0.1447888583061562 0.1436064118174607 0 -0.12687331202938101 0.13192737382428379 0 -0.1204435081575875 0.14623213693654391 0 -0.1447888583061562 0.1436064118174607 0 -0.14300315410871919 0.1253406317882016 0 -0.12687331202938101 0.13192737382428379 0 -0.12687331202938101 0.13192737382428379 0 -0.1130049083687871 0.13722853083192951 0 -0.10667563132183119 0.1260080396076822 0 -0.12687331202938101 0.13192737382428379 0 -0.1130049083687871 0.13722853083192951 0 -0.1204435081575875 0.14623213693654391 0 -0.10667563132183119 0.1260080396076822 0 -0.081978849477511453 0.1384377215961772 0 -0.096577670607123245 0.1239972751083621 0 -0.10667563132183119 0.1260080396076822 0 -0.1008242758955458 0.1385116675773613 0 -0.081978849477511453 0.1384377215961772 0 -0.10667563132183119 0.1260080396076822 0 -0.081978849477511453 0.1384377215961772 0 -0.1130049083687871 0.13722853083192951 0 -0.10667563132183119 0.1260080396076822 0 -0.1008242758955458 0.1385116675773613 0 -0.1130049083687871 0.13722853083192951 0 -0.1008242758955458 0.1385116675773613 0 -0.1078791741402548 0.14587794917826699 0 -0.094422293866394627 0.1556947047027778 0 -0.094582816169344081 0.14500609667275041 0 -0.1078791741402548 0.14587794917826699 0 -0.1008242758955458 0.1385116675773613 0 -0.094582816169344081 0.14500609667275041 0 -0.1078791741402548 0.14587794917826699 0 -0.12843792629854631 0.15978223771525801 0 -0.1204435081575875 0.14623213693654391 0 -0.1073217141416921 0.15896651377475199 0 -0.1078791741402548 0.14587794917826699 0 -0.1204435081575875 0.14623213693654391 0 -0.1073217141416921 0.15896651377475199 0 -0.1130049083687871 0.13722853083192951 0 -0.1078791741402548 0.14587794917826699 0 -0.1204435081575875 0.14623213693654391 0 -0.12843792629854631 0.15978223771525801 0 -0.1245765098090509 0.17966052017845999 0 -0.1120869942909358 0.17595806361305491 0 -0.1120869942909358 0.17595806361305491 0 -0.1073217141416921 0.15896651377475199 0 -0.12843792629854631 0.15978223771525801 0 -0.1120869942909358 0.17595806361305491 0 -0.12843792629854631 0.15978223771525801 0 -0.1120869942909358 0.17595806361305491 0 -0.1073217141416921 0.15896651377475199 0 -0.1245765098090509 0.17966052017845999 0 -0.1120869942909358 0.17595806361305491 0 -0.1190175871807343 0.20067046473278771 0 -0.1120869942909358 0.17595806361305491 0 -0.1020860412129876 0.1687304780430319 0 -0.095149617161195271 0.19271405424946009 0 -0.1020860412129876 0.1687304780430319 0 -0.095149617161195271 0.19271405424946009 0 -0.1120869942909358 0.17595806361305491 0 -0.095149617161195271 0.19271405424946009 0 -0.1020860412129876 0.1687304780430319 0 -0.093279947424905002 0.17994671451597891 0 -0.095149617161195271 0.19271405424946009 0 -0.1020860412129876 0.1687304780430319 0 -0.089956478385260899 0.16811851343374709 0 -0.093279947424905002 0.17994671451597891 0 -0.094422293866394627 0.1556947047027778 0 -0.1078791741402548 0.14587794917826699 0 -0.1020860412129876 0.1687304780430319 0 -0.1078791741402548 0.14587794917826699 0 -0.1073217141416921 0.15896651377475199 0 -0.1020860412129876 0.1687304780430319 0 -0.1120869942909358 0.17595806361305491 0 -0.1073217141416921 0.15896651377475199 0 -0.1020860412129876 0.1687304780430319 0 -0.1078791741402548 0.14587794917826699 0 -0.1020860412129876 0.1687304780430319 0 -0.094422293866394627 0.1556947047027778 0 -0.1020860412129876 0.1687304780430319 0 -0.089956478385260899 0.16811851343374709 0 -0.094422293866394627 0.1556947047027778 0 -0.089956478385260899 0.16811851343374709 0 -0.084742563178951485 0.15922574422532609 0 -0.089956478385260899 0.16811851343374709 0 -0.080023232193096983 0.1657260639694961 0 -0.084742563178951485 0.15922574422532609 0 -0.089956478385260899 0.16811851343374709 0 -0.080023232193096983 0.1657260639694961 0 -0.081293191825158789 0.17801619480298669 0 -0.080023232193096983 0.1657260639694961 0 -0.084742563178951485 0.15922574422532609 0 -0.074930767296401246 0.15918989644816289 0 -0.081293191825158789 0.17801619480298669 0 -0.095149617161195271 0.19271405424946009 0 -0.073474196407973841 0.19079473501472519 0 -0.081293191825158789 0.17801619480298669 0 -0.095149617161195271 0.19271405424946009 0 -0.093279947424905002 0.17994671451597891 0 -0.081293191825158789 0.17801619480298669 0 -0.095149617161195271 0.19271405424946009 0 -0.089956478385260899 0.16811851343374709 0 -0.093279947424905002 0.17994671451597891 0 -0.081293191825158789 0.17801619480298669 0 -0.064604308801312821 0.18244611143699499 0 -0.069549912031587807 0.17131438064227461 0 -0.073474196407973841 0.19079473501472519 0 -0.081293191825158789 0.17801619480298669 0 -0.069549912031587807 0.17131438064227461 0 -0.073474196407973841 0.19079473501472519 0 -0.069549912031587807 0.17131438064227461 0 -0.073474196407973841 0.19079473501472519 0 -0.064604308801312821 0.18244611143699499 0 -0.069549912031587807 0.17131438064227461 0 -0.062041409668937363 0.1723934095439342 0 -0.084742563178951485 0.15922574422532609 0 -0.074930767296401246 0.15918989644816289 0 -0.074588176879671189 0.15080810715310269 0 -0.080023232193096983 0.1657260639694961 0 -0.074930767296401246 0.15918989644816289 0 -0.06743676648912228 0.16331833535651319 0 -0.081293191825158789 0.17801619480298669 0 -0.069549912031587807 0.17131438064227461 0 -0.06743676648912228 0.16331833535651319 0 -0.080023232193096983 0.1657260639694961 0 -0.081293191825158789 0.17801619480298669 0 -0.06743676648912228 0.16331833535651319 0 -0.081293191825158789 0.17801619480298669 0 -0.06743676648912228 0.16331833535651319 0 -0.069549912031587807 0.17131438064227461 0 -0.062031688412593149 0.16441565219234799 0 -0.062041409668937363 0.1723934095439342 0 -0.069549912031587807 0.17131438064227461 0 -0.06743676648912228 0.16331833535651319 0 -0.062031688412593149 0.16441565219234799 0 -0.06743676648912228 0.16331833535651319 0 -0.06725389334219653 0.15771987894696021 0 -0.062031688412593149 0.16441565219234799 0 -0.074930767296401246 0.15918989644816289 0 -0.06743676648912228 0.16331833535651319 0 -0.06725389334219653 0.15771987894696021 0 -0.081978849477511453 0.1384377215961772 0 -0.05728206763319247 0.1508674035846734 0 -0.06725389334219653 0.15771987894696021 0 -0.074588176879671189 0.15080810715310269 0 -0.05728206763319247 0.1508674035846734 0 -0.074588176879671189 0.15080810715310269 0 -0.081978849477511453 0.1384377215961772 0 -0.05728206763319247 0.1508674035846734 0 -0.081978849477511453 0.1384377215961772 0 -0.06070043620975589 0.134524720015781 0 -0.05728206763319247 0.1508674035846734 0 -0.074930767296401246 0.15918989644816289 0 -0.06725389334219653 0.15771987894696021 0 -0.074588176879671189 0.15080810715310269 0 -0.071786582042575819 0.1280585334591178 0 -0.081978849477511453 0.1384377215961772 0 -0.08034823769671974 0.121089655777625 0 -0.071786582042575819 0.1280585334591178 0 -0.081978849477511453 0.1384377215961772 0 -0.06070043620975589 0.134524720015781 0 -0.071786582042575819 0.1280585334591178 0 -0.06070043620975589 0.134524720015781 0 -0.06411880478631618 0.11818203644688791 0 -0.081978849477511453 0.1384377215961772 0 -0.08034823769671974 0.121089655777625 0 -0.096577670607123245 0.1239972751083621 0 -0.1008242758955458 0.1385116675773613 0 -0.094582816169344081 0.14500609667275041 0 -0.081978849477511453 0.1384377215961772 0 -0.094582816169344081 0.14500609667275041 0 -0.081978849477511453 0.1384377215961772 0 -0.0854808471676783 0.14892295327365951 0 -0.094422293866394627 0.1556947047027778 0 -0.084742563178951485 0.15922574422532609 0 -0.0854808471676783 0.14892295327365951 0 -0.094422293866394627 0.1556947047027778 0 -0.094582816169344081 0.14500609667275041 0 -0.0854808471676783 0.14892295327365951 0 -0.084742563178951485 0.15922574422532609 0 -0.074588176879671189 0.15080810715310269 0 -0.0854808471676783 0.14892295327365951 0 -0.074588176879671189 0.15080810715310269 0 -0.081978849477511453 0.1384377215961772 0 -0.0854808471676783 0.14892295327365951 0 -0.1045487088169635 0.24438495162540061 0 -0.11455994162881621 0.23631135170566109 0 -0.098826177075254387 0.23394696074010041 0 -0.10005120432924321 0.25626016583208688 0 -0.094679029848152713 0.24609146959404629 0 -0.1045487088169635 0.24438495162540061 0 -0.094679029848152713 0.24609146959404629 0 -0.1045487088169635 0.24438495162540061 0 -0.098826177075254387 0.23394696074010041 0 -0.116744543106582 0.25728181003509248 0 -0.1045487088169635 0.24438495162540061 0 -0.11455994162881621 0.23631135170566109 0 -0.116744543106582 0.25728181003509248 0 -0.1327712538659816 0.24971188635390451 0 -0.11455994162881621 0.23631135170566109 0 -0.12594818007053379 0.2253828658525201 0 -0.1327712538659816 0.24971188635390451 0 -0.11455994162881621 0.23631135170566109 0 -0.11455994162881621 0.23631135170566109 0 -0.1144435087069731 0.2232582902708152 0 -0.1063794885369051 0.22193246116811141 0 -0.12594818007053379 0.2253828658525201 0 -0.1144435087069731 0.2232582902708152 0 -0.1108864245916369 0.20940648235696879 0 -0.12594818007053379 0.2253828658525201 0 -0.11455994162881621 0.23631135170566109 0 -0.1144435087069731 0.2232582902708152 0 -0.11455994162881621 0.23631135170566109 0 -0.1063794885369051 0.22193246116811141 0 -0.098826177075254387 0.23394696074010041 0 -0.1063794885369051 0.22193246116811141 0 -0.098826177075254387 0.23394696074010041 0 -0.089950704149474564 0.21660149084549701 0 -0.1063794885369051 0.22193246116811141 0 -0.089950704149474564 0.21660149084549701 0 -0.10053720550511509 0.21148400771379949 0 -0.095149617161195271 0.19271405424946009 0 -0.089950704149474564 0.21660149084549701 0 -0.1063794885369051 0.22193246116811141 0 -0.10053720550511509 0.21148400771379949 0 -0.089950704149474564 0.21660149084549701 0 -0.10053720550511509 0.21148400771379949 0 -0.1108864245916369 0.20940648235696879 0 -0.095149617161195271 0.19271405424946009 0 -0.1063794885369051 0.22193246116811141 0 -0.10053720550511509 0.21148400771379949 0 -0.1108864245916369 0.20940648235696879 0 -0.12594818007053379 0.2253828658525201 0 -0.1190175871807343 0.20067046473278771 0 -0.12594818007053379 0.2253828658525201 0 -0.1108864245916369 0.20940648235696879 0 -0.1190175871807343 0.20067046473278771 0 -0.12594818007053379 0.2253828658525201 0 -0.1108864245916369 0.20940648235696879 0 -0.1144435087069731 0.2232582902708152 0 -0.1063794885369051 0.22193246116811141 0 -0.1108864245916369 0.20940648235696879 0 -0.1120869942909358 0.17595806361305491 0 -0.1190175871807343 0.20067046473278771 0 -0.1108864245916369 0.20940648235696879 0 -0.1190175871807343 0.20067046473278771 0 -0.10682171669235439 0.1942096232944058 0 -0.1120869942909358 0.17595806361305491 0 -0.1190175871807343 0.20067046473278771 0 -0.10682171669235439 0.1942096232944058 0 -0.1108864245916369 0.20940648235696879 0 -0.095149617161195271 0.19271405424946009 0 -0.1108864245916369 0.20940648235696879 0 -0.10682171669235439 0.1942096232944058 0 -0.095149617161195271 0.19271405424946009 0 -0.1120869942909358 0.17595806361305491 0 -0.10682171669235439 0.1942096232944058 0 -0.095149617161195271 0.19271405424946009 0 -0.095149617161195271 0.19271405424946009 0 -0.077398480784349299 0.2102750893871779 0 -0.095149617161195271 0.19271405424946009 0 -0.073474196407973841 0.19079473501472519 0 -0.077398480784349299 0.2102750893871779 0 -0.095149617161195271 0.19271405424946009 0 -0.077398480784349299 0.2102750893871779 0 -0.087241526055590657 0.20514135106535239 0 -0.073474196407973841 0.19079473501472519 0 -0.077398480784349299 0.2102750893871779 0 -0.073474196407973841 0.19079473501472519 0 -0.077398480784349299 0.2102750893871779 0 -0.068984895145132993 0.20348567813270921 0 -0.064604308801312821 0.18244611143699499 0 -0.073474196407973841 0.19079473501472519 0 -0.062951628171730722 0.19451437844324071 0 -0.073474196407973841 0.19079473501472519 0 -0.062951628171730722 0.19451437844324071 0 -0.068984895145132993 0.20348567813270921 0 -0.062951628171730722 0.19451437844324071 0 -0.068984895145132993 0.20348567813270921 0 -0.057478398324341332 0.20606456403591589 0 -0.068984895145132993 0.20348567813270921 0 -0.075683327299925024 0.21197187487555791 0 -0.057478398324341332 0.20606456403591589 0 -0.075683327299925024 0.21197187487555791 0 -0.060700713784132942 0.2267940359372384 0 -0.057478398324341332 0.20606456403591589 0 -0.075683327299925024 0.21197187487555791 0 -0.057478398324341332 0.20606456403591589 0 -0.077398480784349299 0.2102750893871779 0 -0.068984895145132993 0.20348567813270921 0 -0.075683327299925024 0.21197187487555791 0 -0.075683327299925024 0.21197187487555791 0 -0.077884159070199604 0.2126860219832131 0 -0.060700713784132942 0.2267940359372384 0 -0.075683327299925024 0.21197187487555791 0 -0.077884159070199604 0.2126860219832131 0 -0.077398480784349299 0.2102750893871779 0 -0.075683327299925024 0.21197187487555791 0 -0.077884159070199604 0.2126860219832131 0 -0.077398480784349299 0.2102750893871779 0 -0.077884159070199604 0.2126860219832131 0 -0.077398480784349299 0.2102750893871779 0 -0.075683327299925024 0.21197187487555791 0 -0.077884159070199604 0.2126860219832131 0 -0.089950704149474564 0.21660149084549701 0 -0.077884159070199604 0.2126860219832131 0 -0.087241526055590657 0.20514135106535239 0 -0.089950704149474564 0.21660149084549701 0 -0.095149617161195271 0.19271405424946009 0 -0.087241526055590657 0.20514135106535239 0 -0.089950704149474564 0.21660149084549701 0 -0.095149617161195271 0.19271405424946009 0 -0.089950704149474564 0.21660149084549701 0 -0.077398480784349299 0.2102750893871779 0 -0.077884159070199604 0.2126860219832131 0 -0.087241526055590657 0.20514135106535239 0 -0.077884159070199604 0.2126860219832131 0 -0.083666647235009842 0.24139059785004849 0 -0.089950704149474564 0.21660149084549701 0 -0.083666647235009842 0.24139059785004849 0 -0.077884159070199604 0.2126860219832131 0 -0.089950704149474564 0.21660149084549701 0 -0.083666647235009842 0.24139059785004849 0 -0.098826177075254387 0.23394696074010041 0 -0.089950704149474564 0.21660149084549701 0 -0.083666647235009842 0.24139059785004849 0 -0.077884159070199604 0.2126860219832131 0 -0.083666647235009842 0.24139059785004849 0 -0.060700713784132942 0.2267940359372384 0 -0.075683327299925024 0.21197187487555791 0 -0.060700713784132942 0.2267940359372384 0 -0.064077212627390134 0.24851538469076631 0 -0.083666647235009842 0.24139059785004849 0 -0.060700713784132942 0.2267940359372384 0 -0.086302411784292182 0.25447467192259482 0 -0.083666647235009842 0.24139059785004849 0 -0.094679029848152713 0.24609146959404629 0 -0.098826177075254387 0.23394696074010041 0 -0.083666647235009842 0.24139059785004849 0 -0.086302411784292182 0.25447467192259482 0 -0.094679029848152713 0.24609146959404629 0 -0.083666647235009842 0.24139059785004849 0 -0.03068766995985707 0.25286978792993342 0 -0.034335222642673788 0.23481172099035691 0 -0.046578861792199937 0.24361118962503389 0 -0.034335222642673788 0.23481172099035691 0 -0.046578861792199937 0.24361118962503389 0 -0.045510089746351297 0.2289623102588538 0 -0.064077212627390134 0.24851538469076631 0 -0.046578861792199937 0.24361118962503389 0 -0.055802081643016588 0.23164020743468811 0 -0.064077212627390134 0.24851538469076631 0 -0.055802081643016588 0.23164020743468811 0 -0.060700713784132942 0.2267940359372384 0 -0.064077212627390134 0.24851538469076631 0 -0.060700713784132942 0.2267940359372384 0 -0.046578861792199937 0.24361118962503389 0 -0.055802081643016588 0.23164020743468811 0 -0.045510089746351297 0.2289623102588538 0 -0.055802081643016588 0.23164020743468811 0 -0.053252725762674542 0.2222055350902031 0 -0.045510089746351297 0.2289623102588538 0 -0.055802081643016588 0.23164020743468811 0 -0.060700713784132942 0.2267940359372384 0 -0.053252725762674542 0.2222055350902031 0 -0.055802081643016588 0.23164020743468811 0 -0.060700713784132942 0.2267940359372384 0 -0.053252725762674542 0.2222055350902031 0 -0.045510089746351297 0.2289623102588538 0 -0.046772345315528908 0.21756655778431969 0 -0.045510089746351297 0.2289623102588538 0 -0.036443083940353373 0.22210497005765251 0 -0.046772345315528908 0.21756655778431969 0 -0.034335222642673788 0.23481172099035691 0 -0.045510089746351297 0.2289623102588538 0 -0.036443083940353373 0.22210497005765251 0 -0.034335222642673788 0.23481172099035691 0 -0.036443083940353373 0.22210497005765251 0 -0.024866254401544021 0.22078734426404351 0 -0.036443083940353373 0.22210497005765251 0 -0.046772345315528908 0.21756655778431969 0 -0.031637039445344017 0.19767931081015269 0 -0.046772345315528908 0.21756655778431969 0 -0.057478398324341332 0.20606456403591589 0 -0.031637039445344017 0.19767931081015269 0 -0.060700713784132942 0.2267940359372384 0 -0.053252725762674542 0.2222055350902031 0 -0.057478398324341332 0.20606456403591589 0 -0.060700713784132942 0.2267940359372384 0 -0.057478398324341332 0.20606456403591589 0 -0.053252725762674542 0.2222055350902031 0 -0.046772345315528908 0.21756655778431969 0 -0.057478398324341332 0.20606456403591589 0 -0.062951628171730722 0.19451437844324071 0 -0.057478398324341332 0.20606456403591589 0 -0.054948738746262903 0.1897910154656581 0 -0.057478398324341332 0.20606456403591589 0 -0.054948738746262903 0.1897910154656581 0 -0.031637039445344017 0.19767931081015269 0 -0.057478398324341332 0.20606456403591589 0 -0.054948738746262903 0.1897910154656581 0 -0.054948738746262903 0.1897910154656581 0 -0.031637039445344017 0.19767931081015269 0 -0.039999697082172873 0.18418677263352329 0 -0.057478398324341332 0.20606456403591589 0 -0.031637039445344017 0.19767931081015269 0 -0.031637039445344017 0.19767931081015269 0 -0.0057956805663459468 0.1892940575843915 0 -0.031637039445344017 0.19767931081015269 0 -0.0057956805663459468 0.1892940575843915 0 -0.024775833668462071 0.17590936267321361 0 -0.031637039445344017 0.19767931081015269 0 -0.0057956805663459468 0.1892940575843915 0 -0.01019634689217482 0.20814994011246479 0 -0.0057956805663459468 0.1892940575843915 0 -0.01019634689217482 0.20814994011246479 0 0.0090806704795409685 0.20996839310177981 0 -0.01019634689217482 0.20814994011246479 0 0.00014186162909880781 0.2338185852574263 0 0.0090806704795409685 0.20996839310177981 0 -0.036443083940353373 0.22210497005765251 0 -0.031637039445344017 0.19767931081015269 0 -0.024866254401544021 0.22078734426404351 0 -0.031637039445344017 0.19767931081015269 0 -0.01019634689217482 0.20814994011246479 0 -0.024866254401544021 0.22078734426404351 0 -0.034335222642673788 0.23481172099035691 0 -0.024866254401544021 0.22078734426404351 0 -0.01991034591062427 0.239405390953495 0 -0.024866254401544021 0.22078734426404351 0 0.00014186162909880781 0.2338185852574263 0 -0.024866254401544021 0.22078734426404351 0 -0.01991034591062427 0.239405390953495 0 0.00014186162909880781 0.2338185852574263 0 -0.01019634689217482 0.20814994011246479 0 -0.024866254401544021 0.22078734426404351 0 0.00014186162909880781 0.2338185852574263 0 -0.0098044441781452579 0.25473951632571468 0 0.00014186162909880781 0.2338185852574263 0 0.0073806355134042019 0.25529449578482938 0 -0.0098044441781452579 0.25473951632571468 0 -0.01991034591062427 0.239405390953495 0 0.00014186162909880781 0.2338185852574263 0 -0.03068766995985707 0.25286978792993342 0 -0.034335222642673788 0.23481172099035691 0 -0.01991034591062427 0.239405390953495 0 -0.03068766995985707 0.25286978792993342 0 -0.0098044441781452579 0.25473951632571468 0 -0.01991034591062427 0.239405390953495 0 -0.045513089216113363 0.1481501368583191 0 -0.039963318838929777 0.1583549670989208 0 -0.028048700007850699 0.14601834090005769 0 -0.045513089216113363 0.1481501368583191 0 -0.037584816749385713 0.12707105787504261 0 -0.028048700007850699 0.14601834090005769 0 -0.037584816749385713 0.12707105787504261 0 -0.028048700007850699 0.14601834090005769 0 -0.045513089216113363 0.1481501368583191 0 -0.037584816749385713 0.12707105787504261 0 -0.045513089216113363 0.1481501368583191 0 -0.037584816749385713 0.12707105787504261 0 -0.049753839012929922 0.13582205838018921 0 -0.037584816749385713 0.12707105787504261 0 -0.049753839012929922 0.13582205838018921 0 -0.051208231868337763 0.1260313133231428 0 -0.049753839012929922 0.13582205838018921 0 -0.06070043620975589 0.134524720015781 0 -0.052276118599972977 0.1457036522838337 0 -0.051208231868337763 0.1260313133231428 0 -0.06070043620975589 0.134524720015781 0 -0.06411880478631618 0.11818203644688791 0 -0.06070043620975589 0.134524720015781 0 -0.06411880478631618 0.11818203644688791 0 -0.049753839012929922 0.13582205838018921 0 -0.051208231868337763 0.1260313133231428 0 -0.06070043620975589 0.134524720015781 0 -0.06070043620975589 0.134524720015781 0 -0.052276118599972977 0.1457036522838337 0 -0.05728206763319247 0.1508674035846734 0 -0.06070043620975589 0.134524720015781 0 -0.05728206763319247 0.1508674035846734 0 -0.045513089216113363 0.1481501368583191 0 -0.049753839012929922 0.13582205838018921 0 -0.052276118599972977 0.1457036522838337 0 -0.045513089216113363 0.1481501368583191 0 -0.052276118599972977 0.1457036522838337 0 -0.053440893212920608 0.15280063427064891 0 -0.052276118599972977 0.1457036522838337 0 -0.053440893212920608 0.15280063427064891 0 -0.05728206763319247 0.1508674035846734 0 -0.053440893212920608 0.15280063427064891 0 -0.05728206763319247 0.1508674035846734 0 -0.05728206763319247 0.1508674035846734 0 -0.062031688412593149 0.16441565219234799 0 -0.053441361682841117 0.16922921584159559 0 -0.053440893212920608 0.15280063427064891 0 -0.05728206763319247 0.1508674035846734 0 -0.053441361682841117 0.16922921584159559 0 -0.045513089216113363 0.1481501368583191 0 -0.053440893212920608 0.15280063427064891 0 -0.053441361682841117 0.16922921584159559 0 -0.045513089216113363 0.1481501368583191 0 -0.053441361682841117 0.16922921584159559 0 -0.05728206763319247 0.1508674035846734 0 -0.053441361682841117 0.16922921584159559 0 -0.06725389334219653 0.15771987894696021 0 -0.05728206763319247 0.1508674035846734 0 -0.062031688412593149 0.16441565219234799 0 -0.062031688412593149 0.16441565219234799 0 -0.053441361682841117 0.16922921584159559 0 -0.062041409668937363 0.1723934095439342 0 -0.053441361682841117 0.16922921584159559 0 -0.047633738945979477 0.17108968717192211 0 -0.039963318838929777 0.1583549670989208 0 -0.052991971448818453 0.17137768000779441 0 -0.053441361682841117 0.16922921584159559 0 -0.047633738945979477 0.17108968717192211 0 -0.052991971448818453 0.17137768000779441 0 -0.053441361682841117 0.16922921584159559 0 -0.054948738746262903 0.1897910154656581 0 -0.052419079168185397 0.17351746689540021 0 -0.046888846475854867 0.17837904804597579 0 -0.062951628171730722 0.19451437844324071 0 -0.054948738746262903 0.1897910154656581 0 -0.052419079168185397 0.17351746689540021 0 -0.062951628171730722 0.19451437844324071 0 -0.052991971448818453 0.17137768000779441 0 -0.052419079168185397 0.17351746689540021 0 -0.064604308801312821 0.18244611143699499 0 -0.062951628171730722 0.19451437844324071 0 -0.053441361682841117 0.16922921584159559 0 -0.062951628171730722 0.19451437844324071 0 -0.052991971448818453 0.17137768000779441 0 -0.053441361682841117 0.16922921584159559 0 -0.054948738746262903 0.1897910154656581 0 -0.052419079168185397 0.17351746689540021 0 -0.062951628171730722 0.19451437844324071 0 -0.053441361682841117 0.16922921584159559 0 -0.064604308801312821 0.18244611143699499 0 -0.053441361682841117 0.16922921584159559 0 -0.062041409668937363 0.1723934095439342 0 -0.052991971448818453 0.17137768000779441 0 -0.047633738945979477 0.17108968717192211 0 -0.052419079168185397 0.17351746689540021 0 -0.047633738945979477 0.17108968717192211 0 -0.052419079168185397 0.17351746689540021 0 -0.046888846475854867 0.17837904804597579 0 -0.054948738746262903 0.1897910154656581 0 -0.046888846475854867 0.17837904804597579 0 -0.039999697082172873 0.18418677263352329 0 -0.031637039445344017 0.19767931081015269 0 -0.039999697082172873 0.18418677263352329 0 -0.024775833668462071 0.17590936267321361 0 -0.046888846475854867 0.17837904804597579 0 -0.039999697082172873 0.18418677263352329 0 -0.039442978436673673 0.17331029806337539 0 -0.047633738945979477 0.17108968717192211 0 -0.046888846475854867 0.17837904804597579 0 -0.039442978436673673 0.17331029806337539 0 -0.039442978436673673 0.17331029806337539 0 -0.032139483942643897 0.16694135859911591 0 -0.024775833668462071 0.17590936267321361 0 -0.039999697082172873 0.18418677263352329 0 -0.039442978436673673 0.17331029806337539 0 -0.024775833668462071 0.17590936267321361 0 -0.045513089216113363 0.1481501368583191 0 -0.053441361682841117 0.16922921584159559 0 -0.039963318838929777 0.1583549670989208 0 -0.039963318838929777 0.1583549670989208 0 -0.032139483942643897 0.16694135859911591 0 -0.02343924065842673 0.15869802647678349 0 -0.047633738945979477 0.17108968717192211 0 -0.039442978436673673 0.17331029806337539 0 -0.039963318838929777 0.1583549670989208 0 -0.039442978436673673 0.17331029806337539 0 -0.039963318838929777 0.1583549670989208 0 -0.032139483942643897 0.16694135859911591 0 -0.032139483942643897 0.16694135859911591 0 -0.02343924065842673 0.15869802647678349 0 -0.024775833668462071 0.17590936267321361 0 -0.02343924065842673 0.15869802647678349 0 -0.024775833668462071 0.17590936267321361 0 -0.0048034666842798916 0.1614245706846468 0 -0.0057956805663459468 0.1892940575843915 0 -0.024775833668462071 0.17590936267321361 0 -0.0048034666842798916 0.1614245706846468 0 -0.0048034666842798916 0.1614245706846468 0 -0.01090464080839405 0.14353955890474629 0 0.011098566836083609 0.13484946890849181 0 -0.02343924065842673 0.15869802647678349 0 -0.0048034666842798916 0.1614245706846468 0 -0.01090464080839405 0.14353955890474629 0 -0.039963318838929777 0.1583549670989208 0 -0.02343924065842673 0.15869802647678349 0 -0.028048700007850699 0.14601834090005769 0 -0.02343924065842673 0.15869802647678349 0 -0.01090464080839405 0.14353955890474629 0 -0.028048700007850699 0.14601834090005769 0 -0.037584816749385713 0.12707105787504261 0 -0.0187932077553963 0.1304023687453105 0 -0.02482114599867602 0.1199028763409456 0 -0.01090464080839405 0.14353955890474629 0 -0.028048700007850699 0.14601834090005769 0 -0.0187932077553963 0.1304023687453105 0 -0.037584816749385713 0.12707105787504261 0 -0.028048700007850699 0.14601834090005769 0 -0.0187932077553963 0.1304023687453105 0 -0.0064436606074630637 0.13109611639504981 0 -0.007175360702145514 0.1155930690216506 0 0.011098566836083609 0.13484946890849181 0 -0.01090464080839405 0.14353955890474629 0 -0.0064436606074630637 0.13109611639504981 0 0.011098566836083609 0.13484946890849181 0 -0.0187932077553963 0.1304023687453105 0 -0.0064436606074630637 0.13109611639504981 0 -0.007175360702145514 0.1155930690216506 0 -0.01090464080839405 0.14353955890474629 0 -0.0187932077553963 0.1304023687453105 0 -0.0064436606074630637 0.13109611639504981 0 -0.007175360702145514 0.1155930690216506 0 -0.0040088977147468936 0.097024336429998151 0 -0.013655752966245171 0.094180689311720855 0 -0.007175360702145514 0.1155930690216506 0 -0.0040088977147468936 0.097024336429998151 0 0.0025937760044158291 0.1064596481343341 0 -0.007175360702145514 0.1155930690216506 0 -0.013655752966245171 0.094180689311720855 0 -0.02544928824037461 0.096336669134809427 0 -0.029459919491476121 0.1011230655410132 0 -0.021580178673492881 0.1105609364200745 0 -0.037915498494119543 0.10215930426450601 0 -0.007175360702145514 0.1155930690216506 0 -0.02544928824037461 0.096336669134809427 0 -0.007175360702145514 0.1155930690216506 0 -0.02544928824037461 0.096336669134809427 0 -0.0241566231860777 0.1021061234229471 0 -0.02544928824037461 0.096336669134809427 0 -0.029459919491476121 0.1011230655410132 0 -0.035034026511796899 0.0954599165668297 0 -0.02544928824037461 0.096336669134809427 0 -0.029459919491476121 0.1011230655410132 0 -0.0241566231860777 0.1021061234229471 0 -0.02544928824037461 0.096336669134809427 0 -0.0241566231860777 0.1021061234229471 0 -0.029459919491476121 0.1011230655410132 0 -0.0241566231860777 0.1021061234229471 0 -0.021580178673492881 0.1105609364200745 0 -0.02482114599867602 0.1199028763409456 0 -0.021580178673492881 0.1105609364200745 0 -0.032585978911933711 0.11378053360982859 0 -0.007175360702145514 0.1155930690216506 0 -0.0241566231860777 0.1021061234229471 0 -0.021580178673492881 0.1105609364200745 0 -0.0187932077553963 0.1304023687453105 0 -0.007175360702145514 0.1155930690216506 0 -0.02482114599867602 0.1199028763409456 0 -0.007175360702145514 0.1155930690216506 0 -0.02482114599867602 0.1199028763409456 0 -0.021580178673492881 0.1105609364200745 0 -0.01109578586274463 0.07592966442077155 0 -0.01963881101933795 0.057650575484614511 0 -0.0089029190745683329 0.062319161291970238 0 -0.0031702267477386531 0.067180855403790804 0 -0.01109578586274463 0.07592966442077155 0 0.0065236609159091173 0.071671444604676282 0 -0.0031702267477386531 0.067180855403790804 0 -0.0089029190745683329 0.062319161291970238 0 0.00079413703044923156 0.058803151297745167 0 -0.0031702267477386531 0.067180855403790804 0 -0.01109578586274463 0.07592966442077155 0 -0.0089029190745683329 0.062319161291970238 0 -0.0040088977147468936 0.097024336429998151 0 -0.01109578586274463 0.07592966442077155 0 0.011643404763696401 0.092949868607662828 0 -0.0040088977147468936 0.097024336429998151 0 -0.013655752966245171 0.094180689311720855 0 -0.01109578586274463 0.07592966442077155 0 -0.013655752966245171 0.094180689311720855 0 -0.01109578586274463 0.07592966442077155 0 -0.02054943231121421 0.086019707551374502 0 -0.02544928824037461 0.096336669134809427 0 -0.02054943231121421 0.086019707551374502 0 -0.029642132364781061 0.077623064684345475 0 -0.02544928824037461 0.096336669134809427 0 -0.029642132364781061 0.077623064684345475 0 -0.036673455980692451 0.084509049595857907 0 -0.01109578586274463 0.07592966442077155 0 -0.02054943231121421 0.086019707551374502 0 -0.029642132364781061 0.077623064684345475 0 -0.02544928824037461 0.096336669134809427 0 -0.029642132364781061 0.077623064684345475 0 -0.013655752966245171 0.094180689311720855 0 -0.02544928824037461 0.096336669134809427 0 -0.02054943231121421 0.086019707551374502 0 -0.02544928824037461 0.096336669134809427 0 -0.036673455980692451 0.084509049595857907 0 -0.01109578586274463 0.07592966442077155 0 -0.033834976489186493 0.058909460233881362 0 -0.01109578586274463 0.07592966442077155 0 -0.029642132364781061 0.077623064684345475 0 -0.033834976489186493 0.058909460233881362 0 -0.01109578586274463 0.07592966442077155 0 -0.033834976489186493 0.058909460233881362 0 -0.01963881101933795 0.057650575484614511 0 -0.029642132364781061 0.077623064684345475 0 -0.033834976489186493 0.058909460233881362 0 -0.029642132364781061 0.077623064684345475 0 -0.036732086871232597 0.066761861307427367 0 -0.033834976489186493 0.058909460233881362 0 -0.042969512877196837 0.063698159366550891 0 -0.036732086871232597 0.066761861307427367 0 -0.038306240480512441 0.072768089837317376 0 -0.042969512877196837 0.063698159366550891 0 -0.038306240480512441 0.072768089837317376 0 -0.046136221960229658 0.070392563092827029 0 -0.042969512877196837 0.063698159366550891 0 -0.036732086871232597 0.066761861307427367 0 -0.038907572144486188 0.060810532415041758 0 -0.029642132364781061 0.077623064684345475 0 -0.036732086871232597 0.066761861307427367 0 -0.038306240480512441 0.072768089837317376 0 -0.038306240480512441 0.072768089837317376 0 -0.046136221960229658 0.070392563092827029 0 -0.043586306971417507 0.077534071189344175 0 -0.038306240480512441 0.072768089837317376 0 -0.043586306971417507 0.077534071189344175 0 -0.036673455980692451 0.084509049595857907 0 -0.043586306971417507 0.077534071189344175 0 -0.036673455980692451 0.084509049595857907 0 -0.046978765451358998 0.084182386091036676 0 -0.029642132364781061 0.077623064684345475 0 -0.038306240480512441 0.072768089837317376 0 -0.036673455980692451 0.084509049595857907 0 -0.02544928824037461 0.096336669134809427 0 -0.036673455980692451 0.084509049595857907 0 -0.035034026511796899 0.0954599165668297 0 -0.036673455980692451 0.084509049595857907 0 -0.044089979176562301 0.093675305350012283 0 -0.035034026511796899 0.0954599165668297 0 -0.036673455980692451 0.084509049595857907 0 -0.044089979176562301 0.093675305350012283 0 -0.046978765451358998 0.084182386091036676 0 -0.044089979176562301 0.093675305350012283 0 -0.057144835734191893 0.088207312209507505 0 -0.046978765451358998 0.084182386091036676 0 -0.057144835734191893 0.088207312209507505 0 -0.046978765451358998 0.084182386091036676 0 -0.053399249393930842 0.076986192110461482 0 -0.043586306971417507 0.077534071189344175 0 -0.046978765451358998 0.084182386091036676 0 -0.053399249393930842 0.076986192110461482 0 -0.053399249393930842 0.076986192110461482 0 -0.070406408885084593 0.061857930521202607 0 -0.059815066152941319 0.061788281472960463 0 -0.057144835734191893 0.088207312209507505 0 -0.053399249393930842 0.076986192110461482 0 -0.070406408885084593 0.061857930521202607 0 -0.046136221960229658 0.070392563092827029 0 -0.043586306971417507 0.077534071189344175 0 -0.053399249393930842 0.076986192110461482 0 -0.046136221960229658 0.070392563092827029 0 -0.053399249393930842 0.076986192110461482 0 -0.05257832837313995 0.068950164376806455 0 -0.053399249393930842 0.076986192110461482 0 -0.05257832837313995 0.068950164376806455 0 -0.059815066152941319 0.061788281472960463 0 -0.05257832837313995 0.068950164376806455 0 -0.052166049838275927 0.062310195238599278 0 -0.059815066152941319 0.061788281472960463 0 -0.046136221960229658 0.070392563092827029 0 -0.05257832837313995 0.068950164376806455 0 -0.052166049838275927 0.062310195238599278 0 -0.042969512877196837 0.063698159366550891 0 -0.046136221960229658 0.070392563092827029 0 -0.052166049838275927 0.062310195238599278 0 -0.021580178673492881 0.1105609364200745 0 -0.043883262583300407 0.11455669389781301 0 -0.021580178673492881 0.1105609364200745 0 -0.043883262583300407 0.11455669389781301 0 -0.032585978911933711 0.11378053360982859 0 -0.037584816749385713 0.12707105787504261 0 -0.051208231868337763 0.1260313133231428 0 -0.043883262583300407 0.11455669389781301 0 -0.037584816749385713 0.12707105787504261 0 -0.043883262583300407 0.11455669389781301 0 -0.037584816749385713 0.12707105787504261 0 -0.032585978911933711 0.11378053360982859 0 -0.037584816749385713 0.12707105787504261 0 -0.043883262583300407 0.11455669389781301 0 -0.032585978911933711 0.11378053360982859 0 -0.037584816749385713 0.12707105787504261 0 -0.02482114599867602 0.1199028763409456 0 -0.032585978911933711 0.11378053360982859 0 -0.021580178673492881 0.1105609364200745 0 -0.043883262583300407 0.11455669389781301 0 -0.037915498494119543 0.10215930426450601 0 -0.044089979176562301 0.093675305350012283 0 -0.043883262583300407 0.11455669389781301 0 -0.037915498494119543 0.10215930426450601 0 -0.044089979176562301 0.093675305350012283 0 -0.037915498494119543 0.10215930426450601 0 -0.035034026511796899 0.0954599165668297 0 -0.029459919491476121 0.1011230655410132 0 -0.037915498494119543 0.10215930426450601 0 -0.035034026511796899 0.0954599165668297 0 -0.044089979176562301 0.093675305350012283 0 -0.057144835734191893 0.088207312209507505 0 -0.043883262583300407 0.11455669389781301 0 -0.057144835734191893 0.088207312209507505 0 -0.043883262583300407 0.11455669389781301 0 -0.057144835734191893 0.088207312209507505 0 -0.043883262583300407 0.11455669389781301 0 -0.056175626513735713 0.104231459755559 0 -0.056175626513735713 0.104231459755559 0 -0.061770267295803899 0.1005995653590098 0 -0.06411880478631618 0.11818203644688791 0 -0.057144835734191893 0.088207312209507505 0 -0.056175626513735713 0.104231459755559 0 -0.061770267295803899 0.1005995653590098 0 -0.043883262583300407 0.11455669389781301 0 -0.06411880478631618 0.11818203644688791 0 -0.051208231868337763 0.1260313133231428 0 -0.043883262583300407 0.11455669389781301 0 -0.06411880478631618 0.11818203644688791 0 -0.043883262583300407 0.11455669389781301 0 -0.056175626513735713 0.104231459755559 0 -0.06411880478631618 0.11818203644688791 0 -0.071786582042575819 0.1280585334591178 0 -0.06411880478631618 0.11818203644688791 0 -0.08034823769671974 0.121089655777625 0 -0.06411880478631618 0.11818203644688791 0 -0.08034823769671974 0.121089655777625 0 -0.075381325115152609 0.106019298300689 0 -0.06411880478631618 0.11818203644688791 0 -0.08034823769671974 0.121089655777625 0 -0.08034823769671974 0.121089655777625 0 -0.096577670607123245 0.1239972751083621 0 -0.08034823769671974 0.121089655777625 0 -0.092569001324263961 0.1124699312803344 0 -0.096577670607123245 0.1239972751083621 0 -0.08034823769671974 0.121089655777625 0 -0.083967771981719092 0.1102844810624737 0 -0.092569001324263961 0.1124699312803344 0 -0.08034823769671974 0.121089655777625 0 -0.083967771981719092 0.1102844810624737 0 -0.075381325115152609 0.106019298300689 0 -0.087572523790740042 0.10155903889124659 0 -0.082071947835387321 0.094412947715560025 0 -0.09233625647768956 0.091651488650119919 0 -0.083967771981719092 0.1102844810624737 0 -0.092569001324263961 0.1124699312803344 0 -0.087572523790740042 0.10155903889124659 0 -0.083967771981719092 0.1102844810624737 0 -0.087572523790740042 0.10155903889124659 0 -0.075381325115152609 0.106019298300689 0 -0.087572523790740042 0.10155903889124659 0 -0.082071947835387321 0.094412947715560025 0 -0.075381325115152609 0.106019298300689 0 -0.06411880478631618 0.11818203644688791 0 -0.06964180214897181 0.091777453024084701 0 -0.082071947835387321 0.094412947715560025 0 -0.075381325115152609 0.106019298300689 0 -0.06964180214897181 0.091777453024084701 0 -0.06411880478631618 0.11818203644688791 0 -0.075381325115152609 0.106019298300689 0 -0.06964180214897181 0.091777453024084701 0 -0.061770267295803899 0.1005995653590098 0 -0.06411880478631618 0.11818203644688791 0 -0.06964180214897181 0.091777453024084701 0 -0.057144835734191893 0.088207312209507505 0 -0.061770267295803899 0.1005995653590098 0 -0.06964180214897181 0.091777453024084701 0 -0.06964180214897181 0.091777453024084701 0 -0.075164799511626648 0.065372869601281192 0 -0.057144835734191893 0.088207312209507505 0 -0.06964180214897181 0.091777453024084701 0 -0.068089461569968729 0.076803891339018993 0 -0.06964180214897181 0.091777453024084701 0 -0.068089461569968729 0.076803891339018993 0 -0.075164799511626648 0.065372869601281192 0 -0.057144835734191893 0.088207312209507505 0 -0.068089461569968729 0.076803891339018993 0 -0.070406408885084593 0.061857930521202607 0 -0.06964180214897181 0.091777453024084701 0 -0.075164799511626648 0.065372869601281192 0 -0.08073347634316104 0.073575546631144614 0 -0.057144835734191893 0.088207312209507505 0 -0.070406408885084593 0.061857930521202607 0 -0.068089461569968729 0.076803891339018993 0 -0.075164799511626648 0.065372869601281192 0 -0.070406408885084593 0.061857930521202607 0 -0.089923560922876636 0.068178037636278263 0 -0.08578586832533959 0.082170087930996366 0 -0.103675070998617 0.083967309240415983 0 -0.08073347634316104 0.073575546631144614 0 -0.089923560922876636 0.068178037636278263 0 -0.083186879645449088 0.059889597987781727 0 -0.075164799511626648 0.065372869601281192 0 -0.08073347634316104 0.073575546631144614 0 -0.083186879645449088 0.059889597987781727 0 -0.08073347634316104 0.073575546631144614 0 -0.089923560922876636 0.068178037636278263 0 -0.08578586832533959 0.082170087930996366 0 -0.06964180214897181 0.091777453024084701 0 -0.08073347634316104 0.073575546631144614 0 -0.08578586832533959 0.082170087930996366 0 -0.082071947835387321 0.094412947715560025 0 -0.06964180214897181 0.091777453024084701 0 -0.08578586832533959 0.082170087930996366 0 -0.082071947835387321 0.094412947715560025 0 -0.08578586832533959 0.082170087930996366 0 -0.09233625647768956 0.091651488650119919 0 -0.09233625647768956 0.091651488650119919 0 -0.103675070998617 0.083967309240415983 0 -0.10429444750695741 0.1014886749251958 0 -0.08578586832533959 0.082170087930996366 0 -0.09233625647768956 0.091651488650119919 0 -0.103675070998617 0.083967309240415983 0 -0.103675070998617 0.083967309240415983 0 -0.1198812247159142 0.095002477965890675 0 -0.10429444750695741 0.1014886749251958 0 -0.089923560922876636 0.068178037636278263 0 -0.103675070998617 0.083967309240415983 0 -0.10785209906359081 0.065371441260914459 0 -0.12533951967512769 0.078274991835817334 0 -0.103675070998617 0.083967309240415983 0 -0.10785209906359081 0.065371441260914459 0 -0.12533951967512769 0.078274991835817334 0 -0.10785209906359081 0.065371441260914459 0 -0.1248745965026067 0.059896082918310993 0 -0.12533951967512769 0.078274991835817334 0 -0.103675070998617 0.083967309240415983 0 -0.1198812247159142 0.095002477965890675 0 -0.13137241316615089 0.11357835761918721 0 -0.1198812247159142 0.095002477965890675 0 -0.10429444750695741 0.1014886749251958 0 -0.13137241316615089 0.11357835761918721 0 -0.12687331202938101 0.13192737382428379 0 -0.10667563132183119 0.1260080396076822 0 -0.13137241316615089 0.11357835761918721 0 -0.10667563132183119 0.1260080396076822 0 -0.1062978327852654 0.11550845570815239 0 -0.13137241316615089 0.11357835761918721 0 -0.1062978327852654 0.11550845570815239 0 -0.10429444750695741 0.1014886749251958 0 -0.13137241316615089 0.11357835761918721 0 -0.10667563132183119 0.1260080396076822 0 -0.10667563132183119 0.1260080396076822 0 -0.1062978327852654 0.11550845570815239 0 -0.096577670607123245 0.1239972751083621 0 -0.092569001324263961 0.1124699312803344 0 -0.1062978327852654 0.11550845570815239 0 -0.096577670607123245 0.1239972751083621 0 -0.092569001324263961 0.1124699312803344 0 -0.1062978327852654 0.11550845570815239 0 -0.10429444750695741 0.1014886749251958 0 -0.092569001324263961 0.1124699312803344 0 -0.087572523790740042 0.10155903889124659 0 -0.10429444750695741 0.1014886749251958 0 -0.087572523790740042 0.10155903889124659 0 -0.09233625647768956 0.091651488650119919 0 -0.10429444750695741 0.1014886749251958 0 -0.10370969952600501 0.019997694726909911 0 -0.098524362227562057 0.035744340183224317 0 -0.08645931971955316 0.02325136753113614 0 -0.10370969952600501 0.019997694726909911 0 -0.08645931971955316 0.02325136753113614 0 -0.091682611010439896 0.0063963380850077774 0 -0.10370969952600501 0.019997694726909911 0 -0.1180188049733784 0.030804183747700629 0 -0.098524362227562057 0.035744340183224317 0 -0.10370969952600501 0.019997694726909911 0 -0.10877227824827949 0.0075748546359299482 0 -0.091682611010439896 0.0063963380850077774 0 -0.1029392013539359 -0.0085751277431150782 0 -0.10877227824827949 0.0075748546359299482 0 -0.091682611010439896 0.0063963380850077774 0 -0.10370969952600501 0.019997694726909911 0 -0.10877227824827949 0.0075748546359299482 0 -0.11835839359799651 0.016938700943610479 0 -0.1029392013539359 -0.0085751277431150782 0 -0.12735709500343681 0.004015926865657337 0 -0.10877227824827949 0.0075748546359299482 0 -0.12735709500343681 0.004015926865657337 0 -0.10877227824827949 0.0075748546359299482 0 -0.11835839359799651 0.016938700943610479 0 -0.1339340902388827 0.022300844741854581 0 -0.11835839359799651 0.016938700943610479 0 -0.1180188049733784 0.030804183747700629 0 -0.10370969952600501 0.019997694726909911 0 -0.11835839359799651 0.016938700943610479 0 -0.1180188049733784 0.030804183747700629 0 -0.1180188049733784 0.030804183747700629 0 -0.1128457876968547 0.048091259023394652 0 -0.098524362227562057 0.035744340183224317 0 -0.13626681081840961 0.042829268155062397 0 -0.1128457876968547 0.048091259023394652 0 -0.13626681081840961 0.042829268155062397 0 -0.1180188049733784 0.030804183747700629 0 -0.1128457876968547 0.048091259023394652 0 -0.13626681081840961 0.042829268155062397 0 -0.1128457876968547 0.048091259023394652 0 -0.1248745965026067 0.059896082918310993 0 -0.10785209906359081 0.065371441260914459 0 -0.1128457876968547 0.048091259023394652 0 -0.1248745965026067 0.059896082918310993 0 -0.1128457876968547 0.048091259023394652 0 -0.089424764575299687 0.053353249891726941 0 -0.089923560922876636 0.068178037636278263 0 -0.10785209906359081 0.065371441260914459 0 -0.089424764575299687 0.053353249891726941 0 -0.10785209906359081 0.065371441260914459 0 -0.1128457876968547 0.048091259023394652 0 -0.089424764575299687 0.053353249891726941 0 -0.1128457876968547 0.048091259023394652 0 -0.098524362227562057 0.035744340183224317 0 -0.089424764575299687 0.053353249891726941 0 -0.098524362227562057 0.035744340183224317 0 -0.080687796874281473 0.038968286178477703 0 -0.08645931971955316 0.02325136753113614 0 -0.098524362227562057 0.035744340183224317 0 -0.080687796874281473 0.038968286178477703 0 -0.089424764575299687 0.053353249891726941 0 -0.080687796874281473 0.038968286178477703 0 -0.089424764575299687 0.053353249891726941 0 -0.083186879645449088 0.059889597987781727 0 -0.075164799511626648 0.065372869601281192 0 -0.080687796874281473 0.038968286178477703 0 -0.083186879645449088 0.059889597987781727 0 -0.089923560922876636 0.068178037636278263 0 -0.089424764575299687 0.053353249891726941 0 -0.083186879645449088 0.059889597987781727 0 -0.075164799511626648 0.065372869601281192 0 -0.080687796874281473 0.038968286178477703 0 -0.071303082845968715 0.053347503409362687 0 -0.075164799511626648 0.065372869601281192 0 -0.080687796874281473 0.038968286178477703 0 -0.075164799511626648 0.065372869601281192 0 -0.070406408885084593 0.061857930521202607 0 -0.071303082845968715 0.053347503409362687 0 -0.071303082845968715 0.053347503409362687 0 -0.064856269609628314 0.055117702274744398 0 -0.065400139349222536 0.045420728471107522 0 -0.070406408885084593 0.061857930521202607 0 -0.071303082845968715 0.053347503409362687 0 -0.064856269609628314 0.055117702274744398 0 -0.070406408885084593 0.061857930521202607 0 -0.064856269609628314 0.055117702274744398 0 -0.059815066152941319 0.061788281472960463 0 -0.080687796874281473 0.038968286178477703 0 -0.065400139349222536 0.045420728471107522 0 -0.063264057366842208 0.031259222641012697 0 -0.080687796874281473 0.038968286178477703 0 -0.063264057366842208 0.031259222641012697 0 -0.073460039823911166 0.024685388153665749 0 -0.080687796874281473 0.038968286178477703 0 -0.071303082845968715 0.053347503409362687 0 -0.065400139349222536 0.045420728471107522 0 -0.063264057366842208 0.031259222641012697 0 -0.073460039823911166 0.024685388153665749 0 -0.061440697951084179 0.017621877449499421 0 -0.073460039823911166 0.024685388153665749 0 -0.076769634387976737 0.01135693610240161 0 -0.061440697951084179 0.017621877449499421 0 -0.080687796874281473 0.038968286178477703 0 -0.073460039823911166 0.024685388153665749 0 -0.08645931971955316 0.02325136753113614 0 -0.073460039823911166 0.024685388153665749 0 -0.08645931971955316 0.02325136753113614 0 -0.076769634387976737 0.01135693610240161 0 -0.08645931971955316 0.02325136753113614 0 -0.091682611010439896 0.0063963380850077774 0 -0.076769634387976737 0.01135693610240161 0 -0.091682611010439896 0.0063963380850077774 0 -0.078933949510919491 0.00072378658541613432 0 -0.076769634387976737 0.01135693610240161 0 -0.086097875964997059 -0.0058870606910941042 0 -0.091682611010439896 0.0063963380850077774 0 -0.078933949510919491 0.00072378658541613432 0 -0.078933949510919491 0.00072378658541613432 0 -0.076769634387976737 0.01135693610240161 0 -0.068462160169621672 0.0025537029525893409 0 -0.068462160169621672 0.0025537029525893409 0 -0.057836245250817257 0.0062936453779614283 0 -0.061440697951084179 0.017621877449499421 0 -0.076769634387976737 0.01135693610240161 0 -0.068462160169621672 0.0025537029525893409 0 -0.061440697951084179 0.017621877449499421 0 -0.057836245250817257 0.0062936453779614283 0 -0.061440697951084179 0.017621877449499421 0 -0.042678209040760022 0.019440128409622049 0 -0.057836245250817257 0.0062936453779614283 0 -0.042678209040760022 0.019440128409622049 0 -0.044352522143416888 0.0050416822031405977 0 -0.063264057366842208 0.031259222641012697 0 -0.042678209040760022 0.019440128409622049 0 -0.05195897498334151 0.039592758420259042 0 -0.063264057366842208 0.031259222641012697 0 -0.061440697951084179 0.017621877449499421 0 -0.042678209040760022 0.019440128409622049 0 -0.042678209040760022 0.019440128409622049 0 -0.038256592764973757 0.039174794321751791 0 -0.042678209040760022 0.019440128409622049 0 -0.038256592764973757 0.039174794321751791 0 -0.027511467414372541 0.03001296694831072 0 -0.042678209040760022 0.019440128409622049 0 -0.028180513839983729 0.018098474401369 0 -0.027511467414372541 0.03001296694831072 0 -0.042678209040760022 0.019440128409622049 0 -0.032770024037711037 0.0084985419153508525 0 -0.028180513839983729 0.018098474401369 0 -0.032770024037711037 0.0084985419153508525 0 -0.03614709390981162 0.0015378833132510439 0 -0.044352522143416888 0.0050416822031405977 0 -0.029539197120254941 -0.00051038393964639519 0 -0.032770024037711037 0.0084985419153508525 0 -0.03614709390981162 0.0015378833132510439 0 -0.042678209040760022 0.019440128409622049 0 -0.032770024037711037 0.0084985419153508525 0 -0.044352522143416888 0.0050416822031405977 0 -0.042969512877196837 0.063698159366550891 0 -0.047980875447113908 0.056604040506729722 0 -0.052166049838275927 0.062310195238599278 0 -0.047980875447113908 0.056604040506729722 0 -0.052166049838275927 0.062310195238599278 0 -0.055804220694704088 0.051985500715961808 0 -0.064856269609628314 0.055117702274744398 0 -0.059815066152941319 0.061788281472960463 0 -0.055804220694704088 0.051985500715961808 0 -0.052166049838275927 0.062310195238599278 0 -0.059815066152941319 0.061788281472960463 0 -0.055804220694704088 0.051985500715961808 0 -0.064856269609628314 0.055117702274744398 0 -0.065400139349222536 0.045420728471107522 0 -0.055804220694704088 0.051985500715961808 0 -0.047980875447113908 0.056604040506729722 0 -0.055804220694704088 0.051985500715961808 0 -0.046350630683546529 0.050276175962098407 0 -0.055804220694704088 0.051985500715961808 0 -0.05195897498334151 0.039592758420259042 0 -0.046350630683546529 0.050276175962098407 0 -0.065400139349222536 0.045420728471107522 0 -0.055804220694704088 0.051985500715961808 0 -0.05195897498334151 0.039592758420259042 0 -0.065400139349222536 0.045420728471107522 0 -0.063264057366842208 0.031259222641012697 0 -0.05195897498334151 0.039592758420259042 0 -0.042678209040760022 0.019440128409622049 0 -0.05195897498334151 0.039592758420259042 0 -0.038256592764973757 0.039174794321751791 0 -0.05195897498334151 0.039592758420259042 0 -0.038256592764973757 0.039174794321751791 0 -0.046350630683546529 0.050276175962098407 0 -0.038256592764973757 0.039174794321751791 0 -0.033834976489186493 0.058909460233881362 0 -0.038256592764973757 0.039174794321751791 0 -0.038513274033404883 0.055407770980391423 0 -0.033834976489186493 0.058909460233881362 0 -0.038256592764973757 0.039174794321751791 0 -0.046350630683546529 0.050276175962098407 0 -0.038513274033404883 0.055407770980391423 0 -0.038256592764973757 0.039174794321751791 0 -0.033834976489186493 0.058909460233881362 0 -0.02879531395286377 0.050132256585483953 0 -0.046350630683546529 0.050276175962098407 0 -0.038513274033404883 0.055407770980391423 0 -0.042914570065583427 0.057802329486214707 0 -0.036732086871232597 0.066761861307427367 0 -0.033834976489186493 0.058909460233881362 0 -0.038907572144486188 0.060810532415041758 0 -0.038513274033404883 0.055407770980391423 0 -0.033834976489186493 0.058909460233881362 0 -0.038513274033404883 0.055407770980391423 0 -0.033834976489186493 0.058909460233881362 0 -0.038907572144486188 0.060810532415041758 0 -0.042969512877196837 0.063698159366550891 0 -0.038907572144486188 0.060810532415041758 0 -0.042914570065583427 0.057802329486214707 0 -0.038513274033404883 0.055407770980391423 0 -0.038907572144486188 0.060810532415041758 0 -0.042914570065583427 0.057802329486214707 0 -0.047980875447113908 0.056604040506729722 0 -0.046350630683546529 0.050276175962098407 0 -0.042914570065583427 0.057802329486214707 0 -0.042969512877196837 0.063698159366550891 0 -0.047980875447113908 0.056604040506729722 0 -0.042914570065583427 0.057802329486214707 0 -0.033834976489186493 0.058909460233881362 0 -0.01963881101933795 0.057650575484614511 0 -0.02879531395286377 0.050132256585483953 0 -0.01963881101933795 0.057650575484614511 0 -0.02879531395286377 0.050132256585483953 0 -0.02345087553795689 0.044794196301688183 0 -0.01963881101933795 0.057650575484614511 0 -0.02345087553795689 0.044794196301688183 0 -0.012175026131353321 0.050402421608982242 0 -0.02345087553795689 0.044794196301688183 0 -0.014695186475719159 0.0359408453649432 0 -0.012175026131353321 0.050402421608982242 0 -0.038256592764973757 0.039174794321751791 0 -0.02879531395286377 0.050132256585483953 0 -0.02345087553795689 0.044794196301688183 0 -0.038256592764973757 0.039174794321751791 0 -0.02345087553795689 0.044794196301688183 0 -0.027511467414372541 0.03001296694831072 0 -0.02345087553795689 0.044794196301688183 0 -0.014695186475719159 0.0359408453649432 0 -0.027511467414372541 0.03001296694831072 0 -0.014695186475719159 0.0359408453649432 0 -0.0023331541944977092 0.045311556235899067 0 0.00074240361007229996 0.028778475488121531 0 -0.014695186475719159 0.0359408453649432 0 -0.0023331541944977092 0.045311556235899067 0 -0.012175026131353321 0.050402421608982242 0 -0.0023331541944977092 0.045311556235899067 0 -0.012175026131353321 0.050402421608982242 0 0.00079413703044923156 0.058803151297745167 0 -0.012175026131353321 0.050402421608982242 0 -0.0089029190745683329 0.062319161291970238 0 0.00079413703044923156 0.058803151297745167 0 -0.01963881101933795 0.057650575484614511 0 -0.012175026131353321 0.050402421608982242 0 -0.0089029190745683329 0.062319161291970238 0 -0.021996997598287969 0.010981086364913869 0 -0.02112675760807068 0.0030512678310729521 0 -0.0083058662928979787 0.012079608812324741 0 -0.021996997598287969 0.010981086364913869 0 -0.01661374249992489 0.02103319015209278 0 -0.0083058662928979787 0.012079608812324741 0 -0.021996997598287969 0.010981086364913869 0 -0.02112675760807068 0.0030512678310729521 0 -0.02631380729169577 0.0053104208567875946 0 -0.029539197120254941 -0.00051038393964639519 0 -0.02112675760807068 0.0030512678310729521 0 -0.02631380729169577 0.0053104208567875946 0 -0.029539197120254941 -0.00051038393964639519 0 -0.032770024037711037 0.0084985419153508525 0 -0.02631380729169577 0.0053104208567875946 0 -0.032770024037711037 0.0084985419153508525 0 -0.021996997598287969 0.010981086364913869 0 -0.02631380729169577 0.0053104208567875946 0 -0.032770024037711037 0.0084985419153508525 0 -0.021996997598287969 0.010981086364913869 0 -0.028180513839983729 0.018098474401369 0 -0.028180513839983729 0.018098474401369 0 -0.027511467414372541 0.03001296694831072 0 -0.01661374249992489 0.02103319015209278 0 -0.014695186475719159 0.0359408453649432 0 -0.027511467414372541 0.03001296694831072 0 -0.01661374249992489 0.02103319015209278 0 -0.021996997598287969 0.010981086364913869 0 -0.028180513839983729 0.018098474401369 0 -0.01661374249992489 0.02103319015209278 0 -0.01661374249992489 0.02103319015209278 0 0.00074240361007229996 0.028778475488121531 0 -0.0083058662928979787 0.012079608812324741 0 0.0060294939382754481 0.01286563290641534 0 0.00074240361007229996 0.028778475488121531 0 -0.014695186475719159 0.0359408453649432 0 -0.01661374249992489 0.02103319015209278 0 0.00074240361007229996 0.028778475488121531 0 -0.0083058662928979787 0.012079608812324741 0 0.00074240361007229996 0.028778475488121531 0 -0.01661374249992489 0.02103319015209278 0 -0.0083058662928979787 0.012079608812324741 0 0.00074240361007229996 0.028778475488121531 0 -0.0072764121498596901 -0.0036325873431357339 0 -0.0083058662928979787 0.012079608812324741 0 0.0012074066645448821 -0.00065723147797176382 0 -0.0072764121498596901 -0.0036325873431357339 0 -0.013607688627124061 -0.00178224205395049 0 -0.0083058662928979787 0.012079608812324741 0 -0.017354136195868258 -0.0046192578634720229 0 -0.0083058662928979787 0.012079608812324741 0 -0.017354136195868258 -0.0046192578634720229 0 -0.013607688627124061 -0.00178224205395049 0 -0.0083058662928979787 0.012079608812324741 0 -0.0083058662928979787 0.012079608812324741 0 0.0060294939382754481 0.01286563290641534 0 0.0012074066645448821 -0.00065723147797176382 0 -0.017354136195868258 -0.0046192578634720229 0 -0.02112675760807068 0.0030512678310729521 0 -0.0083058662928979787 0.012079608812324741 0 0.0060294939382754481 0.01286563290641534 0 0.0012074066645448821 -0.00065723147797176382 0 0.01265631079038235 -0.01012693536007268 0 0.0060294939382754481 0.01286563290641534 0 0.020311547060899309 0.014329649790385431 0 0.01265631079038235 -0.01012693536007268 0 0.00074240361007229996 0.028778475488121531 0 0.015746539320639769 0.024046632949657649 0 0.022626785018342459 0.038544513255683338 0 0.0060294939382754481 0.01286563290641534 0 0.00074240361007229996 0.028778475488121531 0 0.015746539320639769 0.024046632949657649 0 0.0060294939382754481 0.01286563290641534 0 0.015746539320639769 0.024046632949657649 0 0.020311547060899309 0.014329649790385431 0 0.015746539320639769 0.024046632949657649 0 0.029022466975609298 0.02571489330768258 0 0.020311547060899309 0.014329649790385431 0 0.015746539320639769 0.024046632949657649 0 0.029022466975609298 0.02571489330768258 0 0.022626785018342459 0.038544513255683338 0 0.020311547060899309 0.014329649790385431 0 0.034885408484197772 0.0062912350017927032 0 0.01265631079038235 -0.01012693536007268 0 0.029022466975609298 0.02571489330768258 0 0.020311547060899309 0.014329649790385431 0 0.034885408484197772 0.0062912350017927032 0 0.00079413703044923156 0.058803151297745167 0 0.01366790099406239 0.052632887419703241 0 0.0065236609159091173 0.071671444604676282 0 -0.0023331541944977092 0.045311556235899067 0 0.00079413703044923156 0.058803151297745167 0 0.01366790099406239 0.052632887419703241 0 0.00074240361007229996 0.028778475488121531 0 0.01366790099406239 0.052632887419703241 0 0.022626785018342459 0.038544513255683338 0 0.00074240361007229996 0.028778475488121531 0 0.022626785018342459 0.038544513255683338 0 -0.0023331541944977092 0.045311556235899067 0 0.00074240361007229996 0.028778475488121531 0 0.01366790099406239 0.052632887419703241 0 0.00074240361007229996 0.028778475488121531 0 0.01366790099406239 0.052632887419703241 0 0.029022466975609298 0.02571489330768258 0 0.022626785018342459 0.038544513255683338 0 0.037630953216902623 0.033668105561091018 0 0.01366790099406239 0.052632887419703241 0 0.022626785018342459 0.038544513255683338 0 0.025434983742737761 0.055249644843112657 0 0.022626785018342459 0.038544513255683338 0 0.025434983742737761 0.055249644843112657 0 0.034616451435572633 0.051242168749322393 0 0.025434983742737761 0.055249644843112657 0 0.034062632092931817 0.061255223706808547 0 0.02703491536905472 0.067401080742933134 0 0.01366790099406239 0.052632887419703241 0 0.025434983742737761 0.055249644843112657 0 0.02703491536905472 0.067401080742933134 0 0.034616451435572633 0.051242168749322393 0 0.044511166426612833 0.04831055102324476 0 0.060132464308973767 0.062986029428160187 0 0.034616451435572633 0.051242168749322393 0 0.060132464308973767 0.062986029428160187 0 0.044258496001147778 0.063884183083345675 0 0.034062632092931817 0.061255223706808547 0 0.034616451435572633 0.051242168749322393 0 0.044258496001147778 0.063884183083345675 0 0.025434983742737761 0.055249644843112657 0 0.034062632092931817 0.061255223706808547 0 0.034616451435572633 0.051242168749322393 0 0.022626785018342459 0.038544513255683338 0 0.044511166426612833 0.04831055102324476 0 0.022626785018342459 0.038544513255683338 0 0.034616451435572633 0.051242168749322393 0 0.044511166426612833 0.04831055102324476 0 0.022626785018342459 0.038544513255683338 0 0.044511166426612833 0.04831055102324476 0 0.037630953216902623 0.033668105561091018 0 0.044511166426612833 0.04831055102324476 0 0.037630953216902623 0.033668105561091018 0 0.0484135161167236 0.034205204957136963 0 0.0484135161167236 0.034205204957136963 0 0.060669767880595721 0.038134724015348051 0 0.0518117103670514 0.042737821036878322 0 0.0484135161167236 0.034205204957136963 0 0.060669767880595721 0.038134724015348051 0 0.057623658326613529 0.02352368721002385 0 0.060669767880595721 0.038134724015348051 0 0.0518117103670514 0.042737821036878322 0 0.059559274975242667 0.047504887075434543 0 0.044511166426612833 0.04831055102324476 0 0.0518117103670514 0.042737821036878322 0 0.059559274975242667 0.047504887075434543 0 0.044511166426612833 0.04831055102324476 0 0.0484135161167236 0.034205204957136963 0 0.0518117103670514 0.042737821036878322 0 0.044511166426612833 0.04831055102324476 0 0.066395547834883203 0.05807658879080619 0 0.060132464308973767 0.062986029428160187 0 0.034616451435572633 0.051242168749322393 0 0.060132464308973767 0.062986029428160187 0 0.044511166426612833 0.04831055102324476 0 0.066395547834883203 0.05807658879080619 0 0.044511166426612833 0.04831055102324476 0 0.059559274975242667 0.047504887075434543 0 0.066395547834883203 0.05807658879080619 0 0.034885408484197772 0.0062912350017927032 0 0.052968053050369737 0.0090809173488315582 0 0.042517259973231587 -0.011683923625132649 0 0.034885408484197772 0.0062912350017927032 0 0.043580831547224863 0.021565365261707499 0 0.052968053050369737 0.0090809173488315582 0 0.029022466975609298 0.02571489330768258 0 0.034885408484197772 0.0062912350017927032 0 0.043580831547224863 0.021565365261707499 0 0.029022466975609298 0.02571489330768258 0 0.037630953216902623 0.033668105561091018 0 0.043580831547224863 0.021565365261707499 0 0.037630953216902623 0.033668105561091018 0 0.0484135161167236 0.034205204957136963 0 0.043580831547224863 0.021565365261707499 0 0.057623658326613529 0.02352368721002385 0 0.052968053050369737 0.0090809173488315582 0 0.071708216805815503 0.016768608491387289 0 0.043580831547224863 0.021565365261707499 0 0.057623658326613529 0.02352368721002385 0 0.052968053050369737 0.0090809173488315582 0 0.0484135161167236 0.034205204957136963 0 0.043580831547224863 0.021565365261707499 0 0.057623658326613529 0.02352368721002385 0 0.052968053050369737 0.0090809173488315582 0 0.071708216805815503 0.016768608491387289 0 0.067492943165135169 -0.0019794682467893379 0 0.083930998993742512 0.0059737405228527038 0 0.071708216805815503 0.016768608491387289 0 0.067492943165135169 -0.0019794682467893379 0 0.083930998993742512 0.0059737405228527038 0 0.098495163759696414 0.0029673617968291321 0 0.094917995650245529 0.021722354499223519 0 0.083930998993742512 0.0059737405228527038 0 0.071708216805815503 0.016768608491387289 0 0.094917995650245529 0.021722354499223519 0 0.071708216805815503 0.016768608491387289 0 0.07449934060461412 0.03258063005354956 0 0.094917995650245529 0.021722354499223519 0 0.07449934060461412 0.03258063005354956 0 0.087237150257314613 0.037926204838731957 0 0.094917995650245529 0.021722354499223519 0 0.057623658326613529 0.02352368721002385 0 0.071708216805815503 0.016768608491387289 0 0.07449934060461412 0.03258063005354956 0 0.060669767880595721 0.038134724015348051 0 0.057623658326613529 0.02352368721002385 0 0.07449934060461412 0.03258063005354956 0 0.060669767880595721 0.038134724015348051 0 0.069155187538762042 0.045022305850501279 0 0.07449934060461412 0.03258063005354956 0 0.060669767880595721 0.038134724015348051 0 0.059559274975242667 0.047504887075434543 0 0.069155187538762042 0.045022305850501279 0 0.069155187538762042 0.045022305850501279 0 0.07449934060461412 0.03258063005354956 0 0.079692196512252927 0.044953406994506007 0 0.059559274975242667 0.047504887075434543 0 0.069155187538762042 0.045022305850501279 0 0.067326156772233525 0.050603546620565112 0 0.059559274975242667 0.047504887075434543 0 0.066395547834883203 0.05807658879080619 0 0.067326156772233525 0.050603546620565112 0 0.066395547834883203 0.05807658879080619 0 0.067326156772233525 0.050603546620565112 0 0.074194616740046182 0.051810404765518438 0 0.069155187538762042 0.045022305850501279 0 0.067326156772233525 0.050603546620565112 0 0.074194616740046182 0.051810404765518438 0 0.069155187538762042 0.045022305850501279 0 0.074194616740046182 0.051810404765518438 0 0.079692196512252927 0.044953406994506007 0 0.066395547834883203 0.05807658879080619 0 0.074194616740046182 0.051810404765518438 0 0.080343143758095259 0.058335218209008277 0 0.066395547834883203 0.05807658879080619 0 0.080343143758095259 0.058335218209008277 0 0.08827992924315356 0.067842626558367619 0 0.080343143758095259 0.058335218209008277 0 0.083306510346727383 0.05351440315152866 0 0.090416084875221875 0.058235299142909973 0 0.074194616740046182 0.051810404765518438 0 0.083306510346727383 0.05351440315152866 0 0.079692196512252927 0.044953406994506007 0 0.083306510346727383 0.05351440315152866 0 0.089760373586053266 0.048866493307206167 0 0.079692196512252927 0.044953406994506007 0 0.074194616740046182 0.051810404765518438 0 0.080343143758095259 0.058335218209008277 0 0.083306510346727383 0.05351440315152866 0 0.083306510346727383 0.05351440315152866 0 0.089760373586053266 0.048866493307206167 0 0.090416084875221875 0.058235299142909973 0 0.089760373586053266 0.048866493307206167 0 0.090416084875221875 0.058235299142909973 0 0.099395501669828634 0.055681054702382278 0 0.080343143758095259 0.058335218209008277 0 0.090416084875221875 0.058235299142909973 0 0.08827992924315356 0.067842626558367619 0 0.087237150257314613 0.037926204838731957 0 0.098930039005792711 0.04227996871225087 0 0.094917995650245529 0.021722354499223519 0 0.07449934060461412 0.03258063005354956 0 0.079692196512252927 0.044953406994506007 0 0.087237150257314613 0.037926204838731957 0 0.089760373586053266 0.048866493307206167 0 0.079692196512252927 0.044953406994506007 0 0.087237150257314613 0.037926204838731957 0 0.089760373586053266 0.048866493307206167 0 0.087237150257314613 0.037926204838731957 0 0.098930039005792711 0.04227996871225087 0 0.10894092886672049 0.033503019923715648 0 0.098930039005792711 0.04227996871225087 0 0.11550376979223601 0.054551475820320147 0 0.10894092886672049 0.033503019923715648 0 0.098930039005792711 0.04227996871225087 0 0.094917995650245529 0.021722354499223519 0 0.098930039005792711 0.04227996871225087 0 0.099395501669828634 0.055681054702382278 0 0.11550376979223601 0.054551475820320147 0 0.099395501669828634 0.055681054702382278 0 0.11550376979223601 0.054551475820320147 0 0.10561354398445311 0.069921878226714862 0 0.090416084875221875 0.058235299142909973 0 0.099395501669828634 0.055681054702382278 0 0.095618088847860577 0.065038419849084594 0 0.089760373586053266 0.048866493307206167 0 0.098930039005792711 0.04227996871225087 0 0.099395501669828634 0.055681054702382278 0 0.10894092886672049 0.033503019923715648 0 0.11961069471150609 0.02296590295220987 0 0.12977361784467401 0.039215218793308727 0 0.10894092886672049 0.033503019923715648 0 0.11550376979223601 0.054551475820320147 0 0.12977361784467401 0.039215218793308727 0 0.11961069471150609 0.02296590295220987 0 0.1158546052028349 0.0064685721448778594 0 0.094917995650245529 0.021722354499223519 0 0.11961069471150609 0.02296590295220987 0 0.1158546052028349 0.0064685721448778594 0 0.13894824890776639 0.02136224913872127 0 0.1158546052028349 0.0064685721448778594 0 0.098495163759696414 0.0029673617968291321 0 0.094917995650245529 0.021722354499223519 0 0.10894092886672049 0.033503019923715648 0 0.11961069471150609 0.02296590295220987 0 0.094917995650245529 0.021722354499223519 0 0.097728221435088053 0.099184528615223033 0 0.110275064223293 0.10236359857942121 0 0.11116449005577619 0.086473750785835857 0 0.099894961061174667 0.1104201015940532 0 0.11150799601301251 0.1117412241471519 0 0.110275064223293 0.10236359857942121 0 0.097728221435088053 0.099184528615223033 0 0.099894961061174667 0.1104201015940532 0 0.110275064223293 0.10236359857942121 0 0.097728221435088053 0.099184528615223033 0 0.099894961061174667 0.1104201015940532 0 0.084925795867796111 0.1103515185161017 0 0.099894961061174667 0.1104201015940532 0 0.096984900528893664 0.1212489081817222 0 0.084925795867796111 0.1103515185161017 0 0.099894961061174667 0.1104201015940532 0 0.096984900528893664 0.1212489081817222 0 0.10712684862241641 0.1210429748963526 0 0.096984900528893664 0.1212489081817222 0 0.10712684862241641 0.1210429748963526 0 0.10589272808503949 0.13156516273042271 0 0.099894961061174667 0.1104201015940532 0 0.10712684862241641 0.1210429748963526 0 0.11150799601301251 0.1117412241471519 0 0.10712684862241641 0.1210429748963526 0 0.11150799601301251 0.1117412241471519 0 0.1187293914863337 0.1182846474287873 0 0.11150799601301251 0.1117412241471519 0 0.1187293914863337 0.1182846474287873 0 0.1197878353292403 0.1092484053650479 0 0.10712684862241641 0.1210429748963526 0 0.1187293914863337 0.1182846474287873 0 0.114987521205969 0.1268010028982309 0 0.1187293914863337 0.1182846474287873 0 0.12813823657366311 0.12049833089676459 0 0.12624189261331301 0.1140678077034443 0 0.1187293914863337 0.1182846474287873 0 0.12212988809696081 0.1249307776834532 0 0.12813823657366311 0.12049833089676459 0 0.1187293914863337 0.1182846474287873 0 0.12212988809696081 0.1249307776834532 0 0.114987521205969 0.1268010028982309 0 0.1187293914863337 0.1182846474287873 0 0.1197878353292403 0.1092484053650479 0 0.12624189261331301 0.1140678077034443 0 0.1216961693062274 0.1020981758197984 0 0.110275064223293 0.10236359857942121 0 0.11116449005577619 0.086473750785835857 0 0.1197878353292403 0.1092484053650479 0 0.1216961693062274 0.1020981758197984 0 0.1302764983332621 0.10693497851168419 0 0.1216961693062274 0.1020981758197984 0 0.11116449005577619 0.086473750785835857 0 0.13668050292917741 0.098217611464673699 0 0.1197878353292403 0.1092484053650479 0 0.1216961693062274 0.1020981758197984 0 0.110275064223293 0.10236359857942121 0 0.11150799601301251 0.1117412241471519 0 0.1197878353292403 0.1092484053650479 0 0.110275064223293 0.10236359857942121 0 0.11116449005577619 0.086473750785835857 0 0.1207366242219714 0.074251990558816788 0 0.1300820653953097 0.084166932106396392 0 0.11116449005577619 0.086473750785835857 0 0.13668050292917741 0.098217611464673699 0 0.11116449005577619 0.086473750785835857 0 0.1207366242219714 0.074251990558816788 0 0.10561354398445311 0.069921878226714862 0 0.11550376979223601 0.054551475820320147 0 0.1207366242219714 0.074251990558816788 0 0.13255022158949201 0.068763676371196639 0 0.11550376979223601 0.054551475820320147 0 0.1207366242219714 0.074251990558816788 0 0.10561354398445311 0.069921878226714862 0 0.11116449005577619 0.086473750785835857 0 0.10561354398445311 0.069921878226714862 0 0.085648477182374977 0.074729890106998029 0 0.10561354398445311 0.069921878226714862 0 0.095618088847860577 0.065038419849084594 0 0.085648477182374977 0.074729890106998029 0 0.099395501669828634 0.055681054702382278 0 0.10561354398445311 0.069921878226714862 0 0.095618088847860577 0.065038419849084594 0 0.11116449005577619 0.086473750785835857 0 0.085648477182374977 0.074729890106998029 0 0.11116449005577619 0.086473750785835857 0 0.090808031879269946 0.087622927320568048 0 0.085648477182374977 0.074729890106998029 0 0.097728221435088053 0.099184528615223033 0 0.11116449005577619 0.086473750785835857 0 0.090808031879269946 0.087622927320568048 0 0.097728221435088053 0.099184528615223033 0 0.090808031879269946 0.087622927320568048 0 0.080235742217082393 0.093435287859391092 0 0.090808031879269946 0.087622927320568048 0 0.078675001300488379 0.083882301042573534 0 0.085648477182374977 0.074729890106998029 0 0.090808031879269946 0.087622927320568048 0 0.078675001300488379 0.083882301042573534 0 0.080235742217082393 0.093435287859391092 0 0.066395547834883203 0.05807658879080619 0 0.08827992924315356 0.067842626558367619 0 0.085648477182374977 0.074729890106998029 0 0.095618088847860577 0.065038419849084594 0 0.08827992924315356 0.067842626558367619 0 0.085648477182374977 0.074729890106998029 0 0.090416084875221875 0.058235299142909973 0 0.095618088847860577 0.065038419849084594 0 0.08827992924315356 0.067842626558367619 0 0.066395547834883203 0.05807658879080619 0 0.085648477182374977 0.074729890106998029 0 0.060132464308973767 0.062986029428160187 0 0.066395547834883203 0.05807658879080619 0 0.08827992924315356 0.067842626558367619 0 0.085648477182374977 0.074729890106998029 0 0.068637102026180674 0.07792917868559901 0 0.060132464308973767 0.062986029428160187 0 0.085648477182374977 0.074729890106998029 0 0.060132464308973767 0.062986029428160187 0 0.078675001300488379 0.083882301042573534 0 0.085648477182374977 0.074729890106998029 0 0.068637102026180674 0.07792917868559901 0 0.080235742217082393 0.093435287859391092 0 0.069503799956795384 0.087722797055870286 0 0.068523875558259784 0.095111972458496966 0 0.078675001300488379 0.083882301042573534 0 0.080235742217082393 0.093435287859391092 0 0.069503799956795384 0.087722797055870286 0 0.078675001300488379 0.083882301042573534 0 0.068637102026180674 0.07792917868559901 0 0.069503799956795384 0.087722797055870286 0 0.068637102026180674 0.07792917868559901 0 0.069503799956795384 0.087722797055870286 0 0.060111091978902922 0.083782113849914977 0 0.069503799956795384 0.087722797055870286 0 0.06135777996986308 0.093915161513068182 0 0.060111091978902922 0.083782113849914977 0 0.069503799956795384 0.087722797055870286 0 0.068523875558259784 0.095111972458496966 0 0.06135777996986308 0.093915161513068182 0 0.068523875558259784 0.095111972458496966 0 0.071520258741129425 0.10189571548122769 0 0.062413973273008162 0.1018934272394761 0 0.068523875558259784 0.095111972458496966 0 0.062413973273008162 0.1018934272394761 0 0.06135777996986308 0.093915161513068182 0 0.071520258741129425 0.10189571548122769 0 0.072821304814728441 0.1108529925529516 0 0.063718101814298073 0.11016590081819259 0 0.071520258741129425 0.10189571548122769 0 0.063718101814298073 0.11016590081819259 0 0.062413973273008162 0.1018934272394761 0 0.071520258741129425 0.10189571548122769 0 0.084925795867796111 0.1103515185161017 0 0.072821304814728441 0.1108529925529516 0 0.080235742217082393 0.093435287859391092 0 0.068523875558259784 0.095111972458496966 0 0.071520258741129425 0.10189571548122769 0 0.097728221435088053 0.099184528615223033 0 0.080235742217082393 0.093435287859391092 0 0.084925795867796111 0.1103515185161017 0 0.080235742217082393 0.093435287859391092 0 0.071520258741129425 0.10189571548122769 0 0.084925795867796111 0.1103515185161017 0 0.084925795867796111 0.1103515185161017 0 0.074154959480044275 0.1204842858357125 0 0.087075880893963842 0.12621803440601359 0 0.096984900528893664 0.1212489081817222 0 0.084925795867796111 0.1103515185161017 0 0.087075880893963842 0.12621803440601359 0 0.084925795867796111 0.1103515185161017 0 0.074154959480044275 0.1204842858357125 0 0.072821304814728441 0.1108529925529516 0 0.074154959480044275 0.1204842858357125 0 0.072821304814728441 0.1108529925529516 0 0.063718101814298073 0.11016590081819259 0 0.074154959480044275 0.1204842858357125 0 0.063718101814298073 0.11016590081819259 0 0.060124536552058239 0.11864948812996751 0 0.074154959480044275 0.1204842858357125 0 0.060124536552058239 0.11864948812996751 0 0.061109117960118017 0.12720913792676911 0 0.060124536552058239 0.11864948812996751 0 0.052595679859244633 0.1236025024456274 0 0.054913207086597561 0.11271600588853189 0 0.060124536552058239 0.11864948812996751 0 0.052595679859244633 0.1236025024456274 0 0.061109117960118017 0.12720913792676911 0 0.052595679859244633 0.1236025024456274 0 0.054913207086597561 0.11271600588853189 0 0.046771683079868627 0.1089772416004138 0 0.063718101814298073 0.11016590081819259 0 0.060124536552058239 0.11864948812996751 0 0.054913207086597561 0.11271600588853189 0 0.063718101814298073 0.11016590081819259 0 0.062413973273008162 0.1018934272394761 0 0.053620768430252298 0.1031656988462608 0 0.063718101814298073 0.11016590081819259 0 0.054913207086597561 0.11271600588853189 0 0.053620768430252298 0.1031656988462608 0 0.06135777996986308 0.093915161513068182 0 0.053620768430252298 0.1031656988462608 0 0.051535176025136201 0.090416251810209708 0 0.062413973273008162 0.1018934272394761 0 0.06135777996986308 0.093915161513068182 0 0.053620768430252298 0.1031656988462608 0 0.053620768430252298 0.1031656988462608 0 0.042875633238578528 0.09739353282270094 0 0.051535176025136201 0.090416251810209708 0 0.053620768430252298 0.1031656988462608 0 0.046771683079868627 0.1089772416004138 0 0.042875633238578528 0.09739353282270094 0 0.054913207086597561 0.11271600588853189 0 0.053620768430252298 0.1031656988462608 0 0.046771683079868627 0.1089772416004138 0 0.046771683079868627 0.1089772416004138 0 0.042875633238578528 0.09739353282270094 0 0.034382595390138257 0.1099700727945534 0 0.042875633238578528 0.09739353282270094 0 0.034382595390138257 0.1099700727945534 0 0.030708755379597181 0.088685576768743155 0 0.034382595390138257 0.1099700727945534 0 0.030708755379597181 0.088685576768743155 0 0.052595679859244633 0.1236025024456274 0 0.046771683079868627 0.1089772416004138 0 0.034382595390138257 0.1099700727945534 0 0.034382595390138257 0.1099700727945534 0 0.02520709702204247 0.1232263280856261 0 0.037354296692750887 0.12718670835402709 0 0.052595679859244633 0.1236025024456274 0 0.034382595390138257 0.1099700727945534 0 0.037354296692750887 0.12718670835402709 0 0.034382595390138257 0.1099700727945534 0 0.037354296692750887 0.12718670835402709 0 0.052595679859244633 0.1236025024456274 0 0.034382595390138257 0.1099700727945534 0 0.060132464308973767 0.062986029428160187 0 0.051537231586459821 0.0703604747810012 0 0.044258496001147778 0.063884183083345675 0 0.051537231586459821 0.0703604747810012 0 0.045053238281461433 0.071665999821029613 0 0.044258496001147778 0.063884183083345675 0 0.060132464308973767 0.062986029428160187 0 0.058160070023191839 0.074213970699792686 0 0.051537231586459821 0.0703604747810012 0 0.068637102026180674 0.07792917868559901 0 0.060132464308973767 0.062986029428160187 0 0.058160070023191839 0.074213970699792686 0 0.051537231586459821 0.0703604747810012 0 0.049495561811348857 0.078896267932753172 0 0.045053238281461433 0.071665999821029613 0 0.058160070023191839 0.074213970699792686 0 0.051537231586459821 0.0703604747810012 0 0.049495561811348857 0.078896267932753172 0 0.049495561811348857 0.078896267932753172 0 0.051535176025136201 0.090416251810209708 0 0.041750220721871581 0.085344735896560275 0 0.049495561811348857 0.078896267932753172 0 0.060111091978902922 0.083782113849914977 0 0.051535176025136201 0.090416251810209708 0 0.068637102026180674 0.07792917868559901 0 0.058160070023191839 0.074213970699792686 0 0.060111091978902922 0.083782113849914977 0 0.058160070023191839 0.074213970699792686 0 0.049495561811348857 0.078896267932753172 0 0.060111091978902922 0.083782113849914977 0 0.06135777996986308 0.093915161513068182 0 0.060111091978902922 0.083782113849914977 0 0.051535176025136201 0.090416251810209708 0 0.042875633238578528 0.09739353282270094 0 0.051535176025136201 0.090416251810209708 0 0.041750220721871581 0.085344735896560275 0 0.042875633238578528 0.09739353282270094 0 0.041750220721871581 0.085344735896560275 0 0.030708755379597181 0.088685576768743155 0 0.041750220721871581 0.085344735896560275 0 0.037489048909448763 0.07466528487264068 0 0.030708755379597181 0.088685576768743155 0 0.049495561811348857 0.078896267932753172 0 0.041750220721871581 0.085344735896560275 0 0.037489048909448763 0.07466528487264068 0 0.037489048909448763 0.07466528487264068 0 0.02703491536905472 0.067401080742933134 0 0.030708755379597181 0.088685576768743155 0 0.049495561811348857 0.078896267932753172 0 0.045053238281461433 0.071665999821029613 0 0.037489048909448763 0.07466528487264068 0 0.045053238281461433 0.071665999821029613 0 0.037489048909448763 0.07466528487264068 0 0.037579666130808903 0.067774354445351542 0 0.034062632092931817 0.061255223706808547 0 0.037579666130808903 0.067774354445351542 0 0.02703491536905472 0.067401080742933134 0 0.037489048909448763 0.07466528487264068 0 0.037579666130808903 0.067774354445351542 0 0.02703491536905472 0.067401080742933134 0 0.034062632092931817 0.061255223706808547 0 0.037579666130808903 0.067774354445351542 0 0.044258496001147778 0.063884183083345675 0 0.045053238281461433 0.071665999821029613 0 0.037579666130808903 0.067774354445351542 0 0.044258496001147778 0.063884183083345675 0 0.02703491536905472 0.067401080742933134 0 0.030708755379597181 0.088685576768743155 0 0.01366790099406239 0.052632887419703241 0 0.026593398378051959 0.076487299351285121 0 0.01366790099406239 0.052632887419703241 0 0.02703491536905472 0.067401080742933134 0 0.026593398378051959 0.076487299351285121 0 0.02703491536905472 0.067401080742933134 0 0.026593398378051959 0.076487299351285121 0 0.030708755379597181 0.088685576768743155 0 0.01366790099406239 0.052632887419703241 0 0.026593398378051959 0.076487299351285121 0 0.01611389888654503 0.070322973248010373 0 0.026593398378051959 0.076487299351285121 0 0.01611389888654503 0.070322973248010373 0 0.01767063525815666 0.080500261616376856 0 0.01767063525815666 0.080500261616376856 0 0.030708755379597181 0.088685576768743155 0 0.011643404763696401 0.092949868607662828 0 0.026593398378051959 0.076487299351285121 0 0.01767063525815666 0.080500261616376856 0 0.030708755379597181 0.088685576768743155 0 0.01767063525815666 0.080500261616376856 0 0.011643404763696401 0.092949868607662828 0 0.0065236609159091173 0.071671444604676282 0 -0.01109578586274463 0.07592966442077155 0 0.011643404763696401 0.092949868607662828 0 0.0065236609159091173 0.071671444604676282 0 -0.01109578586274463 0.07592966442077155 0 0.011643404763696401 0.092949868607662828 0 0.01366790099406239 0.052632887419703241 0 0.01611389888654503 0.070322973248010373 0 0.0065236609159091173 0.071671444604676282 0 0.01611389888654503 0.070322973248010373 0 0.01767063525815666 0.080500261616376856 0 0.0065236609159091173 0.071671444604676282 0 -0.0031702267477386531 0.067180855403790804 0 0.00079413703044923156 0.058803151297745167 0 0.0065236609159091173 0.071671444604676282 0 0.034382595390138257 0.1099700727945534 0 0.02520709702204247 0.1232263280856261 0 0.01356063639681436 0.11371506303709419 0 0.02520709702204247 0.1232263280856261 0 0.01356063639681436 0.11371506303709419 0 0.011098566836083609 0.13484946890849181 0 0.034382595390138257 0.1099700727945534 0 0.011643404763696401 0.092949868607662828 0 0.01356063639681436 0.11371506303709419 0 0.034382595390138257 0.1099700727945534 0 0.011643404763696401 0.092949868607662828 0 0.034382595390138257 0.1099700727945534 0 0.030708755379597181 0.088685576768743155 0 0.011643404763696401 0.092949868607662828 0 -0.0040088977147468936 0.097024336429998151 0 0.011643404763696401 0.092949868607662828 0 0.0025937760044158291 0.1064596481343341 0 0.011643404763696401 0.092949868607662828 0 0.0025937760044158291 0.1064596481343341 0 0.01356063639681436 0.11371506303709419 0 -0.007175360702145514 0.1155930690216506 0 0.0025937760044158291 0.1064596481343341 0 0.01356063639681436 0.11371506303709419 0 -0.007175360702145514 0.1155930690216506 0 0.01356063639681436 0.11371506303709419 0 0.011098566836083609 0.13484946890849181 0 -0.007175360702145514 0.1155930690216506 0 0.011098566836083609 0.13484946890849181 0 0.02520709702204247 0.1232263280856261 0 0.011098566836083609 0.13484946890849181 0 0.028759663239593541 0.13617761485890201 0 0.02520709702204247 0.1232263280856261 0 0.028759663239593541 0.13617761485890201 0 0.037354296692750887 0.12718670835402709 0 0.011098566836083609 0.13484946890849181 0 0.029372494374312729 0.15410586879533311 0 0.013538337341477229 0.1636201682865295 0 0.011098566836083609 0.13484946890849181 0 0.028759663239593541 0.13617761485890201 0 0.029372494374312729 0.15410586879533311 0 0.011098566836083609 0.13484946890849181 0 0.029372494374312729 0.15410586879533311 0 -0.0048034666842798916 0.1614245706846468 0 0.011098566836083609 0.13484946890849181 0 0.013538337341477229 0.1636201682865295 0 -0.0057956805663459468 0.1892940575843915 0 -0.0048034666842798916 0.1614245706846468 0 0.013538337341477229 0.1636201682865295 0 -0.0057956805663459468 0.1892940575843915 0 0.013538337341477229 0.1636201682865295 0 0.020045678312652242 0.18090880435863019 0 -0.0057956805663459468 0.1892940575843915 0 0.020045678312652242 0.18090880435863019 0 0.029372494374312729 0.15410586879533311 0 0.013538337341477229 0.1636201682865295 0 0.020045678312652242 0.18090880435863019 0 0.029372494374312729 0.15410586879533311 0 0.045887037191650451 0.17252355113286891 0 0.04813315871709322 0.1541455757588851 0 0.029372494374312729 0.15410586879533311 0 0.020045678312652242 0.18090880435863019 0 0.045887037191650451 0.17252355113286891 0 0.020045678312652242 0.18090880435863019 0 0.045887037191650451 0.17252355113286891 0 0.020045678312652242 0.18090880435863019 0 0.045887037191650451 0.17252355113286891 0 0.041991232206495782 0.1919910870650737 0 0.045887037191650451 0.17252355113286891 0 0.060802696405823108 0.1787365445376432 0 0.041991232206495782 0.1919910870650737 0 0.045887037191650451 0.17252355113286891 0 0.071728396070648653 0.1641382979071076 0 0.045887037191650451 0.17252355113286891 0 0.060802696405823108 0.1787365445376432 0 0.071728396070648653 0.1641382979071076 0 0.045887037191650451 0.17252355113286891 0 0.059657673584757237 0.15824269734654939 0 0.04813315871709322 0.1541455757588851 0 0.045887037191650451 0.17252355113286891 0 0.059657673584757237 0.15824269734654939 0 0.071728396070648653 0.1641382979071076 0 0.059657673584757237 0.15824269734654939 0 0.04813315871709322 0.1541455757588851 0 0.060329678829100349 0.1474246815113264 0 0.04813315871709322 0.1541455757588851 0 0.050215372913412007 0.1458935282758238 0 0.060329678829100349 0.1474246815113264 0 0.050215372913412007 0.1458935282758238 0 0.060329678829100349 0.1474246815113264 0 0.052072656112092337 0.13760051191958289 0 0.050215372913412007 0.1458935282758238 0 0.052072656112092337 0.13760051191958289 0 0.040325997995362128 0.14440334391350099 0 0.060329678829100349 0.1474246815113264 0 0.062159468211553673 0.13737243366585769 0 0.052072656112092337 0.13760051191958289 0 0.062159468211553673 0.13737243366585769 0 0.054733357378362921 0.13083888414419281 0 0.052072656112092337 0.13760051191958289 0 0.052595679859244633 0.1236025024456274 0 0.054733357378362921 0.13083888414419281 0 0.061109117960118017 0.12720913792676911 0 0.062159468211553673 0.13737243366585769 0 0.054733357378362921 0.13083888414419281 0 0.061109117960118017 0.12720913792676911 0 0.052595679859244633 0.1236025024456274 0 0.054733357378362921 0.13083888414419281 0 0.046346625143134958 0.1312929959830558 0 0.054733357378362921 0.13083888414419281 0 0.052072656112092337 0.13760051191958289 0 0.046346625143134958 0.1312929959830558 0 0.037354296692750887 0.12718670835402709 0 0.040325997995362128 0.14440334391350099 0 0.046346625143134958 0.1312929959830558 0 0.037354296692750887 0.12718670835402709 0 0.040325997995362128 0.14440334391350099 0 0.028759663239593541 0.13617761485890201 0 0.037354296692750887 0.12718670835402709 0 0.040325997995362128 0.14440334391350099 0 0.052072656112092337 0.13760051191958289 0 0.046346625143134958 0.1312929959830558 0 0.040325997995362128 0.14440334391350099 0 0.052595679859244633 0.1236025024456274 0 0.046346625143134958 0.1312929959830558 0 0.037354296692750887 0.12718670835402709 0 0.028759663239593541 0.13617761485890201 0 0.029372494374312729 0.15410586879533311 0 0.040325997995362128 0.14440334391350099 0 0.029372494374312729 0.15410586879533311 0 0.04813315871709322 0.1541455757588851 0 0.040325997995362128 0.14440334391350099 0 0.04813315871709322 0.1541455757588851 0 0.050215372913412007 0.1458935282758238 0 0.040325997995362128 0.14440334391350099 0 0.025149977659741599 0.24684982625080901 0 0.00014186162909880781 0.2338185852574263 0 0.02177620002751179 0.22559840920251981 0 0.025149977659741599 0.24684982625080901 0 0.00014186162909880781 0.2338185852574263 0 0.025149977659741599 0.24684982625080901 0 0.00014186162909880781 0.2338185852574263 0 0.0073806355134042019 0.25529449578482938 0 0.00014186162909880781 0.2338185852574263 0 0.02177620002751179 0.22559840920251981 0 0.0090806704795409685 0.20996839310177981 0 0.025149977659741599 0.24684982625080901 0 0.02177620002751179 0.22559840920251981 0 0.039960986899899173 0.22780444499479169 0 0.02177620002751179 0.22559840920251981 0 0.0090806704795409685 0.20996839310177981 0 0.034547503469278373 0.20955079640779209 0 0.0090806704795409685 0.20996839310177981 0 0.02162293693503077 0.1981024475624624 0 0.034547503469278373 0.20955079640779209 0 -0.0057956805663459468 0.1892940575843915 0 0.0090806704795409685 0.20996839310177981 0 0.02162293693503077 0.1981024475624624 0 -0.0057956805663459468 0.1892940575843915 0 0.020045678312652242 0.18090880435863019 0 0.02162293693503077 0.1981024475624624 0 0.020045678312652242 0.18090880435863019 0 0.02162293693503077 0.1981024475624624 0 0.041991232206495782 0.1919910870650737 0 0.02162293693503077 0.1981024475624624 0 0.041991232206495782 0.1919910870650737 0 0.034547503469278373 0.20955079640779209 0 0.041991232206495782 0.1919910870650737 0 0.05849467095877426 0.1965416733816682 0 0.050764695011206777 0.20916964222725651 0 0.060802696405823108 0.1787365445376432 0 0.041991232206495782 0.1919910870650737 0 0.05849467095877426 0.1965416733816682 0 0.050764695011206777 0.20916964222725651 0 0.066981886553135278 0.20878848804672309 0 0.05849467095877426 0.1965416733816682 0 0.050764695011206777 0.20916964222725651 0 0.066981886553135278 0.20878848804672309 0 0.050764695011206777 0.20916964222725651 0 0.061514006406540499 0.23071042489022231 0 0.066981886553135278 0.20878848804672309 0 0.050764695011206777 0.20916964222725651 0 0.034547503469278373 0.20955079640779209 0 0.039960986899899173 0.22780444499479169 0 0.050764695011206777 0.20916964222725651 0 0.034547503469278373 0.20955079640779209 0 0.041991232206495782 0.1919910870650737 0 0.050764695011206777 0.20916964222725651 0 0.034547503469278373 0.20955079640779209 0 0.02177620002751179 0.22559840920251981 0 0.034547503469278373 0.20955079640779209 0 0.039960986899899173 0.22780444499479169 0 0.039960986899899173 0.22780444499479169 0 0.061514006406540499 0.23071042489022231 0 0.045472231705318063 0.24424317023843681 0 0.050764695011206777 0.20916964222725651 0 0.039960986899899173 0.22780444499479169 0 0.061514006406540499 0.23071042489022231 0 0.061514006406540499 0.23071042489022231 0 0.056046126259945157 0.25263236173372139 0 0.061514006406540499 0.23071042489022231 0 0.056046126259945157 0.25263236173372139 0 0.067905867336300579 0.25358800162702 0 0.061514006406540499 0.23071042489022231 0 0.045472231705318063 0.24424317023843681 0 0.056046126259945157 0.25263236173372139 0 0.025149977659741599 0.24684982625080901 0 0.039960986899899173 0.22780444499479169 0 0.045472231705318063 0.24424317023843681 0 0.092857250133516089 0.24175825718487831 0 0.078525547080241467 0.2465942846531784 0 0.093798877441032588 0.2579700649065903 0 0.092857250133516089 0.24175825718487831 0 0.078525547080241467 0.2465942846531784 0 0.081986142109724491 0.22560265144644431 0 0.061514006406540499 0.23071042489022231 0 0.078525547080241467 0.2465942846531784 0 0.067905867336300579 0.25358800162702 0 0.061514006406540499 0.23071042489022231 0 0.078525547080241467 0.2465942846531784 0 0.081986142109724491 0.22560265144644431 0 0.061514006406540499 0.23071042489022231 0 0.081986142109724491 0.22560265144644431 0 0.066981886553135278 0.20878848804672309 0 0.061514006406540499 0.23071042489022231 0 0.066981886553135278 0.20878848804672309 0 0.081986142109724491 0.22560265144644431 0 0.09236794217301933 0.20819183719001669 0 0.066981886553135278 0.20878848804672309 0 0.09236794217301933 0.20819183719001669 0 0.066981886553135278 0.20878848804672309 0 0.09236794217301933 0.20819183719001669 0 0.066981886553135278 0.20878848804672309 0 0.071445073857882777 0.19089458628000441 0 0.060802696405823108 0.1787365445376432 0 0.05849467095877426 0.1965416733816682 0 0.071445073857882777 0.19089458628000441 0 0.066981886553135278 0.20878848804672309 0 0.071445073857882777 0.19089458628000441 0 0.05849467095877426 0.1965416733816682 0 0.066981886553135278 0.20878848804672309 0 0.071445073857882777 0.19089458628000441 0 0.09236794217301933 0.20819183719001669 0 0.071445073857882777 0.19089458628000441 0 0.086464584236575506 0.1862285865309723 0 0.09236794217301933 0.20819183719001669 0 0.086464584236575506 0.1862285865309723 0 0.1023855527362314 0.18749689463882899 0 0.09236794217301933 0.20819183719001669 0 0.11775399779290339 0.20759518633331239 0 0.1023855527362314 0.18749689463882899 0 0.11775399779290339 0.20759518633331239 0 0.1023855527362314 0.18749689463882899 0 0.12550986450034471 0.186594373040398 0 0.09236794217301933 0.20819183719001669 0 0.11775399779290339 0.20759518633331239 0 0.09236794217301933 0.20819183719001669 0 0.11775399779290339 0.20759518633331239 0 0.10906069526472741 0.22998953009969161 0 0.092857250133516089 0.24175825718487831 0 0.081986142109724491 0.22560265144644431 0 0.10906069526472741 0.22998953009969161 0 0.081986142109724491 0.22560265144644431 0 0.09236794217301933 0.20819183719001669 0 0.10906069526472741 0.22998953009969161 0 0.11775399779290339 0.20759518633331239 0 0.10906069526472741 0.22998953009969161 0 0.1382648444377183 0.22719855966067881 0 0.10906069526472741 0.22998953009969161 0 0.12787711237058769 0.24521089126939841 0 0.1100607559553454 0.25396994184181759 0 0.092857250133516089 0.24175825718487831 0 0.10906069526472741 0.22998953009969161 0 0.1100607559553454 0.25396994184181759 0 0.081151633673542972 0.15313158297098389 0 0.083920606388658545 0.14050817004821939 0 0.0975697549496468 0.15575304468134629 0 0.081151633673542972 0.15313158297098389 0 0.083920606388658545 0.14050817004821939 0 0.071387777285217918 0.15212681924726251 0 0.074154959480044275 0.1204842858357125 0 0.087075880893963842 0.12621803440601359 0 0.083920606388658545 0.14050817004821939 0 0.087075880893963842 0.12621803440601359 0 0.083920606388658545 0.14050817004821939 0 0.097906888154765004 0.1362305538396491 0 0.062159468211553673 0.13737243366585769 0 0.061109117960118017 0.12720913792676911 0 0.083920606388658545 0.14050817004821939 0 0.074154959480044275 0.1204842858357125 0 0.061109117960118017 0.12720913792676911 0 0.083920606388658545 0.14050817004821939 0 0.061109117960118017 0.12720913792676911 0 0.083920606388658545 0.14050817004821939 0 0.062159468211553673 0.13737243366585769 0 0.083920606388658545 0.14050817004821939 0 0.069449382678632612 0.1443580261181665 0 0.060329678829100349 0.1474246815113264 0 0.062159468211553673 0.13737243366585769 0 0.069449382678632612 0.1443580261181665 0 0.060329678829100349 0.1474246815113264 0 0.069449382678632612 0.1443580261181665 0 0.071387777285217918 0.15212681924726251 0 0.083920606388658545 0.14050817004821939 0 0.069449382678632612 0.1443580261181665 0 0.071387777285217918 0.15212681924726251 0 0.059657673584757237 0.15824269734654939 0 0.060329678829100349 0.1474246815113264 0 0.071387777285217918 0.15212681924726251 0 0.059657673584757237 0.15824269734654939 0 0.071387777285217918 0.15212681924726251 0 0.071728396070648653 0.1641382979071076 0 0.081151633673542972 0.15313158297098389 0 0.071387777285217918 0.15212681924726251 0 0.071728396070648653 0.1641382979071076 0 0.071445073857882777 0.19089458628000441 0 0.075908261162629706 0.17300068451328551 0 0.086464584236575506 0.1862285865309723 0 0.060802696405823108 0.1787365445376432 0 0.071445073857882777 0.19089458628000441 0 0.075908261162629706 0.17300068451328551 0 0.071445073857882777 0.19089458628000441 0 0.075908261162629706 0.17300068451328551 0 0.060802696405823108 0.1787365445376432 0 0.071728396070648653 0.1641382979071076 0 0.075908261162629706 0.17300068451328551 0 0.086464584236575506 0.1862285865309723 0 0.090216091253114361 0.17155893003272579 0 0.1023855527362314 0.18749689463882899 0 0.075908261162629706 0.17300068451328551 0 0.086464584236575506 0.1862285865309723 0 0.090216091253114361 0.17155893003272579 0 0.081151633673542972 0.15313158297098389 0 0.071728396070648653 0.1641382979071076 0 0.0975697549496468 0.15575304468134629 0 0.071728396070648653 0.1641382979071076 0 0.090216091253114361 0.17155893003272579 0 0.0975697549496468 0.15575304468134629 0 0.071728396070648653 0.1641382979071076 0 0.075908261162629706 0.17300068451328551 0 0.090216091253114361 0.17155893003272579 0 0.071728396070648653 0.1641382979071076 0 0.0975697549496468 0.15575304468134629 0 0.090216091253114361 0.17155893003272579 0 0.1064810698159025 0.16893633516972181 0 0.0975697549496468 0.15575304468134629 0 0.1064810698159025 0.16893633516972181 0 0.1067320948171991 0.1538072021696697 0 0.0975697549496468 0.15575304468134629 0 0.090216091253114361 0.17155893003272579 0 0.1064810698159025 0.16893633516972181 0 0.1023855527362314 0.18749689463882899 0 0.1064810698159025 0.16893633516972181 0 0.12954358324573961 0.16710623429112001 0 0.12550986450034471 0.186594373040398 0 0.1064810698159025 0.16893633516972181 0 0.1023855527362314 0.18749689463882899 0 0.12550986450034471 0.186594373040398 0 0.1064810698159025 0.16893633516972181 0 0.1067320948171991 0.1538072021696697 0 0.12954358324573961 0.16710623429112001 0 0.1067320948171991 0.1538072021696697 0 0.1262856736452258 0.1537478882528979 0 0.12954358324573961 0.16710623429112001 0 0.1067320948171991 0.1538072021696697 0 0.12954358324573961 0.16710623429112001 0 0.1148569119608701 0.14824987142416859 0 0.1067320948171991 0.1538072021696697 0 0.1262856736452258 0.1537478882528979 0 0.118317888191051 0.14254191757659121 0 0.1148569119608701 0.14824987142416859 0 0.1262856736452258 0.1537478882528979 0 0.118317888191051 0.14254191757659121 0 0.12756241452120801 0.13893694775055651 0 0.1262856736452258 0.1537478882528979 0 0.1148569119608701 0.14824987142416859 0 0.1067320948171991 0.1538072021696697 0 0.1080919911900045 0.14290247769751591 0 0.118317888191051 0.14254191757659121 0 0.1148569119608701 0.14824987142416859 0 0.1080919911900045 0.14290247769751591 0 0.083920606388658545 0.14050817004821939 0 0.1067320948171991 0.1538072021696697 0 0.1067320948171991 0.1538072021696697 0 0.1080919911900045 0.14290247769751591 0 0.097906888154765004 0.1362305538396491 0 0.083920606388658545 0.14050817004821939 0 0.1067320948171991 0.1538072021696697 0 0.097906888154765004 0.1362305538396491 0 0.083920606388658545 0.14050817004821939 0 0.1067320948171991 0.1538072021696697 0 0.0975697549496468 0.15575304468134629 0 0.096984900528893664 0.1212489081817222 0 0.097906888154765004 0.1362305538396491 0 0.10589272808503949 0.13156516273042271 0 0.096984900528893664 0.1212489081817222 0 0.087075880893963842 0.12621803440601359 0 0.097906888154765004 0.1362305538396491 0 0.1080919911900045 0.14290247769751591 0 0.097906888154765004 0.1362305538396491 0 0.10589272808503949 0.13156516273042271 0 0.1080919911900045 0.14290247769751591 0 0.10589272808503949 0.13156516273042271 0 0.11327312463209829 0.13597294690712769 0 0.10712684862241641 0.1210429748963526 0 0.10589272808503949 0.13156516273042271 0 0.114987521205969 0.1268010028982309 0 0.10589272808503949 0.13156516273042271 0 0.114987521205969 0.1268010028982309 0 0.11327312463209829 0.13597294690712769 0 0.114987521205969 0.1268010028982309 0 0.11327312463209829 0.13597294690712769 0 0.1203000125167645 0.13336293759413789 0 0.118317888191051 0.14254191757659121 0 0.1080919911900045 0.14290247769751591 0 0.11327312463209829 0.13597294690712769 0 0.118317888191051 0.14254191757659121 0 0.1203000125167645 0.13336293759413789 0 0.12756241452120801 0.13893694775055651 0 0.118317888191051 0.14254191757659121 0 0.11327312463209829 0.13597294690712769 0 0.1203000125167645 0.13336293759413789 0 0.12212988809696081 0.1249307776834532 0 0.114987521205969 0.1268010028982309 0 0.1203000125167645 0.13336293759413789 0 0.12212988809696081 0.1249307776834532 0 0.1203000125167645 0.13336293759413789 0 0.12788127083107459 0.1291064789800366 0 0.12788127083107459 0.1291064789800366 0 0.13409394305489639 0.1257339851238449 0 0.12813823657366311 0.12049833089676459 0 0.12788127083107459 0.1291064789800366 0 0.13410827310584911 0.13282331674432049 0 0.13409394305489639 0.1257339851238449 0 0.12788127083107459 0.1291064789800366 0 0.12756241452120801 0.13893694775055651 0 0.13410827310584911 0.13282331674432049 0 0.1203000125167645 0.13336293759413789 0 0.12788127083107459 0.1291064789800366 0 0.12756241452120801 0.13893694775055651 0 0.13410827310584911 0.13282331674432049 0 0.14295710802469111 0.12768772724150559 0 0.13848136883728299 0.14203914735535511 0 0.12756241452120801 0.13893694775055651 0 0.13410827310584911 0.13282331674432049 0 0.13848136883728299 0.14203914735535511 0 0.13410827310584911 0.13282331674432049 0 0.13409394305489639 0.1257339851238449 0 0.14295710802469111 0.12768772724150559 0 0.14295710802469111 0.12768772724150559 0 0.15698787762036359 0.14007723406829989 0 0.15364605026385231 0.1227496740475859 0 0.14295710802469111 0.12768772724150559 0 0.13848136883728299 0.14203914735535511 0 0.15698787762036359 0.14007723406829989 0 0.13848136883728299 0.14203914735535511 0 0.1441447949138806 0.1573716891147208 0 0.15698787762036359 0.14007723406829989 0 0.1441447949138806 0.1573716891147208 0 0.1598153361361678 0.15982657838785511 0 0.15698787762036359 0.14007723406829989 0 0.13848136883728299 0.14203914735535511 0 0.1262856736452258 0.1537478882528979 0 0.1441447949138806 0.1573716891147208 0 0.12756241452120801 0.13893694775055651 0 0.13848136883728299 0.14203914735535511 0 0.1262856736452258 0.1537478882528979 0 0.1262856736452258 0.1537478882528979 0 0.12954358324573961 0.16710623429112001 0 0.1441447949138806 0.1573716891147208 0 0.12954358324573961 0.16710623429112001 0 0.12550986450034471 0.186594373040398 0 0.15375492999850379 0.1814330523327968 0 0.12954358324573961 0.16710623429112001 0 0.15375492999850379 0.1814330523327968 0 0.1441447949138806 0.1573716891147208 0 0.15375492999850379 0.1814330523327968 0 0.1441447949138806 0.1573716891147208 0 0.1598153361361678 0.15982657838785511 0 0.1598153361361678 0.15982657838785511 0 0.17205847002769489 0.1711246398383999 0 0.17247097746626519 0.1464629757798975 0 0.15375492999850379 0.1814330523327968 0 0.1598153361361678 0.15982657838785511 0 0.17205847002769489 0.1711246398383999 0 0.15375492999850379 0.1814330523327968 0 0.17205847002769489 0.1711246398383999 0 0.18411838942066619 0.18828130780555291 0 0.17205847002769489 0.1711246398383999 0 0.18411838942066619 0.18828130780555291 0 0.19050902449260759 0.164433536692701 0 0.17205847002769489 0.1711246398383999 0 0.17247097746626519 0.1464629757798975 0 0.19050902449260759 0.164433536692701 0 0.17247097746626519 0.1464629757798975 0 0.1903693880120208 0.14015559280000461 0 0.19050902449260759 0.164433536692701 0 0.17247097746626519 0.1464629757798975 0 0.18002451345814399 0.12716596121819479 0 0.1903693880120208 0.14015559280000461 0 0.17247097746626519 0.1464629757798975 0 0.18002451345814399 0.12716596121819479 0 0.16417220099380411 0.12505127510387981 0 0.15698787762036359 0.14007723406829989 0 0.16417220099380411 0.12505127510387981 0 0.15364605026385231 0.1227496740475859 0 0.17247097746626519 0.1464629757798975 0 0.15698787762036359 0.14007723406829989 0 0.16417220099380411 0.12505127510387981 0 0.1598153361361678 0.15982657838785511 0 0.17247097746626519 0.1464629757798975 0 0.15698787762036359 0.14007723406829989 0 0.14702044576598061 0.2478904659134552 0 0.1382648444377183 0.22719855966067881 0 0.15828943790025421 0.22969507774947781 0 0.14702044576598061 0.2478904659134552 0 0.12787711237058769 0.24521089126939841 0 0.1382648444377183 0.22719855966067881 0 0.10906069526472741 0.22998953009969161 0 0.12787711237058769 0.24521089126939841 0 0.1382648444377183 0.22719855966067881 0 0.1382648444377183 0.22719855966067881 0 0.14314005341278749 0.20699853547660821 0 0.15828943790025421 0.22969507774947781 0 0.14314005341278749 0.20699853547660821 0 0.16852610903267151 0.206401884619904 0 0.11775399779290339 0.20759518633331239 0 0.1382648444377183 0.22719855966067881 0 0.14314005341278749 0.20699853547660821 0 0.11775399779290339 0.20759518633331239 0 0.14314005341278749 0.20699853547660821 0 0.11775399779290339 0.20759518633331239 0 0.12550986450034471 0.186594373040398 0 0.14314005341278749 0.20699853547660821 0 0.15375492999850379 0.1814330523327968 0 0.14314005341278749 0.20699853547660821 0 0.16852610903267151 0.206401884619904 0 0.12550986450034471 0.186594373040398 0 0.15375492999850379 0.1814330523327968 0 0.14314005341278749 0.20699853547660821 0 0.15375492999850379 0.1814330523327968 0 0.18411838942066619 0.18828130780555291 0 0.16852610903267151 0.206401884619904 0 0.18411838942066619 0.18828130780555291 0 0.16852610903267151 0.206401884619904 0 0.1878214256448299 0.20672411698152671 0 0.16852610903267151 0.206401884619904 0 0.17766068788986381 0.23020170431202469 0 0.1878214256448299 0.20672411698152671 0 0.14314005341278749 0.20699853547660821 0 0.16852610903267151 0.206401884619904 0 0.15828943790025421 0.22969507774947781 0 0.16852610903267151 0.206401884619904 0 0.15828943790025421 0.22969507774947781 0 0.17766068788986381 0.23020170431202469 0 0.17766068788986381 0.23020170431202469 0 0.19353513124668931 0.22246748781277501 0 0.1878214256448299 0.20672411698152671 0 0.17766068788986381 0.23020170431202469 0 0.18692125413578081 0.24552837502103991 0 0.19379669244916639 0.23440003217329089 0 0.17766068788986381 0.23020170431202469 0 0.18692125413578081 0.24552837502103991 0 0.16774616909827719 0.2460930353984315 0 0.15828943790025421 0.22969507774947781 0 0.17766068788986381 0.23020170431202469 0 0.16774616909827719 0.2460930353984315 0 0.14702044576598061 0.2478904659134552 0 0.15828943790025421 0.22969507774947781 0 0.16774616909827719 0.2460930353984315 0 0.21557305570370441 0.24515722135805329 0 0.2029257889591993 0.24295866219667439 0 0.23007231546290949 0.2334513308517342 0 0.2029257889591993 0.24295866219667439 0 0.23007231546290949 0.2334513308517342 0 0.21557305570370441 0.24515722135805329 0 0.2029257889591993 0.24295866219667439 0 0.20107379594449931 0.25686311186437227 0 0.18692125413578081 0.24552837502103991 0 0.2029257889591993 0.24295866219667439 0 0.20107379594449931 0.25686311186437227 0 0.18692125413578081 0.24552837502103991 0 0.19379669244916639 0.23440003217329089 0 0.2029257889591993 0.24295866219667439 0 0.17766068788986381 0.23020170431202469 0 0.19379669244916639 0.23440003217329089 0 0.19353513124668931 0.22246748781277501 0 0.19379669244916639 0.23440003217329089 0 0.2029257889591993 0.24295866219667439 0 0.20920449219815451 0.22515354045629349 0 0.19379669244916639 0.23440003217329089 0 0.19353513124668931 0.22246748781277501 0 0.20920449219815451 0.22515354045629349 0 0.2029257889591993 0.24295866219667439 0 0.20920449219815451 0.22515354045629349 0 0.23007231546290949 0.2334513308517342 0 0.19353513124668931 0.22246748781277501 0 0.20920449219815451 0.22515354045629349 0 0.20732414099141369 0.20672295990195361 0 0.20920449219815451 0.22515354045629349 0 0.20732414099141369 0.20672295990195361 0 0.22783619495118521 0.20973527166224001 0 0.19353513124668931 0.22246748781277501 0 0.20732414099141369 0.20672295990195361 0 0.1878214256448299 0.20672411698152671 0 0.18411838942066619 0.18828130780555291 0 0.1878214256448299 0.20672411698152671 0 0.20343121377691101 0.18825927067945539 0 0.20732414099141369 0.20672295990195361 0 0.1878214256448299 0.20672411698152671 0 0.20343121377691101 0.18825927067945539 0 0.20732414099141369 0.20672295990195361 0 0.20343121377691101 0.18825927067945539 0 0.2219787971027708 0.18678942035429349 0 0.20732414099141369 0.20672295990195361 0 0.22783619495118521 0.20973527166224001 0 0.2219787971027708 0.18678942035429349 0 0.24528107816237801 0.1907036486386274 0 0.22783619495118521 0.20973527166224001 0 0.2219787971027708 0.18678942035429349 0 0.24528107816237801 0.1907036486386274 0 0.25242827713160498 0.21540237912569379 0 0.24528107816237801 0.1907036486386274 0 0.22783619495118521 0.20973527166224001 0 0.25242827713160498 0.21540237912569379 0 0.20920449219815451 0.22515354045629349 0 0.22783619495118521 0.20973527166224001 0 0.23007231546290949 0.2334513308517342 0 0.23007231546290949 0.2334513308517342 0 0.25242827713160498 0.21540237912569379 0 0.23007231546290949 0.2334513308517342 0 0.25511338863332461 0.22468137717712711 0 0.25242827713160498 0.21540237912569379 0 0.23007231546290949 0.2334513308517342 0 0.25511338863332461 0.22468137717712711 0 0.23007231546290949 0.2334513308517342 0 0.2457442494512444 0.24022391879071339 0 0.25511338863332461 0.22468137717712711 0 0.22783619495118521 0.20973527166224001 0 0.23007231546290949 0.2334513308517342 0 0.25242827713160498 0.21540237912569379 0 0.2457442494512444 0.24022391879071339 0 0.23628031136540401 0.25597328662156199 0 0.26221447651104962 0.2479993693513689 0 0.23007231546290949 0.2334513308517342 0 0.2457442494512444 0.24022391879071339 0 0.23628031136540401 0.25597328662156199 0 0.21557305570370441 0.24515722135805329 0 0.23007231546290949 0.2334513308517342 0 0.23628031136540401 0.25597328662156199 0 0.21557305570370441 0.24515722135805329 0 0.23007231546290949 0.2334513308517342 0 0.21023583046185859 0.14706018503428281 0 0.22521494488481819 0.12557893006429149 0 0.2001236667938262 0.1180422718546187 0 0.18002451345814399 0.12716596121819479 0 0.1903693880120208 0.14015559280000461 0 0.2001236667938262 0.1180422718546187 0 0.21023583046185859 0.14706018503428281 0 0.1903693880120208 0.14015559280000461 0 0.2001236667938262 0.1180422718546187 0 0.21023583046185859 0.14706018503428281 0 0.1903693880120208 0.14015559280000461 0 0.19050902449260759 0.164433536692701 0 0.18411838942066619 0.18828130780555291 0 0.20343121377691101 0.18825927067945539 0 0.19050902449260759 0.164433536692701 0 0.20343121377691101 0.18825927067945539 0 0.19050902449260759 0.164433536692701 0 0.20962662881846919 0.1707346457134423 0 0.20343121377691101 0.18825927067945539 0 0.20962662881846919 0.1707346457134423 0 0.2219787971027708 0.18678942035429349 0 0.21023583046185859 0.14706018503428281 0 0.20962662881846919 0.1707346457134423 0 0.2254160648188453 0.164078398330023 0 0.21023583046185859 0.14706018503428281 0 0.19050902449260759 0.164433536692701 0 0.20962662881846919 0.1707346457134423 0 0.20962662881846919 0.1707346457134423 0 0.2254160648188453 0.164078398330023 0 0.2219787971027708 0.18678942035429349 0 0.2254160648188453 0.164078398330023 0 0.2219787971027708 0.18678942035429349 0 0.23714843650665229 0.1758398884969993 0 0.24528107816237801 0.1907036486386274 0 0.2219787971027708 0.18678942035429349 0 0.23714843650665229 0.1758398884969993 0 0.24528107816237801 0.1907036486386274 0 0.23714843650665229 0.1758398884969993 0 0.25292738168467233 0.17649485219682931 0 0.2254160648188453 0.164078398330023 0 0.24653130607993951 0.16237692388552691 0 0.23688534306575301 0.1458043597726891 0 0.23714843650665229 0.1758398884969993 0 0.24653130607993951 0.16237692388552691 0 0.25292738168467233 0.17649485219682931 0 0.2254160648188453 0.164078398330023 0 0.23714843650665229 0.1758398884969993 0 0.24653130607993951 0.16237692388552691 0 0.24653130607993951 0.16237692388552691 0 0.2496536413094039 0.15044712256699261 0 0.23688534306575301 0.1458043597726891 0 0.2496536413094039 0.15044712256699261 0 0.23688534306575301 0.1458043597726891 0 0.25004344172447263 0.14019424959050239 0 0.21023583046185859 0.14706018503428281 0 0.2254160648188453 0.164078398330023 0 0.23688534306575301 0.1458043597726891 0 0.21023583046185859 0.14706018503428281 0 0.23688534306575301 0.1458043597726891 0 0.22521494488481819 0.12557893006429149 0 0.22521494488481819 0.12557893006429149 0 0.25030622297580962 0.13311558827396619 0 0.23688534306575301 0.1458043597726891 0 0.22521494488481819 0.12557893006429149 0 0.25030622297580962 0.13311558827396619 0 0.23688534306575301 0.1458043597726891 0 0.25004344172447263 0.14019424959050239 0 0.25030622297580962 0.13311558827396619 0 0.22521494488481819 0.12557893006429149 0 0.2369469616243938 0.1144798656387125 0 0.25030622297580962 0.13311558827396619 0 0.2369469616243938 0.1144798656387125 0 0.25094552198087999 0.11589449234768209 0 0.25030622297580962 0.13311558827396619 0 0.2369469616243938 0.1144798656387125 0 0.25158482098595109 0.098673396421397969 0 0.25094552198087999 0.11589449234768209 0 0.2369469616243938 0.1144798656387125 0 0.2308580048349978 0.09939168424622695 0 0.25158482098595109 0.098673396421397969 0 0.2308580048349978 0.09939168424622695 0 0.2177667053289645 0.10879872465146249 0 0.21723881235993189 0.092441087960636145 0 0.2369469616243938 0.1144798656387125 0 0.2308580048349978 0.09939168424622695 0 0.2177667053289645 0.10879872465146249 0 0.22521494488481819 0.12557893006429149 0 0.2369469616243938 0.1144798656387125 0 0.2177667053289645 0.10879872465146249 0 0.2177667053289645 0.10879872465146249 0 0.1970849337058638 0.1019164286603922 0 0.2001236667938262 0.1180422718546187 0 0.22521494488481819 0.12557893006429149 0 0.2177667053289645 0.10879872465146249 0 0.2001236667938262 0.1180422718546187 0 0.22521494488481819 0.12557893006429149 0 0.2001236667938262 0.1180422718546187 0 0.1970849337058638 0.1019164286603922 0 0.20420713705815571 0.090978010823124941 0 0.21723881235993189 0.092441087960636145 0 0.1970849337058638 0.1019164286603922 0 0.21723881235993189 0.092441087960636145 0 0.2177667053289645 0.10879872465146249 0 0.1970849337058638 0.1019164286603922 0 0.21723881235993189 0.092441087960636145 0 0.1970849337058638 0.1019164286603922 0 0.1916307843626972 0.08827444688259839 0 0.17503238870283441 0.11050561364494491 0 0.2001236667938262 0.1180422718546187 0 0.17503238870283441 0.11050561364494491 0 0.1970849337058638 0.1019164286603922 0 0.2001236667938262 0.1180422718546187 0 0.17503238870283441 0.11050561364494491 0 0.1916307843626972 0.08827444688259839 0 0.2082291800225603 0.066043280120252124 0 0.19067723801237901 0.065525043857756982 0 0.1916307843626972 0.08827444688259839 0 0.2082291800225603 0.066043280120252124 0 0.1916307843626972 0.08827444688259839 0 0.21087401780412959 0.081280079788873041 0 0.20420713705815571 0.090978010823124941 0 0.1970849337058638 0.1019164286603922 0 0.1916307843626972 0.08827444688259839 0 0.20420713705815571 0.090978010823124941 0 0.1916307843626972 0.08827444688259839 0 0.21087401780412959 0.081280079788873041 0 0.2082291800225603 0.066043280120252124 0 0.21087401780412959 0.081280079788873041 0 0.20420713705815571 0.090978010823124941 0 0.21723881235993189 0.092441087960636145 0 0.21087401780412959 0.081280079788873041 0 0.21723881235993189 0.092441087960636145 0 0.22613356481757629 0.0775902723280468 0 0.21087401780412959 0.081280079788873041 0 0.2082291800225603 0.066043280120252124 0 0.22613356481757629 0.0775902723280468 0 0.2082291800225603 0.066043280120252124 0 0.22613356481757629 0.0775902723280468 0 0.2082291800225603 0.066043280120252124 0 0.2259496113806885 0.070300708218039992 0 0.21450653174737461 0.057635669175196122 0 0.2259496113806885 0.070300708218039992 0 0.21450653174737461 0.057635669175196122 0 0.2082291800225603 0.066043280120252124 0 0.2259496113806885 0.070300708218039992 0 0.22613356481757629 0.0775902723280468 0 0.2259496113806885 0.070300708218039992 0 0.2248665156508784 0.061611733455129589 0 0.21450653174737461 0.057635669175196122 0 0.2259496113806885 0.070300708218039992 0 0.22613356481757629 0.0775902723280468 0 0.23739269101400209 0.082965747260884265 0 0.2259496113806885 0.070300708218039992 0 0.23739269101400209 0.082965747260884265 0 0.237967452106535 0.070105640596903412 0 0.2259496113806885 0.070300708218039992 0 0.23739269101400209 0.082965747260884265 0 0.2259496113806885 0.070300708218039992 0 0.2330718446673557 0.064441819436705627 0 0.2248665156508784 0.061611733455129589 0 0.2259496113806885 0.070300708218039992 0 0.2330718446673557 0.064441819436705627 0 0.237967452106535 0.070105640596903412 0 0.2308580048349978 0.09939168424622695 0 0.21723881235993189 0.092441087960636145 0 0.23739269101400209 0.082965747260884265 0 0.21723881235993189 0.092441087960636145 0 0.22613356481757629 0.0775902723280468 0 0.23739269101400209 0.082965747260884265 0 0.21723881235993189 0.092441087960636145 0 0.23739269101400209 0.082965747260884265 0 0.23739269101400209 0.082965747260884265 0 0.25158482098595109 0.098673396421397969 0 0.23739269101400209 0.082965747260884265 0 0.25243039498113262 0.075895774732197205 0 0.25158482098595109 0.098673396421397969 0 0.2308580048349978 0.09939168424622695 0 0.23739269101400209 0.082965747260884265 0 0.25158482098595109 0.098673396421397969 0 0.23739269101400209 0.082965747260884265 0 0.25243039498113262 0.075895774732197205 0 0.23934469018649959 0.064583282500140851 0 0.237967452106535 0.070105640596903412 0 0.24496427956833819 0.066036472520138348 0 0.2330718446673557 0.064441819436705627 0 0.23934469018649959 0.064583282500140851 0 0.2376257901407148 0.059976102198904507 0 0.2330718446673557 0.064441819436705627 0 0.23934469018649959 0.064583282500140851 0 0.237967452106535 0.070105640596903412 0 0.23739269101400209 0.082965747260884265 0 0.237967452106535 0.070105640596903412 0 0.24429048066179679 0.072622021298478806 0 0.24429048066179679 0.072622021298478806 0 0.24842415088314279 0.069033451464499671 0 0.25243039498113262 0.075895774732197205 0 0.23739269101400209 0.082965747260884265 0 0.24429048066179679 0.072622021298478806 0 0.25243039498113262 0.075895774732197205 0 0.24842415088314279 0.069033451464499671 0 0.24853219730195361 0.063845178725116872 0 0.25274476311700622 0.067427493409812952 0 0.237967452106535 0.070105640596903412 0 0.24429048066179679 0.072622021298478806 0 0.24496427956833819 0.066036472520138348 0 0.24429048066179679 0.072622021298478806 0 0.24842415088314279 0.069033451464499671 0 0.24496427956833819 0.066036472520138348 0 0.23934469018649959 0.064583282500140851 0 0.24496427956833819 0.066036472520138348 0 0.24309408444955441 0.062356377748052388 0 0.24496427956833819 0.066036472520138348 0 0.24602681454492631 0.062964227281045088 0 0.24309408444955441 0.062356377748052388 0 0.24496427956833819 0.066036472520138348 0 0.24602681454492631 0.062964227281045088 0 0.24853219730195361 0.063845178725116872 0 0.24842415088314279 0.069033451464499671 0 0.24496427956833819 0.066036472520138348 0 0.24853219730195361 0.063845178725116872 0 0.24751669685985911 0.059618880130872708 0 0.24309408444955441 0.062356377748052388 0 0.2376257901407148 0.059976102198904507 0 0.24751669685985911 0.059618880130872708 0 0.24426241142214139 0.049994713685017962 0 0.2310385276818335 0.053106641608170198 0 0.24751669685985911 0.059618880130872708 0 0.2376257901407148 0.059976102198904507 0 0.2310385276818335 0.053106641608170198 0 0.24751669685985911 0.059618880130872708 0 0.2310385276818335 0.053106641608170198 0 0.24853219730195361 0.063845178725116872 0 0.24751669685985911 0.059618880130872708 0 0.2530174900015254 0.0600809219264858 0 0.24602681454492631 0.062964227281045088 0 0.24853219730195361 0.063845178725116872 0 0.24751669685985911 0.059618880130872708 0 0.24602681454492631 0.062964227281045088 0 0.24751669685985911 0.059618880130872708 0 0.24309408444955441 0.062356377748052388 0 0.23934469018649959 0.064583282500140851 0 0.24309408444955441 0.062356377748052388 0 0.2376257901407148 0.059976102198904507 0 0.24426241142214139 0.049994713685017962 0 0.23928634064401511 0.040096757013566242 0 0.2310385276818335 0.053106641608170198 0 0.24751669685985911 0.059618880130872708 0 0.24426241142214139 0.049994713685017962 0 0.25102243244437311 0.053297338652025752 0 0.24426241142214139 0.049994713685017962 0 0.25174039047255609 0.044464402284776217 0 0.25102243244437311 0.053297338652025752 0 0.23928634064401511 0.040096757013566242 0 0.2320502206633881 0.021165953515508481 0 0.25044211127373811 0.032849993626191502 0 0.23928634064401511 0.040096757013566242 0 0.25044211127373811 0.032849993626191502 0 0.25174039047255609 0.044464402284776217 0 0.24426241142214139 0.049994713685017962 0 0.23928634064401511 0.040096757013566242 0 0.25174039047255609 0.044464402284776217 0 0.22618438235043381 0.038998837361733103 0 0.2320502206633881 0.021165953515508481 0 0.20963369093729961 0.03941564640516447 0 0.23928634064401511 0.040096757013566242 0 0.22618438235043381 0.038998837361733103 0 0.2320502206633881 0.021165953515508481 0 0.22618438235043381 0.038998837361733103 0 0.2310385276818335 0.053106641608170198 0 0.21456035850380811 0.046594403085467223 0 0.23928634064401511 0.040096757013566242 0 0.22618438235043381 0.038998837361733103 0 0.2310385276818335 0.053106641608170198 0 0.2310385276818335 0.053106641608170198 0 0.21456035850380811 0.046594403085467223 0 0.2248665156508784 0.061611733455129589 0 0.2310385276818335 0.053106641608170198 0 0.21456035850380811 0.046594403085467223 0 0.2248665156508784 0.061611733455129589 0 0.21456035850380811 0.046594403085467223 0 0.2330718446673557 0.064441819436705627 0 0.2248665156508784 0.061611733455129589 0 0.23150027442910881 0.059501590197602497 0 0.2248665156508784 0.061611733455129589 0 0.23150027442910881 0.059501590197602497 0 0.2310385276818335 0.053106641608170198 0 0.2330718446673557 0.064441819436705627 0 0.2376257901407148 0.059976102198904507 0 0.23150027442910881 0.059501590197602497 0 0.2376257901407148 0.059976102198904507 0 0.23150027442910881 0.059501590197602497 0 0.2310385276818335 0.053106641608170198 0 0.2320502206633881 0.021165953515508481 0 0.22999165343287109 0.0038227322559807589 0 0.25446675038947358 0.0029162606258486688 0 0.2320502206633881 0.021165953515508481 0 0.2600935707136679 0.019574361616358959 0 0.25446675038947358 0.0029162606258486688 0 0.22999165343287109 0.0038227322559807589 0 0.25446675038947358 0.0029162606258486688 0 0.24138147174972829 -0.0061427828714447699 0 0.2320502206633881 0.021165953515508481 0 0.25446675038947358 0.0029162606258486688 0 0.2320502206633881 0.021165953515508481 0 0.2600935707136679 0.019574361616358959 0 0.25044211127373811 0.032849993626191502 0 0.2320502206633881 0.021165953515508481 0 0.20963369093729961 0.03941564640516447 0 0.22999165343287109 0.0038227322559807589 0 0.21340461703840111 0.0096506044731711187 0 0.21351355446813719 -0.0021103410187178909 0 0.2320502206633881 0.021165953515508481 0 0.22999165343287109 0.0038227322559807589 0 0.21340461703840111 0.0096506044731711187 0 0.21340461703840111 0.0096506044731711187 0 0.1998105265397013 0.00335350757378736 0 0.21351355446813719 -0.0021103410187178909 0 0.21340461703840111 0.0096506044731711187 0 0.20371525389429951 0.01279949030761077 0 0.2082588668535221 0.02245160931237615 0 0.21340461703840111 0.0096506044731711187 0 0.20371525389429951 0.01279949030761077 0 0.1998105265397013 0.00335350757378736 0 0.2320502206633881 0.021165953515508481 0 0.2082588668535221 0.02245160931237615 0 0.20963369093729961 0.03941564640516447 0 0.2320502206633881 0.021165953515508481 0 0.21340461703840111 0.0096506044731711187 0 0.2082588668535221 0.02245160931237615 0 0.2082588668535221 0.02245160931237615 0 0.19338700514557339 0.015742239871108451 0 0.20963369093729961 0.03941564640516447 0 0.19338700514557339 0.015742239871108451 0 0.1989601287501698 0.040429129743079398 0 0.18048502430789731 0.01998114488410483 0 0.1989601287501698 0.040429129743079398 0 0.18048502430789731 0.01998114488410483 0 0.19338700514557339 0.015742239871108451 0 0.20963369093729961 0.03941564640516447 0 0.20371525389429951 0.01279949030761077 0 0.2082588668535221 0.02245160931237615 0 0.19338700514557339 0.015742239871108451 0 0.19338700514557339 0.015742239871108451 0 0.1998105265397013 0.00335350757378736 0 0.17714031935384769 -0.0079311666629475405 0 0.20371525389429951 0.01279949030761077 0 0.19338700514557339 0.015742239871108451 0 0.1998105265397013 0.00335350757378736 0 0.21450653174737461 0.057635669175196122 0 0.2029561920580818 0.044851916216142339 0 0.21450653174737461 0.057635669175196122 0 0.2029561920580818 0.044851916216142339 0 0.2021088015620611 0.053433964061651712 0 0.21450653174737461 0.057635669175196122 0 0.21456035850380811 0.046594403085467223 0 0.2029561920580818 0.044851916216142339 0 0.2082291800225603 0.066043280120252124 0 0.21450653174737461 0.057635669175196122 0 0.2021088015620611 0.053433964061651712 0 0.2248665156508784 0.061611733455129589 0 0.21450653174737461 0.057635669175196122 0 0.21456035850380811 0.046594403085467223 0 0.2082291800225603 0.066043280120252124 0 0.21450653174737461 0.057635669175196122 0 0.22618438235043381 0.038998837361733103 0 0.21456035850380811 0.046594403085467223 0 0.20963369093729961 0.03941564640516447 0 0.21456035850380811 0.046594403085467223 0 0.20963369093729961 0.03941564640516447 0 0.21456035850380811 0.046594403085467223 0 0.20530753189452691 0.042937648913457381 0 0.2029561920580818 0.044851916216142339 0 0.20963369093729961 0.03941564640516447 0 0.20530753189452691 0.042937648913457381 0 0.1989601287501698 0.040429129743079398 0 0.21456035850380811 0.046594403085467223 0 0.20530753189452691 0.042937648913457381 0 0.21456035850380811 0.046594403085467223 0 0.20963369093729961 0.03941564640516447 0 0.20530753189452691 0.042937648913457381 0 0.20963369093729961 0.03941564640516447 0 0.20530753189452691 0.042937648913457381 0 0.20530753189452691 0.042937648913457381 0 0.2029561920580818 0.044851916216142339 0 0.1989601287501698 0.040429129743079398 0 0.1774654858828027 0.031934360706524292 0 0.2029561920580818 0.044851916216142339 0 0.1989601287501698 0.040429129743079398 0 0.19971656766465989 0.047489351670260083 0 0.1989601287501698 0.040429129743079398 0 0.19133087755196571 0.045131483978966998 0 0.19971656766465989 0.047489351670260083 0 0.2029561920580818 0.044851916216142339 0 0.19971656766465989 0.047489351670260083 0 0.19338700514557339 0.015742239871108451 0 0.20963369093729961 0.03941564640516447 0 0.1989601287501698 0.040429129743079398 0 0.1989601287501698 0.040429129743079398 0 0.19133087755196571 0.045131483978966998 0 0.18298678422305309 0.040980100737508622 0 0.20530753189452691 0.042937648913457381 0 0.2029561920580818 0.044851916216142339 0 0.1989601287501698 0.040429129743079398 0 0.20530753189452691 0.042937648913457381 0 0.1989601287501698 0.040429129743079398 0 0.2029561920580818 0.044851916216142339 0 0.1989601287501698 0.040429129743079398 0 0.2082291800225603 0.066043280120252124 0 0.18513553631762919 0.051149603126408108 0 0.2021088015620611 0.053433964061651712 0 0.19971656766465989 0.047489351670260083 0 0.18513553631762919 0.051149603126408108 0 0.2082291800225603 0.066043280120252124 0 0.2021088015620611 0.053433964061651712 0 0.18513553631762919 0.051149603126408108 0 0.19067723801237901 0.065525043857756982 0 0.2082291800225603 0.066043280120252124 0 0.18513553631762919 0.051149603126408108 0 0.19133087755196571 0.045131483978966998 0 0.19971656766465989 0.047489351670260083 0 0.18513553631762919 0.051149603126408108 0 0.2029561920580818 0.044851916216142339 0 0.2021088015620611 0.053433964061651712 0 0.19971656766465989 0.047489351670260083 0 0.17734631865053521 0.060730067185729229 0 0.18513553631762919 0.051149603126408108 0 0.16725106424272049 0.052894846580172288 0 0.19067723801237901 0.065525043857756982 0 0.17734631865053521 0.060730067185729229 0 0.18513553631762919 0.051149603126408108 0 0.18298678422305309 0.040980100737508622 0 0.1774654858828027 0.031934360706524292 0 0.1620418926126978 0.036255926132564682 0 0.19133087755196571 0.045131483978966998 0 0.18513553631762919 0.051149603126408108 0 0.18298678422305309 0.040980100737508622 0 0.18513553631762919 0.051149603126408108 0 0.18298678422305309 0.040980100737508622 0 0.1620418926126978 0.036255926132564682 0 0.1989601287501698 0.040429129743079398 0 0.18298678422305309 0.040980100737508622 0 0.1774654858828027 0.031934360706524292 0 0.18513553631762919 0.051149603126408108 0 0.1620418926126978 0.036255926132564682 0 0.1620418926126978 0.036255926132564682 0 0.16725106424272049 0.052894846580172288 0 0.15541952745182569 0.04677658384696623 0 0.18513553631762919 0.051149603126408108 0 0.1620418926126978 0.036255926132564682 0 0.16725106424272049 0.052894846580172288 0 0.16725106424272049 0.052894846580172288 0 0.15507694825043991 0.057889849327421902 0 0.15541952745182569 0.04677658384696623 0 0.16725106424272049 0.052894846580172288 0 0.15507694825043991 0.057889849327421902 0 0.1653937448538241 0.067538194789913991 0 0.17734631865053521 0.060730067185729229 0 0.16725106424272049 0.052894846580172288 0 0.1653937448538241 0.067538194789913991 0 0.18048502430789731 0.01998114488410483 0 0.1657030786406338 0.0084270166623369204 0 0.17714031935384769 -0.0079311666629475405 0 0.19338700514557339 0.015742239871108451 0 0.17714031935384769 -0.0079311666629475405 0 0.19338700514557339 0.015742239871108451 0 0.18048502430789731 0.01998114488410483 0 0.17714031935384769 -0.0079311666629475405 0 0.1989601287501698 0.040429129743079398 0 0.1774654858828027 0.031934360706524292 0 0.18048502430789731 0.01998114488410483 0 0.1774654858828027 0.031934360706524292 0 0.18048502430789731 0.01998114488410483 0 0.16935520337559401 0.020657770454092759 0 0.1774654858828027 0.031934360706524292 0 0.15597084301543529 0.02343959166996953 0 0.1774654858828027 0.031934360706524292 0 0.1620418926126978 0.036255926132564682 0 0.15597084301543529 0.02343959166996953 0 0.1774654858828027 0.031934360706524292 0 0.16935520337559401 0.020657770454092759 0 0.15597084301543529 0.02343959166996953 0 0.16935520337559401 0.020657770454092759 0 0.1657030786406338 0.0084270166623369204 0 0.15597084301543529 0.02343959166996953 0 0.18048502430789731 0.01998114488410483 0 0.16935520337559401 0.020657770454092759 0 0.1657030786406338 0.0084270166623369204 0 0.1657030786406338 0.0084270166623369204 0 0.14883794818754281 0.01110572894874149 0 0.15480995508657039 -0.001084596553268768 0 0.1657030786406338 0.0084270166623369204 0 0.14883794818754281 0.01110572894874149 0 0.15597084301543529 0.02343959166996953 0 0.14883794818754281 0.01110572894874149 0 0.13464870039648349 0.00080453217212592717 0 0.15480995508657039 -0.001084596553268768 0 0.14883794818754281 0.01110572894874149 0 0.13894824890776639 0.02136224913872127 0 0.13464870039648349 0.00080453217212592717 0 0.1620418926126978 0.036255926132564682 0 0.13894824890776639 0.02136224913872127 0 0.14883794818754281 0.01110572894874149 0 0.15597084301543529 0.02343959166996953 0 0.13894824890776639 0.02136224913872127 0 0.1620418926126978 0.036255926132564682 0 0.15597084301543529 0.02343959166996953 0 0.13894824890776639 0.02136224913872127 0 0.11961069471150609 0.02296590295220987 0 0.13894824890776639 0.02136224913872127 0 0.12977361784467401 0.039215218793308727 0 0.1158546052028349 0.0064685721448778594 0 0.13894824890776639 0.02136224913872127 0 0.1158546052028349 0.0064685721448778594 0 0.13894824890776639 0.02136224913872127 0 0.13464870039648349 0.00080453217212592717 0 0.14278372382386809 0.048416123664777412 0 0.1428601767931531 0.062084067640591357 0 0.15507694825043991 0.057889849327421902 0 0.14278372382386809 0.048416123664777412 0 0.15507694825043991 0.057889849327421902 0 0.15541952745182569 0.04677658384696623 0 0.1620418926126978 0.036255926132564682 0 0.13894824890776639 0.02136224913872127 0 0.14579340212816641 0.038405220315267663 0 0.1620418926126978 0.036255926132564682 0 0.15541952745182569 0.04677658384696623 0 0.14579340212816641 0.038405220315267663 0 0.14278372382386809 0.048416123664777412 0 0.15541952745182569 0.04677658384696623 0 0.14579340212816641 0.038405220315267663 0 0.14278372382386809 0.048416123664777412 0 0.14579340212816641 0.038405220315267663 0 0.12977361784467401 0.039215218793308727 0 0.13894824890776639 0.02136224913872127 0 0.14579340212816641 0.038405220315267663 0 0.12977361784467401 0.039215218793308727 0 0.11550376979223601 0.054551475820320147 0 0.12977361784467401 0.039215218793308727 0 0.1326943019686847 0.054606112458038862 0 0.11550376979223601 0.054551475820320147 0 0.1326943019686847 0.054606112458038862 0 0.13255022158949201 0.068763676371196639 0 0.14278372382386809 0.048416123664777412 0 0.12977361784467401 0.039215218793308727 0 0.1326943019686847 0.054606112458038862 0 0.14278372382386809 0.048416123664777412 0 0.1428601767931531 0.062084067640591357 0 0.1326943019686847 0.054606112458038862 0 0.1428601767931531 0.062084067640591357 0 0.1326943019686847 0.054606112458038862 0 0.13255022158949201 0.068763676371196639 0 0.1207366242219714 0.074251990558816788 0 0.13255022158949201 0.068763676371196639 0 0.13578085374332971 0.077614708003019631 0 0.13255022158949201 0.068763676371196639 0 0.13578085374332971 0.077614708003019631 0 0.1430759120552613 0.073085192731263071 0 0.1428601767931531 0.062084067640591357 0 0.13255022158949201 0.068763676371196639 0 0.1430759120552613 0.073085192731263071 0 0.1428601767931531 0.062084067640591357 0 0.1430759120552613 0.073085192731263071 0 0.15260580868734391 0.069203578475014266 0 0.1430759120552613 0.073085192731263071 0 0.14969883640752091 0.076610515579137797 0 0.14563192422462459 0.083183778073064013 0 0.13578085374332971 0.077614708003019631 0 0.1430759120552613 0.073085192731263071 0 0.14563192422462459 0.083183778073064013 0 0.1430759120552613 0.073085192731263071 0 0.14969883640752091 0.076610515579137797 0 0.15260580868734391 0.069203578475014266 0 0.14969883640752091 0.076610515579137797 0 0.15260580868734391 0.069203578475014266 0 0.15677919641446331 0.080277826610221981 0 0.1428601767931531 0.062084067640591357 0 0.15507694825043991 0.057889849327421902 0 0.15260580868734391 0.069203578475014266 0 0.1506819444987289 0.088437751930635633 0 0.14868901735932749 0.09586058707093438 0 0.157853861938485 0.092527754269896317 0 0.1506819444987289 0.088437751930635633 0 0.15677919641446331 0.080277826610221981 0 0.157853861938485 0.092527754269896317 0 0.14969883640752091 0.076610515579137797 0 0.14563192422462459 0.083183778073064013 0 0.15677919641446331 0.080277826610221981 0 0.1506819444987289 0.088437751930635633 0 0.14563192422462459 0.083183778073064013 0 0.15677919641446331 0.080277826610221981 0 0.14563192422462459 0.083183778073064013 0 0.1444557225567443 0.090338813629061501 0 0.13888671887288589 0.088270852986767859 0 0.1506819444987289 0.088437751930635633 0 0.14563192422462459 0.083183778073064013 0 0.1444557225567443 0.090338813629061501 0 0.1444557225567443 0.090338813629061501 0 0.14209274384079601 0.094639397504520467 0 0.14868901735932749 0.09586058707093438 0 0.1506819444987289 0.088437751930635633 0 0.1444557225567443 0.090338813629061501 0 0.14868901735932749 0.09586058707093438 0 0.1444557225567443 0.090338813629061501 0 0.13888671887288589 0.088270852986767859 0 0.14209274384079601 0.094639397504520467 0 0.13888671887288589 0.088270852986767859 0 0.13668050292917741 0.098217611464673699 0 0.14209274384079601 0.094639397504520467 0 0.13888671887288589 0.088270852986767859 0 0.1300820653953097 0.084166932106396392 0 0.13668050292917741 0.098217611464673699 0 0.11116449005577619 0.086473750785835857 0 0.1300820653953097 0.084166932106396392 0 0.13668050292917741 0.098217611464673699 0 0.13578085374332971 0.077614708003019631 0 0.13888671887288589 0.088270852986767859 0 0.1300820653953097 0.084166932106396392 0 0.13578085374332971 0.077614708003019631 0 0.14563192422462459 0.083183778073064013 0 0.13888671887288589 0.088270852986767859 0 0.1207366242219714 0.074251990558816788 0 0.13578085374332971 0.077614708003019631 0 0.1300820653953097 0.084166932106396392 0 0.1216961693062274 0.1020981758197984 0 0.1302764983332621 0.10693497851168419 0 0.13668050292917741 0.098217611464673699 0 0.1302764983332621 0.10693497851168419 0 0.13758713408363871 0.1043360441680015 0 0.13668050292917741 0.098217611464673699 0 0.1302764983332621 0.10693497851168419 0 0.1360833458267342 0.1084620534226548 0 0.13758713408363871 0.1043360441680015 0 0.1360833458267342 0.1084620534226548 0 0.13758713408363871 0.1043360441680015 0 0.14314356584317489 0.10755645506983 0 0.13758713408363871 0.1043360441680015 0 0.13668050292917741 0.098217611464673699 0 0.14175175748584509 0.1005091223711649 0 0.13668050292917741 0.098217611464673699 0 0.14209274384079601 0.094639397504520467 0 0.14175175748584509 0.1005091223711649 0 0.12813823657366311 0.12049833089676459 0 0.13246275659848361 0.1130811342378658 0 0.13708322035591489 0.118794437000363 0 0.12212988809696081 0.1249307776834532 0 0.12788127083107459 0.1291064789800366 0 0.12813823657366311 0.12049833089676459 0 0.1197878353292403 0.1092484053650479 0 0.1302764983332621 0.10693497851168419 0 0.12624189261331301 0.1140678077034443 0 0.12813823657366311 0.12049833089676459 0 0.12624189261331301 0.1140678077034443 0 0.13246275659848361 0.1130811342378658 0 0.1302764983332621 0.10693497851168419 0 0.12624189261331301 0.1140678077034443 0 0.13246275659848361 0.1130811342378658 0 0.138866780176991 0.11235807520418389 0 0.13708322035591489 0.118794437000363 0 0.14572099158606311 0.1154247658161887 0 0.1360833458267342 0.1084620534226548 0 0.13246275659848361 0.1130811342378658 0 0.138866780176991 0.11235807520418389 0 0.1302764983332621 0.10693497851168419 0 0.1360833458267342 0.1084620534226548 0 0.13246275659848361 0.1130811342378658 0 0.1360833458267342 0.1084620534226548 0 0.138866780176991 0.11235807520418389 0 0.14314356584317489 0.10755645506983 0 0.13246275659848361 0.1130811342378658 0 0.138866780176991 0.11235807520418389 0 0.13708322035591489 0.118794437000363 0 0.13409394305489639 0.1257339851238449 0 0.14295710802469111 0.12768772724150559 0 0.13708322035591489 0.118794437000363 0 0.13409394305489639 0.1257339851238449 0 0.12813823657366311 0.12049833089676459 0 0.13708322035591489 0.118794437000363 0 0.14572099158606311 0.1154247658161887 0 0.15364605026385231 0.1227496740475859 0 0.15839207309433961 0.10550736800805539 0 0.14295710802469111 0.12768772724150559 0 0.13708322035591489 0.118794437000363 0 0.14572099158606311 0.1154247658161887 0 0.14295710802469111 0.12768772724150559 0 0.14572099158606311 0.1154247658161887 0 0.15364605026385231 0.1227496740475859 0 0.138866780176991 0.11235807520418389 0 0.14572099158606311 0.1154247658161887 0 0.14314356584317489 0.10755645506983 0 0.14572099158606311 0.1154247658161887 0 0.14314356584317489 0.10755645506983 0 0.15839207309433961 0.10550736800805539 0 0.14175175748584509 0.1005091223711649 0 0.15839207309433961 0.10550736800805539 0 0.14175175748584509 0.1005091223711649 0 0.14314356584317489 0.10755645506983 0 0.15839207309433961 0.10550736800805539 0 0.14175175748584509 0.1005091223711649 0 0.14868901735932749 0.09586058707093438 0 0.15839207309433961 0.10550736800805539 0 0.14209274384079601 0.094639397504520467 0 0.14175175748584509 0.1005091223711649 0 0.14868901735932749 0.09586058707093438 0 0.13758713408363871 0.1043360441680015 0 0.14175175748584509 0.1005091223711649 0 0.14314356584317489 0.10755645506983 0 0.14868901735932749 0.09586058707093438 0 0.15839207309433961 0.10550736800805539 0 0.157853861938485 0.092527754269896317 0 0.15839207309433961 0.10550736800805539 0 0.17503238870283441 0.11050561364494491 0 0.15839207309433961 0.10550736800805539 0 0.1705578526620479 0.095927182961129481 0 0.157853861938485 0.092527754269896317 0 0.15839207309433961 0.10550736800805539 0 0.1705578526620479 0.095927182961129481 0 0.17503238870283441 0.11050561364494491 0 0.16417220099380411 0.12505127510387981 0 0.15839207309433961 0.10550736800805539 0 0.17503238870283441 0.11050561364494491 0 0.16417220099380411 0.12505127510387981 0 0.15364605026385231 0.1227496740475859 0 0.15839207309433961 0.10550736800805539 0 0.16417220099380411 0.12505127510387981 0 0.17503238870283441 0.11050561364494491 0 0.18002451345814399 0.12716596121819479 0 0.16417220099380411 0.12505127510387981 0 0.17503238870283441 0.11050561364494491 0 0.18002451345814399 0.12716596121819479 0 0.2001236667938262 0.1180422718546187 0 0.17503238870283441 0.11050561364494491 0 0.1916307843626972 0.08827444688259839 0 0.1705578526620479 0.095927182961129481 0 0.17503238870283441 0.11050561364494491 0 0.1916307843626972 0.08827444688259839 0 0.17503238870283441 0.11050561364494491 0 0.1916307843626972 0.08827444688259839 0 0.17935943521264269 0.07135827912697662 0 0.16988015521188329 0.08282073200015258 0 0.1916307843626972 0.08827444688259839 0 0.1705578526620479 0.095927182961129481 0 0.16988015521188329 0.08282073200015258 0 0.19067723801237901 0.065525043857756982 0 0.1916307843626972 0.08827444688259839 0 0.17935943521264269 0.07135827912697662 0 0.19067723801237901 0.065525043857756982 0 0.17734631865053521 0.060730067185729229 0 0.17935943521264269 0.07135827912697662 0 0.17734631865053521 0.060730067185729229 0 0.17935943521264269 0.07135827912697662 0 0.1653937448538241 0.067538194789913991 0 0.17935943521264269 0.07135827912697662 0 0.1653937448538241 0.067538194789913991 0 0.16988015521188329 0.08282073200015258 0 0.15507694825043991 0.057889849327421902 0 0.15260580868734391 0.069203578475014266 0 0.1653937448538241 0.067538194789913991 0 0.15260580868734391 0.069203578475014266 0 0.1653937448538241 0.067538194789913991 0 0.15677919641446331 0.080277826610221981 0 0.1653937448538241 0.067538194789913991 0 0.15677919641446331 0.080277826610221981 0 0.16988015521188329 0.08282073200015258 0 0.15677919641446331 0.080277826610221981 0 0.157853861938485 0.092527754269896317 0 0.16988015521188329 0.08282073200015258 0 0.1705578526620479 0.095927182961129481 0 0.157853861938485 0.092527754269896317 0 0.16988015521188329 0.08282073200015258 0 0.099456207782380623 0.4822659283708195 0 0.1141892196830592 0.48396198267476093 0 0.11304725129434449 0.46767028325629811 0 0.099456207782380623 0.4822659283708195 0 0.11304725129434449 0.46767028325629811 0 0.096803680563272876 0.46646214520586099 0 0.099456207782380623 0.4822659283708195 0 0.10782601469385079 0.5 0 0.078267650747156567 0.50000000000000133 0 0.099456207782380623 0.4822659283708195 0 0.10782601469385079 0.5 0 0.1141892196830592 0.48396198267476093 0 0.10782601469385079 0.5 0 0.1249193769550877 0.49369376296818718 0 0.1141892196830592 0.48396198267476093 0 0.1249193769550877 0.49369376296818718 0 0.1141892196830592 0.48396198267476093 0 0.12569724768963239 0.47617993877849962 0 0.10782601469385079 0.5 0 0.1249193769550877 0.49369376296818718 0 0.13738437864054501 0.5 0 0.1141892196830592 0.48396198267476093 0 0.11304725129434449 0.46767028325629811 0 0.12569724768963239 0.47617993877849962 0 0.11304725129434449 0.46767028325629811 0 0.1267882431275838 0.46370707134437261 0 0.12569724768963239 0.47617993877849962 0 0.11304725129434449 0.46767028325629811 0 0.1221607865463437 0.4507156547582637 0 0.1004821270038239 0.44949914822431608 0 0.11304725129434449 0.46767028325629811 0 0.1221607865463437 0.4507156547582637 0 0.1267882431275838 0.46370707134437261 0 0.1221607865463437 0.4507156547582637 0 0.1004821270038239 0.44949914822431608 0 0.12259086230274099 0.42947812748907283 0 0.1004821270038239 0.44949914822431608 0 0.096803680563272876 0.46646214520586099 0 0.084307548883437972 0.45862843933572522 0 0.11304725129434449 0.46767028325629811 0 0.1004821270038239 0.44949914822431608 0 0.096803680563272876 0.46646214520586099 0 0.084307548883437972 0.45862843933572522 0 0.070120974899159305 0.46867166915081548 0 0.08254081050968877 0.47642281665818748 0 0.096803680563272876 0.46646214520586099 0 0.084307548883437972 0.45862843933572522 0 0.08254081050968877 0.47642281665818748 0 0.084307548883437972 0.45862843933572522 0 0.083205653112744402 0.44008551456546158 0 0.070599818540594342 0.45171728711773013 0 0.1004821270038239 0.44949914822431608 0 0.084307548883437972 0.45862843933572522 0 0.083205653112744402 0.44008551456546158 0 0.1004821270038239 0.44949914822431608 0 0.083205653112744402 0.44008551456546158 0 0.095892719888732866 0.42453745382262881 0 0.070599818540594342 0.45171728711773013 0 0.057347956450285731 0.44480695268810438 0 0.068330088192809502 0.43602814955066621 0 0.083205653112744402 0.44008551456546158 0 0.070599818540594342 0.45171728711773013 0 0.068330088192809502 0.43602814955066621 0 0.070599818540594342 0.45171728711773013 0 0.070120974899159305 0.46867166915081548 0 0.05832870883015126 0.45973880463956351 0 0.084307548883437972 0.45862843933572522 0 0.070599818540594342 0.45171728711773013 0 0.070120974899159305 0.46867166915081548 0 0.070120974899159305 0.46867166915081548 0 0.08254081050968877 0.47642281665818748 0 0.061557047466102868 0.48310025102256282 0 0.070120974899159305 0.46867166915081548 0 0.061557047466102868 0.48310025102256282 0 0.05832870883015126 0.45973880463956351 0 0.099456207782380623 0.4822659283708195 0 0.096803680563272876 0.46646214520586099 0 0.08254081050968877 0.47642281665818748 0 0.099456207782380623 0.4822659283708195 0 0.08254081050968877 0.47642281665818748 0 0.078267650747156567 0.50000000000000133 0 0.078267650747156567 0.50000000000000133 0 0.049166882519808157 0.5 0 0.061557047466102868 0.48310025102256282 0 0.08254081050968877 0.47642281665818748 0 0.078267650747156567 0.50000000000000133 0 0.061557047466102868 0.48310025102256282 0 0.078267650747156567 0.50000000000000133 0 0.061557047466102868 0.48310025102256282 0 0.049166882519808157 0.5 0 0.061557047466102868 0.48310025102256282 0 0.038208171894904559 0.48286056860770488 0 0.061557047466102868 0.48310025102256282 0 0.044846444185049857 0.46620050204512359 0 0.05832870883015126 0.45973880463956351 0 0.061557047466102868 0.48310025102256282 0 0.044846444185049857 0.46620050204512359 0 0.061557047466102868 0.48310025102256282 0 0.038208171894904559 0.48286056860770488 0 0.044846444185049857 0.46620050204512359 0 0.038208171894904559 0.48286056860770488 0 0.029572045059576241 0.469060477695939 0 0.044846444185049857 0.46620050204512359 0 0.049166882519808157 0.5 0 0.038208171894904559 0.48286056860770488 0 0.020066114292459799 0.5 0 0.038208171894904559 0.48286056860770488 0 0.020066114292459799 0.5 0 0.021055159894441029 0.48095839664786189 0 0.038208171894904559 0.48286056860770488 0 0.029572045059576241 0.469060477695939 0 0.021055159894441029 0.48095839664786189 0 0.029572045059576241 0.469060477695939 0 0.021055159894441029 0.48095839664786189 0 0.01561460841948897 0.46598216811131982 0 0.021055159894441029 0.48095839664786189 0 0.0030933759349822849 0.48266358315495572 0 0.01561460841948897 0.46598216811131982 0 0.0030933759349822849 0.48266358315495572 0 0.01561460841948897 0.46598216811131982 0 0.0036787250480955699 0.47408322248379448 0 0.0030933759349822849 0.48266358315495572 0 0.01561460841948897 0.46598216811131982 0 -0.0016340076521478781 0.48633642657919801 0 0.0036787250480955699 0.47408322248379448 0 0.0030933759349822849 0.48266358315495572 0 0.020066114292459799 0.5 0 0.021055159894441029 0.48095839664786189 0 0.0030933759349822849 0.48266358315495572 0 -0.0090346539348886701 0.5 0 -0.0016340076521478781 0.48633642657919801 0 0.020066114292459799 0.5 0 -0.0016340076521478781 0.48633642657919801 0 0.020066114292459799 0.5 0 0.0030933759349822849 0.48266358315495572 0 -0.0030841453677343121 0.43636499760021141 0 -0.002359076509941094 0.46135071208970457 0 0.010470448459028871 0.45111158928184719 0 -0.0030841453677343121 0.43636499760021141 0 0.010470448459028871 0.45111158928184719 0 0.017893296784651399 0.43894227458572882 0 -0.002359076509941094 0.46135071208970457 0 0.010470448459028871 0.45111158928184719 0 0.01561460841948897 0.46598216811131982 0 -0.002359076509941094 0.46135071208970457 0 0.0036787250480955699 0.47408322248379448 0 0.01561460841948897 0.46598216811131982 0 0.010470448459028871 0.45111158928184719 0 0.01561460841948897 0.46598216811131982 0 0.0281358409039968 0.44930075306768458 0 0.029572045059576241 0.469060477695939 0 0.01561460841948897 0.46598216811131982 0 0.0281358409039968 0.44930075306768458 0 0.01561460841948897 0.46598216811131982 0 0.0281358409039968 0.44930075306768458 0 0.010470448459028871 0.45111158928184719 0 0.0281358409039968 0.44930075306768458 0 0.017893296784651399 0.43894227458572882 0 0.0281358409039968 0.44930075306768458 0 0.017893296784651399 0.43894227458572882 0 0.03800042812263172 0.43615865433005307 0 0.0281358409039968 0.44930075306768458 0 0.017893296784651399 0.43894227458572882 0 0.0281358409039968 0.44930075306768458 0 0.04587361322417214 0.448769157871174 0 0.03800042812263172 0.43615865433005307 0 0.0281358409039968 0.44930075306768458 0 0.03800042812263172 0.43615865433005307 0 0.04587361322417214 0.448769157871174 0 0.049411209704934803 0.43621283219101809 0 0.03800042812263172 0.43615865433005307 0 0.029572045059576241 0.469060477695939 0 0.0281358409039968 0.44930075306768458 0 0.044846444185049857 0.46620050204512359 0 0.0281358409039968 0.44930075306768458 0 0.04587361322417214 0.448769157871174 0 0.044846444185049857 0.46620050204512359 0 0.0281358409039968 0.44930075306768458 0 0.044846444185049857 0.46620050204512359 0 0.04587361322417214 0.448769157871174 0 0.044846444185049857 0.46620050204512359 0 0.05832870883015126 0.45973880463956351 0 0.04587361322417214 0.448769157871174 0 0.057347956450285731 0.44480695268810438 0 0.049411209704934803 0.43621283219101809 0 0.04587361322417214 0.448769157871174 0 0.05832870883015126 0.45973880463956351 0 0.057347956450285731 0.44480695268810438 0 0.070599818540594342 0.45171728711773013 0 0.05832870883015126 0.45973880463956351 0 0.057347956450285731 0.44480695268810438 0 0.057347956450285731 0.44480695268810438 0 0.058238482531349368 0.43512174465279091 0 0.068330088192809502 0.43602814955066621 0 0.057347956450285731 0.44480695268810438 0 0.058238482531349368 0.43512174465279091 0 0.049411209704934803 0.43621283219101809 0 0.058238482531349368 0.43512174465279091 0 0.05412352915042095 0.42739076434297479 0 0.063786863135573219 0.4234822836218442 0 0.05412352915042095 0.42739076434297479 0 0.047865015341267358 0.42301655559242213 0 0.049411209704934803 0.43621283219101809 0 0.05412352915042095 0.42739076434297479 0 0.047865015341267358 0.42301655559242213 0 0.058238482531349368 0.43512174465279091 0 0.05412352915042095 0.42739076434297479 0 0.049411209704934803 0.43621283219101809 0 0.047865015341267358 0.42301655559242213 0 0.055388731832649349 0.41299308245440008 0 0.044385004541519633 0.40583709082877739 0 0.055388731832649349 0.41299308245440008 0 0.057103340742871267 0.4006394318358022 0 0.0691327228978319 0.40699071288372829 0 0.05412352915042095 0.42739076434297479 0 0.055388731832649349 0.41299308245440008 0 0.063786863135573219 0.4234822836218442 0 0.047865015341267358 0.42301655559242213 0 0.055388731832649349 0.41299308245440008 0 0.05412352915042095 0.42739076434297479 0 0.047865015341267358 0.42301655559242213 0 0.055388731832649349 0.41299308245440008 0 0.055388731832649349 0.41299308245440008 0 0.044385004541519633 0.40583709082877739 0 0.057103340742871267 0.4006394318358022 0 0.047865015341267358 0.42301655559242213 0 0.030398582533070099 0.41080889326869052 0 0.044385004541519633 0.40583709082877739 0 0.047865015341267358 0.42301655559242213 0 0.035686717363660143 0.42423985257235269 0 0.030398582533070099 0.41080889326869052 0 0.047865015341267358 0.42301655559242213 0 0.030398582533070099 0.41080889326869052 0 0.047865015341267358 0.42301655559242213 0 0.049411209704934803 0.43621283219101809 0 0.03800042812263172 0.43615865433005307 0 0.047865015341267358 0.42301655559242213 0 0.03800042812263172 0.43615865433005307 0 0.047865015341267358 0.42301655559242213 0 0.035686717363660143 0.42423985257235269 0 0.03800042812263172 0.43615865433005307 0 0.035686717363660143 0.42423985257235269 0 0.03800042812263172 0.43615865433005307 0 0.0264828434576714 0.42697530709824522 0 0.017893296784651399 0.43894227458572882 0 0.0264828434576714 0.42697530709824522 0 0.013451351612083251 0.42022136891186163 0 0.017893296784651399 0.43894227458572882 0 0.03800042812263172 0.43615865433005307 0 0.0264828434576714 0.42697530709824522 0 0.030398582533070099 0.41080889326869052 0 0.013451351612083251 0.42022136891186163 0 0.012932149724872831 0.39860123094495892 0 0.0264828434576714 0.42697530709824522 0 0.030398582533070099 0.41080889326869052 0 0.013451351612083251 0.42022136891186163 0 0.035686717363660143 0.42423985257235269 0 0.0264828434576714 0.42697530709824522 0 0.030398582533070099 0.41080889326869052 0 -0.0038092142255275289 0.41137928311071797 0 0.013451351612083251 0.42022136891186163 0 0.012932149724872831 0.39860123094495892 0 -0.0030841453677343121 0.43636499760021141 0 0.017893296784651399 0.43894227458572882 0 0.013451351612083251 0.42022136891186163 0 -0.0030841453677343121 0.43636499760021141 0 -0.0038092142255275289 0.41137928311071797 0 0.013451351612083251 0.42022136891186163 0 -0.0045342830833226501 0.3863935686212247 0 0.012932149724872831 0.39860123094495892 0 0.0079023355216259559 0.37348921158265391 0 0.012932149724872831 0.39860123094495892 0 0.025375843575522711 0.38021681034322929 0 0.0079023355216259559 0.37348921158265391 0 -0.0045342830833226501 0.3863935686212247 0 0.012932149724872831 0.39860123094495892 0 -0.0045342830833226501 0.3863935686212247 0 -0.0038092142255275289 0.41137928311071797 0 0.012932149724872831 0.39860123094495892 0 0.030398582533070099 0.41080889326869052 0 0.012932149724872831 0.39860123094495892 0 0.030398582533070099 0.41080889326869052 0 0.012932149724872831 0.39860123094495892 0 0.030218872497922818 0.39559608178221078 0 0.012932149724872831 0.39860123094495892 0 0.030218872497922818 0.39559608178221078 0 0.025375843575522711 0.38021681034322929 0 0.025375843575522711 0.38021681034322929 0 0.045236422390978262 0.39339421550307069 0 0.045418656597819553 0.37354288132317159 0 0.030218872497922818 0.39559608178221078 0 0.025375843575522711 0.38021681034322929 0 0.045236422390978262 0.39339421550307069 0 0.030398582533070099 0.41080889326869052 0 0.030218872497922818 0.39559608178221078 0 0.044385004541519633 0.40583709082877739 0 0.030218872497922818 0.39559608178221078 0 0.045236422390978262 0.39339421550307069 0 0.044385004541519633 0.40583709082877739 0 0.045236422390978262 0.39339421550307069 0 0.057103340742871267 0.4006394318358022 0 0.06607043693335328 0.38973814947632979 0 0.045236422390978262 0.39339421550307069 0 0.044385004541519633 0.40583709082877739 0 0.057103340742871267 0.4006394318358022 0 0.045236422390978262 0.39339421550307069 0 0.06607043693335328 0.38973814947632979 0 0.045418656597819553 0.37354288132317159 0 0.06607043693335328 0.38973814947632979 0 0.066778362586220691 0.36264744131756171 0 0.045418656597819553 0.37354288132317159 0 0.06607043693335328 0.38973814947632979 0 0.086713905658550791 0.37461406501925459 0 0.066778362586220691 0.36264744131756171 0 0.091303312773641829 0.3995757594209417 0 0.1025776524751303 0.38486691706586951 0 0.086713905658550791 0.37461406501925459 0 0.06607043693335328 0.38973814947632979 0 0.091303312773641829 0.3995757594209417 0 0.086713905658550791 0.37461406501925459 0 0.091303312773641829 0.3995757594209417 0 0.086713905658550791 0.37461406501925459 0 0.06607043693335328 0.38973814947632979 0 0.091303312773641829 0.3995757594209417 0 0.0691327228978319 0.40699071288372829 0 0.057103340742871267 0.4006394318358022 0 0.06607043693335328 0.38973814947632979 0 0.0691327228978319 0.40699071288372829 0 0.055388731832649349 0.41299308245440008 0 0.0691327228978319 0.40699071288372829 0 0.063786863135573219 0.4234822836218442 0 0.0691327228978319 0.40699071288372829 0 0.077714875811277062 0.4214876261871765 0 0.063786863135573219 0.4234822836218442 0 0.083205653112744402 0.44008551456546158 0 0.077714875811277062 0.4214876261871765 0 0.068330088192809502 0.43602814955066621 0 0.058238482531349368 0.43512174465279091 0 0.068330088192809502 0.43602814955066621 0 0.063786863135573219 0.4234822836218442 0 0.077714875811277062 0.4214876261871765 0 0.068330088192809502 0.43602814955066621 0 0.063786863135573219 0.4234822836218442 0 0.083205653112744402 0.44008551456546158 0 0.077714875811277062 0.4214876261871765 0 0.095892719888732866 0.42453745382262881 0 0.091303312773641829 0.3995757594209417 0 0.0691327228978319 0.40699071288372829 0 0.077714875811277062 0.4214876261871765 0 0.091303312773641829 0.3995757594209417 0 0.095892719888732866 0.42453745382262881 0 0.091303312773641829 0.3995757594209417 0 0.077714875811277062 0.4214876261871765 0 0.095892719888732866 0.42453745382262881 0 0.091303312773641829 0.3995757594209417 0 0.095892719888732866 0.42453745382262881 0 0.115428724103706 0.40267530492779557 0 0.1004821270038239 0.44949914822431608 0 0.095892719888732866 0.42453745382262881 0 0.12259086230274099 0.42947812748907283 0 0.1004821270038239 0.44949914822431608 0 0.095892719888732866 0.42453745382262881 0 0.095892719888732866 0.42453745382262881 0 0.12259086230274099 0.42947812748907283 0 0.115428724103706 0.40267530492779557 0 0.115428724103706 0.40267530492779557 0 0.119448870245615 0.38256434187866972 0 0.13692284990477191 0.38930777957628943 0 0.119448870245615 0.38256434187866972 0 0.1025776524751303 0.38486691706586951 0 0.1087205780393706 0.3656269003386084 0 0.115428724103706 0.40267530492779557 0 0.119448870245615 0.38256434187866972 0 0.1025776524751303 0.38486691706586951 0 0.1025776524751303 0.38486691706586951 0 0.1087205780393706 0.3656269003386084 0 0.086713905658550791 0.37461406501925459 0 0.091303312773641829 0.3995757594209417 0 0.115428724103706 0.40267530492779557 0 0.1025776524751303 0.38486691706586951 0 0.1087205780393706 0.3656269003386084 0 0.1202868522871179 0.34060046584014031 0 0.0915497208986496 0.34709204532757532 0 0.1087205780393706 0.3656269003386084 0 0.0915497208986496 0.34709204532757532 0 0.086713905658550791 0.37461406501925459 0 0.119448870245615 0.38256434187866972 0 0.1087205780393706 0.3656269003386084 0 0.13274728415341139 0.36410634055334368 0 0.1087205780393706 0.3656269003386084 0 0.1202868522871179 0.34060046584014031 0 0.13274728415341139 0.36410634055334368 0 0.1202868522871179 0.34060046584014031 0 0.1104734498024164 0.31171603628350752 0 0.14183880654046921 0.32250528078568202 0 0.1202868522871179 0.34060046584014031 0 0.1016552612267161 0.33013161519950079 0 0.1104734498024164 0.31171603628350752 0 0.1016552612267161 0.33013161519950079 0 0.081254576285268804 0.3210829637434266 0 0.1104734498024164 0.31171603628350752 0 0.1202868522871179 0.34060046584014031 0 0.1016552612267161 0.33013161519950079 0 0.0915497208986496 0.34709204532757532 0 0.081254576285268804 0.3210829637434266 0 0.072654821413094289 0.33942743407960763 0 0.0915497208986496 0.34709204532757532 0 0.1016552612267161 0.33013161519950079 0 0.081254576285268804 0.3210829637434266 0 0.0915497208986496 0.34709204532757532 0 0.081254576285268804 0.3210829637434266 0 0.06358813508901956 0.32234581427363851 0 0.071244474661197085 0.3036312559279935 0 0.081254576285268804 0.3210829637434266 0 0.06358813508901956 0.32234581427363851 0 0.072654821413094289 0.33942743407960763 0 0.06358813508901956 0.32234581427363851 0 0.072654821413094289 0.33942743407960763 0 0.055199983679349987 0.34246375673151652 0 0.072654821413094289 0.33942743407960763 0 0.066778362586220691 0.36264744131756171 0 0.055199983679349987 0.34246375673151652 0 0.072654821413094289 0.33942743407960763 0 0.0915497208986496 0.34709204532757532 0 0.066778362586220691 0.36264744131756171 0 0.0915497208986496 0.34709204532757532 0 0.086713905658550791 0.37461406501925459 0 0.066778362586220691 0.36264744131756171 0 0.066778362586220691 0.36264744131756171 0 0.044951457965310811 0.3555124197003488 0 0.045418656597819553 0.37354288132317159 0 0.066778362586220691 0.36264744131756171 0 0.044951457965310811 0.3555124197003488 0 0.055199983679349987 0.34246375673151652 0 0.044951457965310811 0.3555124197003488 0 0.021903196078839001 0.35746348141110651 0 0.035457090884324839 0.34144453771838768 0 0.044951457965310811 0.3555124197003488 0 0.035457090884324839 0.34144453771838768 0 0.055199983679349987 0.34246375673151652 0 0.044951457965310811 0.3555124197003488 0 0.045418656597819553 0.37354288132317159 0 0.021903196078839001 0.35746348141110651 0 0.025375843575522711 0.38021681034322929 0 0.021903196078839001 0.35746348141110651 0 0.0079023355216259559 0.37348921158265391 0 0.025375843575522711 0.38021681034322929 0 0.045418656597819553 0.37354288132317159 0 0.021903196078839001 0.35746348141110651 0 0.021903196078839001 0.35746348141110651 0 0.017151683724365509 0.3376665205351736 0 0.035457090884324839 0.34144453771838768 0 0.021903196078839001 0.35746348141110651 0 0.0095650341834115256 0.34490192427506011 0 0.017151683724365509 0.3376665205351736 0 0.021903196078839001 0.35746348141110651 0 0.0095650341834115256 0.34490192427506011 0 0.0061318462344260851 0.35417601161121459 0 -0.0050552824635438226 0.34569829691311771 0 0.0095650341834115256 0.34490192427506011 0 0.0061318462344260851 0.35417601161121459 0 0.021903196078839001 0.35746348141110651 0 0.0061318462344260851 0.35417601161121459 0 0.0079023355216259559 0.37348921158265391 0 -0.0052616759920083916 0.36132776784546622 0 0.0061318462344260851 0.35417601161121459 0 0.0079023355216259559 0.37348921158265391 0 0.0087281755863181168 0.33049580891976171 0 0.020410497070949891 0.30832150289807031 0 0.0056044744337335906 0.31412092038659428 0 0.0087281755863181168 0.33049580891976171 0 0.020410497070949891 0.30832150289807031 0 -0.003280447873963227 0.32161399115684158 0 0.0056044744337335906 0.31412092038659428 0 0.0087281755863181168 0.33049580891976171 0 0.0064742168078369342 0.3347740657525386 0 0.0087281755863181168 0.33049580891976171 0 -0.0050552824635438226 0.34569829691311771 0 0.0095650341834115256 0.34490192427506011 0 0.0064742168078369342 0.3347740657525386 0 0.0095650341834115256 0.34490192427506011 0 0.0064742168078369342 0.3347740657525386 0 0.017151683724365509 0.3376665205351736 0 0.0064742168078369342 0.3347740657525386 0 0.0087281755863181168 0.33049580891976171 0 0.017151683724365509 0.3376665205351736 0 0.0087281755863181168 0.33049580891976171 0 0.025353163704189718 0.33024288796319817 0 0.017151683724365509 0.3376665205351736 0 0.0087281755863181168 0.33049580891976171 0 0.025353163704189718 0.33024288796319817 0 0.025353163704189718 0.33024288796319817 0 0.017151683724365509 0.3376665205351736 0 0.035457090884324839 0.34144453771838768 0 0.0087281755863181168 0.33049580891976171 0 0.025353163704189718 0.33024288796319817 0 0.020410497070949891 0.30832150289807031 0 0.025353163704189718 0.33024288796319817 0 0.038017806832533571 0.30672300381527179 0 0.020410497070949891 0.30832150289807031 0 0.025353163704189718 0.33024288796319817 0 0.045812945845809312 0.32351293560108041 0 0.038017806832533571 0.30672300381527179 0 0.025353163704189718 0.33024288796319817 0 0.045812945845809312 0.32351293560108041 0 0.035457090884324839 0.34144453771838768 0 0.045812945845809312 0.32351293560108041 0 0.035457090884324839 0.34144453771838768 0 0.055199983679349987 0.34246375673151652 0 0.06358813508901956 0.32234581427363851 0 0.045812945845809312 0.32351293560108041 0 0.055199983679349987 0.34246375673151652 0 0.06358813508901956 0.32234581427363851 0 0.045812945845809312 0.32351293560108041 0 0.055148108477292443 0.3057593846019967 0 0.055148108477292443 0.3057593846019967 0 0.047586914097201803 0.29032131063477928 0 0.038017806832533571 0.30672300381527179 0 0.055148108477292443 0.3057593846019967 0 0.047586914097201803 0.29032131063477928 0 0.066935962560195753 0.28615893812798288 0 0.047586914097201803 0.29032131063477928 0 0.050578246113349837 0.27455429857722041 0 0.066935962560195753 0.28615893812798288 0 0.047586914097201803 0.29032131063477928 0 0.032092818555581597 0.28614719687637868 0 0.038017806832533571 0.30672300381527179 0 0.047586914097201803 0.29032131063477928 0 0.032092818555581597 0.28614719687637868 0 0.050578246113349837 0.27455429857722041 0 0.045812945845809312 0.32351293560108041 0 0.055148108477292443 0.3057593846019967 0 0.038017806832533571 0.30672300381527179 0 0.032092818555581597 0.28614719687637868 0 0.038017806832533571 0.30672300381527179 0 0.020410497070949891 0.30832150289807031 0 0.032092818555581597 0.28614719687637868 0 0.020410497070949891 0.30832150289807031 0 0.032092818555581597 0.28614719687637868 0 0.020410497070949891 0.30832150289807031 0 0.0083336089875100904 0.29343585490586271 0 0.032092818555581597 0.28614719687637868 0 0.0083336089875100904 0.29343585490586271 0 0.021382191810826279 0.2686960609189637 0 -0.0088759444352828343 0.31092800175718183 0 0.0056044744337335906 0.31412092038659428 0 0.0083336089875100904 0.29343585490586271 0 0.0056044744337335906 0.31412092038659428 0 0.020410497070949891 0.30832150289807031 0 0.0083336089875100904 0.29343585490586271 0 0.0073806355134042019 0.25529449578482938 0 3.3590645499582607e-05 0.27236849017123349 0 0.021382191810826279 0.2686960609189637 0 0.0083336089875100904 0.29343585490586271 0 3.3590645499582607e-05 0.27236849017123349 0 0.021382191810826279 0.2686960609189637 0 0.025149977659741599 0.24684982625080901 0 0.0073806355134042019 0.25529449578482938 0 0.021382191810826279 0.2686960609189637 0 0.025149977659741599 0.24684982625080901 0 0.021382191810826279 0.2686960609189637 0 0.043775140040213267 0.26397289085468728 0 0.025149977659741599 0.24684982625080901 0 0.045472231705318063 0.24424317023843681 0 0.050158093690384618 0.2598810672441918 0 0.025149977659741599 0.24684982625080901 0 0.050158093690384618 0.2598810672441918 0 0.025149977659741599 0.24684982625080901 0 0.043775140040213267 0.26397289085468728 0 0.050158093690384618 0.2598810672441918 0 0.032092818555581597 0.28614719687637868 0 0.043775140040213267 0.26397289085468728 0 0.032092818555581597 0.28614719687637868 0 0.021382191810826279 0.2686960609189637 0 0.043775140040213267 0.26397289085468728 0 0.032092818555581597 0.28614719687637868 0 0.043775140040213267 0.26397289085468728 0 0.050578246113349837 0.27455429857722041 0 0.050578246113349837 0.27455429857722041 0 0.063875668081316214 0.2678607518654692 0 0.066935962560195753 0.28615893812798288 0 0.043775140040213267 0.26397289085468728 0 0.050578246113349837 0.27455429857722041 0 0.050158093690384618 0.2598810672441918 0 0.050578246113349837 0.27455429857722041 0 0.056046126259945157 0.25263236173372139 0 0.063875668081316214 0.2678607518654692 0 0.050578246113349837 0.27455429857722041 0 0.050158093690384618 0.2598810672441918 0 0.056046126259945157 0.25263236173372139 0 0.045472231705318063 0.24424317023843681 0 0.050158093690384618 0.2598810672441918 0 0.056046126259945157 0.25263236173372139 0 0.050578246113349837 0.27455429857722041 0 0.056046126259945157 0.25263236173372139 0 0.078525547080241467 0.2465942846531784 0 0.067905867336300579 0.25358800162702 0 0.079567988853459573 0.27014218499250892 0 0.067905867336300579 0.25358800162702 0 0.079567988853459573 0.27014218499250892 0 0.063875668081316214 0.2678607518654692 0 0.056046126259945157 0.25263236173372139 0 0.067905867336300579 0.25358800162702 0 0.063875668081316214 0.2678607518654692 0 0.078525547080241467 0.2465942846531784 0 0.079567988853459573 0.27014218499250892 0 0.093798877441032588 0.2579700649065903 0 0.079567988853459573 0.27014218499250892 0 0.063875668081316214 0.2678607518654692 0 0.066935962560195753 0.28615893812798288 0 0.079567988853459573 0.27014218499250892 0 0.066935962560195753 0.28615893812798288 0 0.087430381393448858 0.29852998767476718 0 0.066935962560195753 0.28615893812798288 0 0.071244474661197085 0.3036312559279935 0 0.087430381393448858 0.29852998767476718 0 0.055148108477292443 0.3057593846019967 0 0.066935962560195753 0.28615893812798288 0 0.071244474661197085 0.3036312559279935 0 0.06358813508901956 0.32234581427363851 0 0.055148108477292443 0.3057593846019967 0 0.071244474661197085 0.3036312559279935 0 0.081254576285268804 0.3210829637434266 0 0.087430381393448858 0.29852998767476718 0 0.1104734498024164 0.31171603628350752 0 0.081254576285268804 0.3210829637434266 0 0.071244474661197085 0.3036312559279935 0 0.087430381393448858 0.29852998767476718 0 0.079567988853459573 0.27014218499250892 0 0.087430381393448858 0.29852998767476718 0 0.1079828451826004 0.27738565586056829 0 0.087430381393448858 0.29852998767476718 0 0.1104734498024164 0.31171603628350752 0 0.1079828451826004 0.27738565586056829 0 0.1104734498024164 0.31171603628350752 0 0.1079828451826004 0.27738565586056829 0 0.13401849175413849 0.29214957311260448 0 0.1079828451826004 0.27738565586056829 0 0.13401849175413849 0.29214957311260448 0 0.1100607559553454 0.25396994184181759 0 0.1079828451826004 0.27738565586056829 0 0.13366986361514199 0.26692500362740812 0 0.12787711237058769 0.24521089126939841 0 0.1100607559553454 0.25396994184181759 0 0.13366986361514199 0.26692500362740812 0 0.092857250133516089 0.24175825718487831 0 0.1100607559553454 0.25396994184181759 0 0.093798877441032588 0.2579700649065903 0 0.1100607559553454 0.25396994184181759 0 0.093798877441032588 0.2579700649065903 0 0.1079828451826004 0.27738565586056829 0 0.079567988853459573 0.27014218499250892 0 0.093798877441032588 0.2579700649065903 0 0.1079828451826004 0.27738565586056829 0 0.13366986361514199 0.26692500362740812 0 0.1558685034792309 0.28595093384994291 0 0.15959452244756481 0.26367036214955358 0 0.14702044576598061 0.2478904659134552 0 0.13366986361514199 0.26692500362740812 0 0.15959452244756481 0.26367036214955358 0 0.14702044576598061 0.2478904659134552 0 0.12787711237058769 0.24521089126939841 0 0.13366986361514199 0.26692500362740812 0 0.1079828451826004 0.27738565586056829 0 0.13366986361514199 0.26692500362740812 0 0.13401849175413849 0.29214957311260448 0 0.1104734498024164 0.31171603628350752 0 0.13401849175413849 0.29214957311260448 0 0.14183880654046921 0.32250528078568202 0 0.13401849175413849 0.29214957311260448 0 0.16005413832567669 0.30691349036464077 0 0.14183880654046921 0.32250528078568202 0 0.13401849175413849 0.29214957311260448 0 0.16005413832567669 0.30691349036464077 0 0.13401849175413849 0.29214957311260448 0 0.1558685034792309 0.28595093384994291 0 0.16005413832567669 0.30691349036464077 0 0.13366986361514199 0.26692500362740812 0 0.13401849175413849 0.29214957311260448 0 0.1558685034792309 0.28595093384994291 0 0.1558685034792309 0.28595093384994291 0 0.1700220001876428 0.28782965529906401 0 0.16005413832567669 0.30691349036464077 0 0.1558685034792309 0.28595093384994291 0 0.1700220001876428 0.28782965529906401 0 0.17370236977615991 0.27502287964280692 0 0.1700220001876428 0.28782965529906401 0 0.16005413832567669 0.30691349036464077 0 0.1764196225356903 0.29880027385689728 0 0.16005413832567669 0.30691349036464077 0 0.1764196225356903 0.29880027385689728 0 0.18686192329242929 0.31378732528256248 0 0.1764196225356903 0.29880027385689728 0 0.18674031124236579 0.30201460306836742 0 0.19086383386244751 0.2907864273273883 0 0.1764196225356903 0.29880027385689728 0 0.18674031124236579 0.30201460306836742 0 0.18686192329242929 0.31378732528256248 0 0.1700220001876428 0.28782965529906401 0 0.18013512871176271 0.28566990799825959 0 0.17370236977615991 0.27502287964280692 0 0.1700220001876428 0.28782965529906401 0 0.1764196225356903 0.29880027385689728 0 0.18013512871176271 0.28566990799825959 0 0.1764196225356903 0.29880027385689728 0 0.18013512871176271 0.28566990799825959 0 0.19086383386244751 0.2907864273273883 0 0.18013512871176271 0.28566990799825959 0 0.1896678171968729 0.27591030386514148 0 0.19086383386244751 0.2907864273273883 0 0.18251379545819379 0.26835647973838378 0 0.17370236977615991 0.27502287964280692 0 0.1896678171968729 0.27591030386514148 0 0.18013512871176271 0.28566990799825959 0 0.17370236977615991 0.27502287964280692 0 0.1896678171968729 0.27591030386514148 0 0.18251379545819379 0.26835647973838378 0 0.17370236977615991 0.27502287964280692 0 0.17699066645021869 0.2595722272450377 0 0.17370236977615991 0.27502287964280692 0 0.15959452244756481 0.26367036214955358 0 0.17699066645021869 0.2595722272450377 0 0.1558685034792309 0.28595093384994291 0 0.17370236977615991 0.27502287964280692 0 0.15959452244756481 0.26367036214955358 0 0.16774616909827719 0.2460930353984315 0 0.15959452244756481 0.26367036214955358 0 0.17699066645021869 0.2595722272450377 0 0.14702044576598061 0.2478904659134552 0 0.16774616909827719 0.2460930353984315 0 0.15959452244756481 0.26367036214955358 0 0.18692125413578081 0.24552837502103991 0 0.16774616909827719 0.2460930353984315 0 0.17699066645021869 0.2595722272450377 0 0.18692125413578081 0.24552837502103991 0 0.17699066645021869 0.2595722272450377 0 0.19242781921148469 0.26384338938458129 0 0.18251379545819379 0.26835647973838378 0 0.17699066645021869 0.2595722272450377 0 0.19242781921148469 0.26384338938458129 0 0.18692125413578081 0.24552837502103991 0 0.19242781921148469 0.26384338938458129 0 0.20107379594449931 0.25686311186437227 0 0.18692125413578081 0.24552837502103991 0 0.20107379594449931 0.25686311186437227 0 0.19242781921148469 0.26384338938458129 0 0.20107379594449931 0.25686311186437227 0 0.2008998280478862 0.26959186196165702 0 0.19242781921148469 0.26384338938458129 0 0.20107379594449931 0.25686311186437227 0 0.19242781921148469 0.26384338938458129 0 0.1896678171968729 0.27591030386514148 0 0.2008998280478862 0.26959186196165702 0 0.18251379545819379 0.26835647973838378 0 0.19242781921148469 0.26384338938458129 0 0.1896678171968729 0.27591030386514148 0 0.1896678171968729 0.27591030386514148 0 0.2008998280478862 0.26959186196165702 0 0.20354188417430641 0.281093168015905 0 0.2008998280478862 0.26959186196165702 0 0.2177878237122676 0.27024933667828532 0 0.20354188417430641 0.281093168015905 0 0.2177878237122676 0.27024933667828532 0 0.20354188417430641 0.281093168015905 0 0.2166033006779626 0.28924568688104418 0 0.21557305570370441 0.24515722135805329 0 0.20107379594449931 0.25686311186437227 0 0.2177878237122676 0.27024933667828532 0 0.20107379594449931 0.25686311186437227 0 0.2177878237122676 0.27024933667828532 0 0.20107379594449931 0.25686311186437227 0 0.2008998280478862 0.26959186196165702 0 0.2177878237122676 0.27024933667828532 0 0.21557305570370441 0.24515722135805329 0 0.20107379594449931 0.25686311186437227 0 0.21557305570370441 0.24515722135805329 0 0.2177878237122676 0.27024933667828532 0 0.23628031136540401 0.25597328662156199 0 0.2177878237122676 0.27024933667828532 0 0.23628031136540401 0.25597328662156199 0 0.23450185148003599 0.28363556149219821 0 0.2177878237122676 0.27024933667828532 0 0.23450185148003599 0.28363556149219821 0 0.2166033006779626 0.28924568688104418 0 0.2177878237122676 0.27024933667828532 0 0.23450185148003599 0.28363556149219821 0 0.23628031136540401 0.25597328662156199 0 0.23450185148003599 0.28363556149219821 0 0.25102838231212438 0.26850893423506528 0 0.23450185148003599 0.28363556149219821 0 0.25953152444998728 0.28294166139542631 0 0.25102838231212438 0.26850893423506528 0 0.23628031136540401 0.25597328662156199 0 0.25102838231212438 0.26850893423506528 0 0.26221447651104962 0.2479993693513689 0 0.2297645605960125 0.30261029929826411 0 0.25121587924780342 0.29702178630611242 0 0.2484846271056145 0.31037308609574782 0 0.2297645605960125 0.30261029929826411 0 0.23798581837376781 0.31938142953188831 0 0.2484846271056145 0.31037308609574782 0 0.2297645605960125 0.30261029929826411 0 0.25121587924780342 0.29702178630611242 0 0.23450185148003599 0.28363556149219821 0 0.2297645605960125 0.30261029929826411 0 0.25121587924780342 0.29702178630611242 0 0.23450185148003599 0.28363556149219821 0 0.25121587924780342 0.29702178630611242 0 0.23450185148003599 0.28363556149219821 0 0.25953152444998728 0.28294166139542631 0 0.25121587924780342 0.29702178630611242 0 0.23450185148003599 0.28363556149219821 0 0.2297645605960125 0.30261029929826411 0 0.2166033006779626 0.28924568688104418 0 0.2297645605960125 0.30261029929826411 0 0.20831324194422091 0.30819881229041318 0 0.2297645605960125 0.30261029929826411 0 0.20831324194422091 0.30819881229041318 0 0.21977364325038071 0.31928170538083578 0 0.20831324194422091 0.30819881229041318 0 0.2166033006779626 0.28924568688104418 0 0.20288664267638859 0.29424953150154581 0 0.2297645605960125 0.30261029929826411 0 0.20831324194422091 0.30819881229041318 0 0.2166033006779626 0.28924568688104418 0 0.20354188417430641 0.281093168015905 0 0.2166033006779626 0.28924568688104418 0 0.20288664267638859 0.29424953150154581 0 0.20354188417430641 0.281093168015905 0 0.20288664267638859 0.29424953150154581 0 0.19086383386244751 0.2907864273273883 0 0.20288664267638859 0.29424953150154581 0 0.19086383386244751 0.2907864273273883 0 0.19511095272300569 0.3019235629929784 0 0.1896678171968729 0.27591030386514148 0 0.20354188417430641 0.281093168015905 0 0.19086383386244751 0.2907864273273883 0 0.20831324194422091 0.30819881229041318 0 0.18686192329242929 0.31378732528256248 0 0.20831324194422091 0.30819881229041318 0 0.19511095272300569 0.3019235629929784 0 0.18686192329242929 0.31378732528256248 0 0.20831324194422091 0.30819881229041318 0 0.20288664267638859 0.29424953150154581 0 0.19511095272300569 0.3019235629929784 0 0.18674031124236579 0.30201460306836742 0 0.19086383386244751 0.2907864273273883 0 0.19511095272300569 0.3019235629929784 0 0.18674031124236579 0.30201460306836742 0 0.19511095272300569 0.3019235629929784 0 0.18686192329242929 0.31378732528256248 0 0.20141288137377081 0.31920030670374799 0 0.18686192329242929 0.31378732528256248 0 0.18608978489721489 0.32167740761667712 0 0.20831324194422091 0.30819881229041318 0 0.20141288137377081 0.31920030670374799 0 0.18686192329242929 0.31378732528256248 0 0.20141288137377081 0.31920030670374799 0 0.21212543146875301 0.33644132486871342 0 0.18608978489721489 0.32167740761667712 0 0.21212543146875301 0.33644132486871342 0 0.18608978489721489 0.32167740761667712 0 0.19231113454718349 0.34165597013868199 0 0.21212543146875301 0.33644132486871342 0 0.18608978489721489 0.32167740761667712 0 0.20831324194422091 0.30819881229041318 0 0.20141288137377081 0.31920030670374799 0 0.21977364325038071 0.31928170538083578 0 0.20141288137377081 0.31920030670374799 0 0.21212543146875301 0.33644132486871342 0 0.21977364325038071 0.31928170538083578 0 0.21977364325038071 0.31928170538083578 0 0.2290399257457596 0.32985805959198788 0 0.23798581837376781 0.31938142953188831 0 0.2297645605960125 0.30261029929826411 0 0.21977364325038071 0.31928170538083578 0 0.23798581837376781 0.31938142953188831 0 0.21212543146875301 0.33644132486871342 0 0.21977364325038071 0.31928170538083578 0 0.2290399257457596 0.32985805959198788 0 0.21212543146875301 0.33644132486871342 0 0.23060518033342339 0.33807106122714048 0 0.2290399257457596 0.32985805959198788 0 0.21212543146875301 0.33644132486871342 0 0.23060518033342339 0.33807106122714048 0 0.23816107804029091 0.35120524212074949 0 0.23060518033342339 0.33807106122714048 0 0.2290399257457596 0.32985805959198788 0 0.2430942860788903 0.33477961832711151 0 0.23060518033342339 0.33807106122714048 0 0.2430942860788903 0.33477961832711151 0 0.23816107804029091 0.35120524212074949 0 0.2484846271056145 0.31037308609574782 0 0.23798581837376781 0.31938142953188831 0 0.25508783524565293 0.32209220201309929 0 0.2430942860788903 0.33477961832711151 0 0.23798581837376781 0.31938142953188831 0 0.25508783524565293 0.32209220201309929 0 0.2290399257457596 0.32985805959198788 0 0.2430942860788903 0.33477961832711151 0 0.23798581837376781 0.31938142953188831 0 0.23439037865920059 0.35560025357312369 0 0.2386764282036242 0.37725286527910618 0 0.24311907173897271 0.36013203008567057 0 0.23439037865920059 0.35560025357312369 0 0.2386764282036242 0.37725286527910618 0 0.2492643002430574 0.365916522193315 0 0.24311907173897271 0.36013203008567057 0 0.2386764282036242 0.37725286527910618 0 0.2492643002430574 0.365916522193315 0 0.2386764282036242 0.37725286527910618 0 0.25383912625151372 0.37755129754335942 0 0.24311907173897271 0.36013203008567057 0 0.23816107804029091 0.35120524212074949 0 0.2641967246118288 0.36596915937278562 0 0.2430942860788903 0.33477961832711151 0 0.23816107804029091 0.35120524212074949 0 0.26173146881309822 0.35734024057335978 0 0.24311907173897271 0.36013203008567057 0 0.23816107804029091 0.35120524212074949 0 0.23439037865920059 0.35560025357312369 0 0.21212543146875301 0.33644132486871342 0 0.23816107804029091 0.35120524212074949 0 0.21848510057545151 0.35453686872473111 0 0.23816107804029091 0.35120524212074949 0 0.23439037865920059 0.35560025357312369 0 0.21848510057545151 0.35453686872473111 0 0.21212543146875301 0.33644132486871342 0 0.23816107804029091 0.35120524212074949 0 0.23439037865920059 0.35560025357312369 0 0.22513916990612379 0.36868200325308897 0 0.2386764282036242 0.37725286527910618 0 0.23439037865920059 0.35560025357312369 0 0.22513916990612379 0.36868200325308897 0 0.21848510057545151 0.35453686872473111 0 0.22513916990612379 0.36868200325308897 0 0.20931495008602691 0.36890180222237801 0 0.21961872799640589 0.38146559318592133 0 0.22513916990612379 0.36868200325308897 0 0.20931495008602691 0.36890180222237801 0 0.21848510057545151 0.35453686872473111 0 0.20931495008602691 0.36890180222237801 0 0.21848510057545151 0.35453686872473111 0 0.2018014651714847 0.35413555731190122 0 0.21212543146875301 0.33644132486871342 0 0.21848510057545151 0.35453686872473111 0 0.2018014651714847 0.35413555731190122 0 0.19231113454718349 0.34165597013868199 0 0.2018014651714847 0.35413555731190122 0 0.1832131523033072 0.3569188224833833 0 0.19231113454718349 0.34165597013868199 0 0.21212543146875301 0.33644132486871342 0 0.2018014651714847 0.35413555731190122 0 0.20931495008602691 0.36890180222237801 0 0.2018014651714847 0.35413555731190122 0 0.19217836357317111 0.36996972767433872 0 0.20931495008602691 0.36890180222237801 0 0.19217836357317111 0.36996972767433872 0 0.20289108470775991 0.38370682355227331 0 0.2018014651714847 0.35413555731190122 0 0.19217836357317111 0.36996972767433872 0 0.1832131523033072 0.3569188224833833 0 0.19217836357317111 0.36996972767433872 0 0.17197644233242751 0.37002706837148541 0 0.1832131523033072 0.3569188224833833 0 0.17197644233242751 0.37002706837148541 0 0.16866852787741549 0.35230522619665788 0 0.1832131523033072 0.3569188224833833 0 0.17197644233242751 0.37002706837148541 0 0.16866852787741549 0.35230522619665788 0 0.15186920095361911 0.35620033980905319 0 0.17197644233242751 0.37002706837148541 0 0.15186920095361911 0.35620033980905319 0 0.15185568245476189 0.37707061606136422 0 0.16866852787741549 0.35230522619665788 0 0.1579580049025659 0.33927316190663209 0 0.15186920095361911 0.35620033980905319 0 0.16866852787741549 0.35230522619665788 0 0.1832131523033072 0.3569188224833833 0 0.17832583889515771 0.33910673841273542 0 0.19231113454718349 0.34165597013868199 0 0.1832131523033072 0.3569188224833833 0 0.17832583889515771 0.33910673841273542 0 0.17832583889515771 0.33910673841273542 0 0.18608978489721489 0.32167740761667712 0 0.16647560889869609 0.32578562508456149 0 0.19231113454718349 0.34165597013868199 0 0.17832583889515771 0.33910673841273542 0 0.18608978489721489 0.32167740761667712 0 0.16005413832567669 0.30691349036464077 0 0.18608978489721489 0.32167740761667712 0 0.16005413832567669 0.30691349036464077 0 0.18686192329242929 0.31378732528256248 0 0.18608978489721489 0.32167740761667712 0 0.16005413832567669 0.30691349036464077 0 0.18608978489721489 0.32167740761667712 0 0.16647560889869609 0.32578562508456149 0 0.17832583889515771 0.33910673841273542 0 0.16647560889869609 0.32578562508456149 0 0.1579580049025659 0.33927316190663209 0 0.16866852787741549 0.35230522619665788 0 0.17832583889515771 0.33910673841273542 0 0.1579580049025659 0.33927316190663209 0 0.16647560889869609 0.32578562508456149 0 0.1579580049025659 0.33927316190663209 0 0.14183880654046921 0.32250528078568202 0 0.1579580049025659 0.33927316190663209 0 0.14183880654046921 0.32250528078568202 0 0.14054269679001921 0.34363296691054102 0 0.16005413832567669 0.30691349036464077 0 0.16647560889869609 0.32578562508456149 0 0.14183880654046921 0.32250528078568202 0 0.1202868522871179 0.34060046584014031 0 0.14183880654046921 0.32250528078568202 0 0.14054269679001921 0.34363296691054102 0 0.1202868522871179 0.34060046584014031 0 0.14054269679001921 0.34363296691054102 0 0.13274728415341139 0.36410634055334368 0 0.13274728415341139 0.36410634055334368 0 0.15186920095361911 0.35620033980905319 0 0.15185568245476189 0.37707061606136422 0 0.14054269679001921 0.34363296691054102 0 0.13274728415341139 0.36410634055334368 0 0.15186920095361911 0.35620033980905319 0 0.1579580049025659 0.33927316190663209 0 0.14054269679001921 0.34363296691054102 0 0.15186920095361911 0.35620033980905319 0 0.15352992747694119 0.40026604784697911 0 0.13692284990477191 0.38930777957628943 0 0.1397509022148696 0.40843688002483958 0 0.15352992747694119 0.40026604784697911 0 0.15185568245476189 0.37707061606136422 0 0.13692284990477191 0.38930777957628943 0 0.13274728415341139 0.36410634055334368 0 0.15185568245476189 0.37707061606136422 0 0.13692284990477191 0.38930777957628943 0 0.119448870245615 0.38256434187866972 0 0.13274728415341139 0.36410634055334368 0 0.13692284990477191 0.38930777957628943 0 0.115428724103706 0.40267530492779557 0 0.13692284990477191 0.38930777957628943 0 0.1397509022148696 0.40843688002483958 0 0.12259086230274099 0.42947812748907283 0 0.1397509022148696 0.40843688002483958 0 0.14363603346764281 0.42707530835579988 0 0.12259086230274099 0.42947812748907283 0 0.115428724103706 0.40267530492779557 0 0.1397509022148696 0.40843688002483958 0 0.12259086230274099 0.42947812748907283 0 0.14363603346764281 0.42707530835579988 0 0.13510526379757609 0.44116740875256688 0 0.14363603346764281 0.42707530835579988 0 0.16526304614212209 0.42908608809292892 0 0.1507341445198021 0.44370602134863157 0 0.14363603346764281 0.42707530835579988 0 0.15527295380072001 0.4153931176925994 0 0.16526304614212209 0.42908608809292892 0 0.14363603346764281 0.42707530835579988 0 0.1507341445198021 0.44370602134863157 0 0.13510526379757609 0.44116740875256688 0 0.1397509022148696 0.40843688002483958 0 0.14363603346764281 0.42707530835579988 0 0.15527295380072001 0.4153931176925994 0 0.15352992747694119 0.40026604784697911 0 0.1397509022148696 0.40843688002483958 0 0.15527295380072001 0.4153931176925994 0 0.15527295380072001 0.4153931176925994 0 0.1711416470664554 0.41062619466687539 0 0.16526304614212209 0.42908608809292892 0 0.15352992747694119 0.40026604784697911 0 0.15527295380072001 0.4153931176925994 0 0.1711416470664554 0.41062619466687539 0 0.16526304614212209 0.42908608809292892 0 0.1809560021812836 0.43814832633623357 0 0.16598328874466911 0.44273574664910909 0 0.16526304614212209 0.42908608809292892 0 0.18469425222239219 0.42125941149134333 0 0.1809560021812836 0.43814832633623357 0 0.1711416470664554 0.41062619466687539 0 0.16526304614212209 0.42908608809292892 0 0.18469425222239219 0.42125941149134333 0 0.1711416470664554 0.41062619466687539 0 0.18469425222239219 0.42125941149134333 0 0.1843100454414533 0.40126956181167389 0 0.1711416470664554 0.41062619466687539 0 0.1843100454414533 0.40126956181167389 0 0.16952276405911931 0.3912061138884545 0 0.1843100454414533 0.40126956181167389 0 0.16952276405911931 0.3912061138884545 0 0.18589276442329861 0.38606835492789338 0 0.15352992747694119 0.40026604784697911 0 0.1711416470664554 0.41062619466687539 0 0.16952276405911931 0.3912061138884545 0 0.15352992747694119 0.40026604784697911 0 0.15185568245476189 0.37707061606136422 0 0.16952276405911931 0.3912061138884545 0 0.17197644233242751 0.37002706837148541 0 0.15185568245476189 0.37707061606136422 0 0.16952276405911931 0.3912061138884545 0 0.17197644233242751 0.37002706837148541 0 0.16952276405911931 0.3912061138884545 0 0.18589276442329861 0.38606835492789338 0 0.19217836357317111 0.36996972767433872 0 0.17197644233242751 0.37002706837148541 0 0.18589276442329861 0.38606835492789338 0 0.18589276442329861 0.38606835492789338 0 0.20289108470775991 0.38370682355227331 0 0.19700705340585539 0.39579078134538831 0 0.19217836357317111 0.36996972767433872 0 0.18589276442329861 0.38606835492789338 0 0.20289108470775991 0.38370682355227331 0 0.19700705340585539 0.39579078134538831 0 0.21316338490038089 0.39704202397260657 0 0.19877798755638451 0.41086714246249401 0 0.1843100454414533 0.40126956181167389 0 0.19700705340585539 0.39579078134538831 0 0.19877798755638451 0.41086714246249401 0 0.1843100454414533 0.40126956181167389 0 0.18589276442329861 0.38606835492789338 0 0.19700705340585539 0.39579078134538831 0 0.20289108470775991 0.38370682355227331 0 0.19700705340585539 0.39579078134538831 0 0.21316338490038089 0.39704202397260657 0 0.20931495008602691 0.36890180222237801 0 0.20289108470775991 0.38370682355227331 0 0.21961872799640589 0.38146559318592133 0 0.20289108470775991 0.38370682355227331 0 0.21316338490038089 0.39704202397260657 0 0.21961872799640589 0.38146559318592133 0 0.22513916990612379 0.36868200325308897 0 0.21961872799640589 0.38146559318592133 0 0.2386764282036242 0.37725286527910618 0 0.21961872799640589 0.38146559318592133 0 0.22852735017452019 0.39320804083607441 0 0.2386764282036242 0.37725286527910618 0 0.21316338490038089 0.39704202397260657 0 0.21961872799640589 0.38146559318592133 0 0.22852735017452019 0.39320804083607441 0 0.21316338490038089 0.39704202397260657 0 0.22852735017452019 0.39320804083607441 0 0.22983145469658259 0.40925978250573319 0 0.21316338490038089 0.39704202397260657 0 0.22983145469658259 0.40925978250573319 0 0.22852735017452019 0.39320804083607441 0 0.2429624777480478 0.39890547698508871 0 0.22983145469658259 0.40925978250573319 0 0.2429624777480478 0.39890547698508871 0 0.2386764282036242 0.37725286527910618 0 0.22852735017452019 0.39320804083607441 0 0.2429624777480478 0.39890547698508871 0 0.2386764282036242 0.37725286527910618 0 0.2429624777480478 0.39890547698508871 0 0.2386764282036242 0.37725286527910618 0 0.25341304662754638 0.38974012394171498 0 0.2386764282036242 0.37725286527910618 0 0.25383912625151372 0.37755129754335942 0 0.25341304662754638 0.38974012394171498 0 0.24649952449278431 0.42147754103885982 0 0.22996656543308741 0.44177288309861867 0 0.24946733303660301 0.43176723098649622 0 0.24649952449278431 0.42147754103885982 0 0.22996656543308741 0.44177288309861867 0 0.24649952449278431 0.42147754103885982 0 0.22738899126970491 0.42458926785457718 0 0.22996656543308741 0.44177288309861867 0 0.24946733303660301 0.43176723098649622 0 0.24649952449278431 0.42147754103885982 0 0.2429624777480478 0.39890547698508871 0 0.24649952449278431 0.42147754103885982 0 0.24649952449278431 0.42147754103885982 0 0.22983145469658259 0.40925978250573319 0 0.22738899126970491 0.42458926785457718 0 0.24649952449278431 0.42147754103885982 0 0.22983145469658259 0.40925978250573319 0 0.2429624777480478 0.39890547698508871 0 0.24649952449278431 0.42147754103885982 0 0.22983145469658259 0.40925978250573319 0 0.21316338490038089 0.39704202397260657 0 0.22983145469658259 0.40925978250573319 0 0.21370806227123909 0.41789950377956148 0 0.22983145469658259 0.40925978250573319 0 0.22738899126970491 0.42458926785457718 0 0.21370806227123909 0.41789950377956148 0 0.22738899126970491 0.42458926785457718 0 0.21739304288862979 0.43200563017257382 0 0.22996656543308741 0.44177288309861867 0 0.22738899126970491 0.42458926785457718 0 0.21739304288862979 0.43200563017257382 0 0.21370806227123909 0.41789950377956148 0 0.21739304288862979 0.43200563017257382 0 0.1999317510848099 0.43097584272053618 0 0.2111195299095035 0.44359306409302351 0 0.21739304288862979 0.43200563017257382 0 0.21370806227123909 0.41789950377956148 0 0.1999317510848099 0.43097584272053618 0 0.21370806227123909 0.41789950377956148 0 0.19877798755638451 0.41086714246249401 0 0.1999317510848099 0.43097584272053618 0 0.21316338490038089 0.39704202397260657 0 0.21370806227123909 0.41789950377956148 0 0.19877798755638451 0.41086714246249401 0 0.18469425222239219 0.42125941149134333 0 0.19877798755638451 0.41086714246249401 0 0.1999317510848099 0.43097584272053618 0 0.18469425222239219 0.42125941149134333 0 0.1843100454414533 0.40126956181167389 0 0.19877798755638451 0.41086714246249401 0 0.18469425222239219 0.42125941149134333 0 0.1999317510848099 0.43097584272053618 0 0.1809560021812836 0.43814832633623357 0 0.1999317510848099 0.43097584272053618 0 0.19479511809318301 0.4526549487178691 0 0.2111195299095035 0.44359306409302351 0 0.1999317510848099 0.43097584272053618 0 0.19479511809318301 0.4526549487178691 0 0.1809560021812836 0.43814832633623357 0 0.19479511809318301 0.4526549487178691 0 0.213169792932182 0.46047172596691099 0 0.19211155850092579 0.47790980627879082 0 0.19479511809318301 0.4526549487178691 0 0.19211155850092579 0.47790980627879082 0 0.18348770279874721 0.46143911161818069 0 0.213169792932182 0.46047172596691099 0 0.2111195299095035 0.44359306409302351 0 0.22996656543308741 0.44177288309861867 0 0.19479511809318301 0.4526549487178691 0 0.213169792932182 0.46047172596691099 0 0.2111195299095035 0.44359306409302351 0 0.21739304288862979 0.43200563017257382 0 0.2111195299095035 0.44359306409302351 0 0.22996656543308741 0.44177288309861867 0 0.22996656543308741 0.44177288309861867 0 0.22854105436186559 0.46372788353366717 0 0.24141841662185301 0.45603819576859073 0 0.213169792932182 0.46047172596691099 0 0.22854105436186559 0.46372788353366717 0 0.221321310837439 0.47674074212904899 0 0.213169792932182 0.46047172596691099 0 0.22996656543308741 0.44177288309861867 0 0.22854105436186559 0.46372788353366717 0 0.24141841662185301 0.45603819576859073 0 0.23645949407781469 0.47608243786178739 0 0.25047151807745072 0.47036873115219768 0 0.22854105436186559 0.46372788353366717 0 0.24141841662185301 0.45603819576859073 0 0.23645949407781469 0.47608243786178739 0 0.24141841662185301 0.45603819576859073 0 0.25047151807745072 0.47036873115219768 0 0.25477099823403621 0.45804476415031298 0 0.24141841662185301 0.45603819576859073 0 0.25282491994113748 0.44831200937164878 0 0.25477099823403621 0.45804476415031298 0 0.22996656543308741 0.44177288309861867 0 0.24141841662185301 0.45603819576859073 0 0.24583280085865111 0.44361242472787987 0 0.24946733303660301 0.43176723098649622 0 0.22996656543308741 0.44177288309861867 0 0.24583280085865111 0.44361242472787987 0 0.24141841662185301 0.45603819576859073 0 0.24583280085865111 0.44361242472787987 0 0.25282491994113748 0.44831200937164878 0 0.24904418528453851 0.48634810883828161 0 0.23645949407781469 0.47608243786178739 0 0.23352830384551029 0.49999999999999978 0 0.24904418528453851 0.48634810883828161 0 0.23352830384551029 0.49999999999999978 0 0.25181722630913472 0.5 0 0.24904418528453851 0.48634810883828161 0 0.23645949407781469 0.47608243786178739 0 0.25047151807745072 0.47036873115219768 0 0.23645949407781469 0.47608243786178739 0 0.221321310837439 0.47674074212904899 0 0.23352830384551029 0.49999999999999978 0 0.22854105436186559 0.46372788353366717 0 0.23645949407781469 0.47608243786178739 0 0.221321310837439 0.47674074212904899 0 0.23352830384551029 0.49999999999999978 0 0.2128199311732181 0.48895490313939532 0 0.21702906166474581 0.5 0 0.23352830384551029 0.49999999999999978 0 0.2128199311732181 0.48895490313939532 0 0.221321310837439 0.47674074212904899 0 0.23352830384551029 0.49999999999999978 0 0.2128199311732181 0.48895490313939532 0 0.2128199311732181 0.48895490313939532 0 0.21702906166474581 0.5 0 0.20052981948398141 0.49999999999999989 0 0.213169792932182 0.46047172596691099 0 0.221321310837439 0.47674074212904899 0 0.19211155850092579 0.47790980627879082 0 0.221321310837439 0.47674074212904899 0 0.2128199311732181 0.48895490313939532 0 0.19211155850092579 0.47790980627879082 0 0.2128199311732181 0.48895490313939532 0 0.19211155850092579 0.47790980627879082 0 0.2128199311732181 0.48895490313939532 0 0.20052981948398141 0.49999999999999989 0 0.19295831529489699 0.4905304616351287 0 0.2128199311732181 0.48895490313939532 0 0.19211155850092579 0.47790980627879082 0 0.19295831529489699 0.4905304616351287 0 0.20052981948398141 0.49999999999999989 0 0.1839227339461352 0.49861489743603538 0 0.20052981948398141 0.49999999999999989 0 0.19295831529489699 0.4905304616351287 0 0.1839227339461352 0.49861489743603538 0 0.19211155850092579 0.47790980627879082 0 0.19295831529489699 0.4905304616351287 0 0.1809625144841838 0.48570342190566712 0 0.1839227339461352 0.49861489743603538 0 0.1809625144841838 0.48570342190566712 0 0.16731564840828889 0.49722979487207219 0 0.1839227339461352 0.49861489743603538 0 0.16731564840828889 0.49722979487207219 0 0.1839227339461352 0.49861489743603538 0 0.1669427425872391 0.49999999999999922 0 0.16731564840828889 0.49722979487207219 0 0.19295831529489699 0.4905304616351287 0 0.1839227339461352 0.49861489743603538 0 0.1809625144841838 0.48570342190566712 0 0.1809625144841838 0.48570342190566712 0 0.16731564840828889 0.49722979487207219 0 0.16935941711846161 0.48204725214512889 0 0.16731564840828889 0.49722979487207219 0 0.157708884996551 0.48584061526662409 0 0.14611751268168829 0.49546177892012921 0 0.16731564840828889 0.49722979487207219 0 0.14611751268168829 0.49546177892012921 0 0.1669427425872391 0.49999999999999922 0 0.16731564840828889 0.49722979487207219 0 0.14611751268168829 0.49546177892012921 0 0.1669427425872391 0.49999999999999922 0 0.16731564840828889 0.49722979487207219 0 0.16731564840828889 0.49722979487207219 0 0.16935941711846161 0.48204725214512889 0 0.16731564840828889 0.49722979487207219 0 0.157708884996551 0.48584061526662409 0 0.16935941711846161 0.48204725214512889 0 0.16382575626869561 0.4735735187060508 0 0.15802571703479451 0.46684670821381258 0 0.1531189490294651 0.47544631339495541 0 0.157708884996551 0.48584061526662409 0 0.16382575626869561 0.4735735187060508 0 0.1531189490294651 0.47544631339495541 0 0.157708884996551 0.48584061526662409 0 0.16382575626869561 0.4735735187060508 0 0.16935941711846161 0.48204725214512889 0 0.16935941711846161 0.48204725214512889 0 0.17140318582863401 0.46686470941818559 0 0.16382575626869561 0.4735735187060508 0 0.16935941711846161 0.48204725214512889 0 0.17140318582863401 0.46686470941818559 0 0.1809625144841838 0.48570342190566712 0 0.16935941711846161 0.48204725214512889 0 0.17140318582863401 0.46686470941818559 0 0.19211155850092579 0.47790980627879082 0 0.1809625144841838 0.48570342190566712 0 0.17140318582863401 0.46686470941818559 0 0.19211155850092579 0.47790980627879082 0 0.17140318582863401 0.46686470941818559 0 0.19479511809318301 0.4526549487178691 0 0.18348770279874721 0.46143911161818069 0 0.17341546959919829 0.45191605883299152 0 0.19211155850092579 0.47790980627879082 0 0.18348770279874721 0.46143911161818069 0 0.17140318582863401 0.46686470941818559 0 0.18348770279874721 0.46143911161818069 0 0.17341546959919829 0.45191605883299152 0 0.17140318582863401 0.46686470941818559 0 0.17341546959919829 0.45191605883299152 0 0.17140318582863401 0.46686470941818559 0 0.19479511809318301 0.4526549487178691 0 0.1809560021812836 0.43814832633623357 0 0.17341546959919829 0.45191605883299152 0 0.1809560021812836 0.43814832633623357 0 0.17341546959919829 0.45191605883299152 0 0.16598328874466911 0.44273574664910909 0 0.17341546959919829 0.45191605883299152 0 0.16598328874466911 0.44273574664910909 0 0.15954778128093949 0.4508222386347599 0 0.16598328874466911 0.44273574664910909 0 0.15954778128093949 0.4508222386347599 0 0.1507341445198021 0.44370602134863157 0 0.16526304614212209 0.42908608809292892 0 0.16598328874466911 0.44273574664910909 0 0.1507341445198021 0.44370602134863157 0 0.16382575626869561 0.4735735187060508 0 0.1651762257979181 0.46354347419730452 0 0.17140318582863401 0.46686470941818559 0 0.1651762257979181 0.46354347419730452 0 0.17140318582863401 0.46686470941818559 0 0.17341546959919829 0.45191605883299152 0 0.1651762257979181 0.46354347419730452 0 0.17140318582863401 0.46686470941818559 0 0.17341546959919829 0.45191605883299152 0 0.15954778128093949 0.4508222386347599 0 0.1651762257979181 0.46354347419730452 0 0.15954778128093949 0.4508222386347599 0 0.1651762257979181 0.46354347419730452 0 0.1582471669695637 0.45974252444074731 0 0.16382575626869561 0.4735735187060508 0 0.1651762257979181 0.46354347419730452 0 0.15802571703479451 0.46684670821381258 0 0.1651762257979181 0.46354347419730452 0 0.1582471669695637 0.45974252444074731 0 0.15802571703479451 0.46684670821381258 0 0.14976048710833001 0.46192771033000529 0 0.1507341445198021 0.44370602134863157 0 0.136404492151351 0.45486193181106682 0 0.1582471669695637 0.45974252444074731 0 0.15802571703479451 0.46684670821381258 0 0.14976048710833001 0.46192771033000529 0 0.15802571703479451 0.46684670821381258 0 0.14976048710833001 0.46192771033000529 0 0.1531189490294651 0.47544631339495541 0 0.15954778128093949 0.4508222386347599 0 0.1582471669695637 0.45974252444074731 0 0.14976048710833001 0.46192771033000529 0 0.14976048710833001 0.46192771033000529 0 0.136404492151351 0.45486193181106682 0 0.13663143795624749 0.46910754811773492 0 0.15954778128093949 0.4508222386347599 0 0.14976048710833001 0.46192771033000529 0 0.1507341445198021 0.44370602134863157 0 0.1507341445198021 0.44370602134863157 0 0.13510526379757609 0.44116740875256688 0 0.136404492151351 0.45486193181106682 0 0.1221607865463437 0.4507156547582637 0 0.12259086230274099 0.42947812748907283 0 0.13510526379757609 0.44116740875256688 0 0.1221607865463437 0.4507156547582637 0 0.13510526379757609 0.44116740875256688 0 0.136404492151351 0.45486193181106682 0 0.136404492151351 0.45486193181106682 0 0.1267882431275838 0.46370707134437261 0 0.13663143795624749 0.46910754811773492 0 0.1221607865463437 0.4507156547582637 0 0.136404492151351 0.45486193181106682 0 0.1267882431275838 0.46370707134437261 0 0.1267882431275838 0.46370707134437261 0 0.12569724768963239 0.47617993877849962 0 0.13663143795624749 0.46910754811773492 0 0.12569724768963239 0.47617993877849962 0 0.13663143795624749 0.46910754811773492 0 0.1364132019148096 0.48384982340983701 0 0.13663143795624749 0.46910754811773492 0 0.1364132019148096 0.48384982340983701 0 0.14361111091913481 0.47574478002545789 0 0.1249193769550877 0.49369376296818718 0 0.1364132019148096 0.48384982340983701 0 0.14611751268168829 0.49546177892012921 0 0.1249193769550877 0.49369376296818718 0 0.14611751268168829 0.49546177892012921 0 0.1249193769550877 0.49369376296818718 0 0.12569724768963239 0.47617993877849962 0 0.1364132019148096 0.48384982340983701 0 0.1249193769550877 0.49369376296818718 0 0.13738437864054501 0.5 0 0.14611751268168829 0.49546177892012921 0 0.1364132019148096 0.48384982340983701 0 0.14611751268168829 0.49546177892012921 0 0.14718343377546941 0.48347361591025501 0 0.1669427425872391 0.49999999999999922 0 0.13738437864054501 0.5 0 0.14611751268168829 0.49546177892012921 0 0.157708884996551 0.48584061526662409 0 0.14611751268168829 0.49546177892012921 0 0.14718343377546941 0.48347361591025501 0 0.157708884996551 0.48584061526662409 0 0.1531189490294651 0.47544631339495541 0 0.14718343377546941 0.48347361591025501 0 0.14976048710833001 0.46192771033000529 0 0.1531189490294651 0.47544631339495541 0 0.14361111091913481 0.47574478002545789 0 0.14976048710833001 0.46192771033000529 0 0.13663143795624749 0.46910754811773492 0 0.14361111091913481 0.47574478002545789 0 0.1364132019148096 0.48384982340983701 0 0.14361111091913481 0.47574478002545789 0 0.14718343377546941 0.48347361591025501 0 0.1531189490294651 0.47544631339495541 0 0.14361111091913481 0.47574478002545789 0 0.14718343377546941 0.48347361591025501 0 0.35832214194920592 0.47929915408112939 0 0.34611268429232461 0.46591887339206078 0 0.3375369348076922 0.4829399206954248 0 0.35832214194920592 0.47929915408112939 0 0.35850557312216419 0.5 0 0.3375369348076922 0.4829399206954248 0 0.35850557312216419 0.5 0 0.37801407526051067 0.48065415083330842 0 0.38797204790529932 0.5 0 0.35832214194920592 0.47929915408112939 0 0.35850557312216419 0.5 0 0.37801407526051067 0.48065415083330842 0 0.35832214194920592 0.47929915408112939 0 0.36980735363827261 0.46050290225189661 0 0.37801407526051067 0.48065415083330842 0 0.36980735363827261 0.46050290225189661 0 0.34502769605759259 0.44546544446971242 0 0.36959298495063608 0.43610817863788948 0 0.35832214194920592 0.47929915408112939 0 0.36980735363827261 0.46050290225189661 0 0.34611268429232461 0.46591887339206078 0 0.36980735363827261 0.46050290225189661 0 0.34502769605759259 0.44546544446971242 0 0.34611268429232461 0.46591887339206078 0 0.36980735363827261 0.46050290225189661 0 0.34611268429232461 0.46591887339206078 0 0.34611268429232461 0.46591887339206078 0 0.3317687487832644 0.45597005559148451 0 0.32241801494637662 0.47133484453222518 0 0.34502769605759259 0.44546544446971242 0 0.34611268429232461 0.46591887339206078 0 0.3317687487832644 0.45597005559148451 0 0.34611268429232461 0.46591887339206078 0 0.32241801494637662 0.47133484453222518 0 0.34502769605759259 0.44546544446971242 0 0.3317687487832644 0.45597005559148451 0 0.32480939915707069 0.44218818576869201 0 0.34502769605759259 0.44546544446971242 0 0.32480939915707069 0.44218818576869201 0 0.33523501366627878 0.43221560569608392 0 0.3107318966111981 0.4514989769174147 0 0.3227404476219688 0.42624713816244092 0 0.3317687487832644 0.45597005559148451 0 0.32480939915707069 0.44218818576869201 0 0.3107318966111981 0.4514989769174147 0 0.32480939915707069 0.44218818576869201 0 0.3107318966111981 0.4514989769174147 0 0.3227404476219688 0.42624713816244092 0 0.3317687487832644 0.45597005559148451 0 0.32241801494637662 0.47133484453222518 0 0.3107318966111981 0.4514989769174147 0 0.32241801494637662 0.47133484453222518 0 0.3375369348076922 0.4829399206954248 0 0.31372501333874958 0.48784291822244708 0 0.34611268429232461 0.46591887339206078 0 0.32241801494637662 0.47133484453222518 0 0.3375369348076922 0.4829399206954248 0 0.35850557312216419 0.5 0 0.3375369348076922 0.4829399206954248 0 0.32903909833902928 0.5 0 0.32903909833902928 0.5 0 0.31372501333874958 0.48784291822244708 0 0.29957262355589431 0.5 0 0.3375369348076922 0.4829399206954248 0 0.32903909833902928 0.5 0 0.31372501333874958 0.48784291822244708 0 0.31372501333874958 0.48784291822244708 0 0.30130976803097798 0.48891801032572652 0 0.29957262355589431 0.5 0 0.31372501333874958 0.48784291822244708 0 0.30130976803097798 0.48891801032572652 0 0.29872334560042851 0.47675081567238892 0 0.30130976803097798 0.48891801032572652 0 0.29957262355589431 0.5 0 0.28978827390519868 0.49553967616935518 0 0.32241801494637662 0.47133484453222518 0 0.29872334560042851 0.47675081567238892 0 0.32241801494637662 0.47133484453222518 0 0.31372501333874958 0.48784291822244708 0 0.29872334560042851 0.47675081567238892 0 0.29872334560042851 0.47675081567238892 0 0.28397488520641462 0.48012192141307769 0 0.28978827390519868 0.49553967616935518 0 0.29872334560042851 0.47675081567238892 0 0.28929399795500932 0.47058792179259418 0 0.29703527816799058 0.46117092995693892 0 0.29872334560042851 0.47675081567238892 0 0.28929399795500932 0.47058792179259418 0 0.28397488520641462 0.48012192141307769 0 0.29872334560042851 0.47675081567238892 0 0.28397488520641462 0.48012192141307769 0 0.28929399795500932 0.47058792179259418 0 0.28397488520641462 0.48012192141307769 0 0.27920072977811172 0.47805830749059319 0 0.28397488520641462 0.48012192141307769 0 0.28978827390519868 0.49553967616935518 0 0.27010614877275918 0.50000000000000067 0 0.29957262355589431 0.5 0 0.28978827390519868 0.49553967616935518 0 0.27010614877275918 0.50000000000000067 0 0.30130976803097798 0.48891801032572652 0 0.29872334560042851 0.47675081567238892 0 0.28978827390519868 0.49553967616935518 0 0.29872334560042851 0.47675081567238892 0 0.28978827390519868 0.49553967616935518 0 0.28397488520641462 0.48012192141307769 0 0.27010614877275918 0.50000000000000067 0 0.27920072977811172 0.47805830749059319 0 0.27010614877275918 0.50000000000000067 0 0.26909437115437917 0.48384867389528768 0 0.26130641782501518 0.49139676135406141 0 0.27010614877275918 0.50000000000000067 0 0.27920072977811172 0.47805830749059319 0 0.26909437115437917 0.48384867389528768 0 0.27010614877275918 0.50000000000000067 0 0.27920072977811172 0.47805830749059319 0 0.27920072977811172 0.47805830749059319 0 0.27306774476234302 0.47644699960251641 0 0.26909437115437917 0.48384867389528768 0 0.27920072977811172 0.47805830749059319 0 0.27306774476234302 0.47644699960251641 0 0.27643472525740193 0.46726539210963169 0 0.26824582816420722 0.47348896141386071 0 0.27306774476234302 0.47644699960251641 0 0.27643472525740193 0.46726539210963169 0 0.26824582816420722 0.47348896141386071 0 0.26909437115437917 0.48384867389528768 0 0.25993240985832161 0.47939275616227872 0 0.26824582816420722 0.47348896141386071 0 0.27306774476234302 0.47644699960251641 0 0.26909437115437917 0.48384867389528768 0 0.24904418528453851 0.48634810883828161 0 0.25993240985832161 0.47939275616227872 0 0.25047151807745072 0.47036873115219768 0 0.26824582816420722 0.47348896141386071 0 0.25993240985832161 0.47939275616227872 0 0.26165523792153211 0.46576309323832682 0 0.25993240985832161 0.47939275616227872 0 0.25047151807745072 0.47036873115219768 0 0.26165523792153211 0.46576309323832682 0 0.27010614877275918 0.50000000000000067 0 0.25181722630913472 0.5 0 0.26130641782501518 0.49139676135406141 0 0.24904418528453851 0.48634810883828161 0 0.25993240985832161 0.47939275616227872 0 0.26130641782501518 0.49139676135406141 0 0.24904418528453851 0.48634810883828161 0 0.25181722630913472 0.5 0 0.26130641782501518 0.49139676135406141 0 0.26909437115437917 0.48384867389528768 0 0.25993240985832161 0.47939275616227872 0 0.26130641782501518 0.49139676135406141 0 0.26490489917960358 0.45079530358348557 0 0.25548676926057468 0.44017180441404491 0 0.26331147225899149 0.43380076267102891 0 0.24946733303660301 0.43176723098649622 0 0.24583280085865111 0.44361242472787987 0 0.25548676926057468 0.44017180441404491 0 0.24583280085865111 0.44361242472787987 0 0.25548676926057468 0.44017180441404491 0 0.25282491994113748 0.44831200937164878 0 0.26490489917960358 0.45079530358348557 0 0.25548676926057468 0.44017180441404491 0 0.25282491994113748 0.44831200937164878 0 0.26490489917960358 0.45079530358348557 0 0.25282491994113748 0.44831200937164878 0 0.25477099823403621 0.45804476415031298 0 0.25047151807745072 0.47036873115219768 0 0.25477099823403621 0.45804476415031298 0 0.26165523792153211 0.46576309323832682 0 0.26490489917960358 0.45079530358348557 0 0.25477099823403621 0.45804476415031298 0 0.26165523792153211 0.46576309323832682 0 0.26490489917960358 0.45079530358348557 0 0.27160577401557351 0.46248804296782559 0 0.27679169795675967 0.45600994403837303 0 0.26490489917960358 0.45079530358348557 0 0.26165523792153211 0.46576309323832682 0 0.27160577401557351 0.46248804296782559 0 0.26824582816420722 0.47348896141386071 0 0.27160577401557351 0.46248804296782559 0 0.27643472525740193 0.46726539210963169 0 0.26824582816420722 0.47348896141386071 0 0.26165523792153211 0.46576309323832682 0 0.27160577401557351 0.46248804296782559 0 0.27160577401557351 0.46248804296782559 0 0.27643472525740193 0.46726539210963169 0 0.27679169795675967 0.45600994403837303 0 0.27643472525740193 0.46726539210963169 0 0.27679169795675967 0.45600994403837303 0 0.28829531078346382 0.45611661498118572 0 0.27903440424894049 0.4453257315987294 0 0.26331147225899149 0.43380076267102891 0 0.26490489917960358 0.45079530358348557 0 0.27903440424894049 0.4453257315987294 0 0.26331147225899149 0.43380076267102891 0 0.26490489917960358 0.45079530358348557 0 0.27679169795675967 0.45600994403837303 0 0.27903440424894049 0.4453257315987294 0 0.27903440424894049 0.4453257315987294 0 0.2917470315179379 0.44281751567604499 0 0.28179675760275558 0.42932557237874241 0 0.27679169795675967 0.45600994403837303 0 0.27903440424894049 0.4453257315987294 0 0.28829531078346382 0.45611661498118572 0 0.27903440424894049 0.4453257315987294 0 0.2917470315179379 0.44281751567604499 0 0.28829531078346382 0.45611661498118572 0 0.2917470315179379 0.44281751567604499 0 0.28829531078346382 0.45611661498118572 0 0.29813183988985342 0.45090032042111128 0 0.27920072977811172 0.47805830749059319 0 0.27643472525740193 0.46726539210963169 0 0.28829531078346382 0.45611661498118572 0 0.28929399795500932 0.47058792179259418 0 0.27920072977811172 0.47805830749059319 0 0.28829531078346382 0.45611661498118572 0 0.27920072977811172 0.47805830749059319 0 0.28829531078346382 0.45611661498118572 0 0.28829531078346382 0.45611661498118572 0 0.29703527816799058 0.46117092995693892 0 0.29813183988985342 0.45090032042111128 0 0.28929399795500932 0.47058792179259418 0 0.28829531078346382 0.45611661498118572 0 0.29703527816799058 0.46117092995693892 0 0.29872334560042851 0.47675081567238892 0 0.29703527816799058 0.46117092995693892 0 0.3107318966111981 0.4514989769174147 0 0.29872334560042851 0.47675081567238892 0 0.3107318966111981 0.4514989769174147 0 0.32241801494637662 0.47133484453222518 0 0.29872334560042851 0.47675081567238892 0 0.3107318966111981 0.4514989769174147 0 0.29703527816799058 0.46117092995693892 0 0.29813183988985342 0.45090032042111128 0 0.3107318966111981 0.4514989769174147 0 0.30159082278473881 0.44219288247638061 0 0.3107318966111981 0.4514989769174147 0 0.30884109342504262 0.43428586920116352 0 0.2917470315179379 0.44281751567604499 0 0.30159082278473881 0.44219288247638061 0 0.29850225247966211 0.43146173016616862 0 0.2917470315179379 0.44281751567604499 0 0.30159082278473881 0.44219288247638061 0 0.29813183988985342 0.45090032042111128 0 0.30159082278473881 0.44219288247638061 0 0.29813183988985342 0.45090032042111128 0 0.3107318966111981 0.4514989769174147 0 0.30884109342504262 0.43428586920116352 0 0.29850225247966211 0.43146173016616862 0 0.30862162828234507 0.42004495563460759 0 0.29850225247966211 0.43146173016616862 0 0.30862162828234507 0.42004495563460759 0 0.29547148538100448 0.41817397575591742 0 0.30159082278473881 0.44219288247638061 0 0.30884109342504262 0.43428586920116352 0 0.29850225247966211 0.43146173016616862 0 0.30862162828234507 0.42004495563460759 0 0.30304430461131138 0.40735012112542651 0 0.3196782615082488 0.40265332564926309 0 0.30862162828234507 0.42004495563460759 0 0.30304430461131138 0.40735012112542651 0 0.29547148538100448 0.41817397575591742 0 0.30304430461131138 0.40735012112542651 0 0.29062365375375682 0.40708788978866228 0 0.29547148538100448 0.41817397575591742 0 0.29062365375375682 0.40708788978866228 0 0.29547148538100448 0.41817397575591742 0 0.28288479604298378 0.41446876034122271 0 0.29547148538100448 0.41817397575591742 0 0.28288479604298378 0.41446876034122271 0 0.28179675760275558 0.42932557237874241 0 0.29062365375375682 0.40708788978866228 0 0.28288479604298378 0.41446876034122271 0 0.28001120465417539 0.40182109974822727 0 0.29850225247966211 0.43146173016616862 0 0.29547148538100448 0.41817397575591742 0 0.28179675760275558 0.42932557237874241 0 0.2917470315179379 0.44281751567604499 0 0.29850225247966211 0.43146173016616862 0 0.28179675760275558 0.42932557237874241 0 0.28179675760275558 0.42932557237874241 0 0.27042562322166658 0.41684269204638819 0 0.26331147225899149 0.43380076267102891 0 0.27903440424894049 0.4453257315987294 0 0.28179675760275558 0.42932557237874241 0 0.26331147225899149 0.43380076267102891 0 0.27042562322166658 0.41684269204638819 0 0.26380858941988822 0.4002294757553399 0 0.28001120465417539 0.40182109974822727 0 0.28288479604298378 0.41446876034122271 0 0.28179675760275558 0.42932557237874241 0 0.27042562322166658 0.41684269204638819 0 0.28288479604298378 0.41446876034122271 0 0.27042562322166658 0.41684269204638819 0 0.28001120465417539 0.40182109974822727 0 0.24649952449278431 0.42147754103885982 0 0.25492995388566009 0.41993008507457552 0 0.26380858941988822 0.4002294757553399 0 0.27042562322166658 0.41684269204638819 0 0.25492995388566009 0.41993008507457552 0 0.26380858941988822 0.4002294757553399 0 0.24649952449278431 0.42147754103885982 0 0.26380858941988822 0.4002294757553399 0 0.2429624777480478 0.39890547698508871 0 0.24649952449278431 0.42147754103885982 0 0.26380858941988822 0.4002294757553399 0 0.24946733303660301 0.43176723098649622 0 0.24649952449278431 0.42147754103885982 0 0.26331147225899149 0.43380076267102891 0 0.24649952449278431 0.42147754103885982 0 0.25492995388566009 0.41993008507457552 0 0.26331147225899149 0.43380076267102891 0 0.24649952449278431 0.42147754103885982 0 0.26331147225899149 0.43380076267102891 0 0.27042562322166658 0.41684269204638819 0 0.25492995388566009 0.41993008507457552 0 0.26331147225899149 0.43380076267102891 0 0.24946733303660301 0.43176723098649622 0 0.25548676926057468 0.44017180441404491 0 0.26331147225899149 0.43380076267102891 0 0.26350653962281989 0.38010735630523079 0 0.25341304662754638 0.38974012394171498 0 0.26380858941988822 0.4002294757553399 0 0.26350653962281989 0.38010735630523079 0 0.25383912625151372 0.37755129754335942 0 0.25710864090743918 0.37145542319719338 0 0.26350653962281989 0.38010735630523079 0 0.25383912625151372 0.37755129754335942 0 0.25341304662754638 0.38974012394171498 0 0.2429624777480478 0.39890547698508871 0 0.25341304662754638 0.38974012394171498 0 0.26380858941988822 0.4002294757553399 0 0.26380858941988822 0.4002294757553399 0 0.28001120465417539 0.40182109974822727 0 0.28036865154730628 0.37990086281960789 0 0.26350653962281989 0.38010735630523079 0 0.28036865154730628 0.37990086281960789 0 0.2641967246118288 0.36596915937278562 0 0.26380858941988822 0.4002294757553399 0 0.28036865154730628 0.37990086281960789 0 0.26350653962281989 0.38010735630523079 0 0.26380858941988822 0.4002294757553399 0 0.28036865154730628 0.37990086281960789 0 0.28036865154730628 0.37990086281960789 0 0.29170647807930872 0.39362549197251728 0 0.2987730087010142 0.37934426936791982 0 0.28036865154730628 0.37990086281960789 0 0.29170647807930872 0.39362549197251728 0 0.28001120465417539 0.40182109974822727 0 0.28036865154730628 0.37990086281960789 0 0.29170647807930872 0.39362549197251728 0 0.29062365375375682 0.40708788978866228 0 0.28001120465417539 0.40182109974822727 0 0.29170647807930872 0.39362549197251728 0 0.30304430461131138 0.40735012112542651 0 0.29062365375375682 0.40708788978866228 0 0.29170647807930872 0.39362549197251728 0 0.30304430461131138 0.40735012112542651 0 0.30637452063024528 0.39219955594670219 0 0.3196782615082488 0.40265332564926309 0 0.30304430461131138 0.40735012112542651 0 0.29170647807930872 0.39362549197251728 0 0.30304430461131138 0.40735012112542651 0 0.29170647807930872 0.39362549197251728 0 0.30637452063024528 0.39219955594670219 0 0.30637452063024528 0.39219955594670219 0 0.2987730087010142 0.37934426936791982 0 0.31661607539452802 0.37905951313608538 0 0.29170647807930872 0.39362549197251728 0 0.30637452063024528 0.39219955594670219 0 0.2987730087010142 0.37934426936791982 0 0.31661607539452802 0.37905951313608538 0 0.32905198958534931 0.38831461949406398 0 0.3196782615082488 0.40265332564926309 0 0.31661607539452802 0.37905951313608538 0 0.32905198958534931 0.38831461949406398 0 0.33389487655237682 0.3658352592629312 0 0.32905198958534931 0.38831461949406398 0 0.34270248502322931 0.38427053755298168 0 0.33389487655237682 0.3658352592629312 0 0.32905198958534931 0.38831461949406398 0 0.34270248502322931 0.38427053755298168 0 0.33272146632259869 0.40525883785771122 0 0.34270248502322931 0.38427053755298168 0 0.33272146632259869 0.40525883785771122 0 0.34270248502322931 0.38427053755298168 0 0.33272146632259869 0.40525883785771122 0 0.34670895149724801 0.40816004440777182 0 0.31661607539452802 0.37905951313608538 0 0.3196782615082488 0.40265332564926309 0 0.32905198958534931 0.38831461949406398 0 0.33272146632259869 0.40525883785771122 0 0.3196782615082488 0.40265332564926309 0 0.30637452063024528 0.39219955594670219 0 0.31661607539452802 0.37905951313608538 0 0.3196782615082488 0.40265332564926309 0 0.3196782615082488 0.40265332564926309 0 0.3227404476219688 0.42624713816244092 0 0.30862162828234507 0.42004495563460759 0 0.3196782615082488 0.40265332564926309 0 0.3227404476219688 0.42624713816244092 0 0.33272146632259869 0.40525883785771122 0 0.3196782615082488 0.40265332564926309 0 0.3227404476219688 0.42624713816244092 0 0.33272146632259869 0.40525883785771122 0 0.3227404476219688 0.42624713816244092 0 0.32480939915707069 0.44218818576869201 0 0.3227404476219688 0.42624713816244092 0 0.3107318966111981 0.4514989769174147 0 0.30884109342504262 0.43428586920116352 0 0.3227404476219688 0.42624713816244092 0 0.32480939915707069 0.44218818576869201 0 0.3227404476219688 0.42624713816244092 0 0.33523501366627878 0.43221560569608392 0 0.30884109342504262 0.43428586920116352 0 0.30862162828234507 0.42004495563460759 0 0.3227404476219688 0.42624713816244092 0 0.34502769605759259 0.44546544446971242 0 0.33523501366627878 0.43221560569608392 0 0.34795858503051302 0.425881111768525 0 0.3227404476219688 0.42624713816244092 0 0.33523501366627878 0.43221560569608392 0 0.33659904832278342 0.4201421825902541 0 0.33523501366627878 0.43221560569608392 0 0.33659904832278342 0.4201421825902541 0 0.34795858503051302 0.425881111768525 0 0.33272146632259869 0.40525883785771122 0 0.3227404476219688 0.42624713816244092 0 0.33659904832278342 0.4201421825902541 0 0.33272146632259869 0.40525883785771122 0 0.33659904832278342 0.4201421825902541 0 0.34670895149724801 0.40816004440777182 0 0.33659904832278342 0.4201421825902541 0 0.34670895149724801 0.40816004440777182 0 0.34795858503051302 0.425881111768525 0 0.34670895149724801 0.40816004440777182 0 0.34795858503051302 0.425881111768525 0 0.36336601300371613 0.41450991002864218 0 0.34670895149724801 0.40816004440777182 0 0.36336601300371613 0.41450991002864218 0 0.35690611128064731 0.3988976866485166 0 0.34502769605759259 0.44546544446971242 0 0.34795858503051302 0.425881111768525 0 0.36959298495063608 0.43610817863788948 0 0.34795858503051302 0.425881111768525 0 0.36959298495063608 0.43610817863788948 0 0.36336601300371613 0.41450991002864218 0 0.36959298495063608 0.43610817863788948 0 0.36336601300371613 0.41450991002864218 0 0.38530342098431941 0.41064856824057122 0 0.36336601300371613 0.41450991002864218 0 0.3736470799201031 0.39378130610698531 0 0.38530342098431941 0.41064856824057122 0 0.3736470799201031 0.39378130610698531 0 0.3601059063978746 0.38125551426405008 0 0.35690611128064731 0.3988976866485166 0 0.36336601300371613 0.41450991002864218 0 0.3736470799201031 0.39378130610698531 0 0.35690611128064731 0.3988976866485166 0 0.3736470799201031 0.39378130610698531 0 0.3601059063978746 0.38125551426405008 0 0.37414389550204002 0.36898578533419818 0 0.34270248502322931 0.38427053755298168 0 0.3601059063978746 0.38125551426405008 0 0.35690611128064731 0.3988976866485166 0 0.34270248502322931 0.38427053755298168 0 0.3601059063978746 0.38125551426405008 0 0.35268350372385993 0.36328223724825232 0 0.34270248502322931 0.38427053755298168 0 0.34670895149724801 0.40816004440777182 0 0.35690611128064731 0.3988976866485166 0 0.35268350372385993 0.36328223724825232 0 0.36266452242448938 0.34229393694352239 0 0.35030182712711511 0.35130594720886232 0 0.35268350372385993 0.36328223724825232 0 0.36266452242448938 0.34229393694352239 0 0.35030182712711511 0.35130594720886232 0 0.35146565257524442 0.34420791440797271 0 0.36266452242448938 0.34229393694352239 0 0.35030182712711511 0.35130594720886232 0 0.35146565257524442 0.34420791440797271 0 0.34269927497721508 0.34493512072036142 0 0.35030182712711511 0.35130594720886232 0 0.35268350372385993 0.36328223724825232 0 0.33389487655237682 0.3658352592629312 0 0.34270248502322931 0.38427053755298168 0 0.35268350372385993 0.36328223724825232 0 0.3601059063978746 0.38125551426405008 0 0.35268350372385993 0.36328223724825232 0 0.37414389550204002 0.36898578533419818 0 0.35268350372385993 0.36328223724825232 0 0.37414389550204002 0.36898578533419818 0 0.36300645299402812 0.35604351837507042 0 0.37414389550204002 0.36898578533419818 0 0.37228166628853332 0.35471301169251829 0 0.36300645299402812 0.35604351837507042 0 0.35268350372385993 0.36328223724825232 0 0.36300645299402812 0.35604351837507042 0 0.36266452242448938 0.34229393694352239 0 0.37228166628853332 0.35471301169251829 0 0.36300645299402812 0.35604351837507042 0 0.36840829020790361 0.34668560051738673 0 0.36300645299402812 0.35604351837507042 0 0.36840829020790361 0.34668560051738673 0 0.36266452242448938 0.34229393694352239 0 0.36840829020790361 0.34668560051738673 0 0.36266452242448938 0.34229393694352239 0 0.36587418437400321 0.34278907974668538 0 0.37228166628853332 0.35471301169251829 0 0.36840829020790361 0.34668560051738673 0 0.37486749369974542 0.34694596905823039 0 0.37486749369974542 0.34694596905823039 0 0.37256750073976291 0.34304532959464751 0 0.37670219357667811 0.34177383067972761 0 0.36840829020790361 0.34668560051738673 0 0.37486749369974542 0.34694596905823039 0 0.37256750073976291 0.34304532959464751 0 0.36124897776362869 0.33531944770056321 0 0.36266452242448938 0.34229393694352239 0 0.36411885078159001 0.32644375487552563 0 0.37256750073976291 0.34304532959464751 0 0.36916640720496519 0.34145859007673351 0 0.37369311900952262 0.33836265764115908 0 0.37256750073976291 0.34304532959464751 0 0.37369311900952262 0.33836265764115908 0 0.37670219357667811 0.34177383067972761 0 0.36266452242448938 0.34229393694352239 0 0.37014896644917339 0.316543878568457 0 0.36770298492566261 0.33637877995368609 0 0.36266452242448938 0.34229393694352239 0 0.37368960646642962 0.31911015363466272 0 0.36770298492566261 0.33637877995368609 0 0.36985494237623989 0.33311962493185521 0 0.37368960646642962 0.31911015363466272 0 0.36266452242448938 0.34229393694352239 0 0.37368960646642962 0.31911015363466272 0 0.36266452242448938 0.34229393694352239 0 0.37014896644917339 0.316543878568457 0 0.36411885078159001 0.32644375487552563 0 0.36840829020790361 0.34668560051738673 0 0.36916640720496519 0.34145859007673351 0 0.36587418437400321 0.34278907974668538 0 0.36840829020790361 0.34668560051738673 0 0.37256750073976291 0.34304532959464751 0 0.36916640720496519 0.34145859007673351 0 0.36916640720496519 0.34145859007673351 0 0.36587418437400321 0.34278907974668538 0 0.36708394454210669 0.33994961910346172 0 0.36916640720496519 0.34145859007673351 0 0.37010024416019238 0.33739894816112592 0 0.36708394454210669 0.33994961910346172 0 0.36916640720496519 0.34145859007673351 0 0.37010024416019238 0.33739894816112592 0 0.37369311900952262 0.33836265764115908 0 0.36770298492566261 0.33637877995368609 0 0.37010024416019238 0.33739894816112592 0 0.36708394454210669 0.33994961910346172 0 0.37010024416019238 0.33739894816112592 0 0.37369311900952262 0.33836265764115908 0 0.3722735272100694 0.33425106354392481 0 0.3722735272100694 0.33425106354392481 0 0.37245621682226088 0.32924087979990557 0 0.375263113682131 0.33313320718557798 0 0.37369311900952262 0.33836265764115908 0 0.3722735272100694 0.33425106354392481 0 0.375263113682131 0.33313320718557798 0 0.3722735272100694 0.33425106354392481 0 0.37245621682226088 0.32924087979990557 0 0.36985494237623989 0.33311962493185521 0 0.37245621682226088 0.32924087979990557 0 0.37577016905582622 0.32787937856968757 0 0.375263113682131 0.33313320718557798 0 0.37010024416019238 0.33739894816112592 0 0.3722735272100694 0.33425106354392481 0 0.36985494237623989 0.33311962493185521 0 0.36770298492566261 0.33637877995368609 0 0.37010024416019238 0.33739894816112592 0 0.36985494237623989 0.33311962493185521 0 0.36128237795215928 0.33126347269122047 0 0.36124897776362869 0.33531944770056321 0 0.36411885078159001 0.32644375487552563 0 0.36150631125237548 0.32912422255951068 0 0.36128237795215928 0.33126347269122047 0 0.36411885078159001 0.32644375487552563 0 0.36150631125237548 0.32912422255951068 0 0.35994194411877378 0.32646204206530971 0 0.35835984371964152 0.33045614064968309 0 0.36128237795215928 0.33126347269122047 0 0.35899626180536931 0.33430086833413269 0 0.35835984371964152 0.33045614064968309 0 0.36150631125237548 0.32912422255951068 0 0.36128237795215928 0.33126347269122047 0 0.35835984371964152 0.33045614064968309 0 0.36128237795215928 0.33126347269122047 0 0.36124897776362869 0.33531944770056321 0 0.35899626180536931 0.33430086833413269 0 0.36124897776362869 0.33531944770056321 0 0.36001134864139028 0.33778823672905661 0 0.35899626180536931 0.33430086833413269 0 0.36124897776362869 0.33531944770056321 0 0.36001134864139028 0.33778823672905661 0 0.36266452242448938 0.34229393694352239 0 0.36001134864139028 0.33778823672905661 0 0.36266452242448938 0.34229393694352239 0 0.3582225103283424 0.33883319475427592 0 0.36266452242448938 0.34229393694352239 0 0.36587418437400321 0.34278907974668538 0 0.36708394454210669 0.33994961910346172 0 0.36770298492566261 0.33637877995368609 0 0.36266452242448938 0.34229393694352239 0 0.36708394454210669 0.33994961910346172 0 0.36266452242448938 0.34229393694352239 0 0.37368960646642962 0.31911015363466272 0 0.37014896644917339 0.316543878568457 0 0.37014896644917339 0.316543878568457 0 0.36604953812300478 0.31497278055865852 0 0.36630954626425261 0.31087512405144152 0 0.37499251130121058 0.31593455150060828 0 0.37014896644917339 0.316543878568457 0 0.37695808612291098 0.31120865645681561 0 0.37499251130121058 0.31593455150060828 0 0.37368960646642962 0.31911015363466272 0 0.37014896644917339 0.316543878568457 0 0.37014896644917339 0.316543878568457 0 0.36646072203027302 0.32009490443849897 0 0.3659238024377004 0.31770243144255911 0 0.37014896644917339 0.316543878568457 0 0.3659238024377004 0.31770243144255911 0 0.36604953812300478 0.31497278055865852 0 0.37245621682226088 0.32924087979990557 0 0.36985494237623989 0.33311962493185521 0 0.37368960646642962 0.31911015363466272 0 0.37245621682226088 0.32924087979990557 0 0.37368960646642962 0.31911015363466272 0 0.37506056064123422 0.32471797871916308 0 0.37245621682226088 0.32924087979990557 0 0.37577016905582622 0.32787937856968757 0 0.37506056064123422 0.32471797871916308 0 0.37014896644917339 0.316543878568457 0 0.36411885078159001 0.32644375487552563 0 0.36646072203027302 0.32009490443849897 0 0.36411885078159001 0.32644375487552563 0 0.35994194411877378 0.32646204206530971 0 0.36132202517978662 0.32303080634539388 0 0.36150631125237548 0.32912422255951068 0 0.36411885078159001 0.32644375487552563 0 0.35994194411877378 0.32646204206530971 0 0.36132202517978662 0.32303080634539388 0 0.36348301458407639 0.32047903077872458 0 0.35962675317161102 0.31893041505789499 0 0.36411885078159001 0.32644375487552563 0 0.36132202517978662 0.32303080634539388 0 0.36348301458407639 0.32047903077872458 0 0.36411885078159001 0.32644375487552563 0 0.36348301458407639 0.32047903077872458 0 0.36646072203027302 0.32009490443849897 0 0.36348301458407639 0.32047903077872458 0 0.36646072203027302 0.32009490443849897 0 0.3659238024377004 0.31770243144255911 0 0.3659238024377004 0.31770243144255911 0 0.36344593390349789 0.31667187251247519 0 0.36604953812300478 0.31497278055865852 0 0.36348301458407639 0.32047903077872458 0 0.3659238024377004 0.31770243144255911 0 0.36344593390349789 0.31667187251247519 0 0.36348301458407639 0.32047903077872458 0 0.36344593390349789 0.31667187251247519 0 0.35962675317161102 0.31893041505789499 0 0.36344593390349789 0.31667187251247519 0 0.35962675317161102 0.31893041505789499 0 0.35878641637012221 0.31305233625990619 0 0.36344593390349789 0.31667187251247519 0 0.36331333565659901 0.31283202127524651 0 0.35878641637012221 0.31305233625990619 0 0.36331333565659901 0.31283202127524651 0 0.36604953812300478 0.31497278055865852 0 0.36630954626425261 0.31087512405144152 0 0.36344593390349789 0.31667187251247519 0 0.36331333565659901 0.31283202127524651 0 0.36604953812300478 0.31497278055865852 0 0.35878641637012221 0.31305233625990619 0 0.35512602374864599 0.31718053618965047 0 0.35090510471213721 0.31152713165908658 0 0.35512602374864599 0.31718053618965047 0 0.34983435518440159 0.31943204998396652 0 0.35090510471213721 0.31152713165908658 0 0.35962675317161102 0.31893041505789499 0 0.35878641637012221 0.31305233625990619 0 0.35512602374864599 0.31718053618965047 0 0.35962675317161102 0.31893041505789499 0 0.35512602374864599 0.31718053618965047 0 0.35673455485560862 0.32229528426682241 0 0.35512602374864599 0.31718053618965047 0 0.35673455485560862 0.32229528426682241 0 0.34983435518440159 0.31943204998396652 0 0.35673455485560862 0.32229528426682241 0 0.35060422568955008 0.32587015674736058 0 0.34983435518440159 0.31943204998396652 0 0.35994194411877378 0.32646204206530971 0 0.36132202517978662 0.32303080634539388 0 0.35673455485560862 0.32229528426682241 0 0.36132202517978662 0.32303080634539388 0 0.35962675317161102 0.31893041505789499 0 0.35673455485560862 0.32229528426682241 0 0.35994194411877378 0.32646204206530971 0 0.35673455485560862 0.32229528426682241 0 0.35627338036128769 0.32705738058013539 0 0.35994194411877378 0.32646204206530971 0 0.35627338036128769 0.32705738058013539 0 0.35835984371964152 0.33045614064968309 0 0.35627338036128769 0.32705738058013539 0 0.35060422568955008 0.32587015674736058 0 0.35398721241228231 0.33095327650953749 0 0.35673455485560862 0.32229528426682241 0 0.35627338036128769 0.32705738058013539 0 0.35060422568955008 0.32587015674736058 0 0.35060422568955008 0.32587015674736058 0 0.34514221143703899 0.32919058107390442 0 0.34284551192874652 0.32364904383841531 0 0.35060422568955008 0.32587015674736058 0 0.34983435518440159 0.31943204998396652 0 0.34284551192874652 0.32364904383841531 0 0.34983435518440159 0.31943204998396652 0 0.34480088275632298 0.31606258733578418 0 0.35090510471213721 0.31152713165908658 0 0.34983435518440159 0.31943204998396652 0 0.34480088275632298 0.31606258733578418 0 0.34284551192874652 0.32364904383841531 0 0.35146565257524442 0.34420791440797271 0 0.36266452242448938 0.34229393694352239 0 0.35562031764263757 0.34031424282986023 0 0.35302683950207769 0.33602013814058929 0 0.35562031764263757 0.34031424282986023 0 0.35672120529774148 0.33684362974708199 0 0.35202203774268331 0.33965573310897551 0 0.35302683950207769 0.33602013814058929 0 0.35562031764263757 0.34031424282986023 0 0.35146565257524442 0.34420791440797271 0 0.35202203774268331 0.33965573310897551 0 0.35562031764263757 0.34031424282986023 0 0.36266452242448938 0.34229393694352239 0 0.35562031764263757 0.34031424282986023 0 0.3582225103283424 0.33883319475427592 0 0.35562031764263757 0.34031424282986023 0 0.3582225103283424 0.33883319475427592 0 0.35672120529774148 0.33684362974708199 0 0.36001134864139028 0.33778823672905661 0 0.3582225103283424 0.33883319475427592 0 0.35672120529774148 0.33684362974708199 0 0.36001134864139028 0.33778823672905661 0 0.35672120529774148 0.33684362974708199 0 0.35899626180536931 0.33430086833413269 0 0.35899626180536931 0.33430086833413269 0 0.35641212776078268 0.33381706902087938 0 0.35835984371964152 0.33045614064968309 0 0.35672120529774148 0.33684362974708199 0 0.35899626180536931 0.33430086833413269 0 0.35641212776078268 0.33381706902087938 0 0.35627338036128769 0.32705738058013539 0 0.35835984371964152 0.33045614064968309 0 0.35398721241228231 0.33095327650953749 0 0.35641212776078268 0.33381706902087938 0 0.35835984371964152 0.33045614064968309 0 0.35398721241228231 0.33095327650953749 0 0.35302683950207769 0.33602013814058929 0 0.35641212776078268 0.33381706902087938 0 0.35398721241228231 0.33095327650953749 0 0.35302683950207769 0.33602013814058929 0 0.35398721241228231 0.33095327650953749 0 0.34924685744035389 0.33249877391857741 0 0.35302683950207769 0.33602013814058929 0 0.35672120529774148 0.33684362974708199 0 0.35641212776078268 0.33381706902087938 0 0.35302683950207769 0.33602013814058929 0 0.34924685744035389 0.33249877391857741 0 0.34788509595764172 0.33882226599831611 0 0.35060422568955008 0.32587015674736058 0 0.34924685744035389 0.33249877391857741 0 0.34514221143703899 0.32919058107390442 0 0.35060422568955008 0.32587015674736058 0 0.35398721241228231 0.33095327650953749 0 0.34924685744035389 0.33249877391857741 0 0.34924685744035389 0.33249877391857741 0 0.34514221143703899 0.32919058107390442 0 0.34474234507332802 0.33433591834825649 0 0.34924685744035389 0.33249877391857741 0 0.34474234507332802 0.33433591834825649 0 0.34788509595764172 0.33882226599831611 0 0.34474234507332802 0.33433591834825649 0 0.34788509595764172 0.33882226599831611 0 0.34057592936449049 0.33809639891542392 0 0.35146565257524442 0.34420791440797271 0 0.34788509595764172 0.33882226599831611 0 0.34269927497721508 0.34493512072036142 0 0.35202203774268331 0.33965573310897551 0 0.35302683950207769 0.33602013814058929 0 0.34788509595764172 0.33882226599831611 0 0.35146565257524442 0.34420791440797271 0 0.35202203774268331 0.33965573310897551 0 0.34788509595764172 0.33882226599831611 0 0.34057592936449049 0.33809639891542392 0 0.33318390910610529 0.34358855052096038 0 0.34269927497721508 0.34493512072036142 0 0.34788509595764172 0.33882226599831611 0 0.34057592936449049 0.33809639891542392 0 0.34269927497721508 0.34493512072036142 0 0.34474234507332802 0.33433591834825649 0 0.34057592936449049 0.33809639891542392 0 0.33946855119551672 0.33096103471374028 0 0.34514221143703899 0.32919058107390442 0 0.34474234507332802 0.33433591834825649 0 0.33946855119551672 0.33096103471374028 0 0.34057592936449049 0.33809639891542392 0 0.33946855119551672 0.33096103471374028 0 0.33283637980140879 0.33469331179832718 0 0.33946855119551672 0.33096103471374028 0 0.33283637980140879 0.33469331179832718 0 0.33464693517381472 0.32630086361949601 0 0.33283637980140879 0.33469331179832718 0 0.33464693517381472 0.32630086361949601 0 0.3250964778074269 0.32978689602061512 0 0.34057592936449049 0.33809639891542392 0 0.33283637980140879 0.33469331179832718 0 0.33318390910610529 0.34358855052096038 0 0.33283637980140879 0.33469331179832718 0 0.33318390910610529 0.34358855052096038 0 0.32611481079287369 0.33974729713420021 0 0.34480088275632298 0.31606258733578418 0 0.33769186663180051 0.31814262317354819 0 0.34192449374142192 0.30753297203612773 0 0.34480088275632298 0.31606258733578418 0 0.33769186663180051 0.31814262317354819 0 0.34284551192874652 0.32364904383841531 0 0.33946855119551672 0.33096103471374028 0 0.34284551192874652 0.32364904383841531 0 0.33464693517381472 0.32630086361949601 0 0.33769186663180051 0.31814262317354819 0 0.34284551192874652 0.32364904383841531 0 0.33464693517381472 0.32630086361949601 0 0.34514221143703899 0.32919058107390442 0 0.33946855119551672 0.33096103471374028 0 0.34284551192874652 0.32364904383841531 0 0.33769186663180051 0.31814262317354819 0 0.33464693517381472 0.32630086361949601 0 0.32994282367798861 0.32057227217232959 0 0.33464693517381472 0.32630086361949601 0 0.32994282367798861 0.32057227217232959 0 0.3250964778074269 0.32978689602061512 0 0.33769186663180051 0.31814262317354819 0 0.32994282367798861 0.32057227217232959 0 0.32867162081685902 0.31028670060733149 0 0.32176892132522322 0.32006025561378759 0 0.31440941436971798 0.31242774502049953 0 0.32867162081685902 0.31028670060733149 0 0.32994282367798861 0.32057227217232959 0 0.32176892132522322 0.32006025561378759 0 0.32867162081685902 0.31028670060733149 0 0.32176892132522322 0.32006025561378759 0 0.31484893044661 0.32778579360563193 0 0.3250964778074269 0.32978689602061512 0 0.32994282367798861 0.32057227217232959 0 0.32176892132522322 0.32006025561378759 0 0.3250964778074269 0.32978689602061512 0 0.32176892132522322 0.32006025561378759 0 0.31484893044661 0.32778579360563193 0 0.31440941436971798 0.31242774502049953 0 0.32611481079287369 0.33974729713420021 0 0.3250964778074269 0.32978689602061512 0 0.31767498628904178 0.33862919533695518 0 0.32611481079287369 0.33974729713420021 0 0.31767498628904178 0.33862919533695518 0 0.32336406622478242 0.34852958887145069 0 0.33283637980140879 0.33469331179832718 0 0.32611481079287369 0.33974729713420021 0 0.3250964778074269 0.32978689602061512 0 0.31484893044661 0.32778579360563193 0 0.31767498628904178 0.33862919533695518 0 0.30654896287530792 0.34033791233229299 0 0.31484893044661 0.32778579360563193 0 0.3250964778074269 0.32978689602061512 0 0.31767498628904178 0.33862919533695518 0 0.31767498628904178 0.33862919533695518 0 0.31315570067328902 0.3464643712977632 0 0.32336406622478242 0.34852958887145069 0 0.31315570067328902 0.3464643712977632 0 0.31355388928080707 0.35546570062290778 0 0.32336406622478242 0.34852958887145069 0 0.32336406622478242 0.34852958887145069 0 0.33442175170730049 0.35218858713626039 0 0.32437013183195901 0.3602157298059272 0 0.31355388928080707 0.35546570062290778 0 0.32336406622478242 0.34852958887145069 0 0.32437013183195901 0.3602157298059272 0 0.33318390910610529 0.34358855052096038 0 0.32611481079287369 0.33974729713420021 0 0.32336406622478242 0.34852958887145069 0 0.35030182712711511 0.35130594720886232 0 0.33442175170730049 0.35218858713626039 0 0.33389487655237682 0.3658352592629312 0 0.33318390910610529 0.34358855052096038 0 0.32336406622478242 0.34852958887145069 0 0.33442175170730049 0.35218858713626039 0 0.35030182712711511 0.35130594720886232 0 0.33442175170730049 0.35218858713626039 0 0.34269927497721508 0.34493512072036142 0 0.33318390910610529 0.34358855052096038 0 0.33442175170730049 0.35218858713626039 0 0.34269927497721508 0.34493512072036142 0 0.34270248502322931 0.38427053755298168 0 0.35268350372385993 0.36328223724825232 0 0.33389487655237682 0.3658352592629312 0 0.33442175170730049 0.35218858713626039 0 0.33389487655237682 0.3658352592629312 0 0.32437013183195901 0.3602157298059272 0 0.31661607539452802 0.37905951313608538 0 0.33389487655237682 0.3658352592629312 0 0.32437013183195901 0.3602157298059272 0 0.31661607539452802 0.37905951313608538 0 0.31355388928080707 0.35546570062290778 0 0.32437013183195901 0.3602157298059272 0 0.31661607539452802 0.37905951313608538 0 0.31355388928080707 0.35546570062290778 0 0.31661607539452802 0.37905951313608538 0 0.31355388928080707 0.35546570062290778 0 0.30541822204374358 0.36584678197342768 0 0.2987730087010142 0.37934426936791982 0 0.31661607539452802 0.37905951313608538 0 0.30541822204374358 0.36584678197342768 0 0.30541822204374358 0.36584678197342768 0 0.30393955747459928 0.35096595789874813 0 0.29215410451095353 0.36543341035917859 0 0.2987730087010142 0.37934426936791982 0 0.30541822204374358 0.36584678197342768 0 0.29215410451095353 0.36543341035917859 0 0.31315570067328902 0.3464643712977632 0 0.30393955747459928 0.35096595789874813 0 0.30654896287530792 0.34033791233229299 0 0.31315570067328902 0.3464643712977632 0 0.31355388928080707 0.35546570062290778 0 0.30393955747459928 0.35096595789874813 0 0.31355388928080707 0.35546570062290778 0 0.30541822204374358 0.36584678197342768 0 0.30393955747459928 0.35096595789874813 0 0.30393955747459928 0.35096595789874813 0 0.29215410451095353 0.36543341035917859 0 0.30393955747459928 0.35096595789874813 0 0.29720735802849829 0.34424744790442102 0 0.29027641861796738 0.35164951467646482 0 0.30393955747459928 0.35096595789874813 0 0.29720735802849829 0.34424744790442102 0 0.30654896287530792 0.34033791233229299 0 0.29720735802849829 0.34424744790442102 0 0.29027641861796738 0.35164951467646482 0 0.28998304713239348 0.34105976447064218 0 0.30393955747459928 0.35096595789874813 0 0.29027641861796738 0.35164951467646482 0 0.29215410451095353 0.36543341035917859 0 0.29027641861796738 0.35164951467646482 0 0.29215410451095353 0.36543341035917859 0 0.27920137084664282 0.3573603676334649 0 0.29027641861796738 0.35164951467646482 0 0.27920137084664282 0.3573603676334649 0 0.28068773357058369 0.34198453751068081 0 0.29027641861796738 0.35164951467646482 0 0.28068773357058369 0.34198453751068081 0 0.28998304713239348 0.34105976447064218 0 0.28036865154730628 0.37990086281960789 0 0.29215410451095353 0.36543341035917859 0 0.27920137084664282 0.3573603676334649 0 0.28036865154730628 0.37990086281960789 0 0.2987730087010142 0.37934426936791982 0 0.29215410451095353 0.36543341035917859 0 0.28036865154730628 0.37990086281960789 0 0.29215410451095353 0.36543341035917859 0 0.28036865154730628 0.37990086281960789 0 0.27920137084664282 0.3573603676334649 0 0.26173146881309822 0.35734024057335978 0 0.28036865154730628 0.37990086281960789 0 0.26173146881309822 0.35734024057335978 0 0.28036865154730628 0.37990086281960789 0 0.26173146881309822 0.35734024057335978 0 0.2641967246118288 0.36596915937278562 0 0.27920137084664282 0.3573603676334649 0 0.27030047393074008 0.3474963096498429 0 0.26173146881309822 0.35734024057335978 0 0.27920137084664282 0.3573603676334649 0 0.27030047393074008 0.3474963096498429 0 0.28068773357058369 0.34198453751068081 0 0.2430942860788903 0.33477961832711151 0 0.26173146881309822 0.35734024057335978 0 0.27030047393074008 0.3474963096498429 0 0.26173146881309822 0.35734024057335978 0 0.26240083601839698 0.33727672217147331 0 0.23816107804029091 0.35120524212074949 0 0.26173146881309822 0.35734024057335978 0 0.2641967246118288 0.36596915937278562 0 0.23816107804029091 0.35120524212074949 0 0.2641967246118288 0.36596915937278562 0 0.2492643002430574 0.365916522193315 0 0.24311907173897271 0.36013203008567057 0 0.2641967246118288 0.36596915937278562 0 0.2492643002430574 0.365916522193315 0 0.25710864090743918 0.37145542319719338 0 0.2641967246118288 0.36596915937278562 0 0.2492643002430574 0.365916522193315 0 0.25383912625151372 0.37755129754335942 0 0.25710864090743918 0.37145542319719338 0 0.26350653962281989 0.38010735630523079 0 0.25710864090743918 0.37145542319719338 0 0.2641967246118288 0.36596915937278562 0 0.2484846271056145 0.31037308609574782 0 0.25508783524565293 0.32209220201309929 0 0.26836904206483531 0.31075971332937607 0 0.25508783524565293 0.32209220201309929 0 0.26240083601839698 0.33727672217147331 0 0.26677092012209491 0.32204036282613252 0 0.25508783524565293 0.32209220201309929 0 0.26677092012209491 0.32204036282613252 0 0.26836904206483531 0.31075971332937607 0 0.2430942860788903 0.33477961832711151 0 0.25508783524565293 0.32209220201309929 0 0.26240083601839698 0.33727672217147331 0 0.2430942860788903 0.33477961832711151 0 0.26173146881309822 0.35734024057335978 0 0.26240083601839698 0.33727672217147331 0 0.26240083601839698 0.33727672217147331 0 0.27184092000699639 0.33891315949469752 0 0.27388917516664008 0.32964775149744319 0 0.26240083601839698 0.33727672217147331 0 0.27388917516664008 0.32964775149744319 0 0.26677092012209491 0.32204036282613252 0 0.27030047393074008 0.3474963096498429 0 0.26240083601839698 0.33727672217147331 0 0.27184092000699639 0.33891315949469752 0 0.27030047393074008 0.3474963096498429 0 0.27184092000699639 0.33891315949469752 0 0.28068773357058369 0.34198453751068081 0 0.27184092000699639 0.33891315949469752 0 0.28068773357058369 0.34198453751068081 0 0.27388917516664008 0.32964775149744319 0 0.28068773357058369 0.34198453751068081 0 0.27388917516664008 0.32964775149744319 0 0.28570907475377572 0.33188311037056872 0 0.27388917516664008 0.32964775149744319 0 0.26677092012209491 0.32204036282613252 0 0.28178409254690689 0.31684790712797722 0 0.27388917516664008 0.32964775149744319 0 0.28178409254690689 0.31684790712797722 0 0.28570907475377572 0.33188311037056872 0 0.26677092012209491 0.32204036282613252 0 0.28178409254690689 0.31684790712797722 0 0.26836904206483531 0.31075971332937607 0 0.28178409254690689 0.31684790712797722 0 0.29262159606390598 0.32453461147271162 0 0.29660332646403359 0.30785121346786842 0 0.28178409254690689 0.31684790712797722 0 0.29262159606390598 0.32453461147271162 0 0.28570907475377572 0.33188311037056872 0 0.28068773357058369 0.34198453751068081 0 0.28570907475377572 0.33188311037056872 0 0.28998304713239348 0.34105976447064218 0 0.29262159606390598 0.32453461147271162 0 0.28570907475377572 0.33188311037056872 0 0.29603465069114282 0.33553421189107618 0 0.29720735802849829 0.34424744790442102 0 0.29603465069114282 0.33553421189107618 0 0.28998304713239348 0.34105976447064218 0 0.28570907475377572 0.33188311037056872 0 0.29603465069114282 0.33553421189107618 0 0.28998304713239348 0.34105976447064218 0 0.29720735802849829 0.34424744790442102 0 0.29603465069114282 0.33553421189107618 0 0.30654896287530792 0.34033791233229299 0 0.29603465069114282 0.33553421189107618 0 0.30654896287530792 0.34033791233229299 0 0.30445412428221041 0.32558903425911379 0 0.29262159606390598 0.32453461147271162 0 0.29603465069114282 0.33553421189107618 0 0.30445412428221041 0.32558903425911379 0 0.31484893044661 0.32778579360563193 0 0.30654896287530792 0.34033791233229299 0 0.30445412428221041 0.32558903425911379 0 0.31767498628904178 0.33862919533695518 0 0.31315570067328902 0.3464643712977632 0 0.30654896287530792 0.34033791233229299 0 0.30445412428221041 0.32558903425911379 0 0.29660332646403359 0.30785121346786842 0 0.31440941436971798 0.31242774502049953 0 0.29262159606390598 0.32453461147271162 0 0.30445412428221041 0.32558903425911379 0 0.29660332646403359 0.30785121346786842 0 0.31484893044661 0.32778579360563193 0 0.30445412428221041 0.32558903425911379 0 0.31440941436971798 0.31242774502049953 0 0.30822946874662033 0.29998271616579031 0 0.29660332646403359 0.30785121346786842 0 0.31440941436971798 0.31242774502049953 0 0.30822946874662033 0.29998271616579031 0 0.30055108247350393 0.28416894361273021 0 0.29660332646403359 0.30785121346786842 0 0.30822946874662033 0.29998271616579031 0 0.30055108247350393 0.28416894361273021 0 0.32109763140443309 0.29547610107375327 0 0.30055108247350393 0.28416894361273021 0 0.29660332646403359 0.30785121346786842 0 0.27430616976337108 0.29100628718303567 0 0.30055108247350393 0.28416894361273021 0 0.27430616976337108 0.29100628718303567 0 0.28443506245096839 0.27205148705280008 0 0.30055108247350393 0.28416894361273021 0 0.27430616976337108 0.29100628718303567 0 0.28178409254690689 0.31684790712797722 0 0.29660332646403359 0.30785121346786842 0 0.27430616976337108 0.29100628718303567 0 0.28178409254690689 0.31684790712797722 0 0.26836904206483531 0.31075971332937607 0 0.27430616976337108 0.29100628718303567 0 0.28178409254690689 0.31684790712797722 0 0.27430616976337108 0.29100628718303567 0 0.27430616976337108 0.29100628718303567 0 0.25121587924780342 0.29702178630611242 0 0.27430616976337108 0.29100628718303567 0 0.25953152444998728 0.28294166139542631 0 0.25121587924780342 0.29702178630611242 0 0.26836904206483531 0.31075971332937607 0 0.27430616976337108 0.29100628718303567 0 0.25121587924780342 0.29702178630611242 0 0.26836904206483531 0.31075971332937607 0 0.25121587924780342 0.29702178630611242 0 0.2484846271056145 0.31037308609574782 0 0.26836904206483531 0.31075971332937607 0 0.25121587924780342 0.29702178630611242 0 0.25102838231212438 0.26850893423506528 0 0.26790857605335527 0.26889798384773289 0 0.26221447651104962 0.2479993693513689 0 0.26790857605335527 0.26889798384773289 0 0.26221447651104962 0.2479993693513689 0 0.25953152444998728 0.28294166139542631 0 0.25102838231212438 0.26850893423506528 0 0.26790857605335527 0.26889798384773289 0 0.27430616976337108 0.29100628718303567 0 0.26790857605335527 0.26889798384773289 0 0.28443506245096839 0.27205148705280008 0 0.27430616976337108 0.29100628718303567 0 0.25953152444998728 0.28294166139542631 0 0.26790857605335527 0.26889798384773289 0 0.27430616976337108 0.29100628718303567 0 0.26790857605335527 0.26889798384773289 0 0.26790857605335527 0.26889798384773289 0 0.28119448123381058 0.25405304303149878 0 0.26221447651104962 0.2479993693513689 0 0.26790857605335527 0.26889798384773289 0 0.28119448123381058 0.25405304303149878 0 0.28443506245096839 0.27205148705280008 0 0.28119448123381058 0.25405304303149878 0 0.28443506245096839 0.27205148705280008 0 0.2982150027308012 0.26213117758900317 0 0.28119448123381058 0.25405304303149878 0 0.2982150027308012 0.26213117758900317 0 0.30328699804120918 0.24394477185791469 0 0.30055108247350393 0.28416894361273021 0 0.28443506245096839 0.27205148705280008 0 0.2982150027308012 0.26213117758900317 0 0.30055108247350393 0.28416894361273021 0 0.2982150027308012 0.26213117758900317 0 0.31879452400631653 0.25919465198291952 0 0.2982150027308012 0.26213117758900317 0 0.31879452400631653 0.25919465198291952 0 0.30328699804120918 0.24394477185791469 0 0.31879452400631653 0.25919465198291952 0 0.33092809789354199 0.24744869965648561 0 0.31845456220733243 0.24449663650262579 0 0.31879452400631653 0.25919465198291952 0 0.33565265393095528 0.25675142138279861 0 0.33982225619875311 0.26765994074234428 0 0.31879452400631653 0.25919465198291952 0 0.33982225619875311 0.26765994074234428 0 0.31879452400631653 0.25919465198291952 0 0.33565265393095528 0.25675142138279861 0 0.33092809789354199 0.24744869965648561 0 0.33565265393095528 0.25675142138279861 0 0.33982225619875311 0.26765994074234428 0 0.34536281311255052 0.25941060478944128 0 0.33565265393095528 0.25675142138279861 0 0.3433555784436142 0.25004320974280247 0 0.33092809789354199 0.24744869965648561 0 0.33565265393095528 0.25675142138279861 0 0.3433555784436142 0.25004320974280247 0 0.34536281311255052 0.25941060478944128 0 0.31879452400631653 0.25919465198291952 0 0.33982225619875311 0.26765994074234428 0 0.32679599518363661 0.27733160004242491 0 0.33982225619875311 0.26765994074234428 0 0.32679599518363661 0.27733160004242491 0 0.34056182851336592 0.28206143899133118 0 0.30055108247350393 0.28416894361273021 0 0.32679599518363661 0.27733160004242491 0 0.30055108247350393 0.28416894361273021 0 0.31879452400631653 0.25919465198291952 0 0.32679599518363661 0.27733160004242491 0 0.32679599518363661 0.27733160004242491 0 0.32109763140443309 0.29547610107375327 0 0.33248404658197278 0.28876668272462419 0 0.30055108247350393 0.28416894361273021 0 0.32679599518363661 0.27733160004242491 0 0.32109763140443309 0.29547610107375327 0 0.32109763140443309 0.29547610107375327 0 0.31440941436971798 0.31242774502049953 0 0.32867162081685902 0.31028670060733149 0 0.30822946874662033 0.29998271616579031 0 0.32109763140443309 0.29547610107375327 0 0.31440941436971798 0.31242774502049953 0 0.32867162081685902 0.31028670060733149 0 0.33472549883669622 0.29791121211074773 0 0.34192449374142192 0.30753297203612773 0 0.32109763140443309 0.29547610107375327 0 0.32867162081685902 0.31028670060733149 0 0.33472549883669622 0.29791121211074773 0 0.33472549883669622 0.29791121211074773 0 0.34281583705185747 0.29966479619329672 0 0.34192449374142192 0.30753297203612773 0 0.33769186663180051 0.31814262317354819 0 0.32867162081685902 0.31028670060733149 0 0.34192449374142192 0.30753297203612773 0 0.32679599518363661 0.27733160004242491 0 0.33248404658197278 0.28876668272462419 0 0.34056182851336592 0.28206143899133118 0 0.32109763140443309 0.29547610107375327 0 0.33472549883669622 0.29791121211074773 0 0.33248404658197278 0.28876668272462419 0 0.33472549883669622 0.29791121211074773 0 0.33248404658197278 0.28876668272462419 0 0.34417327957572558 0.29277050597204329 0 0.33472549883669622 0.29791121211074773 0 0.34281583705185747 0.29966479619329672 0 0.34417327957572558 0.29277050597204329 0 0.33248404658197278 0.28876668272462419 0 0.34056182851336592 0.28206143899133118 0 0.34417327957572558 0.29277050597204329 0 0.34056182851336592 0.28206143899133118 0 0.34979868535227071 0.28728326233729501 0 0.34417327957572558 0.29277050597204329 0 0.34056182851336592 0.28206143899133118 0 0.34979868535227071 0.28728326233729501 0 0.35183199075491411 0.27966461044832719 0 0.34417327957572558 0.29277050597204329 0 0.35334053836337709 0.29410458558147129 0 0.34972900846361488 0.30172704795696642 0 0.34979868535227071 0.28728326233729501 0 0.34417327957572558 0.29277050597204329 0 0.35334053836337709 0.29410458558147129 0 0.34979868535227071 0.28728326233729501 0 0.35334053836337709 0.29410458558147129 0 0.35722235408413222 0.28831366276426512 0 0.35334053836337709 0.29410458558147129 0 0.35826071325737319 0.3003277240158499 0 0.36091512844171192 0.29433704443458902 0 0.35334053836337709 0.29410458558147129 0 0.35722235408413222 0.28831366276426512 0 0.36091512844171192 0.29433704443458902 0 0.34979868535227071 0.28728326233729501 0 0.35722235408413222 0.28831366276426512 0 0.35183199075491411 0.27966461044832719 0 0.35722235408413222 0.28831366276426512 0 0.36152496379752869 0.28359539021876212 0 0.35183199075491411 0.27966461044832719 0 0.34480088275632298 0.31606258733578418 0 0.34192449374142192 0.30753297203612773 0 0.35090510471213721 0.31152713165908658 0 0.34192449374142192 0.30753297203612773 0 0.35090510471213721 0.31152713165908658 0 0.34972900846361488 0.30172704795696642 0 0.34281583705185747 0.29966479619329672 0 0.34417327957572558 0.29277050597204329 0 0.34972900846361488 0.30172704795696642 0 0.34281583705185747 0.29966479619329672 0 0.34192449374142192 0.30753297203612773 0 0.34972900846361488 0.30172704795696642 0 0.34972900846361488 0.30172704795696642 0 0.35826071325737319 0.3003277240158499 0 0.35721607615581658 0.30656573559573969 0 0.35334053836337709 0.29410458558147129 0 0.34972900846361488 0.30172704795696642 0 0.35826071325737319 0.3003277240158499 0 0.35090510471213721 0.31152713165908658 0 0.34972900846361488 0.30172704795696642 0 0.35721607615581658 0.30656573559573969 0 0.35878641637012221 0.31305233625990619 0 0.35090510471213721 0.31152713165908658 0 0.35721607615581658 0.30656573559573969 0 0.37014896644917339 0.316543878568457 0 0.37763341047385651 0.29079382019339128 0 0.37014896644917339 0.316543878568457 0 0.37108481648816682 0.30013899891886681 0 0.36845835323010317 0.30596496181531441 0 0.37014896644917339 0.316543878568457 0 0.37763341047385651 0.29079382019339128 0 0.37695808612291098 0.31120865645681561 0 0.37014896644917339 0.316543878568457 0 0.37108481648816682 0.30013899891886681 0 0.37763341047385651 0.29079382019339128 0 0.36630954626425261 0.31087512405144152 0 0.36228941999803421 0.30896529616435242 0 0.36543096483439103 0.3064802843427199 0 0.36331333565659901 0.31283202127524651 0 0.36630954626425261 0.31087512405144152 0 0.36228941999803421 0.30896529616435242 0 0.36331333565659901 0.31283202127524651 0 0.35878641637012221 0.31305233625990619 0 0.36228941999803421 0.30896529616435242 0 0.35878641637012221 0.31305233625990619 0 0.35721607615581658 0.30656573559573969 0 0.36228941999803421 0.30896529616435242 0 0.35721607615581658 0.30656573559573969 0 0.36228941999803421 0.30896529616435242 0 0.36268018070702418 0.30398627546106088 0 0.36630954626425261 0.31087512405144152 0 0.36543096483439103 0.3064802843427199 0 0.36845835323010317 0.30596496181531441 0 0.36228941999803421 0.30896529616435242 0 0.36543096483439103 0.3064802843427199 0 0.36268018070702418 0.30398627546106088 0 0.36543096483439103 0.3064802843427199 0 0.36607900901995372 0.30349396637540749 0 0.36845835323010317 0.30596496181531441 0 0.36607900901995372 0.30349396637540749 0 0.36268018070702418 0.30398627546106088 0 0.36558719123160882 0.29969948119116269 0 0.36607900901995372 0.30349396637540749 0 0.36558719123160882 0.29969948119116269 0 0.36823835509664099 0.30133882906677939 0 0.36543096483439103 0.3064802843427199 0 0.36607900901995372 0.30349396637540749 0 0.36268018070702418 0.30398627546106088 0 0.35826071325737319 0.3003277240158499 0 0.35721607615581658 0.30656573559573969 0 0.36268018070702418 0.30398627546106088 0 0.35826071325737319 0.3003277240158499 0 0.36268018070702418 0.30398627546106088 0 0.36558719123160882 0.29969948119116269 0 0.35826071325737319 0.3003277240158499 0 0.36558719123160882 0.29969948119116269 0 0.36091512844171192 0.29433704443458902 0 0.36871223371641282 0.29817542324200702 0 0.37108481648816682 0.30013899891886681 0 0.37014933742706652 0.29575476169949788 0 0.36558719123160882 0.29969948119116269 0 0.36871223371641282 0.29817542324200702 0 0.36734652779664789 0.29411680932906442 0 0.36558719123160882 0.29969948119116269 0 0.36871223371641282 0.29817542324200702 0 0.36823835509664099 0.30133882906677939 0 0.36871223371641282 0.29817542324200702 0 0.37108481648816682 0.30013899891886681 0 0.36823835509664099 0.30133882906677939 0 0.37108481648816682 0.30013899891886681 0 0.36823835509664099 0.30133882906677939 0 0.36845835323010317 0.30596496181531441 0 0.36607900901995372 0.30349396637540749 0 0.36823835509664099 0.30133882906677939 0 0.36845835323010317 0.30596496181531441 0 0.37014896644917339 0.316543878568457 0 0.36630954626425261 0.31087512405144152 0 0.36845835323010317 0.30596496181531441 0 0.36812955944888692 0.28419813691800921 0 0.36084998839118931 0.2761252295017701 0 0.37969218042614078 0.28371066929036243 0 0.36152496379752869 0.28359539021876212 0 0.36812955944888692 0.28419813691800921 0 0.36084998839118931 0.2761252295017701 0 0.36414496955441777 0.28941104037434479 0 0.36911771796651938 0.28986917351547109 0 0.36812955944888692 0.28419813691800921 0 0.36152496379752869 0.28359539021876212 0 0.36414496955441777 0.28941104037434479 0 0.36812955944888692 0.28419813691800921 0 0.35722235408413222 0.28831366276426512 0 0.36152496379752869 0.28359539021876212 0 0.36414496955441777 0.28941104037434479 0 0.35722235408413222 0.28831366276426512 0 0.36091512844171192 0.29433704443458902 0 0.36414496955441777 0.28941104037434479 0 0.36558719123160882 0.29969948119116269 0 0.36091512844171192 0.29433704443458902 0 0.36734652779664789 0.29411680932906442 0 0.36091512844171192 0.29433704443458902 0 0.36414496955441777 0.28941104037434479 0 0.36734652779664789 0.29411680932906442 0 0.36414496955441777 0.28941104037434479 0 0.36911771796651938 0.28986917351547109 0 0.36734652779664789 0.29411680932906442 0 0.36911771796651938 0.28986917351547109 0 0.37026464520563152 0.29279186409727531 0 0.36734652779664789 0.29411680932906442 0 0.37108481648816682 0.30013899891886681 0 0.37306860395079622 0.29341917559567809 0 0.37763341047385651 0.29079382019339128 0 0.36911771796651938 0.28986917351547109 0 0.37026464520563152 0.29279186409727531 0 0.37237913536365119 0.29056320862162688 0 0.36871223371641282 0.29817542324200702 0 0.36734652779664789 0.29411680932906442 0 0.37014933742706652 0.29575476169949788 0 0.37026464520563152 0.29279186409727531 0 0.36734652779664789 0.29411680932906442 0 0.37014933742706652 0.29575476169949788 0 0.37108481648816682 0.30013899891886681 0 0.37014933742706652 0.29575476169949788 0 0.37306860395079622 0.29341917559567809 0 0.37026464520563152 0.29279186409727531 0 0.37014933742706652 0.29575476169949788 0 0.37306860395079622 0.29341917559567809 0 0.36911771796651938 0.28986917351547109 0 0.37237913536365119 0.29056320862162688 0 0.37333201972158658 0.2878654242033048 0 0.37306860395079622 0.29341917559567809 0 0.37237913536365119 0.29056320862162688 0 0.37763341047385651 0.29079382019339128 0 0.37237913536365119 0.29056320862162688 0 0.37333201972158658 0.2878654242033048 0 0.37763341047385651 0.29079382019339128 0 0.37026464520563152 0.29279186409727531 0 0.37306860395079622 0.29341917559567809 0 0.37237913536365119 0.29056320862162688 0 0.37333201972158658 0.2878654242033048 0 0.36812955944888692 0.28419813691800921 0 0.37969218042614078 0.28371066929036243 0 0.36911771796651938 0.28986917351547109 0 0.37333201972158658 0.2878654242033048 0 0.36812955944888692 0.28419813691800921 0 0.36084998839118931 0.2761252295017701 0 0.37969218042614078 0.28371066929036243 0 0.36084998839118931 0.2761252295017701 0 0.37017340450925651 0.266060206293324 0 0.3539366042426153 0.26554047293381039 0 0.36084998839118931 0.2761252295017701 0 0.38460708535355081 0.26680105137204091 0 0.36084998839118931 0.2761252295017701 0 0.37017340450925651 0.266060206293324 0 0.38460708535355081 0.26680105137204091 0 0.3539366042426153 0.26554047293381039 0 0.38129994004966872 0.25577407136566988 0 0.37169426656027921 0.24972740256563611 0 0.37017340450925651 0.266060206293324 0 0.3539366042426153 0.26554047293381039 0 0.38129994004966872 0.25577407136566988 0 0.3539366042426153 0.26554047293381039 0 0.37169426656027921 0.24972740256563611 0 0.36205361842742478 0.24882498742118489 0 0.3539366042426153 0.26554047293381039 0 0.38129994004966872 0.25577407136566988 0 0.3539366042426153 0.26554047293381039 0 0.35175757775775729 0.2532797976346674 0 0.36205361842742478 0.24882498742118489 0 0.3433555784436142 0.25004320974280247 0 0.35175757775775729 0.2532797976346674 0 0.34536281311255052 0.25941060478944128 0 0.33982225619875311 0.26765994074234428 0 0.3539366042426153 0.26554047293381039 0 0.34536281311255052 0.25941060478944128 0 0.3539366042426153 0.26554047293381039 0 0.35175757775775729 0.2532797976346674 0 0.34536281311255052 0.25941060478944128 0 0.33982225619875311 0.26765994074234428 0 0.36084998839118931 0.2761252295017701 0 0.33982225619875311 0.26765994074234428 0 0.36084998839118931 0.2761252295017701 0 0.3539366042426153 0.26554047293381039 0 0.33982225619875311 0.26765994074234428 0 0.36084998839118931 0.2761252295017701 0 0.35183199075491411 0.27966461044832719 0 0.33982225619875311 0.26765994074234428 0 0.34056182851336592 0.28206143899133118 0 0.35183199075491411 0.27966461044832719 0 0.36152496379752869 0.28359539021876212 0 0.36084998839118931 0.2761252295017701 0 0.35183199075491411 0.27966461044832719 0 0.36084998839118931 0.2761252295017701 0 0.35183199075491411 0.27966461044832719 0 0.39945440726228237 0.27350419034528239 0 0.38460708535355081 0.26680105137204091 0 0.40768566828284042 0.25774317622192677 0 0.39945440726228237 0.27350419034528239 0 0.4092682188351508 0.26816031590002881 0 0.40768566828284042 0.25774317622192677 0 0.39945440726228237 0.27350419034528239 0 0.38460708535355081 0.26680105137204091 0 0.3904751567012596 0.27530993325585928 0 0.39945440726228237 0.27350419034528239 0 0.3904751567012596 0.27530993325585928 0 0.39488150240831521 0.28173053148540511 0 0.39945440726228237 0.27350419034528239 0 0.40366985246608472 0.28285995447659418 0 0.40929088926209078 0.279020096056181 0 0.39945440726228237 0.27350419034528239 0 0.4092682188351508 0.26816031590002881 0 0.40929088926209078 0.279020096056181 0 0.39945440726228237 0.27350419034528239 0 0.39488150240831521 0.28173053148540511 0 0.40366985246608472 0.28285995447659418 0 0.38783836144724232 0.2556839199238965 0 0.38129994004966872 0.25577407136566988 0 0.40866327585672191 0.24600766979752939 0 0.38460708535355081 0.26680105137204091 0 0.40768566828284042 0.25774317622192677 0 0.38783836144724232 0.2556839199238965 0 0.40768566828284042 0.25774317622192677 0 0.40866327585672191 0.24600766979752939 0 0.38783836144724232 0.2556839199238965 0 0.38460708535355081 0.26680105137204091 0 0.40768566828284042 0.25774317622192677 0 0.38129994004966872 0.25577407136566988 0 0.40866327585672191 0.24600766979752939 0 0.38783836144724232 0.2556839199238965 0 0.38129994004966872 0.25577407136566988 0 0.38460708535355081 0.26680105137204091 0 0.38783836144724232 0.2556839199238965 0 0.38460708535355081 0.26680105137204091 0 0.38129994004966872 0.25577407136566988 0 0.37169426656027921 0.24972740256563611 0 0.38106847269238292 0.24536179082341181 0 0.37017340450925651 0.266060206293324 0 0.38129994004966872 0.25577407136566988 0 0.38460708535355081 0.26680105137204091 0 0.36084998839118931 0.2761252295017701 0 0.38460708535355081 0.26680105137204091 0 0.37969218042614078 0.28371066929036243 0 0.38460708535355081 0.26680105137204091 0 0.3904751567012596 0.27530993325585928 0 0.37969218042614078 0.28371066929036243 0 0.38460708535355081 0.26680105137204091 0 0.37969218042614078 0.28371066929036243 0 0.3904751567012596 0.27530993325585928 0 0.37969218042614078 0.28371066929036243 0 0.39488150240831521 0.28173053148540511 0 0.37969218042614078 0.28371066929036243 0 0.37763341047385651 0.29079382019339128 0 0.40259214502479168 0.29292967641552992 0 0.37763341047385651 0.29079382019339128 0 0.4027243230010164 0.30147339632314252 0 0.37969218042614078 0.28371066929036243 0 0.37763341047385651 0.29079382019339128 0 0.37333201972158658 0.2878654242033048 0 0.37969218042614078 0.28371066929036243 0 0.37763341047385651 0.29079382019339128 0 0.37763341047385651 0.29079382019339128 0 0.37695808612291098 0.31120865645681561 0 0.38599374742651271 0.30414296713942529 0 0.37763341047385651 0.29079382019339128 0 0.38599374742651271 0.30414296713942529 0 0.4027243230010164 0.30147339632314252 0 0.37695808612291098 0.31120865645681561 0 0.38599374742651271 0.30414296713942529 0 0.38754735899376969 0.31282171123814728 0 0.38599374742651271 0.30414296713942529 0 0.4027243230010164 0.30147339632314252 0 0.38754735899376969 0.31282171123814728 0 0.4027243230010164 0.30147339632314252 0 0.3956366020903157 0.32248231082130752 0 0.38754735899376969 0.31282171123814728 0 0.37969218042614078 0.28371066929036243 0 0.40259214502479168 0.29292967641552992 0 0.37969218042614078 0.28371066929036243 0 0.39488150240831521 0.28173053148540511 0 0.40259214502479168 0.29292967641552992 0 0.37763341047385651 0.29079382019339128 0 0.4027243230010164 0.30147339632314252 0 0.40259214502479168 0.29292967641552992 0 0.4027243230010164 0.30147339632314252 0 0.40259214502479168 0.29292967641552992 0 0.41139710839419091 0.29189735433941028 0 0.40259214502479168 0.29292967641552992 0 0.40366985246608472 0.28285995447659418 0 0.41139710839419091 0.29189735433941028 0 0.39488150240831521 0.28173053148540511 0 0.40259214502479168 0.29292967641552992 0 0.40366985246608472 0.28285995447659418 0 0.40366985246608472 0.28285995447659418 0 0.41139710839419091 0.29189735433941028 0 0.40929088926209078 0.279020096056181 0 0.41139710839419091 0.29189735433941028 0 0.42781523552817591 0.31215297245289481 0 0.42226183937510081 0.28327127115801121 0 0.41139710839419091 0.29189735433941028 0 0.42226183937510081 0.28327127115801121 0 0.40929088926209078 0.279020096056181 0 0.4027243230010164 0.30147339632314252 0 0.41139710839419091 0.29189735433941028 0 0.42781523552817591 0.31215297245289481 0 0.4027243230010164 0.30147339632314252 0 0.42781523552817591 0.31215297245289481 0 0.41357021602424721 0.32279281759874212 0 0.4027243230010164 0.30147339632314252 0 0.42781523552817591 0.31215297245289481 0 0.42781523552817591 0.31215297245289481 0 0.42226183937510081 0.28327127115801121 0 0.42781523552817591 0.31215297245289481 0 0.42226183937510081 0.28327127115801121 0 0.44120727567718632 0.28746005308771089 0 0.42226183937510081 0.28327127115801121 0 0.43023391716603732 0.27040224467912161 0 0.44120727567718632 0.28746005308771089 0 0.42226183937510081 0.28327127115801121 0 0.43023391716603732 0.27040224467912161 0 0.41664462513020523 0.25422696758609492 0 0.43023391716603732 0.27040224467912161 0 0.43692075095235122 0.26433370861442979 0 0.44373838257505849 0.27050131303512348 0 0.42226183937510081 0.28327127115801121 0 0.4092682188351508 0.26816031590002881 0 0.41664462513020523 0.25422696758609492 0 0.42226183937510081 0.28327127115801121 0 0.41664462513020523 0.25422696758609492 0 0.42226183937510081 0.28327127115801121 0 0.4092682188351508 0.26816031590002881 0 0.40929088926209078 0.279020096056181 0 0.40768566828284042 0.25774317622192677 0 0.41664462513020523 0.25422696758609492 0 0.40866327585672191 0.24600766979752939 0 0.40768566828284042 0.25774317622192677 0 0.41664462513020523 0.25422696758609492 0 0.4092682188351508 0.26816031590002881 0 0.40768566828284042 0.25774317622192677 0 0.41664462513020523 0.25422696758609492 0 0.42749544465446981 0.25699566217507153 0 0.45166362976964691 0.25106894999712381 0 0.43076425121212841 0.2486853010718087 0 0.41664462513020523 0.25422696758609492 0 0.42749544465446981 0.25699566217507153 0 0.43076425121212841 0.2486853010718087 0 0.43023391716603732 0.27040224467912161 0 0.41664462513020523 0.25422696758609492 0 0.42749544465446981 0.25699566217507153 0 0.41664462513020523 0.25422696758609492 0 0.43076425121212841 0.2486853010718087 0 0.42749544465446981 0.25699566217507153 0 0.43692075095235122 0.26433370861442979 0 0.44456450099631911 0.26043047377218492 0 0.43023391716603732 0.27040224467912161 0 0.42749544465446981 0.25699566217507153 0 0.43692075095235122 0.26433370861442979 0 0.42749544465446981 0.25699566217507153 0 0.45166362976964691 0.25106894999712381 0 0.42749544465446981 0.25699566217507153 0 0.44456450099631911 0.26043047377218492 0 0.45166362976964691 0.25106894999712381 0 0.43692075095235122 0.26433370861442979 0 0.44456450099631911 0.26043047377218492 0 0.44373838257505849 0.27050131303512348 0 0.44456450099631911 0.26043047377218492 0 0.44373838257505849 0.27050131303512348 0 0.45508065662597141 0.26402805921732958 0 0.44456450099631911 0.26043047377218492 0 0.45166362976964691 0.25106894999712381 0 0.45508065662597141 0.26402805921732958 0 0.44373838257505849 0.27050131303512348 0 0.45472874274978531 0.27586911806656422 0 0.44120727567718632 0.28746005308771089 0 0.43023391716603732 0.27040224467912161 0 0.44373838257505849 0.27050131303512348 0 0.44120727567718632 0.28746005308771089 0 0.44373838257505849 0.27050131303512348 0 0.45472874274978531 0.27586911806656422 0 0.45508065662597141 0.26402805921732958 0 0.45472874274978531 0.27586911806656422 0 0.46665275363318931 0.27127710252775639 0 0.46192346945889701 0.28817835066990299 0 0.45472874274978531 0.27586911806656422 0 0.46665275363318931 0.27127710252775639 0 0.45508065662597141 0.26402805921732958 0 0.45166362976964691 0.25106894999712381 0 0.46652816171208539 0.25830808769848879 0 0.47583181488482379 0.2451422378191761 0 0.45166362976964691 0.25106894999712381 0 0.45508065662597141 0.26402805921732958 0 0.46652816171208539 0.25830808769848879 0 0.46665275363318931 0.27127710252775639 0 0.45508065662597141 0.26402805921732958 0 0.46652816171208539 0.25830808769848879 0 0.46665275363318931 0.27127710252775639 0 0.46652816171208539 0.25830808769848879 0 0.48341195364679568 0.26002408893105827 0 0.46652816171208539 0.25830808769848879 0 0.48341195364679568 0.26002408893105827 0 0.47583181488482379 0.2451422378191761 0 0.46665275363318931 0.27127710252775639 0 0.48341195364679568 0.26002408893105827 0 0.48138518434246891 0.28130646820503019 0 0.46665275363318931 0.27127710252775639 0 0.48138518434246891 0.28130646820503019 0 0.46192346945889701 0.28817835066990299 0 0.5 0.26671351767664991 0 0.5 0.29421150971207138 0 0.48138518434246891 0.28130646820503019 0 0.48341195364679568 0.26002408893105827 0 0.5 0.26671351767664991 0 0.48138518434246891 0.28130646820503019 0 0.48341195364679568 0.26002408893105827 0 0.5 0.26671351767664991 0 0.50000000000000067 0.2392155256412283 0 0.5 0.29421150971207138 0 0.47556093647901088 0.30733800586058863 0 0.5 0.32170950174749302 0 0.5 0.29421150971207138 0 0.48138518434246891 0.28130646820503019 0 0.47556093647901088 0.30733800586058863 0 0.48138518434246891 0.28130646820503019 0 0.47556093647901088 0.30733800586058863 0 0.46192346945889701 0.28817835066990299 0 0.47556093647901088 0.30733800586058863 0 0.45214514511688908 0.30370412902975941 0 0.45421880844117613 0.32339126307769928 0 0.47556093647901088 0.30733800586058863 0 0.46192346945889701 0.28817835066990299 0 0.45214514511688908 0.30370412902975941 0 0.46192346945889701 0.28817835066990299 0 0.44120727567718632 0.28746005308771089 0 0.45214514511688908 0.30370412902975941 0 0.45472874274978531 0.27586911806656422 0 0.46192346945889701 0.28817835066990299 0 0.44120727567718632 0.28746005308771089 0 0.42781523552817591 0.31215297245289481 0 0.44120727567718632 0.28746005308771089 0 0.45214514511688908 0.30370412902975941 0 0.42781523552817591 0.31215297245289481 0 0.45421880844117613 0.32339126307769928 0 0.43298436918619881 0.33903622913929549 0 0.42781523552817591 0.31215297245289481 0 0.45214514511688908 0.30370412902975941 0 0.45421880844117613 0.32339126307769928 0 0.42781523552817591 0.31215297245289481 0 0.45421880844117613 0.32339126307769928 0 0.45421880844117613 0.32339126307769928 0 0.45970761232660212 0.34692044601787542 0 0.43298436918619881 0.33903622913929549 0 0.45421880844117613 0.32339126307769928 0 0.48062238135417568 0.33462955370250519 0 0.45421880844117613 0.32339126307769928 0 0.48062238135417568 0.33462955370250519 0 0.45970761232660212 0.34692044601787542 0 0.47556093647901088 0.30733800586058863 0 0.45421880844117613 0.32339126307769928 0 0.48062238135417568 0.33462955370250519 0 0.48062238135417568 0.33462955370250519 0 0.5 0.32170950174749302 0 0.5 0.34920749378291471 0 0.47556093647901088 0.30733800586058863 0 0.48062238135417568 0.33462955370250519 0 0.5 0.32170950174749302 0 0.5 0.34920749378291471 0 0.48254603458521478 0.3522402998402685 0 0.5 0.37670548581833618 0 0.48062238135417568 0.33462955370250519 0 0.5 0.34920749378291471 0 0.48254603458521478 0.3522402998402685 0 0.48254603458521478 0.3522402998402685 0 0.46972057754862501 0.36630584452178799 0 0.45970761232660212 0.34692044601787542 0 0.48062238135417568 0.33462955370250519 0 0.48254603458521478 0.3522402998402685 0 0.45970761232660212 0.34692044601787542 0 0.48254603458521478 0.3522402998402685 0 0.46972057754862501 0.36630584452178799 0 0.5 0.37670548581833618 0 0.46972057754862501 0.36630584452178799 0 0.43815350284422228 0.36591948582569622 0 0.45848938469160699 0.38276388730883248 0 0.46972057754862501 0.36630584452178799 0 0.45970761232660212 0.34692044601787542 0 0.43815350284422228 0.36591948582569622 0 0.45970761232660212 0.34692044601787542 0 0.43815350284422228 0.36591948582569622 0 0.43298436918619881 0.33903622913929549 0 0.43815350284422228 0.36591948582569622 0 0.4167242930516859 0.35972934744593471 0 0.42344095457037051 0.38268701701273461 0 0.4167242930516859 0.35972934744593471 0 0.40101385701800268 0.38518895784325291 0 0.4167242930516859 0.35972934744593471 0 0.40181680918128981 0.35947395412181382 0 0.40101385701800268 0.38518895784325291 0 0.4167242930516859 0.35972934744593471 0 0.40869055031553031 0.33881917925707022 0 0.40181680918128981 0.35947395412181382 0 0.4167242930516859 0.35972934744593471 0 0.43298436918619881 0.33903622913929549 0 0.40869055031553031 0.33881917925707022 0 0.43815350284422228 0.36591948582569622 0 0.4167242930516859 0.35972934744593471 0 0.43298436918619881 0.33903622913929549 0 0.43815350284422228 0.36591948582569622 0 0.43298436918619881 0.33903622913929549 0 0.42781523552817591 0.31215297245289481 0 0.43298436918619881 0.33903622913929549 0 0.42781523552817591 0.31215297245289481 0 0.43298436918619881 0.33903622913929549 0 0.41357021602424721 0.32279281759874212 0 0.43298436918619881 0.33903622913929549 0 0.41357021602424721 0.32279281759874212 0 0.40869055031553031 0.33881917925707022 0 0.40869055031553031 0.33881917925707022 0 0.39369601167170543 0.33564153172070438 0 0.39209274976778918 0.34814598654190299 0 0.40869055031553031 0.33881917925707022 0 0.39369601167170543 0.33564153172070438 0 0.3956366020903157 0.32248231082130752 0 0.39369601167170543 0.33564153172070438 0 0.3956366020903157 0.32248231082130752 0 0.38362385659697051 0.32926172455430031 0 0.39369601167170543 0.33564153172070438 0 0.38635485741833753 0.33883185827426582 0 0.39209274976778918 0.34814598654190299 0 0.41357021602424721 0.32279281759874212 0 0.40869055031553031 0.33881917925707022 0 0.3956366020903157 0.32248231082130752 0 0.4027243230010164 0.30147339632314252 0 0.41357021602424721 0.32279281759874212 0 0.3956366020903157 0.32248231082130752 0 0.3956366020903157 0.32248231082130752 0 0.38754735899376969 0.31282171123814728 0 0.38479800915553353 0.32074741934569512 0 0.38754735899376969 0.31282171123814728 0 0.38479800915553353 0.32074741934569512 0 0.37917338616632867 0.3168755173424983 0 0.3956366020903157 0.32248231082130752 0 0.38479800915553353 0.32074741934569512 0 0.38362385659697051 0.32926172455430031 0 0.38479800915553353 0.32074741934569512 0 0.37832625022041982 0.32264150287239662 0 0.38362385659697051 0.32926172455430031 0 0.37577016905582622 0.32787937856968757 0 0.37832625022041982 0.32264150287239662 0 0.38362385659697051 0.32926172455430031 0 0.37577016905582622 0.32787937856968757 0 0.37506056064123422 0.32471797871916308 0 0.37832625022041982 0.32264150287239662 0 0.37368960646642962 0.31911015363466272 0 0.37506056064123422 0.32471797871916308 0 0.37832625022041982 0.32264150287239662 0 0.37695808612291098 0.31120865645681561 0 0.38754735899376969 0.31282171123814728 0 0.37917338616632867 0.3168755173424983 0 0.38479800915553353 0.32074741934569512 0 0.37832625022041982 0.32264150287239662 0 0.37917338616632867 0.3168755173424983 0 0.37368960646642962 0.31911015363466272 0 0.37832625022041982 0.32264150287239662 0 0.37917338616632867 0.3168755173424983 0 0.37499251130121058 0.31593455150060828 0 0.37368960646642962 0.31911015363466272 0 0.37917338616632867 0.3168755173424983 0 0.37499251130121058 0.31593455150060828 0 0.37695808612291098 0.31120865645681561 0 0.37917338616632867 0.3168755173424983 0 0.38635485741833753 0.33883185827426582 0 0.3795813787571668 0.3363772241379393 0 0.38278029029805521 0.34473282441648212 0 0.39369601167170543 0.33564153172070438 0 0.38635485741833753 0.33883185827426582 0 0.38362385659697051 0.32926172455430031 0 0.38635485741833753 0.33883185827426582 0 0.38362385659697051 0.32926172455430031 0 0.3795813787571668 0.3363772241379393 0 0.37577016905582622 0.32787937856968757 0 0.38362385659697051 0.32926172455430031 0 0.37868435463470768 0.3315773541462857 0 0.38362385659697051 0.32926172455430031 0 0.37868435463470768 0.3315773541462857 0 0.3795813787571668 0.3363772241379393 0 0.37577016905582622 0.32787937856968757 0 0.37868435463470768 0.3315773541462857 0 0.375263113682131 0.33313320718557798 0 0.37868435463470768 0.3315773541462857 0 0.375263113682131 0.33313320718557798 0 0.3795813787571668 0.3363772241379393 0 0.37369311900952262 0.33836265764115908 0 0.3795813787571668 0.3363772241379393 0 0.37670219357667811 0.34177383067972761 0 0.3795813787571668 0.3363772241379393 0 0.37670219357667811 0.34177383067972761 0 0.38278029029805521 0.34473282441648212 0 0.37369311900952262 0.33836265764115908 0 0.375263113682131 0.33313320718557798 0 0.3795813787571668 0.3363772241379393 0 0.3809821990389497 0.35490418517770578 0 0.39056259575344082 0.36548629952090861 0 0.39209274976778918 0.34814598654190299 0 0.37486749369974542 0.34694596905823039 0 0.37670219357667811 0.34177383067972761 0 0.38278029029805521 0.34473282441648212 0 0.37486749369974542 0.34694596905823039 0 0.38278029029805521 0.34473282441648212 0 0.3809821990389497 0.35490418517770578 0 0.38278029029805521 0.34473282441648212 0 0.3809821990389497 0.35490418517770578 0 0.39209274976778918 0.34814598654190299 0 0.38635485741833753 0.33883185827426582 0 0.38278029029805521 0.34473282441648212 0 0.39209274976778918 0.34814598654190299 0 0.37228166628853332 0.35471301169251829 0 0.37486749369974542 0.34694596905823039 0 0.3809821990389497 0.35490418517770578 0 0.37414389550204002 0.36898578533419818 0 0.3809821990389497 0.35490418517770578 0 0.39056259575344082 0.36548629952090861 0 0.37414389550204002 0.36898578533419818 0 0.39056259575344082 0.36548629952090861 0 0.40101385701800268 0.38518895784325291 0 0.37414389550204002 0.36898578533419818 0 0.37228166628853332 0.35471301169251829 0 0.3809821990389497 0.35490418517770578 0 0.39056259575344082 0.36548629952090861 0 0.40181680918128981 0.35947395412181382 0 0.40101385701800268 0.38518895784325291 0 0.39056259575344082 0.36548629952090861 0 0.40181680918128981 0.35947395412181382 0 0.39209274976778918 0.34814598654190299 0 0.40869055031553031 0.33881917925707022 0 0.40181680918128981 0.35947395412181382 0 0.39209274976778918 0.34814598654190299 0 0.40101385701800268 0.38518895784325291 0 0.38530342098431941 0.41064856824057122 0 0.40101385701800268 0.38518895784325291 0 0.38530342098431941 0.41064856824057122 0 0.41521715527738928 0.40390661881175682 0 0.3736470799201031 0.39378130610698531 0 0.37414389550204002 0.36898578533419818 0 0.40101385701800268 0.38518895784325291 0 0.3736470799201031 0.39378130610698531 0 0.40101385701800268 0.38518895784325291 0 0.38530342098431941 0.41064856824057122 0 0.36959298495063608 0.43610817863788948 0 0.38530342098431941 0.41064856824057122 0 0.36959298495063608 0.43610817863788948 0 0.38530342098431941 0.41064856824057122 0 0.3889231515195431 0.43141286456833011 0 0.3889231515195431 0.43141286456833011 0 0.40362265567455102 0.42304679086704539 0 0.39942544658573009 0.43872588670818857 0 0.40362265567455102 0.42304679086704539 0 0.41248490446316177 0.43293377153942381 0 0.39942544658573009 0.43872588670818857 0 0.38530342098431941 0.41064856824057122 0 0.3889231515195431 0.43141286456833011 0 0.40362265567455102 0.42304679086704539 0 0.38530342098431941 0.41064856824057122 0 0.40362265567455102 0.42304679086704539 0 0.41521715527738928 0.40390661881175682 0 0.40362265567455102 0.42304679086704539 0 0.42233359500988371 0.42307221464191669 0 0.41521715527738928 0.40390661881175682 0 0.40362265567455102 0.42304679086704539 0 0.41248490446316177 0.43293377153942381 0 0.42233359500988371 0.42307221464191669 0 0.41248490446316177 0.43293377153942381 0 0.42233359500988371 0.42307221464191669 0 0.42326813014219627 0.43909650749986368 0 0.42233359500988371 0.42307221464191669 0 0.43681876433844857 0.43497208046478802 0 0.42326813014219627 0.43909650749986368 0 0.42233359500988371 0.42307221464191669 0 0.43681876433844857 0.43497208046478802 0 0.43655617137350622 0.42038510460191503 0 0.42233359500988371 0.42307221464191669 0 0.42830887421762198 0.41018013153495869 0 0.41521715527738928 0.40390661881175682 0 0.42233359500988371 0.42307221464191669 0 0.42830887421762198 0.41018013153495869 0 0.43655617137350622 0.42038510460191503 0 0.42830887421762198 0.41018013153495869 0 0.43655617137350622 0.42038510460191503 0 0.439625884597032 0.40642404903869822 0 0.42978568865087441 0.39901034440009059 0 0.42344095457037051 0.38268701701273461 0 0.4433226365022459 0.39280274251209668 0 0.42978568865087441 0.39901034440009059 0 0.41521715527738928 0.40390661881175682 0 0.42344095457037051 0.38268701701273461 0 0.42830887421762198 0.41018013153495869 0 0.42978568865087441 0.39901034440009059 0 0.439625884597032 0.40642404903869822 0 0.42830887421762198 0.41018013153495869 0 0.42978568865087441 0.39901034440009059 0 0.41521715527738928 0.40390661881175682 0 0.4167242930516859 0.35972934744593471 0 0.40101385701800268 0.38518895784325291 0 0.42344095457037051 0.38268701701273461 0 0.40101385701800268 0.38518895784325291 0 0.41521715527738928 0.40390661881175682 0 0.42344095457037051 0.38268701701273461 0 0.43815350284422228 0.36591948582569622 0 0.42344095457037051 0.38268701701273461 0 0.4433226365022459 0.39280274251209668 0 0.43815350284422228 0.36591948582569622 0 0.4433226365022459 0.39280274251209668 0 0.43815350284422228 0.36591948582569622 0 0.4433226365022459 0.39280274251209668 0 0.45848938469160699 0.38276388730883248 0 0.4433226365022459 0.39280274251209668 0 0.4587292321942566 0.40377894109977869 0 0.44849177016026981 0.41968599919849731 0 0.4433226365022459 0.39280274251209668 0 0.44849177016026981 0.41968599919849731 0 0.42978568865087441 0.39901034440009059 0 0.4433226365022459 0.39280274251209668 0 0.439625884597032 0.40642404903869822 0 0.4433226365022459 0.39280274251209668 0 0.4587292321942566 0.40377894109977869 0 0.45848938469160699 0.38276388730883248 0 0.4587292321942566 0.40377894109977869 0 0.45848938469160699 0.38276388730883248 0 0.47720201034463561 0.39055994944820821 0 0.46972057754862501 0.36630584452178799 0 0.45848938469160699 0.38276388730883248 0 0.47720201034463561 0.39055994944820821 0 0.46972057754862501 0.36630584452178799 0 0.47720201034463561 0.39055994944820821 0 0.5 0.37670548581833618 0 0.47720201034463561 0.39055994944820821 0 0.5 0.40420347785375749 0 0.47329291580914951 0.41490179660840648 0 0.4587292321942566 0.40377894109977869 0 0.47720201034463561 0.39055994944820821 0 0.47329291580914951 0.41490179660840648 0 0.47720201034463561 0.39055994944820821 0 0.5 0.40420347785375749 0 0.5 0.37670548581833618 0 0.48546521128148462 0.42572005307568972 0 0.49999999999999828 0.43170146988917901 0 0.48502495584706629 0.44181750450007778 0 0.49999999999999828 0.43170146988917901 0 0.48502495584706629 0.44181750450007778 0 0.5 0.40420347785375749 0 0.48546521128148462 0.42572005307568972 0 0.47329291580914951 0.41490179660840648 0 0.5 0.40420347785375749 0 0.48546521128148462 0.42572005307568972 0 0.49999999999999828 0.43170146988917901 0 0.48546521128148462 0.42572005307568972 0 0.47462076711180717 0.43403653248997731 0 0.48502495584706629 0.44181750450007778 0 0.47329291580914951 0.41490179660840648 0 0.47462076711180717 0.43403653248997731 0 0.45927084092720188 0.43580976915473651 0 0.48546521128148462 0.42572005307568972 0 0.47329291580914951 0.41490179660840648 0 0.47462076711180717 0.43403653248997731 0 0.45927084092720188 0.43580976915473651 0 0.44849177016026981 0.41968599919849731 0 0.47329291580914951 0.41490179660840648 0 0.45927084092720188 0.43580976915473651 0 0.44849177016026981 0.41968599919849731 0 0.45927084092720188 0.43580976915473651 0 0.44849177016026981 0.41968599919849731 0 0.45165089640657707 0.43611575462809582 0 0.4587292321942566 0.40377894109977869 0 0.47329291580914951 0.41490179660840648 0 0.44849177016026981 0.41968599919849731 0 0.4433226365022459 0.39280274251209668 0 0.44849177016026981 0.41968599919849731 0 0.439625884597032 0.40642404903869822 0 0.43655617137350622 0.42038510460191503 0 0.44849177016026981 0.41968599919849731 0 0.439625884597032 0.40642404903869822 0 0.44849177016026981 0.41968599919849731 0 0.439625884597032 0.40642404903869822 0 0.44849177016026981 0.41968599919849731 0 0.45165089640657707 0.43611575462809582 0 0.44386952542921521 0.4295111469185629 0 0.44849177016026981 0.41968599919849731 0 0.45165089640657707 0.43611575462809582 0 0.45165089640657707 0.43611575462809582 0 0.44386952542921521 0.4295111469185629 0 0.44519082659473158 0.43782150968735878 0 0.43655617137350622 0.42038510460191503 0 0.44849177016026981 0.41968599919849731 0 0.44386952542921521 0.4295111469185629 0 0.43681876433844857 0.43497208046478802 0 0.43655617137350622 0.42038510460191503 0 0.44386952542921521 0.4295111469185629 0 0.43681876433844857 0.43497208046478802 0 0.44386952542921521 0.4295111469185629 0 0.44519082659473158 0.43782150968735878 0 0.43681876433844857 0.43497208046478802 0 0.44519082659473158 0.43782150968735878 0 0.44362096681603608 0.44566090358066651 0 0.43681876433844857 0.43497208046478802 0 0.44362096681603608 0.44566090358066651 0 0.43343701099378978 0.44857281610427868 0 0.44362096681603608 0.44566090358066651 0 0.44110505044236059 0.45564825146568327 0 0.43343701099378978 0.44857281610427868 0 0.44362096681603608 0.44566090358066651 0 0.45255374853073171 0.45216262504332899 0 0.45221828903371142 0.44335246171580328 0 0.44362096681603608 0.44566090358066651 0 0.45255374853073171 0.45216262504332899 0 0.44110505044236059 0.45564825146568327 0 0.44519082659473158 0.43782150968735878 0 0.44362096681603608 0.44566090358066651 0 0.45221828903371142 0.44335246171580328 0 0.45165089640657707 0.43611575462809582 0 0.44519082659473158 0.43782150968735878 0 0.45221828903371142 0.44335246171580328 0 0.45255374853073171 0.45216262504332899 0 0.44518446721829791 0.46873079822848901 0 0.44110505044236059 0.45564825146568327 0 0.44518446721829791 0.46873079822848901 0 0.44110505044236059 0.45564825146568327 0 0.43072905865294731 0.46311411437165317 0 0.47284597636140308 0.45611600571247141 0 0.46302896313844299 0.47272331085799019 0 0.45255374853073171 0.45216262504332899 0 0.44518446721829791 0.46873079822848901 0 0.47004991169413368 0.45193353911097589 0 0.47004991169413368 0.45193353911097589 0 0.47284597636140308 0.45611600571247141 0 0.46302896313844299 0.47272331085799019 0 0.44518446721829791 0.46873079822848901 0 0.47004991169413368 0.45193353911097589 0 0.46302896313844299 0.47272331085799019 0 0.44518446721829791 0.46873079822848901 0 0.47004991169413368 0.45193353911097589 0 0.45927084092720188 0.43580976915473651 0 0.47004991169413368 0.45193353911097589 0 0.45927084092720188 0.43580976915473651 0 0.45930684530103161 0.44617181272829648 0 0.47004991169413368 0.45193353911097589 0 0.47462076711180717 0.43403653248997731 0 0.45927084092720188 0.43580976915473651 0 0.47004991169413368 0.45193353911097589 0 0.45255374853073171 0.45216262504332899 0 0.45930684530103161 0.44617181272829648 0 0.47004991169413368 0.45193353911097589 0 0.45927084092720188 0.43580976915473651 0 0.45221828903371142 0.44335246171580328 0 0.45930684530103161 0.44617181272829648 0 0.45927084092720188 0.43580976915473651 0 0.45165089640657707 0.43611575462809582 0 0.45221828903371142 0.44335246171580328 0 0.45255374853073171 0.45216262504332899 0 0.45221828903371142 0.44335246171580328 0 0.45930684530103161 0.44617181272829648 0 0.47462076711180717 0.43403653248997731 0 0.47004991169413368 0.45193353911097589 0 0.48502495584706629 0.44181750450007778 0 0.48189680466807888 0.45106209462173341 0 0.47450081081676521 0.45331654521044668 0 0.48502495584706629 0.44181750450007778 0 0.47004991169413368 0.45193353911097589 0 0.48502495584706629 0.44181750450007778 0 0.47004991169413368 0.45193353911097589 0 0.47450081081676521 0.45331654521044668 0 0.48502495584706629 0.44181750450007778 0 0.47284597636140308 0.45611600571247141 0 0.48050552008400071 0.46757346096286262 0 0.46302896313844299 0.47272331085799019 0 0.47004991169413368 0.45193353911097589 0 0.47284597636140308 0.45611600571247141 0 0.47004991169413368 0.45193353911097589 0 0.47450081081676521 0.45331654521044668 0 0.47284597636140308 0.45611600571247141 0 0.47450081081676521 0.45331654521044668 0 0.47284597636140308 0.45611600571247141 0 0.47951191807974908 0.45654698881850991 0 0.47450081081676521 0.45331654521044668 0 0.47284597636140308 0.45611600571247141 0 0.47284597636140308 0.45611600571247141 0 0.48050552008400071 0.46757346096286262 0 0.47284597636140308 0.45611600571247141 0 0.48050552008400071 0.46757346096286262 0 0.47951191807974908 0.45654698881850991 0 0.48189680466807888 0.45106209462173341 0 0.47951191807974908 0.45654698881850991 0 0.4878104784684959 0.4546668375850359 0 0.48050552008400071 0.46757346096286262 0 0.47951191807974908 0.45654698881850991 0 0.4878104784684959 0.4546668375850359 0 0.48189680466807888 0.45106209462173341 0 0.47450081081676521 0.45331654521044668 0 0.47951191807974908 0.45654698881850991 0 0.48050552008400071 0.46757346096286262 0 0.4878104784684959 0.4546668375850359 0 0.49999999999999928 0.46182898591187349 0 0.48050552008400071 0.46757346096286262 0 0.49999999999999928 0.46182898591187349 0 0.49999999999999828 0.43170146988917901 0 0.4878104784684959 0.4546668375850359 0 0.49999999999999928 0.46182898591187349 0 0.49999999999999828 0.43170146988917901 0 0.4878104784684959 0.4546668375850359 0 0.48502495584706629 0.44181750450007778 0 0.48189680466807888 0.45106209462173341 0 0.4878104784684959 0.4546668375850359 0 0.48502495584706629 0.44181750450007778 0 0.49999999999999928 0.46182898591187349 0 0.5 0.5 0 0.49753071700976492 0.4930404390193398 0 0.5 0.5 0 0.47501141284236448 0.48698608464618232 0 0.44690499747156931 0.4999999999999995 0 0.5 0.5 0 0.49753071700976492 0.4930404390193398 0 0.47501141284236448 0.48698608464618232 0 0.49753071700976492 0.4930404390193398 0 0.48901811854688337 0.4803069499911008 0 0.47501141284236448 0.48698608464618232 0 0.49753071700976492 0.4930404390193398 0 0.48901811854688337 0.4803069499911008 0 0.48050552008400071 0.46757346096286262 0 0.49999999999999928 0.46182898591187349 0 0.48901811854688337 0.4803069499911008 0 0.49999999999999928 0.46182898591187349 0 0.49753071700976492 0.4930404390193398 0 0.48901811854688337 0.4803069499911008 0 0.48050552008400071 0.46757346096286262 0 0.48901811854688337 0.4803069499911008 0 0.48050552008400071 0.46757346096286262 0 0.46302896313844299 0.47272331085799019 0 0.48901811854688337 0.4803069499911008 0 0.47689100365292297 0.47689745161453417 0 0.47501141284236448 0.48698608464618232 0 0.48050552008400071 0.46757346096286262 0 0.47689100365292297 0.47689745161453417 0 0.46302896313844299 0.47272331085799019 0 0.48050552008400071 0.46757346096286262 0 0.48901811854688337 0.4803069499911008 0 0.47689100365292297 0.47689745161453417 0 0.47689100365292297 0.47689745161453417 0 0.47501141284236448 0.48698608464618232 0 0.46302896313844299 0.47272331085799019 0 0.47501141284236448 0.48698608464618232 0 0.45496698030500621 0.48636165542899479 0 0.44690499747156931 0.4999999999999995 0 0.47501141284236448 0.48698608464618232 0 0.45496698030500621 0.48636165542899479 0 0.46302896313844299 0.47272331085799019 0 0.45496698030500621 0.48636165542899479 0 0.46302896313844299 0.47272331085799019 0 0.46302896313844299 0.47272331085799019 0 0.43620850627812668 0.48062654530969717 0 0.44518446721829791 0.46873079822848901 0 0.46302896313844299 0.47272331085799019 0 0.43620850627812668 0.48062654530969717 0 0.45496698030500621 0.48636165542899479 0 0.46302896313844299 0.47272331085799019 0 0.43620850627812668 0.48062654530969717 0 0.45496698030500621 0.48636165542899479 0 0.44690499747156931 0.4999999999999995 0 0.43620850627812668 0.48062654530969717 0 0.45496698030500621 0.48636165542899479 0 0.44690499747156931 0.4999999999999995 0 0.42031902274246069 0.48552805734600057 0 0.41743852268843429 0.5 0 0.43620850627812668 0.48062654530969717 0 0.44690499747156931 0.4999999999999995 0 0.41743852268843429 0.5 0 0.43620850627812668 0.48062654530969717 0 0.42031902274246069 0.48552805734600057 0 0.41743852268843429 0.5 0 0.40134209412993838 0.48520307466421098 0 0.42031902274246069 0.48552805734600057 0 0.40973563488985532 0.47579104778557152 0 0.40134209412993838 0.48520307466421098 0 0.42031902274246069 0.48552805734600057 0 0.40973563488985532 0.47579104778557152 0 0.41789473538963601 0.46705380048502582 0 0.44518446721829791 0.46873079822848901 0 0.42031902274246069 0.48552805734600057 0 0.43072905865294731 0.46311411437165317 0 0.44518446721829791 0.46873079822848901 0 0.42031902274246069 0.48552805734600057 0 0.43620850627812668 0.48062654530969717 0 0.44518446721829791 0.46873079822848901 0 0.42031902274246069 0.48552805734600057 0 0.42031902274246069 0.48552805734600057 0 0.43072905865294731 0.46311411437165317 0 0.41789473538963601 0.46705380048502582 0 0.44110505044236059 0.45564825146568327 0 0.43072905865294731 0.46311411437165317 0 0.43343701099378978 0.44857281610427868 0 0.43072905865294731 0.46311411437165317 0 0.43343701099378978 0.44857281610427868 0 0.42053980660522761 0.45341513910658388 0 0.43072905865294731 0.46311411437165317 0 0.41789473538963601 0.46705380048502582 0 0.42053980660522761 0.45341513910658388 0 0.43681876433844857 0.43497208046478802 0 0.43343701099378978 0.44857281610427868 0 0.42326813014219627 0.43909650749986368 0 0.43343701099378978 0.44857281610427868 0 0.42326813014219627 0.43909650749986368 0 0.42053980660522761 0.45341513910658388 0 0.41248490446316177 0.43293377153942381 0 0.42326813014219627 0.43909650749986368 0 0.41215324011006321 0.44426916471351768 0 0.42326813014219627 0.43909650749986368 0 0.41215324011006321 0.44426916471351768 0 0.42053980660522761 0.45341513910658388 0 0.41215324011006321 0.44426916471351768 0 0.42053980660522761 0.45341513910658388 0 0.40575666434273311 0.45838443146516472 0 0.41248490446316177 0.43293377153942381 0 0.41215324011006321 0.44426916471351768 0 0.39942544658573009 0.43872588670818857 0 0.40973563488985532 0.47579104778557152 0 0.41789473538963601 0.46705380048502582 0 0.40575666434273311 0.45838443146516472 0 0.41789473538963601 0.46705380048502582 0 0.42053980660522761 0.45341513910658388 0 0.40575666434273311 0.45838443146516472 0 0.40973563488985532 0.47579104778557152 0 0.40575666434273311 0.45838443146516472 0 0.39457326129307041 0.46924519202038539 0 0.40575666434273311 0.45838443146516472 0 0.38748492612950952 0.44892285829301931 0 0.39457326129307041 0.46924519202038539 0 0.40575666434273311 0.45838443146516472 0 0.39942544658573009 0.43872588670818857 0 0.38748492612950952 0.44892285829301931 0 0.3889231515195431 0.43141286456833011 0 0.39942544658573009 0.43872588670818857 0 0.38748492612950952 0.44892285829301931 0 0.41215324011006321 0.44426916471351768 0 0.40575666434273311 0.45838443146516472 0 0.39942544658573009 0.43872588670818857 0 0.36980735363827261 0.46050290225189661 0 0.36959298495063608 0.43610817863788948 0 0.38748492612950952 0.44892285829301931 0 0.36959298495063608 0.43610817863788948 0 0.3889231515195431 0.43141286456833011 0 0.38748492612950952 0.44892285829301931 0 0.36980735363827261 0.46050290225189661 0 0.38748492612950952 0.44892285829301931 0 0.39457326129307041 0.46924519202038539 0 0.36980735363827261 0.46050290225189661 0 0.37801407526051067 0.48065415083330842 0 0.39457326129307041 0.46924519202038539 0 0.37801407526051067 0.48065415083330842 0 0.38797204790529932 0.5 0 0.40134209412993838 0.48520307466421098 0 0.41743852268843429 0.5 0 0.38797204790529932 0.5 0 0.40134209412993838 0.48520307466421098 0 0.40973563488985532 0.47579104778557152 0 0.40134209412993838 0.48520307466421098 0 0.39457326129307041 0.46924519202038539 0 0.37801407526051067 0.48065415083330842 0 0.40134209412993838 0.48520307466421098 0 0.39457326129307041 0.46924519202038539 0 0.33471388977496319 0.083869725553476451 0 0.32003772732572838 0.080925826065863432 0 0.34163206045391592 0.099703108374672819 0 0.32003772732572838 0.080925826065863432 0 0.34163206045391592 0.099703108374672819 0 0.33471388977496319 0.083869725553476451 0 0.34163206045391592 0.099703108374672819 0 0.35085433501378249 0.086695181415402722 0 0.33471388977496319 0.083869725553476451 0 0.34209731100959018 0.06531632876058778 0 0.3490795063897344 0.076610282135673974 0 0.33471388977496319 0.083869725553476451 0 0.34209731100959018 0.06531632876058778 0 0.32721969837032222 0.069259436753723466 0 0.33471388977496319 0.083869725553476451 0 0.32721969837032222 0.069259436753723466 0 0.32003772732572838 0.080925826065863432 0 0.31518448171420999 0.065085558788002928 0 0.32721969837032222 0.069259436753723466 0 0.32003772732572838 0.080925826065863432 0 0.32003772732572838 0.080925826065863432 0 0.31657863646219547 0.093324099257994786 0 0.34163206045391592 0.099703108374672819 0 0.32003772732572838 0.080925826065863432 0 0.31657863646219547 0.093324099257994786 0 0.30227411453462139 0.089652133027170247 0 0.33471388977496319 0.083869725553476451 0 0.32003772732572838 0.080925826065863432 0 0.31657863646219547 0.093324099257994786 0 0.32025759602694659 0.1047776340902011 0 0.34163206045391592 0.099703108374672819 0 0.31657863646219547 0.093324099257994786 0 0.32025759602694659 0.1047776340902011 0 0.30640852481201453 0.1024735992044304 0 0.32025759602694659 0.1047776340902011 0 0.31114536757858358 0.11742006929579971 0 0.30640852481201453 0.1024735992044304 0 0.32606950933900308 0.1158177097477945 0 0.31114536757858358 0.11742006929579971 0 0.3195478300457561 0.1332621056988223 0 0.32025759602694659 0.1047776340902011 0 0.32606950933900308 0.1158177097477945 0 0.31114536757858358 0.11742006929579971 0 0.33761965874988609 0.1186889285033586 0 0.34163206045391592 0.099703108374672819 0 0.34956654336434939 0.1234914401014125 0 0.32606950933900308 0.1158177097477945 0 0.33761965874988609 0.1186889285033586 0 0.34163206045391592 0.099703108374672819 0 0.32606950933900308 0.1158177097477945 0 0.33761965874988609 0.1186889285033586 0 0.33436770153514289 0.13112975471366969 0 0.33761965874988609 0.1186889285033586 0 0.34956654336434939 0.1234914401014125 0 0.33436770153514289 0.13112975471366969 0 0.32025759602694659 0.1047776340902011 0 0.32606950933900308 0.1158177097477945 0 0.34163206045391592 0.099703108374672819 0 0.34163206045391592 0.099703108374672819 0 0.35755874922647762 0.098360434014750309 0 0.36322639358210312 0.11848039068348271 0 0.34163206045391592 0.099703108374672819 0 0.36322639358210312 0.11848039068348271 0 0.34163206045391592 0.099703108374672819 0 0.35755874922647762 0.098360434014750309 0 0.35085433501378249 0.086695181415402722 0 0.34163206045391592 0.099703108374672819 0 0.34956654336434939 0.1234914401014125 0 0.36322639358210312 0.11848039068348271 0 0.36322639358210312 0.11848039068348271 0 0.37045299287494049 0.09679375479102828 0 0.38005682511468147 0.12140739343396729 0 0.35755874922647762 0.098360434014750309 0 0.36322639358210312 0.11848039068348271 0 0.37045299287494049 0.09679375479102828 0 0.35755874922647762 0.098360434014750309 0 0.37045299287494049 0.09679375479102828 0 0.35979627253246887 0.087956112087811941 0 0.37045299287494049 0.09679375479102828 0 0.36986657419494789 0.075759843690150083 0 0.37682589963749002 0.081332762740894418 0 0.37045299287494049 0.09679375479102828 0 0.35979627253246887 0.087956112087811941 0 0.36084916063519962 0.072180116148089279 0 0.37045299287494049 0.09679375479102828 0 0.36084916063519962 0.072180116148089279 0 0.36986657419494789 0.075759843690150083 0 0.37045299287494049 0.09679375479102828 0 0.36084916063519962 0.072180116148089279 0 0.35755874922647762 0.098360434014750309 0 0.35979627253246887 0.087956112087811941 0 0.35085433501378249 0.086695181415402722 0 0.35979627253246887 0.087956112087811941 0 0.35560274156159061 0.081403828627082772 0 0.36084916063519962 0.072180116148089279 0 0.33471388977496319 0.083869725553476451 0 0.35085433501378249 0.086695181415402722 0 0.3490795063897344 0.076610282135673974 0 0.35979627253246887 0.087956112087811941 0 0.35560274156159061 0.081403828627082772 0 0.35085433501378249 0.086695181415402722 0 0.35560274156159061 0.081403828627082772 0 0.35085433501378249 0.086695181415402722 0 0.3490795063897344 0.076610282135673974 0 0.34209731100959018 0.06531632876058778 0 0.3490795063897344 0.076610282135673974 0 0.36084916063519962 0.072180116148089279 0 0.36448270712015302 0.068442951443566186 0 0.36084916063519962 0.072180116148089279 0 0.35124532839545858 0.047566477505150237 0 0.35560274156159061 0.081403828627082772 0 0.3490795063897344 0.076610282135673974 0 0.36084916063519962 0.072180116148089279 0 0.36448270712015302 0.068442951443566186 0 0.36084916063519962 0.072180116148089279 0 0.36986657419494789 0.075759843690150083 0 0.36986657419494789 0.075759843690150083 0 0.37596532967213542 0.069868995675824025 0 0.37682589963749002 0.081332762740894418 0 0.36448270712015302 0.068442951443566186 0 0.36986657419494789 0.075759843690150083 0 0.37084641292541748 0.06878424193773866 0 0.36986657419494789 0.075759843690150083 0 0.37084641292541748 0.06878424193773866 0 0.37596532967213542 0.069868995675824025 0 0.36448270712015302 0.068442951443566186 0 0.37084641292541748 0.06878424193773866 0 0.37307104071443398 0.061065176941414383 0 0.37084641292541748 0.06878424193773866 0 0.37307104071443398 0.061065176941414383 0 0.37596532967213542 0.069868995675824025 0 0.36448270712015302 0.068442951443566186 0 0.37307104071443398 0.061065176941414383 0 0.37146335928247548 0.04052602251159599 0 0.36448270712015302 0.068442951443566186 0 0.37146335928247548 0.04052602251159599 0 0.35124532839545858 0.047566477505150237 0 0.36448270712015302 0.068442951443566186 0 0.37146335928247548 0.04052602251159599 0 0.37146335928247548 0.04052602251159599 0 0.35572529983931911 0.032753521421585163 0 0.36312657459820519 0.022962182453169309 0 0.37146335928247548 0.04052602251159599 0 0.35572529983931911 0.032753521421585163 0 0.35124532839545858 0.047566477505150237 0 0.35572529983931911 0.032753521421585163 0 0.35124532839545858 0.047566477505150237 0 0.3321968515854315 0.028027004478648001 0 0.36084916063519962 0.072180116148089279 0 0.35124532839545858 0.047566477505150237 0 0.34209731100959018 0.06531632876058778 0 0.36084916063519962 0.072180116148089279 0 0.35124532839545858 0.047566477505150237 0 0.36312657459820519 0.022962182453169309 0 0.35936362748920009 0.0091271431172253586 0 0.37844401144479839 0.012609093579625891 0 0.35936362748920009 0.0091271431172253586 0 0.37844401144479839 0.012609093579625891 0 0.36665723294200347 -0.001883505129568449 0 0.35936362748920009 0.0091271431172253586 0 0.36665723294200347 -0.001883505129568449 0 0.35531676971978082 -0.0033532784323768001 0 0.37146335928247548 0.04052602251159599 0 0.36312657459820519 0.022962182453169309 0 0.37844401144479839 0.012609093579625891 0 0.37146335928247548 0.04052602251159599 0 0.37844401144479839 0.012609093579625891 0 0.35572529983931911 0.032753521421585163 0 0.35063657493523293 0.0197951316358141 0 0.3321968515854315 0.028027004478648001 0 0.35572529983931911 0.032753521421585163 0 0.36312657459820519 0.022962182453169309 0 0.35063657493523293 0.0197951316358141 0 0.36312657459820519 0.022962182453169309 0 0.35063657493523293 0.0197951316358141 0 0.35936362748920009 0.0091271431172253586 0 0.35936362748920009 0.0091271431172253586 0 0.33689267375143878 0.0039255003288513873 0 0.35531676971978082 -0.0033532784323768001 0 0.35063657493523293 0.0197951316358141 0 0.35936362748920009 0.0091271431172253586 0 0.33689267375143878 0.0039255003288513873 0 0.33689267375143878 0.0039255003288513873 0 0.3321968515854315 0.028027004478648001 0 0.30352242257352219 0.0039185454548519476 0 0.35063657493523293 0.0197951316358141 0 0.33689267375143878 0.0039255003288513873 0 0.3321968515854315 0.028027004478648001 0 0.3321968515854315 0.028027004478648001 0 0.32406508202711942 0.05109974460068676 0 0.30086563814790429 0.035038583275740692 0 0.34209731100959018 0.06531632876058778 0 0.32721969837032222 0.069259436753723466 0 0.32406508202711942 0.05109974460068676 0 0.34209731100959018 0.06531632876058778 0 0.35124532839545858 0.047566477505150237 0 0.32406508202711942 0.05109974460068676 0 0.35124532839545858 0.047566477505150237 0 0.3321968515854315 0.028027004478648001 0 0.32406508202711942 0.05109974460068676 0 0.31518448171420999 0.065085558788002928 0 0.32721969837032222 0.069259436753723466 0 0.32406508202711942 0.05109974460068676 0 0.31518448171420999 0.065085558788002928 0 0.32406508202711942 0.05109974460068676 0 0.29882370077581188 0.062479238108283437 0 0.32406508202711942 0.05109974460068676 0 0.29882370077581188 0.062479238108283437 0 0.30086563814790429 0.035038583275740692 0 0.32406508202711942 0.05109974460068676 0 0.30086563814790429 0.035038583275740692 0 0.30086563814790429 0.035038583275740692 0 0.28350496565293731 0.043820562147367653 0 0.27766619426868899 0.018977421950794569 0 0.29882370077581188 0.062479238108283437 0 0.30086563814790429 0.035038583275740692 0 0.28350496565293731 0.043820562147367653 0 0.29882370077581188 0.062479238108283437 0 0.28350496565293731 0.043820562147367653 0 0.28339325744793759 0.061338593161917712 0 0.3321968515854315 0.028027004478648001 0 0.30086563814790429 0.035038583275740692 0 0.30352242257352219 0.0039185454548519476 0 0.30086563814790429 0.035038583275740692 0 0.27766619426868899 0.018977421950794569 0 0.30086563814790429 0.035038583275740692 0 0.30352242257352219 0.0039185454548519476 0 0.27766619426868899 0.018977421950794569 0 0.30352242257352219 0.0039185454548519476 0 0.27766619426868899 0.018977421950794569 0 0.27708695819087842 -0.0025378708656911609 0 0.27766619426868899 0.018977421950794569 0 0.25446675038947358 0.0029162606258486688 0 0.27766619426868899 0.018977421950794569 0 0.26047117107291767 -0.0019720443344692288 0 0.27708695819087842 -0.0025378708656911609 0 0.27766619426868899 0.018977421950794569 0 0.2600935707136679 0.019574361616358959 0 0.26464981823601458 0.038183209123269009 0 0.2600935707136679 0.019574361616358959 0 0.26464981823601458 0.038183209123269009 0 0.25044211127373811 0.032849993626191502 0 0.27766619426868899 0.018977421950794569 0 0.2600935707136679 0.019574361616358959 0 0.25446675038947358 0.0029162606258486688 0 0.27766619426868899 0.018977421950794569 0 0.25446675038947358 0.0029162606258486688 0 0.26047117107291767 -0.0019720443344692288 0 0.25446675038947358 0.0029162606258486688 0 0.26047117107291767 -0.0019720443344692288 0 0.28339325744793759 0.061338593161917712 0 0.2699795556074106 0.054659435659755229 0 0.26514968559830832 0.069915803624621298 0 0.28350496565293731 0.043820562147367653 0 0.28339325744793759 0.061338593161917712 0 0.2699795556074106 0.054659435659755229 0 0.28350496565293731 0.043820562147367653 0 0.27766619426868899 0.018977421950794569 0 0.26464981823601458 0.038183209123269009 0 0.28350496565293731 0.043820562147367653 0 0.2699795556074106 0.054659435659755229 0 0.26464981823601458 0.038183209123269009 0 0.26464981823601458 0.038183209123269009 0 0.25174039047255609 0.044464402284776217 0 0.2585751734657834 0.052327775232976027 0 0.26464981823601458 0.038183209123269009 0 0.25044211127373811 0.032849993626191502 0 0.25174039047255609 0.044464402284776217 0 0.25174039047255609 0.044464402284776217 0 0.25102243244437311 0.053297338652025752 0 0.2585751734657834 0.052327775232976027 0 0.2699795556074106 0.054659435659755229 0 0.26464981823601458 0.038183209123269009 0 0.2585751734657834 0.052327775232976027 0 0.2699795556074106 0.054659435659755229 0 0.2585751734657834 0.052327775232976027 0 0.26000268679747079 0.061003988239662958 0 0.2699795556074106 0.054659435659755229 0 0.26000268679747079 0.061003988239662958 0 0.26514968559830832 0.069915803624621298 0 0.2585751734657834 0.052327775232976027 0 0.26000268679747079 0.061003988239662958 0 0.2530174900015254 0.0600809219264858 0 0.25102243244437311 0.053297338652025752 0 0.2585751734657834 0.052327775232976027 0 0.2530174900015254 0.0600809219264858 0 0.24751669685985911 0.059618880130872708 0 0.25102243244437311 0.053297338652025752 0 0.2530174900015254 0.0600809219264858 0 0.24853219730195361 0.063845178725116872 0 0.2530174900015254 0.0600809219264858 0 0.25274476311700622 0.067427493409812952 0 0.2530174900015254 0.0600809219264858 0 0.25274476311700622 0.067427493409812952 0 0.26000268679747079 0.061003988239662958 0 0.2530174900015254 0.0600809219264858 0 0.25274476311700622 0.067427493409812952 0 0.25274476311700622 0.067427493409812952 0 0.25243039498113262 0.075895774732197205 0 0.24842415088314279 0.069033451464499671 0 0.25274476311700622 0.067427493409812952 0 0.25243039498113262 0.075895774732197205 0 0.25274476311700622 0.067427493409812952 0 0.25243039498113262 0.075895774732197205 0 0.26514968559830832 0.069915803624621298 0 0.25243039498113262 0.075895774732197205 0 0.26514968559830832 0.069915803624621298 0 0.26417250328098718 0.085299079350852347 0 0.25243039498113262 0.075895774732197205 0 0.26514968559830832 0.069915803624621298 0 0.26000268679747079 0.061003988239662958 0 0.25274476311700622 0.067427493409812952 0 0.26514968559830832 0.069915803624621298 0 0.25274476311700622 0.067427493409812952 0 0.26514968559830832 0.069915803624621298 0 0.25243039498113262 0.075895774732197205 0 0.26417250328098718 0.085299079350852347 0 0.25158482098595109 0.098673396421397969 0 0.25243039498113262 0.075895774732197205 0 0.25158482098595109 0.098673396421397969 0 0.26417250328098718 0.085299079350852347 0 0.27563544099652842 0.091217529053328833 0 0.26597619666038957 0.098681263799979324 0 0.26417250328098718 0.085299079350852347 0 0.27658940398852799 0.081360569412953818 0 0.27563544099652842 0.091217529053328833 0 0.26514968559830832 0.069915803624621298 0 0.26417250328098718 0.085299079350852347 0 0.27658940398852799 0.081360569412953818 0 0.27658940398852799 0.081360569412953818 0 0.27563544099652842 0.091217529053328833 0 0.28742128170162778 0.087331448045782731 0 0.28339325744793759 0.061338593161917712 0 0.26514968559830832 0.069915803624621298 0 0.29259370646201821 0.075420814845242989 0 0.26514968559830832 0.069915803624621298 0 0.27658940398852799 0.081360569412953818 0 0.29259370646201821 0.075420814845242989 0 0.28339325744793759 0.061338593161917712 0 0.26514968559830832 0.069915803624621298 0 0.26514968559830832 0.069915803624621298 0 0.29259370646201821 0.075420814845242989 0 0.29882370077581188 0.062479238108283437 0 0.28339325744793759 0.061338593161917712 0 0.29259370646201821 0.075420814845242989 0 0.27658940398852799 0.081360569412953818 0 0.29259370646201821 0.075420814845242989 0 0.28742128170162778 0.087331448045782731 0 0.27563544099652842 0.091217529053328833 0 0.28742128170162778 0.087331448045782731 0 0.29001374252644291 0.099006193890217781 0 0.28742128170162778 0.087331448045782731 0 0.30227411453462139 0.089652133027170247 0 0.29001374252644291 0.099006193890217781 0 0.29259370646201821 0.075420814845242989 0 0.28742128170162778 0.087331448045782731 0 0.30227411453462139 0.089652133027170247 0 0.32003772732572838 0.080925826065863432 0 0.29259370646201821 0.075420814845242989 0 0.30227411453462139 0.089652133027170247 0 0.32003772732572838 0.080925826065863432 0 0.29259370646201821 0.075420814845242989 0 0.32003772732572838 0.080925826065863432 0 0.29882370077581188 0.062479238108283437 0 0.29259370646201821 0.075420814845242989 0 0.32003772732572838 0.080925826065863432 0 0.29882370077581188 0.062479238108283437 0 0.31518448171420999 0.065085558788002928 0 0.32003772732572838 0.080925826065863432 0 0.29882370077581188 0.062479238108283437 0 0.29818169174329712 0.11066146566519899 0 0.31114536757858358 0.11742006929579971 0 0.294250496481684 0.12267566802032639 0 0.31114536757858358 0.11742006929579971 0 0.294250496481684 0.12267566802032639 0 0.30313841955192899 0.13260249050964579 0 0.29818169174329712 0.11066146566519899 0 0.31114536757858358 0.11742006929579971 0 0.30640852481201453 0.1024735992044304 0 0.30227411453462139 0.089652133027170247 0 0.30640852481201453 0.1024735992044304 0 0.29001374252644291 0.099006193890217781 0 0.29818169174329712 0.11066146566519899 0 0.30640852481201453 0.1024735992044304 0 0.29001374252644291 0.099006193890217781 0 0.31657863646219547 0.093324099257994786 0 0.30227411453462139 0.089652133027170247 0 0.30640852481201453 0.1024735992044304 0 0.29818169174329712 0.11066146566519899 0 0.29001374252644291 0.099006193890217781 0 0.28729541733308872 0.1128284558108848 0 0.29001374252644291 0.099006193890217781 0 0.28729541733308872 0.1128284558108848 0 0.27577858748266387 0.1072301355245756 0 0.29818169174329712 0.11066146566519899 0 0.28729541733308872 0.1128284558108848 0 0.294250496481684 0.12267566802032639 0 0.28729541733308872 0.1128284558108848 0 0.294250496481684 0.12267566802032639 0 0.28067449336876182 0.1220521091494646 0 0.28067449336876182 0.1220521091494646 0 0.26956705708048567 0.1198361090660386 0 0.27577858748266387 0.1072301355245756 0 0.28729541733308872 0.1128284558108848 0 0.28067449336876182 0.1220521091494646 0 0.27577858748266387 0.1072301355245756 0 0.26956705708048567 0.1198361090660386 0 0.27577858748266387 0.1072301355245756 0 0.26270963055581759 0.11098617864974181 0 0.27563544099652842 0.091217529053328833 0 0.27577858748266387 0.1072301355245756 0 0.26597619666038957 0.098681263799979324 0 0.27563544099652842 0.091217529053328833 0 0.29001374252644291 0.099006193890217781 0 0.27577858748266387 0.1072301355245756 0 0.27577858748266387 0.1072301355245756 0 0.26597619666038957 0.098681263799979324 0 0.26270963055581759 0.11098617864974181 0 0.25158482098595109 0.098673396421397969 0 0.25094552198087999 0.11589449234768209 0 0.25158482098595109 0.098673396421397969 0 0.26270963055581759 0.11098617864974181 0 0.25094552198087999 0.11589449234768209 0 0.26417250328098718 0.085299079350852347 0 0.26597619666038957 0.098681263799979324 0 0.25158482098595109 0.098673396421397969 0 0.26597619666038957 0.098681263799979324 0 0.25158482098595109 0.098673396421397969 0 0.26270963055581759 0.11098617864974181 0 0.25158482098595109 0.098673396421397969 0 0.26270963055581759 0.11098617864974181 0 0.25094552198087999 0.11589449234768209 0 0.25030622297580962 0.13311558827396619 0 0.26022612795132161 0.12333036834530881 0 0.25094552198087999 0.11589449234768209 0 0.25030622297580962 0.13311558827396619 0 0.26956705708048567 0.1198361090660386 0 0.26022612795132161 0.12333036834530881 0 0.26270963055581759 0.11098617864974181 0 0.26022612795132161 0.12333036834530881 0 0.26270963055581759 0.11098617864974181 0 0.25094552198087999 0.11589449234768209 0 0.26956705708048567 0.1198361090660386 0 0.26022612795132161 0.12333036834530881 0 0.26675796828336718 0.1380571931171293 0 0.26022612795132161 0.12333036834530881 0 0.25030622297580962 0.13311558827396619 0 0.26675796828336718 0.1380571931171293 0 0.25030622297580962 0.13311558827396619 0 0.26675796828336718 0.1380571931171293 0 0.25030622297580962 0.13311558827396619 0 0.26675796828336718 0.1380571931171293 0 0.25638724149227848 0.14295410589973731 0 0.25004344172447263 0.14019424959050239 0 0.25030622297580962 0.13311558827396619 0 0.25638724149227848 0.14295410589973731 0 0.25004344172447263 0.14019424959050239 0 0.25030622297580962 0.13311558827396619 0 0.26675796828336718 0.1380571931171293 0 0.28320971359092417 0.1429987979602943 0 0.26675796828336718 0.1380571931171293 0 0.28666270206708028 0.1324408374186071 0 0.28320971359092417 0.1429987979602943 0 0.28067449336876182 0.1220521091494646 0 0.26956705708048567 0.1198361090660386 0 0.26675796828336718 0.1380571931171293 0 0.28067449336876182 0.1220521091494646 0 0.26675796828336718 0.1380571931171293 0 0.28666270206708028 0.1324408374186071 0 0.26675796828336718 0.1380571931171293 0 0.27436529468354132 0.15433220537778311 0 0.26010861073109098 0.15248373785575309 0 0.26675796828336718 0.1380571931171293 0 0.27436529468354132 0.15433220537778311 0 0.28320971359092417 0.1429987979602943 0 0.26675796828336718 0.1380571931171293 0 0.26010861073109098 0.15248373785575309 0 0.25638724149227848 0.14295410589973731 0 0.2496536413094039 0.15044712256699261 0 0.25004344172447263 0.14019424959050239 0 0.25638724149227848 0.14295410589973731 0 0.24653130607993951 0.16237692388552691 0 0.2496536413094039 0.15044712256699261 0 0.26010861073109098 0.15248373785575309 0 0.2496536413094039 0.15044712256699261 0 0.26010861073109098 0.15248373785575309 0 0.25638724149227848 0.14295410589973731 0 0.24653130607993951 0.16237692388552691 0 0.25292738168467233 0.17649485219682931 0 0.26638423851283249 0.16867758561061549 0 0.24653130607993951 0.16237692388552691 0 0.26010861073109098 0.15248373785575309 0 0.26638423851283249 0.16867758561061549 0 0.24528107816237801 0.1907036486386274 0 0.25292738168467233 0.17649485219682931 0 0.26633433714882182 0.18577592949096661 0 0.25292738168467233 0.17649485219682931 0 0.26633433714882182 0.18577592949096661 0 0.26638423851283249 0.16867758561061549 0 0.27723266788850742 0.181048228772968 0 0.26638423851283249 0.16867758561061549 0 0.28391425324491287 0.17071999404263091 0 0.26633433714882182 0.18577592949096661 0 0.27723266788850742 0.181048228772968 0 0.26638423851283249 0.16867758561061549 0 0.27436529468354132 0.15433220537778311 0 0.26010861073109098 0.15248373785575309 0 0.26638423851283249 0.16867758561061549 0 0.27436529468354132 0.15433220537778311 0 0.26638423851283249 0.16867758561061549 0 0.28391425324491287 0.17071999404263091 0 0.27436529468354132 0.15433220537778311 0 0.28391425324491287 0.17071999404263091 0 0.29097703849613438 0.15773848939083679 0 0.28391425324491287 0.17071999404263091 0 0.2931647794093819 0.16879209887591959 0 0.29097703849613438 0.15773848939083679 0 0.2931647794093819 0.16879209887591959 0 0.29097703849613438 0.15773848939083679 0 0.30040947706207388 0.16512632217721829 0 0.28391425324491287 0.17071999404263091 0 0.28743664533084129 0.187357279865842 0 0.29743995151898561 0.17866098634217961 0 0.27723266788850742 0.181048228772968 0 0.28391425324491287 0.17071999404263091 0 0.28743664533084129 0.187357279865842 0 0.28391425324491287 0.17071999404263091 0 0.2931647794093819 0.16879209887591959 0 0.29743995151898561 0.17866098634217961 0 0.28743664533084129 0.187357279865842 0 0.29743995151898561 0.17866098634217961 0 0.29971043857951379 0.19298806906372529 0 0.29743995151898561 0.17866098634217961 0 0.30929675685570829 0.1858318568065235 0 0.29971043857951379 0.19298806906372529 0 0.29743995151898561 0.17866098634217961 0 0.3101655001798202 0.17563615506282959 0 0.30040947706207388 0.16512632217721829 0 0.29743995151898561 0.17866098634217961 0 0.3101655001798202 0.17563615506282959 0 0.30929675685570829 0.1858318568065235 0 0.30040947706207388 0.16512632217721829 0 0.30453528129870422 0.15487579661148021 0 0.32848741365188411 0.1727716232507491 0 0.29097703849613438 0.15773848939083679 0 0.30040947706207388 0.16512632217721829 0 0.30453528129870422 0.15487579661148021 0 0.2931647794093819 0.16879209887591959 0 0.29743995151898561 0.17866098634217961 0 0.30040947706207388 0.16512632217721829 0 0.29097703849613438 0.15773848939083679 0 0.30453528129870422 0.15487579661148021 0 0.29618567382365713 0.14404403195872001 0 0.30453528129870422 0.15487579661148021 0 0.30873747279203018 0.14281046260302349 0 0.29618567382365713 0.14404403195872001 0 0.30453528129870422 0.15487579661148021 0 0.30873747279203018 0.14281046260302349 0 0.32007589174333823 0.14676000458717811 0 0.30873747279203018 0.14281046260302349 0 0.30313841955192899 0.13260249050964579 0 0.3195478300457561 0.1332621056988223 0 0.31114536757858358 0.11742006929579971 0 0.30313841955192899 0.13260249050964579 0 0.3195478300457561 0.1332621056988223 0 0.30873747279203018 0.14281046260302349 0 0.30313841955192899 0.13260249050964579 0 0.29618567382365713 0.14404403195872001 0 0.294250496481684 0.12267566802032639 0 0.30313841955192899 0.13260249050964579 0 0.28666270206708028 0.1324408374186071 0 0.30313841955192899 0.13260249050964579 0 0.28666270206708028 0.1324408374186071 0 0.29618567382365713 0.14404403195872001 0 0.294250496481684 0.12267566802032639 0 0.28067449336876182 0.1220521091494646 0 0.28666270206708028 0.1324408374186071 0 0.28666270206708028 0.1324408374186071 0 0.28320971359092417 0.1429987979602943 0 0.29618567382365713 0.14404403195872001 0 0.27436529468354132 0.15433220537778311 0 0.29097703849613438 0.15773848939083679 0 0.28320971359092417 0.1429987979602943 0 0.29097703849613438 0.15773848939083679 0 0.28320971359092417 0.1429987979602943 0 0.29618567382365713 0.14404403195872001 0 0.28119448123381058 0.25405304303149878 0 0.26221447651104962 0.2479993693513689 0 0.28440499104296979 0.23439140090611099 0 0.26221447651104962 0.2479993693513689 0 0.26853130556434218 0.23400660741274959 0 0.28440499104296979 0.23439140090611099 0 0.26221447651104962 0.2479993693513689 0 0.28440499104296979 0.23439140090611099 0 0.2457442494512444 0.24022391879071339 0 0.26221447651104962 0.2479993693513689 0 0.25511338863332461 0.22468137717712711 0 0.26221447651104962 0.2479993693513689 0 0.25511338863332461 0.22468137717712711 0 0.26853130556434218 0.23400660741274959 0 0.26221447651104962 0.2479993693513689 0 0.25511338863332461 0.22468137717712711 0 0.25511338863332461 0.22468137717712711 0 0.25242827713160498 0.21540237912569379 0 0.25511338863332461 0.22468137717712711 0 0.2794126892910288 0.21617120911671081 0 0.25511338863332461 0.22468137717712711 0 0.26853130556434218 0.23400660741274959 0 0.2794126892910288 0.21617120911671081 0 0.26853130556434218 0.23400660741274959 0 0.2794126892910288 0.21617120911671081 0 0.28440499104296979 0.23439140090611099 0 0.25511338863332461 0.22468137717712711 0 0.2794126892910288 0.21617120911671081 0 0.26644318031571418 0.20408753099865831 0 0.2794126892910288 0.21617120911671081 0 0.26644318031571418 0.20408753099865831 0 0.27722953884408802 0.19656269719262509 0 0.24528107816237801 0.1907036486386274 0 0.26644318031571418 0.20408753099865831 0 0.25242827713160498 0.21540237912569379 0 0.25511338863332461 0.22468137717712711 0 0.26644318031571418 0.20408753099865831 0 0.25242827713160498 0.21540237912569379 0 0.26644318031571418 0.20408753099865831 0 0.25242827713160498 0.21540237912569379 0 0.24528107816237801 0.1907036486386274 0 0.26633433714882182 0.18577592949096661 0 0.26644318031571418 0.20408753099865831 0 0.26633433714882182 0.18577592949096661 0 0.26644318031571418 0.20408753099865831 0 0.27722953884408802 0.19656269719262509 0 0.27723266788850742 0.181048228772968 0 0.28743664533084129 0.187357279865842 0 0.27722953884408802 0.19656269719262509 0 0.26633433714882182 0.18577592949096661 0 0.27723266788850742 0.181048228772968 0 0.27722953884408802 0.19656269719262509 0 0.28743664533084129 0.187357279865842 0 0.27722953884408802 0.19656269719262509 0 0.28939512316467059 0.2005252056429343 0 0.28743664533084129 0.187357279865842 0 0.28939512316467059 0.2005252056429343 0 0.29971043857951379 0.19298806906372529 0 0.30929675685570829 0.1858318568065235 0 0.29971043857951379 0.19298806906372529 0 0.31162694501442678 0.19735313208654229 0 0.29971043857951379 0.19298806906372529 0 0.31162694501442678 0.19735313208654229 0 0.30371198994873311 0.20766104105629449 0 0.28939512316467059 0.2005252056429343 0 0.29971043857951379 0.19298806906372529 0 0.30371198994873311 0.20766104105629449 0 0.2794126892910288 0.21617120911671081 0 0.30371198994873311 0.20766104105629449 0 0.2794126892910288 0.21617120911671081 0 0.30371198994873311 0.20766104105629449 0 0.30659550557489001 0.220783432460853 0 0.2794126892910288 0.21617120911671081 0 0.27722953884408802 0.19656269719262509 0 0.28939512316467059 0.2005252056429343 0 0.2794126892910288 0.21617120911671081 0 0.28939512316467059 0.2005252056429343 0 0.30371198994873311 0.20766104105629449 0 0.30659550557489001 0.220783432460853 0 0.28440499104296979 0.23439140090611099 0 0.2794126892910288 0.21617120911671081 0 0.30659550557489001 0.220783432460853 0 0.28440499104296979 0.23439140090611099 0 0.30659550557489001 0.220783432460853 0 0.30328699804120918 0.24394477185791469 0 0.28440499104296979 0.23439140090611099 0 0.30659550557489001 0.220783432460853 0 0.30328699804120918 0.24394477185791469 0 0.31607427666693672 0.2331905299380852 0 0.28119448123381058 0.25405304303149878 0 0.30328699804120918 0.24394477185791469 0 0.28440499104296979 0.23439140090611099 0 0.3433555784436142 0.25004320974280247 0 0.34183468199228573 0.23727684870966961 0 0.33092809789354199 0.24744869965648561 0 0.34183468199228573 0.23727684870966961 0 0.3288410404878227 0.2348757256337824 0 0.33092809789354199 0.24744869965648561 0 0.3288410404878227 0.2348757256337824 0 0.33092809789354199 0.24744869965648561 0 0.31845456220733243 0.24449663650262579 0 0.31879452400631653 0.25919465198291952 0 0.30328699804120918 0.24394477185791469 0 0.31845456220733243 0.24449663650262579 0 0.30328699804120918 0.24394477185791469 0 0.31845456220733243 0.24449663650262579 0 0.31607427666693672 0.2331905299380852 0 0.3288410404878227 0.2348757256337824 0 0.31845456220733243 0.24449663650262579 0 0.31607427666693672 0.2331905299380852 0 0.3288410404878227 0.2348757256337824 0 0.31607427666693672 0.2331905299380852 0 0.32372534117020862 0.22390137225637691 0 0.30659550557489001 0.220783432460853 0 0.31607427666693672 0.2331905299380852 0 0.32372534117020862 0.22390137225637691 0 0.3288410404878227 0.2348757256337824 0 0.32372534117020862 0.22390137225637691 0 0.33832986301458301 0.22348170923356889 0 0.34183468199228573 0.23727684870966961 0 0.3288410404878227 0.2348757256337824 0 0.33832986301458301 0.22348170923356889 0 0.32372534117020862 0.22390137225637691 0 0.33832986301458301 0.22348170923356889 0 0.32878602010681029 0.20717546401559489 0 0.33832986301458301 0.22348170923356889 0 0.32878602010681029 0.20717546401559489 0 0.35089693608391498 0.21212819010674691 0 0.32878602010681029 0.20717546401559489 0 0.35097653463873058 0.19356749557033681 0 0.35089693608391498 0.21212819010674691 0 0.30659550557489001 0.220783432460853 0 0.32372534117020862 0.22390137225637691 0 0.32878602010681029 0.20717546401559489 0 0.31162694501442678 0.19735313208654229 0 0.30371198994873311 0.20766104105629449 0 0.32878602010681029 0.20717546401559489 0 0.30371198994873311 0.20766104105629449 0 0.30659550557489001 0.220783432460853 0 0.32878602010681029 0.20717546401559489 0 0.30659550557489001 0.220783432460853 0 0.32878602010681029 0.20717546401559489 0 0.32878602010681029 0.20717546401559489 0 0.31972446529152482 0.19052244909679969 0 0.3336272658304279 0.18895925974375941 0 0.31162694501442678 0.19735313208654229 0 0.32878602010681029 0.20717546401559489 0 0.31972446529152482 0.19052244909679969 0 0.30929675685570829 0.1858318568065235 0 0.31162694501442678 0.19735313208654229 0 0.31972446529152482 0.19052244909679969 0 0.32878602010681029 0.20717546401559489 0 0.3336272658304279 0.18895925974375941 0 0.35097653463873058 0.19356749557033681 0 0.32878602010681029 0.20717546401559489 0 0.35097653463873058 0.19356749557033681 0 0.3336272658304279 0.18895925974375941 0 0.35097653463873058 0.19356749557033681 0 0.35656535024169428 0.1804169243242798 0 0.35097653463873058 0.19356749557033681 0 0.35896651107905142 0.20360726904620211 0 0.35089693608391498 0.21212819010674691 0 0.35097653463873058 0.19356749557033681 0 0.36405518175537521 0.19484170215684679 0 0.35896651107905142 0.20360726904620211 0 0.35097653463873058 0.19356749557033681 0 0.36405518175537521 0.19484170215684679 0 0.35656535024169428 0.1804169243242798 0 0.36405518175537521 0.19484170215684679 0 0.35656535024169428 0.1804169243242798 0 0.38464328683150451 0.18806222539781059 0 0.36405518175537521 0.19484170215684679 0 0.36923798170140371 0.20928007436804161 0 0.38464328683150451 0.18806222539781059 0 0.36405518175537521 0.19484170215684679 0 0.36923798170140371 0.20928007436804161 0 0.35896651107905142 0.20360726904620211 0 0.36923798170140371 0.20928007436804161 0 0.36132702422268731 0.21787493872225441 0 0.35896651107905142 0.20360726904620211 0 0.36923798170140371 0.20928007436804161 0 0.36132702422268731 0.21787493872225441 0 0.37292139258550783 0.22672254500020811 0 0.36132702422268731 0.21787493872225441 0 0.35896651107905142 0.20360726904620211 0 0.35089693608391498 0.21212819010674691 0 0.34183468199228573 0.23727684870966961 0 0.33832986301458301 0.22348170923356889 0 0.35524969613090918 0.22837961108452459 0 0.36132702422268731 0.21787493872225441 0 0.35089693608391498 0.21212819010674691 0 0.35524969613090918 0.22837961108452459 0 0.33832986301458301 0.22348170923356889 0 0.35089693608391498 0.21212819010674691 0 0.35524969613090918 0.22837961108452459 0 0.36132702422268731 0.21787493872225441 0 0.35524969613090918 0.22837961108452459 0 0.37292139258550783 0.22672254500020811 0 0.35524969613090918 0.22837961108452459 0 0.37292139258550783 0.22672254500020811 0 0.36587213359177301 0.2378375665458646 0 0.37292139258550783 0.22672254500020811 0 0.36587213359177301 0.2378375665458646 0 0.3757768555661396 0.240133652284411 0 0.36587213359177301 0.2378375665458646 0 0.37169426656027921 0.24972740256563611 0 0.3757768555661396 0.240133652284411 0 0.36587213359177301 0.2378375665458646 0 0.37169426656027921 0.24972740256563611 0 0.36205361842742478 0.24882498742118489 0 0.36587213359177301 0.2378375665458646 0 0.36205361842742478 0.24882498742118489 0 0.35356337405553911 0.24205426642971811 0 0.35175757775775729 0.2532797976346674 0 0.36205361842742478 0.24882498742118489 0 0.35356337405553911 0.24205426642971811 0 0.35524969613090918 0.22837961108452459 0 0.36587213359177301 0.2378375665458646 0 0.35356337405553911 0.24205426642971811 0 0.34183468199228573 0.23727684870966961 0 0.35524969613090918 0.22837961108452459 0 0.35356337405553911 0.24205426642971811 0 0.3433555784436142 0.25004320974280247 0 0.34183468199228573 0.23727684870966961 0 0.35356337405553911 0.24205426642971811 0 0.3433555784436142 0.25004320974280247 0 0.35175757775775729 0.2532797976346674 0 0.35356337405553911 0.24205426642971811 0 0.33379856680907583 0.1437068241164389 0 0.32007589174333823 0.14676000458717811 0 0.33365817402274128 0.15789089208148979 0 0.33379856680907583 0.1437068241164389 0 0.33365817402274128 0.15789089208148979 0 0.34780073530519279 0.14835628742565241 0 0.33379856680907583 0.1437068241164389 0 0.34780073530519279 0.14835628742565241 0 0.34586764947947463 0.1362539899128139 0 0.33379856680907583 0.1437068241164389 0 0.33436770153514289 0.13112975471366969 0 0.34586764947947463 0.1362539899128139 0 0.34956654336434939 0.1234914401014125 0 0.33436770153514289 0.13112975471366969 0 0.34586764947947463 0.1362539899128139 0 0.33379856680907583 0.1437068241164389 0 0.33436770153514289 0.13112975471366969 0 0.3195478300457561 0.1332621056988223 0 0.32606950933900308 0.1158177097477945 0 0.33436770153514289 0.13112975471366969 0 0.3195478300457561 0.1332621056988223 0 0.30873747279203018 0.14281046260302349 0 0.3195478300457561 0.1332621056988223 0 0.32007589174333823 0.14676000458717811 0 0.30453528129870422 0.15487579661148021 0 0.32007589174333823 0.14676000458717811 0 0.33365817402274128 0.15789089208148979 0 0.33379856680907583 0.1437068241164389 0 0.3195478300457561 0.1332621056988223 0 0.32007589174333823 0.14676000458717811 0 0.30453528129870422 0.15487579661148021 0 0.33365817402274128 0.15789089208148979 0 0.30453528129870422 0.15487579661148021 0 0.32848741365188411 0.1727716232507491 0 0.33365817402274128 0.15789089208148979 0 0.30040947706207388 0.16512632217721829 0 0.32848741365188411 0.1727716232507491 0 0.3101655001798202 0.17563615506282959 0 0.30040947706207388 0.16512632217721829 0 0.32848741365188411 0.1727716232507491 0 0.3101655001798202 0.17563615506282959 0 0.31983557186529732 0.18171103000860481 0 0.32848741365188411 0.1727716232507491 0 0.3336272658304279 0.18895925974375941 0 0.31983557186529732 0.18171103000860481 0 0.32848741365188411 0.1727716232507491 0 0.3101655001798202 0.17563615506282959 0 0.30929675685570829 0.1858318568065235 0 0.31983557186529732 0.18171103000860481 0 0.30929675685570829 0.1858318568065235 0 0.31972446529152482 0.19052244909679969 0 0.31983557186529732 0.18171103000860481 0 0.31972446529152482 0.19052244909679969 0 0.3336272658304279 0.18895925974375941 0 0.31983557186529732 0.18171103000860481 0 0.32848741365188411 0.1727716232507491 0 0.34507730906385942 0.16855187839241309 0 0.35656535024169428 0.1804169243242798 0 0.3336272658304279 0.18895925974375941 0 0.32848741365188411 0.1727716232507491 0 0.35656535024169428 0.1804169243242798 0 0.32848741365188411 0.1727716232507491 0 0.35656535024169428 0.1804169243242798 0 0.32848741365188411 0.1727716232507491 0 0.33365817402274128 0.15789089208148979 0 0.34507730906385942 0.16855187839241309 0 0.33365817402274128 0.15789089208148979 0 0.34507730906385942 0.16855187839241309 0 0.36278106674677829 0.1609059875514994 0 0.34507730906385942 0.16855187839241309 0 0.35656535024169428 0.1804169243242798 0 0.36278106674677829 0.1609059875514994 0 0.33365817402274128 0.15789089208148979 0 0.36278106674677829 0.1609059875514994 0 0.35656535024169428 0.1804169243242798 0 0.37356219856206202 0.1741215612114578 0 0.38464328683150451 0.18806222539781059 0 0.35656535024169428 0.1804169243242798 0 0.38464328683150451 0.18806222539781059 0 0.35656535024169428 0.1804169243242798 0 0.37356219856206202 0.1741215612114578 0 0.36278106674677829 0.1609059875514994 0 0.36278106674677829 0.1609059875514994 0 0.36531512046589693 0.1378839500987098 0 0.37680076681991098 0.15092733218095339 0 0.36278106674677829 0.1609059875514994 0 0.34780073530519279 0.14835628742565241 0 0.36531512046589693 0.1378839500987098 0 0.34780073530519279 0.14835628742565241 0 0.34586764947947463 0.1362539899128139 0 0.36531512046589693 0.1378839500987098 0 0.33365817402274128 0.15789089208148979 0 0.36278106674677829 0.1609059875514994 0 0.34780073530519279 0.14835628742565241 0 0.34956654336434939 0.1234914401014125 0 0.34586764947947463 0.1362539899128139 0 0.36531512046589693 0.1378839500987098 0 0.34956654336434939 0.1234914401014125 0 0.36322639358210312 0.11848039068348271 0 0.36531512046589693 0.1378839500987098 0 0.36322639358210312 0.11848039068348271 0 0.36531512046589693 0.1378839500987098 0 0.38482072671029011 0.13725767299229241 0 0.36322639358210312 0.11848039068348271 0 0.38482072671029011 0.13725767299229241 0 0.36322639358210312 0.11848039068348271 0 0.38482072671029011 0.13725767299229241 0 0.38005682511468147 0.12140739343396729 0 0.38482072671029011 0.13725767299229241 0 0.39398634319161102 0.12556361147638159 0 0.38005682511468147 0.12140739343396729 0 0.38482072671029011 0.13725767299229241 0 0.39398634319161102 0.12556361147638159 0 0.40386822996399702 0.1370092008917044 0 0.39398634319161102 0.12556361147638159 0 0.40386822996399702 0.1370092008917044 0 0.40630256149234217 0.12337914253670321 0 0.38482072671029011 0.13725767299229241 0 0.40641505983847698 0.15603495530110209 0 0.38482072671029011 0.13725767299229241 0 0.40386822996399702 0.1370092008917044 0 0.40641505983847698 0.15603495530110209 0 0.38482072671029011 0.13725767299229241 0 0.39190395947081519 0.16392108302150901 0 0.40641505983847698 0.15603495530110209 0 0.36531512046589693 0.1378839500987098 0 0.38482072671029011 0.13725767299229241 0 0.37680076681991098 0.15092733218095339 0 0.38482072671029011 0.13725767299229241 0 0.37680076681991098 0.15092733218095339 0 0.39190395947081519 0.16392108302150901 0 0.36278106674677829 0.1609059875514994 0 0.39190395947081519 0.16392108302150901 0 0.36278106674677829 0.1609059875514994 0 0.37680076681991098 0.15092733218095339 0 0.39190395947081519 0.16392108302150901 0 0.37356219856206202 0.1741215612114578 0 0.36278106674677829 0.1609059875514994 0 0.39190395947081519 0.16392108302150901 0 0.37356219856206202 0.1741215612114578 0 0.39190395947081519 0.16392108302150901 0 0.38464328683150451 0.18806222539781059 0 0.4059128807594603 0.17981630131623391 0 0.39190395947081519 0.16392108302150901 0 0.38464328683150451 0.18806222539781059 0 0.39190395947081519 0.16392108302150901 0 0.42102685219485209 0.16693617849151851 0 0.40641505983847698 0.15603495530110209 0 0.4059128807594603 0.17981630131623391 0 0.39190395947081519 0.16392108302150901 0 0.42102685219485209 0.16693617849151851 0 0.42102685219485209 0.16693617849151851 0 0.40641505983847698 0.15603495530110209 0 0.41490094777653419 0.14712571815411829 0 0.39190395947081519 0.16392108302150901 0 0.42102685219485209 0.16693617849151851 0 0.4059128807594603 0.17981630131623391 0 0.42102685219485209 0.16693617849151851 0 0.42759287120751482 0.1799189573059411 0 0.4059128807594603 0.17981630131623391 0 0.42759287120751482 0.1799189573059411 0 0.42045703890892938 0.19185412915784311 0 0.42102685219485209 0.16693617849151851 0 0.42759287120751482 0.1799189573059411 0 0.45014974491888898 0.16995127396152809 0 0.42759287120751482 0.1799189573059411 0 0.42045703890892938 0.19185412915784311 0 0.43799329450951457 0.1898848624547933 0 0.42102685219485209 0.16693617849151851 0 0.45014974491888898 0.16995127396152809 0 0.42102685219485209 0.16693617849151851 0 0.43641214087317609 0.15776157540708571 0 0.42820809332857229 0.14540676379554701 0 0.42102685219485209 0.16693617849151851 0 0.43641214087317609 0.15776157540708571 0 0.45014974491888898 0.16995127396152809 0 0.43641214087317609 0.15776157540708571 0 0.42820809332857229 0.14540676379554701 0 0.44305345270963392 0.14224085277467549 0 0.42820809332857229 0.14540676379554701 0 0.43267139290449452 0.12562392175117529 0 0.41815906511665779 0.13368892679480551 0 0.42820809332857229 0.14540676379554701 0 0.43267139290449452 0.12562392175117529 0 0.44305345270963392 0.14224085277467549 0 0.43267139290449452 0.12562392175117529 0 0.41815906511665779 0.13368892679480551 0 0.41840244549433692 0.1204435227777134 0 0.41815906511665779 0.13368892679480551 0 0.41840244549433692 0.1204435227777134 0 0.40630256149234217 0.12337914253670321 0 0.40386822996399702 0.1370092008917044 0 0.41815906511665779 0.13368892679480551 0 0.40630256149234217 0.12337914253670321 0 0.40386822996399702 0.1370092008917044 0 0.41815906511665779 0.13368892679480551 0 0.41490094777653419 0.14712571815411829 0 0.42102685219485209 0.16693617849151851 0 0.42820809332857229 0.14540676379554701 0 0.41490094777653419 0.14712571815411829 0 0.40386822996399702 0.1370092008917044 0 0.40641505983847698 0.15603495530110209 0 0.41490094777653419 0.14712571815411829 0 0.42820809332857229 0.14540676379554701 0 0.41815906511665779 0.13368892679480551 0 0.41490094777653419 0.14712571815411829 0 0.39196586341458151 0.242441409442547 0 0.40329821407583749 0.23025496453590971 0 0.40866327585672191 0.24600766979752939 0 0.38129994004966872 0.25577407136566988 0 0.39196586341458151 0.242441409442547 0 0.40866327585672191 0.24600766979752939 0 0.38129994004966872 0.25577407136566988 0 0.39196586341458151 0.242441409442547 0 0.38106847269238292 0.24536179082341181 0 0.37169426656027921 0.24972740256563611 0 0.38106847269238292 0.24536179082341181 0 0.3757768555661396 0.240133652284411 0 0.37292139258550783 0.22672254500020811 0 0.3757768555661396 0.240133652284411 0 0.38460543787124563 0.238732418458795 0 0.38106847269238292 0.24536179082341181 0 0.3757768555661396 0.240133652284411 0 0.38460543787124563 0.238732418458795 0 0.39196586341458151 0.242441409442547 0 0.38106847269238292 0.24536179082341181 0 0.38460543787124563 0.238732418458795 0 0.39196586341458151 0.242441409442547 0 0.38460543787124563 0.238732418458795 0 0.38844350160088592 0.2284985707660753 0 0.37292139258550783 0.22672254500020811 0 0.38460543787124563 0.238732418458795 0 0.38844350160088592 0.2284985707660753 0 0.37292139258550783 0.22672254500020811 0 0.38844350160088592 0.2284985707660753 0 0.38369130631537601 0.21297307403445409 0 0.38844350160088592 0.2284985707660753 0 0.39679964264504158 0.21937630878092959 0 0.38369130631537601 0.21297307403445409 0 0.38844350160088592 0.2284985707660753 0 0.39679964264504158 0.21937630878092959 0 0.40329821407583749 0.23025496453590971 0 0.39196586341458151 0.242441409442547 0 0.38844350160088592 0.2284985707660753 0 0.40329821407583749 0.23025496453590971 0 0.39679964264504158 0.21937630878092959 0 0.40329821407583749 0.23025496453590971 0 0.41066806580544729 0.2160617609406458 0 0.39598296716959969 0.20626700748070109 0 0.40513352984814438 0.19492560706685999 0 0.41066806580544729 0.2160617609406458 0 0.39679964264504158 0.21937630878092959 0 0.39598296716959969 0.20626700748070109 0 0.41066806580544729 0.2160617609406458 0 0.39679964264504158 0.21937630878092959 0 0.39598296716959969 0.20626700748070109 0 0.38369130631537601 0.21297307403445409 0 0.36923798170140371 0.20928007436804161 0 0.37292139258550783 0.22672254500020811 0 0.38369130631537601 0.21297307403445409 0 0.36923798170140371 0.20928007436804161 0 0.38369130631537601 0.21297307403445409 0 0.38464328683150451 0.18806222539781059 0 0.39598296716959969 0.20626700748070109 0 0.38369130631537601 0.21297307403445409 0 0.38464328683150451 0.18806222539781059 0 0.39598296716959969 0.20626700748070109 0 0.38464328683150451 0.18806222539781059 0 0.40513352984814438 0.19492560706685999 0 0.4059128807594603 0.17981630131623391 0 0.38464328683150451 0.18806222539781059 0 0.40513352984814438 0.19492560706685999 0 0.40513352984814438 0.19492560706685999 0 0.42045703890892938 0.19185412915784311 0 0.42444067869502011 0.20693424997503959 0 0.4059128807594603 0.17981630131623391 0 0.40513352984814438 0.19492560706685999 0 0.42045703890892938 0.19185412915784311 0 0.42045703890892938 0.19185412915784311 0 0.42444067869502011 0.20693424997503959 0 0.43799329450951457 0.1898848624547933 0 0.42444067869502011 0.20693424997503959 0 0.44184419378540352 0.2076794424592901 0 0.43799329450951457 0.1898848624547933 0 0.42444067869502011 0.20693424997503959 0 0.4302098735549707 0.2206458244329694 0 0.44184419378540352 0.2076794424592901 0 0.42444067869502011 0.20693424997503959 0 0.41066806580544729 0.2160617609406458 0 0.4302098735549707 0.2206458244329694 0 0.40513352984814438 0.19492560706685999 0 0.42444067869502011 0.20693424997503959 0 0.41066806580544729 0.2160617609406458 0 0.41066806580544729 0.2160617609406458 0 0.41777320819135039 0.22984229758728861 0 0.4302098735549707 0.2206458244329694 0 0.40329821407583749 0.23025496453590971 0 0.41066806580544729 0.2160617609406458 0 0.41777320819135039 0.22984229758728861 0 0.4302098735549707 0.2206458244329694 0 0.43602661166377499 0.2362412682293889 0 0.44584438813649652 0.2203436080528294 0 0.41777320819135039 0.22984229758728861 0 0.4302098735549707 0.2206458244329694 0 0.43602661166377499 0.2362412682293889 0 0.43602661166377499 0.2362412682293889 0 0.43076425121212841 0.2486853010718087 0 0.40866327585672191 0.24600766979752939 0 0.43602661166377499 0.2362412682293889 0 0.40866327585672191 0.24600766979752939 0 0.41777320819135039 0.22984229758728861 0 0.43602661166377499 0.2362412682293889 0 0.40866327585672191 0.24600766979752939 0 0.41664462513020523 0.25422696758609492 0 0.43076425121212841 0.2486853010718087 0 0.40866327585672191 0.24600766979752939 0 0.40329821407583749 0.23025496453590971 0 0.41777320819135039 0.22984229758728861 0 0.40866327585672191 0.24600766979752939 0 0.45166362976964691 0.25106894999712381 0 0.45384283414141641 0.23962742592169059 0 0.47583181488482379 0.2451422378191761 0 0.45166362976964691 0.25106894999712381 0 0.47583181488482379 0.2451422378191761 0 0.45384283414141641 0.23962742592169059 0 0.47692141707070451 0.23056955077157251 0 0.45166362976964691 0.25106894999712381 0 0.43076425121212841 0.2486853010718087 0 0.45384283414141641 0.23962742592169059 0 0.43602661166377499 0.2362412682293889 0 0.43076425121212841 0.2486853010718087 0 0.45384283414141641 0.23962742592169059 0 0.43076425121212841 0.2486853010718087 0 0.45384283414141641 0.23962742592169059 0 0.43602661166377499 0.2362412682293889 0 0.46338994747082818 0.22647486666124839 0 0.43602661166377499 0.2362412682293889 0 0.44584438813649652 0.2203436080528294 0 0.46338994747082818 0.22647486666124839 0 0.43602661166377499 0.2362412682293889 0 0.45384283414141641 0.23962742592169059 0 0.46338994747082818 0.22647486666124839 0 0.44584438813649652 0.2203436080528294 0 0.46338994747082818 0.22647486666124839 0 0.4574246187180494 0.20998202225832771 0 0.45384283414141641 0.23962742592169059 0 0.46338994747082818 0.22647486666124839 0 0.47692141707070451 0.23056955077157251 0 0.46338994747082818 0.22647486666124839 0 0.4574246187180494 0.20998202225832771 0 0.47311107537994651 0.21060674662752529 0 0.4574246187180494 0.20998202225832771 0 0.46861366351278472 0.19789432193598561 0 0.47311107537994651 0.21060674662752529 0 0.44584438813649652 0.2203436080528294 0 0.4574246187180494 0.20998202225832771 0 0.44184419378540352 0.2076794424592901 0 0.4302098735549707 0.2206458244329694 0 0.44584438813649652 0.2203436080528294 0 0.44184419378540352 0.2076794424592901 0 0.4574246187180494 0.20998202225832771 0 0.44184419378540352 0.2076794424592901 0 0.45120510308892831 0.19507838461398491 0 0.44184419378540352 0.2076794424592901 0 0.43799329450951457 0.1898848624547933 0 0.45120510308892831 0.19507838461398491 0 0.4574246187180494 0.20998202225832771 0 0.45120510308892831 0.19507838461398491 0 0.46861366351278472 0.19789432193598561 0 0.45120510308892831 0.19507838461398491 0 0.46861366351278472 0.19789432193598561 0 0.45014974491888898 0.16995127396152809 0 0.46861366351278472 0.19789432193598561 0 0.48377650321145821 0.20030440734603891 0 0.47890777313388699 0.17818810929941131 0 0.46861366351278472 0.19789432193598561 0 0.48377650321145821 0.20030440734603891 0 0.47311107537994651 0.21060674662752529 0 0.48377650321145821 0.20030440734603891 0 0.5 0.19442179120654851 0 0.47890777313388699 0.17818810929941131 0 0.48377650321145821 0.20030440734603891 0 0.5 0.19442179120654851 0 0.49075328327788142 0.2167084650931079 0 0.5 0.19442179120654851 0 0.49075328327788142 0.2167084650931079 0 0.49999999999999339 0.2215116756214566 0 0.48377650321145821 0.20030440734603891 0 0.49075328327788142 0.2167084650931079 0 0.47311107537994651 0.21060674662752529 0 0.46338994747082818 0.22647486666124839 0 0.49075328327788142 0.2167084650931079 0 0.47311107537994651 0.21060674662752529 0 0.46338994747082818 0.22647486666124839 0 0.49075328327788142 0.2167084650931079 0 0.46338994747082818 0.22647486666124839 0 0.49075328327788142 0.2167084650931079 0 0.47692141707070451 0.23056955077157251 0 0.47692141707070451 0.23056955077157251 0 0.49999999999999339 0.2215116756214566 0 0.50000000000000067 0.2392155256412283 0 0.49075328327788142 0.2167084650931079 0 0.47692141707070451 0.23056955077157251 0 0.49999999999999339 0.2215116756214566 0 0.47692141707070451 0.23056955077157251 0 0.49999999999999339 0.2215116756214566 0 0.50000000000000067 0.2392155256412283 0 0.47583181488482379 0.2451422378191761 0 0.48341195364679568 0.26002408893105827 0 0.50000000000000067 0.2392155256412283 0 0.47583181488482379 0.2451422378191761 0 0.47692141707070451 0.23056955077157251 0 0.50000000000000067 0.2392155256412283 0 0.47583181488482379 0.2451422378191761 0 0.45384283414141641 0.23962742592169059 0 0.47692141707070451 0.23056955077157251 0 0.47583181488482379 0.2451422378191761 0 0.46053260521531592 0.14091734283165991 0 0.45014974491888898 0.16995127396152809 0 0.47759274938693741 0.15337993901402261 0 0.46053260521531592 0.14091734283165991 0 0.47596637305353268 0.1236489788231635 0 0.45094723062946279 0.12208098845927939 0 0.46053260521531592 0.14091734283165991 0 0.44305345270963392 0.14224085277467549 0 0.45094723062946279 0.12208098845927939 0 0.43267139290449452 0.12562392175117529 0 0.44305345270963392 0.14224085277467549 0 0.45094723062946279 0.12208098845927939 0 0.46053260521531592 0.14091734283165991 0 0.44305345270963392 0.14224085277467549 0 0.45014974491888898 0.16995127396152809 0 0.43641214087317609 0.15776157540708571 0 0.44305345270963392 0.14224085277467549 0 0.45014974491888898 0.16995127396152809 0 0.42759287120751482 0.1799189573059411 0 0.43799329450951457 0.1898848624547933 0 0.45014974491888898 0.16995127396152809 0 0.43799329450951457 0.1898848624547933 0 0.45120510308892831 0.19507838461398491 0 0.45014974491888898 0.16995127396152809 0 0.46861366351278472 0.19789432193598561 0 0.45014974491888898 0.16995127396152809 0 0.47890777313388699 0.17818810929941131 0 0.45014974491888898 0.16995127396152809 0 0.47890777313388699 0.17818810929941131 0 0.47759274938693741 0.15337993901402261 0 0.5 0.19442179120654851 0 0.47890777313388699 0.17818810929941131 0 0.5 0.16733190679164031 0 0.47890777313388699 0.17818810929941131 0 0.5 0.16733190679164031 0 0.47759274938693741 0.15337993901402261 0 0.5 0.16733190679164031 0 0.47759274938693741 0.15337993901402261 0 0.5 0.14024202237673219 0 0.46053260521531592 0.14091734283165991 0 0.47759274938693741 0.15337993901402261 0 0.47596637305353268 0.1236489788231635 0 0.5 0.14024202237673219 0 0.5 0.11315213796182411 0 0.47596637305353268 0.1236489788231635 0 0.47759274938693741 0.15337993901402261 0 0.5 0.14024202237673219 0 0.47596637305353268 0.1236489788231635 0 0.5 0.11315213796182411 0 0.48146508414057748 0.097867616362435003 0 0.47596637305353268 0.1236489788231635 0 0.5 0.11315213796182411 0 0.48146508414057748 0.097867616362435003 0 0.5 0.08606225354691599 0 0.48146508414057748 0.097867616362435003 0 0.46684480345772023 0.083704774648097419 0 0.46085076100455152 0.1051260388446932 0 0.48146508414057748 0.097867616362435003 0 0.47596637305353268 0.1236489788231635 0 0.46085076100455152 0.1051260388446932 0 0.5 0.08606225354691599 0 0.48297411160829701 0.071419164250366693 0 0.5 0.058972369132007867 0 0.48146508414057748 0.097867616362435003 0 0.5 0.08606225354691599 0 0.48297411160829701 0.071419164250366693 0 0.48146508414057748 0.097867616362435003 0 0.48297411160829701 0.071419164250366693 0 0.46684480345772023 0.083704774648097419 0 0.48297411160829701 0.071419164250366693 0 0.46368779630991369 0.062884433647911922 0 0.46684480345772023 0.083704774648097419 0 0.46368779630991369 0.062884433647911922 0 0.4455316944648699 0.078385408113317706 0 0.46368779630991369 0.062884433647911922 0 0.46684480345772023 0.083704774648097419 0 0.4455316944648699 0.078385408113317706 0 0.46684480345772023 0.083704774648097419 0 0.4455316944648699 0.078385408113317706 0 0.46085076100455152 0.1051260388446932 0 0.4455316944648699 0.078385408113317706 0 0.46085076100455152 0.1051260388446932 0 0.43655847815144871 0.087567909291679069 0 0.4455316944648699 0.078385408113317706 0 0.43655847815144871 0.087567909291679069 0 0.43300293116684879 0.070359854062556224 0 0.4455316944648699 0.078385408113317706 0 0.43300293116684879 0.070359854062556224 0 0.44432728466234178 0.059795406129610977 0 0.46368779630991369 0.062884433647911922 0 0.4455316944648699 0.078385408113317706 0 0.44432728466234178 0.059795406129610977 0 0.47596637305353268 0.1236489788231635 0 0.46085076100455152 0.1051260388446932 0 0.45094723062946279 0.12208098845927939 0 0.46085076100455152 0.1051260388446932 0 0.43655847815144871 0.087567909291679069 0 0.46085076100455152 0.1051260388446932 0 0.43845481143497073 0.110031162788742 0 0.43302597451412722 0.09911942802672713 0 0.46085076100455152 0.1051260388446932 0 0.43302597451412722 0.09911942802672713 0 0.43655847815144871 0.087567909291679069 0 0.43267139290449452 0.12562392175117529 0 0.45094723062946279 0.12208098845927939 0 0.43845481143497073 0.110031162788742 0 0.46085076100455152 0.1051260388446932 0 0.45094723062946279 0.12208098845927939 0 0.43845481143497073 0.110031162788742 0 0.43267139290449452 0.12562392175117529 0 0.43845481143497073 0.110031162788742 0 0.42512360996164289 0.1101942667169049 0 0.43267139290449452 0.12562392175117529 0 0.42512360996164289 0.1101942667169049 0 0.41840244549433692 0.1204435227777134 0 0.42512360996164289 0.1101942667169049 0 0.41840244549433692 0.1204435227777134 0 0.41145911669595331 0.1096997076075869 0 0.41840244549433692 0.1204435227777134 0 0.41145911669595331 0.1096997076075869 0 0.40630256149234217 0.12337914253670321 0 0.41145911669595331 0.1096997076075869 0 0.41782870111656589 0.098086010242617663 0 0.40188519574572068 0.098349840232826835 0 0.41782870111656589 0.098086010242617663 0 0.41132824907511162 0.087668761689670915 0 0.40188519574572068 0.098349840232826835 0 0.42512360996164289 0.1101942667169049 0 0.41145911669595331 0.1096997076075869 0 0.41782870111656589 0.098086010242617663 0 0.41782870111656589 0.098086010242617663 0 0.43302597451412722 0.09911942802672713 0 0.42198136315300161 0.08812274721924529 0 0.42512360996164289 0.1101942667169049 0 0.41782870111656589 0.098086010242617663 0 0.43302597451412722 0.09911942802672713 0 0.43845481143497073 0.110031162788742 0 0.42512360996164289 0.1101942667169049 0 0.43302597451412722 0.09911942802672713 0 0.43655847815144871 0.087567909291679069 0 0.42198136315300161 0.08812274721924529 0 0.41226619529834591 0.070009779738664735 0 0.43655847815144871 0.087567909291679069 0 0.41226619529834591 0.070009779738664735 0 0.43302597451412722 0.09911942802672713 0 0.43655847815144871 0.087567909291679069 0 0.42198136315300161 0.08812274721924529 0 0.43300293116684879 0.070359854062556224 0 0.41226619529834591 0.070009779738664735 0 0.42739758089851382 0.054541393999090262 0 0.43655847815144871 0.087567909291679069 0 0.43300293116684879 0.070359854062556224 0 0.41226619529834591 0.070009779738664735 0 0.42198136315300161 0.08812274721924529 0 0.41226619529834591 0.070009779738664735 0 0.41132824907511162 0.087668761689670915 0 0.41226619529834591 0.070009779738664735 0 0.41132824907511162 0.087668761689670915 0 0.39992923875424519 0.082621500021195282 0 0.41782870111656589 0.098086010242617663 0 0.42198136315300161 0.08812274721924529 0 0.41132824907511162 0.087668761689670915 0 0.41132824907511162 0.087668761689670915 0 0.39992923875424519 0.082621500021195282 0 0.40188519574572068 0.098349840232826835 0 0.39992923875424519 0.082621500021195282 0 0.38759228221014619 0.095233220303727467 0 0.40188519574572068 0.098349840232826835 0 0.39992923875424519 0.082621500021195282 0 0.38759228221014619 0.095233220303727467 0 0.41226619529834591 0.070009779738664735 0 0.39707386889515511 0.070908779594843374 0 0.39683376059791597 0.058855427163935138 0 0.41226619529834591 0.070009779738664735 0 0.39683376059791597 0.058855427163935138 0 0.41226619529834591 0.070009779738664735 0 0.39992923875424519 0.082621500021195282 0 0.41226619529834591 0.070009779738664735 0 0.39992923875424519 0.082621500021195282 0 0.39707386889515511 0.070908779594843374 0 0.39992923875424519 0.082621500021195282 0 0.39707386889515511 0.070908779594843374 0 0.38583977896057609 0.075316135258006081 0 0.39707386889515511 0.070908779594843374 0 0.38282045226763678 0.060547433734587333 0 0.39683376059791597 0.058855427163935138 0 0.39707386889515511 0.070908779594843374 0 0.38583977896057609 0.075316135258006081 0 0.38282045226763678 0.060547433734587333 0 0.38583977896057609 0.075316135258006081 0 0.37596532967213542 0.069868995675824025 0 0.37682589963749002 0.081332762740894418 0 0.37307104071443398 0.061065176941414383 0 0.37596532967213542 0.069868995675824025 0 0.38282045226763678 0.060547433734587333 0 0.38583977896057609 0.075316135258006081 0 0.37596532967213542 0.069868995675824025 0 0.38282045226763678 0.060547433734587333 0 0.39992923875424519 0.082621500021195282 0 0.38412803848747967 0.086259474622970303 0 0.38759228221014619 0.095233220303727467 0 0.39992923875424519 0.082621500021195282 0 0.38583977896057609 0.075316135258006081 0 0.38412803848747967 0.086259474622970303 0 0.37045299287494049 0.09679375479102828 0 0.38412803848747967 0.086259474622970303 0 0.38759228221014619 0.095233220303727467 0 0.38583977896057609 0.075316135258006081 0 0.38412803848747967 0.086259474622970303 0 0.37682589963749002 0.081332762740894418 0 0.37045299287494049 0.09679375479102828 0 0.38412803848747967 0.086259474622970303 0 0.37682589963749002 0.081332762740894418 0 0.37045299287494049 0.09679375479102828 0 0.38005682511468147 0.12140739343396729 0 0.37045299287494049 0.09679375479102828 0 0.38759228221014619 0.095233220303727467 0 0.38890959528695412 0.1083938038889192 0 0.37045299287494049 0.09679375479102828 0 0.38890959528695412 0.1083938038889192 0 0.38005682511468147 0.12140739343396729 0 0.39398634319161102 0.12556361147638159 0 0.38890959528695412 0.1083938038889192 0 0.38005682511468147 0.12140739343396729 0 0.39398634319161102 0.12556361147638159 0 0.38890959528695412 0.1083938038889192 0 0.39948393258462489 0.11301500309558379 0 0.39398634319161102 0.12556361147638159 0 0.40630256149234217 0.12337914253670321 0 0.39948393258462489 0.11301500309558379 0 0.41145911669595331 0.1096997076075869 0 0.40630256149234217 0.12337914253670321 0 0.39948393258462489 0.11301500309558379 0 0.41145911669595331 0.1096997076075869 0 0.39948393258462489 0.11301500309558379 0 0.40188519574572068 0.098349840232826835 0 0.38759228221014619 0.095233220303727467 0 0.38890959528695412 0.1083938038889192 0 0.40188519574572068 0.098349840232826835 0 0.38890959528695412 0.1083938038889192 0 0.39948393258462489 0.11301500309558379 0 0.40188519574572068 0.098349840232826835 0 0.3912475249538237 0.025882868266216091 0 0.40325323122183843 0.024352223252143548 0 0.39536881189699241 0.01378873843063998 0 0.3912475249538237 0.025882868266216091 0 0.40325323122183843 0.024352223252143548 0 0.39805180056669343 0.032772735105760037 0 0.40325323122183843 0.024352223252143548 0 0.39805180056669343 0.032772735105760037 0 0.40655765028286611 0.035582104639029083 0 0.40325323122183843 0.024352223252143548 0 0.39536881189699241 0.01378873843063998 0 0.40720094273855439 0.01372602960598159 0 0.40060323373222451 0.0042547197705496897 0 0.39536881189699241 0.01378873843063998 0 0.40720094273855439 0.01372602960598159 0 0.40060323373222451 0.0042547197705496897 0 0.41081432206005303 0.0037114498956348132 0 0.4046584776842293 -0.0050702490882302163 0 0.40060323373222451 0.0042547197705496897 0 0.41081432206005303 0.0037114498956348132 0 0.40720094273855439 0.01372602960598159 0 0.40060323373222451 0.0042547197705496897 0 0.39025836247721268 0.0036292771787240202 0 0.39531848553630572 -0.0042569273994520467 0 0.40060323373222451 0.0042547197705496897 0 0.39536881189699241 0.01378873843063998 0 0.39025836247721268 0.0036292771787240202 0 0.37844401144479839 0.012609093579625891 0 0.38356146703633898 -0.0078565650350033434 0 0.37844401144479839 0.012609093579625891 0 0.39025836247721268 0.0036292771787240202 0 0.38356146703633898 -0.0078565650350033434 0 0.39536881189699241 0.01378873843063998 0 0.37844401144479839 0.012609093579625891 0 0.39025836247721268 0.0036292771787240202 0 0.3912475249538237 0.025882868266216091 0 0.37844401144479839 0.012609093579625891 0 0.38063223185621792 0.036578263657106522 0 0.37844401144479839 0.012609093579625891 0 0.38063223185621792 0.036578263657106522 0 0.37146335928247548 0.04052602251159599 0 0.37844401144479839 0.012609093579625891 0 0.38063223185621792 0.036578263657106522 0 0.3912475249538237 0.025882868266216091 0 0.39536881189699241 0.01378873843063998 0 0.37844401144479839 0.012609093579625891 0 0.37146335928247548 0.04052602251159599 0 0.38063223185621792 0.036578263657106522 0 0.38282045226763678 0.060547433734587333 0 0.3912475249538237 0.025882868266216091 0 0.38063223185621792 0.036578263657106522 0 0.3908528121234538 0.035995570554822158 0 0.38063223185621792 0.036578263657106522 0 0.38791705742610771 0.044539104287684539 0 0.3908528121234538 0.035995570554822158 0 0.38791705742610771 0.044539104287684539 0 0.38282045226763678 0.060547433734587333 0 0.39079668350586277 0.051215399393808793 0 0.37307104071443398 0.061065176941414383 0 0.37146335928247548 0.04052602251159599 0 0.38282045226763678 0.060547433734587333 0 0.38063223185621792 0.036578263657106522 0 0.38791705742610771 0.044539104287684539 0 0.38282045226763678 0.060547433734587333 0 0.38063223185621792 0.036578263657106522 0 0.38282045226763678 0.060547433734587333 0 0.38282045226763678 0.060547433734587333 0 0.39683376059791597 0.058855427163935138 0 0.39079668350586277 0.051215399393808793 0 0.41226619529834591 0.070009779738664735 0 0.39683376059791597 0.058855427163935138 0 0.40948896714378957 0.05055434744181983 0 0.39683376059791597 0.058855427163935138 0 0.39079668350586277 0.051215399393808793 0 0.39674782008621368 0.04348041067995833 0 0.39683376059791597 0.058855427163935138 0 0.39674782008621368 0.04348041067995833 0 0.40948896714378957 0.05055434744181983 0 0.3908528121234538 0.035995570554822158 0 0.39805180056669343 0.032772735105760037 0 0.39674782008621368 0.04348041067995833 0 0.3912475249538237 0.025882868266216091 0 0.3908528121234538 0.035995570554822158 0 0.39805180056669343 0.032772735105760037 0 0.38791705742610771 0.044539104287684539 0 0.3908528121234538 0.035995570554822158 0 0.39674782008621368 0.04348041067995833 0 0.38791705742610771 0.044539104287684539 0 0.39079668350586277 0.051215399393808793 0 0.39674782008621368 0.04348041067995833 0 0.39674782008621368 0.04348041067995833 0 0.40655765028286611 0.035582104639029083 0 0.40948896714378957 0.05055434744181983 0 0.39805180056669343 0.032772735105760037 0 0.39674782008621368 0.04348041067995833 0 0.40655765028286611 0.035582104639029083 0 0.40655765028286611 0.035582104639029083 0 0.41713079569888262 0.040856968430241461 0 0.41557099838193923 0.024039796491718179 0 0.41713079569888262 0.040856968430241461 0 0.42755741698364552 0.032815777208855347 0 0.41557099838193923 0.024039796491718179 0 0.40655765028286611 0.035582104639029083 0 0.41713079569888262 0.040856968430241461 0 0.40948896714378957 0.05055434744181983 0 0.41226619529834591 0.070009779738664735 0 0.40948896714378957 0.05055434744181983 0 0.42739758089851382 0.054541393999090262 0 0.41713079569888262 0.040856968430241461 0 0.40948896714378957 0.05055434744181983 0 0.42739758089851382 0.054541393999090262 0 0.41226619529834591 0.070009779738664735 0 0.42739758089851382 0.054541393999090262 0 0.43300293116684879 0.070359854062556224 0 0.42739758089851382 0.054541393999090262 0 0.44432728466234178 0.059795406129610977 0 0.41713079569888262 0.040856968430241461 0 0.42739758089851382 0.054541393999090262 0 0.42755741698364552 0.032815777208855347 0 0.42739758089851382 0.054541393999090262 0 0.42755741698364552 0.032815777208855347 0 0.44252896649868317 0.039073008259517338 0 0.42739758089851382 0.054541393999090262 0 0.44252896649868317 0.039073008259517338 0 0.42755741698364552 0.032815777208855347 0 0.4358194844604939 0.024219735287320941 0 0.44252896649868317 0.039073008259517338 0 0.42755741698364552 0.032815777208855347 0 0.41557099838193923 0.024039796491718179 0 0.4265644217351573 0.014684511896395219 0 0.4358194844604939 0.024219735287320941 0 0.4265644217351573 0.014684511896395219 0 0.44548351627008242 0.01642882659412407 0 0.42755741698364552 0.032815777208855347 0 0.4358194844604939 0.024219735287320941 0 0.4265644217351573 0.014684511896395219 0 0.41557099838193923 0.024039796491718179 0 0.4165272652869268 0.01155925859927168 0 0.4265644217351573 0.014684511896395219 0 0.41557099838193923 0.024039796491718179 0 0.40720094273855439 0.01372602960598159 0 0.4165272652869268 0.01155925859927168 0 0.40325323122183843 0.024352223252143548 0 0.41557099838193923 0.024039796491718179 0 0.40720094273855439 0.01372602960598159 0 0.40325323122183843 0.024352223252143548 0 0.40655765028286611 0.035582104639029083 0 0.41557099838193923 0.024039796491718179 0 0.41081432206005303 0.0037114498956348132 0 0.40720094273855439 0.01372602960598159 0 0.4165272652869268 0.01155925859927168 0 0.4165272652869268 0.01155925859927168 0 0.42248564151892998 0.0016345051066286029 0 0.4265644217351573 0.014684511896395219 0 0.41081432206005303 0.0037114498956348132 0 0.4165272652869268 0.01155925859927168 0 0.42248564151892998 0.0016345051066286029 0 0.42248564151892998 0.0016345051066286029 0 0.4265644217351573 0.014684511896395219 0 0.4382820622288856 -0.0014159552958160841 0 0.4265644217351573 0.014684511896395219 0 0.44548351627008242 0.01642882659412407 0 0.4382820622288856 -0.0014159552958160841 0 0.45100246047295739 0.0046664116742636159 0 0.44548351627008242 0.01642882659412407 0 0.4382820622288856 -0.0014159552958160841 0 0.45100246047295739 0.0046664116742636159 0 0.44548351627008242 0.01642882659412407 0 0.4580470330794123 0.0188547641718908 0 0.4358194844604939 0.024219735287320941 0 0.4514029071021442 0.02821869916314456 0 0.44548351627008242 0.01642882659412407 0 0.4358194844604939 0.024219735287320941 0 0.4514029071021442 0.02821869916314456 0 0.44252896649868317 0.039073008259517338 0 0.4514029071021442 0.02821869916314456 0 0.44548351627008242 0.01642882659412407 0 0.4580470330794123 0.0188547641718908 0 0.4514029071021442 0.02821869916314456 0 0.4580470330794123 0.0188547641718908 0 0.46553563141862692 0.027383902935855992 0 0.4580470330794123 0.0188547641718908 0 0.46553563141862692 0.027383902935855992 0 0.471035018561343 0.01684384088441979 0 0.4580470330794123 0.0188547641718908 0 0.4620271672997433 0.0081957990277541914 0 0.471035018561343 0.01684384088441979 0 0.4620271672997433 0.0081957990277541914 0 0.47207727543944228 0.0077163925679632076 0 0.45540766643685782 -0.0078732224449345398 0 0.4620271672997433 0.0081957990277541914 0 0.47207727543944228 0.0077163925679632076 0 0.471035018561343 0.01684384088441979 0 0.45100246047295739 0.0046664116742636159 0 0.4620271672997433 0.0081957990277541914 0 0.45540766643685782 -0.0078732224449345398 0 0.45100246047295739 0.0046664116742636159 0 0.4580470330794123 0.0188547641718908 0 0.4620271672997433 0.0081957990277541914 0 0.42739758089851382 0.054541393999090262 0 0.44432728466234178 0.059795406129610977 0 0.44252896649868317 0.039073008259517338 0 0.44432728466234178 0.059795406129610977 0 0.44252896649868317 0.039073008259517338 0 0.46100281088556699 0.043351957730158222 0 0.4514029071021442 0.02821869916314456 0 0.44252896649868317 0.039073008259517338 0 0.46100281088556699 0.043351957730158222 0 0.4514029071021442 0.02821869916314456 0 0.46553563141862692 0.027383902935855992 0 0.46100281088556699 0.043351957730158222 0 0.46553563141862692 0.027383902935855992 0 0.46100281088556699 0.043351957730158222 0 0.4764725540003833 0.035303178421407518 0 0.46368779630991369 0.062884433647911922 0 0.44432728466234178 0.059795406129610977 0 0.46100281088556699 0.043351957730158222 0 0.48297411160829701 0.071419164250366693 0 0.46368779630991369 0.062884433647911922 0 0.48184389815495748 0.047383459182506117 0 0.46368779630991369 0.062884433647911922 0 0.46100281088556699 0.043351957730158222 0 0.48184389815495748 0.047383459182506117 0 0.46368779630991369 0.062884433647911922 0 0.48184389815495748 0.047383459182506117 0 0.46100281088556699 0.043351957730158222 0 0.48184389815495748 0.047383459182506117 0 0.4764725540003833 0.035303178421407518 0 0.48184389815495748 0.047383459182506117 0 0.50000000000000089 0.031882484717099757 0 0.48184389815495748 0.047383459182506117 0 0.50000000000000089 0.031882484717099757 0 0.5 0.058972369132007867 0 0.48184389815495748 0.047383459182506117 0 0.4764725540003833 0.035303178421407518 0 0.50000000000000089 0.031882484717099757 0 0.48297411160829701 0.071419164250366693 0 0.48184389815495748 0.047383459182506117 0 0.5 0.058972369132007867 0 0.48173822001607031 0.002441982684480838 0 0.47207727543944228 0.0077163925679632076 0 0.45540766643685782 -0.0078732224449345398 0 0.48073089036299149 0.01447516008145705 0 0.48088876464914698 0.0066420825236524483 0 0.47207727543944228 0.0077163925679632076 0 0.48088876464914698 0.0066420825236524483 0 0.48173822001607031 0.002441982684480838 0 0.48944624590280772 0.014576472087587141 0 0.48073089036299149 0.01447516008145705 0 0.48088876464914698 0.0066420825236524483 0 0.48944624590280772 0.014576472087587141 0 0.48088876464914698 0.0066420825236524483 0 0.48173822001607031 0.002441982684480838 0 0.47207727543944228 0.0077163925679632076 0 0.48088876464914698 0.0066420825236524483 0 0.48173822001607031 0.002441982684480838 0 0.48073089036299149 0.01447516008145705 0 0.47207727543944228 0.0077163925679632076 0 0.471035018561343 0.01684384088441979 0 0.46553563141862692 0.027383902935855992 0 0.471035018561343 0.01684384088441979 0 0.48098968552297122 0.023479159592672289 0 0.46553563141862692 0.027383902935855992 0 0.4764725540003833 0.035303178421407518 0 0.48098968552297122 0.023479159592672289 0 0.48073089036299149 0.01447516008145705 0 0.471035018561343 0.01684384088441979 0 0.48098968552297122 0.023479159592672289 0 0.48073089036299149 0.01447516008145705 0 0.48098968552297122 0.023479159592672289 0 0.48944624590280772 0.014576472087587141 0 0.50000000000000089 0.031882484717099757 0 0.50000000000000044 0.0095961811708810997 0 0.48944624590280772 0.014576472087587141 0 0.4764725540003833 0.035303178421407518 0 0.50000000000000089 0.031882484717099757 0 0.48098968552297122 0.023479159592672289 0 0.50000000000000089 0.031882484717099757 0 0.48098968552297122 0.023479159592672289 0 0.48944624590280772 0.014576472087587141 0 0.48173822001607031 0.002441982684480838 0 0.50000000000000044 0.0095961811708810997 0 0.48944624590280772 0.014576472087587141 0 0.48173822001607031 0.002441982684480838 0 0.50000000000000044 0.0095961811708810997 0 0.48173822001607031 0.002441982684480838 0 0.50000000000000044 0.0095961811708810997 0 0.5 -0.01553848795347695 0 0.48173822001607031 0.002441982684480838 0 0.5 -0.01553848795347695 0 0.48723509010938909 -0.024737082977995831 0 0.48173822001607031 0.002441982684480838 0 0.48723509010938909 -0.024737082977995831 0 0.48173822001607031 0.002441982684480838 0 0.46944239540012012 -0.021901386132034111 0 0.45540766643685782 -0.0078732224449345398 0 0.48173822001607031 0.002441982684480838 0 0.46944239540012012 -0.021901386132034111 0 0.48723509010938909 -0.024737082977995831 0 0.46944239540012012 -0.021901386132034111 0 0.48723509010938909 -0.024737082977995831 0 0.47311684284700922 -0.039980301183512167 0 0.5 -0.01553848795347695 0 0.48723509010938909 -0.024737082977995831 0 0.5 -0.040673157077835087 0 0.48723509010938909 -0.024737082977995831 0 0.49273196020270971 -0.051916148640471983 0 0.48034048547664182 -0.050194577481915269 0 0.48723509010938909 -0.024737082977995831 0 0.49273196020270971 -0.051916148640471983 0 0.48723509010938909 -0.024737082977995831 0 0.5 -0.040673157077835087 0 0.49273196020270971 -0.051916148640471983 0 0.5 -0.040673157077835087 0 0.49273196020270971 -0.051916148640471983 0 0.5 -0.065807826202193331 0 0.49273196020270971 -0.051916148640471983 0 0.48384360039889979 -0.062204599920787272 0 0.48034048547664182 -0.050194577481915269 0 0.48034048547664182 -0.050194577481915269 0 0.47035120232490191 -0.060528185902064997 0 0.47311684284700922 -0.039980301183512167 0 0.47035120232490191 -0.060528185902064997 0 0.47311684284700922 -0.039980301183512167 0 0.48384360039889979 -0.062204599920787272 0 0.48034048547664182 -0.050194577481915269 0 0.47035120232490191 -0.060528185902064997 0 0.48723509010938909 -0.024737082977995831 0 0.48034048547664182 -0.050194577481915269 0 0.47311684284700922 -0.039980301183512167 0 0.46944239540012012 -0.021901386132034111 0 0.47311684284700922 -0.039980301183512167 0 0.44971415759127392 -0.039358306738208573 0 0.47035120232490191 -0.060528185902064997 0 0.47311684284700922 -0.039980301183512167 0 0.44971415759127392 -0.039358306738208573 0 0.47035120232490191 -0.060528185902064997 0 0.44971415759127392 -0.039358306738208573 0 0.47035120232490191 -0.060528185902064997 0 0.43963483674523918 -0.055334607978488382 0 0.44971415759127392 -0.039358306738208573 0 0.43963483674523918 -0.055334607978488382 0 0.44971415759127392 -0.039358306738208573 0 0.42419530264354072 -0.042652000491910397 0 0.46944239540012012 -0.021901386132034111 0 0.44971415759127392 -0.039358306738208573 0 0.45540766643685782 -0.0078732224449345398 0 0.44971415759127392 -0.039358306738208573 0 0.42907711285764621 -0.01818842757435184 0 0.44971415759127392 -0.039358306738208573 0 0.45540766643685782 -0.0078732224449345398 0 0.42907711285764621 -0.01818842757435184 0 0.45540766643685782 -0.0078732224449345398 0 0.42907711285764621 -0.01818842757435184 0 0.45100246047295739 0.0046664116742636159 0 0.4382820622288856 -0.0014159552958160841 0 0.45540766643685782 -0.0078732224449345398 0 0.4382820622288856 -0.0014159552958160841 0 0.45540766643685782 -0.0078732224449345398 0 0.42907711285764621 -0.01818842757435184 0 0.48173822001607031 0.002441982684480838 0 0.45540766643685782 -0.0078732224449345398 0 0.47129126618897188 -0.1223351355815797 0 0.47148248434309947 -0.114916285604633 0 0.48087269318342413 -0.1216818802472065 0 0.47148248434309947 -0.114916285604633 0 0.48087269318342413 -0.1216818802472065 0 0.47838814501791832 -0.1066654575105275 0 0.48087269318342413 -0.1216818802472065 0 0.48924328608656842 -0.1141618265083332 0 0.47838814501791832 -0.1066654575105275 0 0.5 -0.1122204549214597 0 0.48924328608656842 -0.1141618265083332 0 0.5 -0.13349841451636779 0 0.48087269318342413 -0.1216818802472065 0 0.48924328608656842 -0.1141618265083332 0 0.5 -0.13349841451636779 0 0.5 -0.1122204549214597 0 0.48924328608656842 -0.1141618265083332 0 0.48827073793524339 -0.097774102912636218 0 0.48924328608656842 -0.1141618265083332 0 0.48827073793524339 -0.097774102912636218 0 0.47838814501791832 -0.1066654575105275 0 0.5 -0.1122204549214597 0 0.48827073793524339 -0.097774102912636218 0 0.50000000000000266 -0.090942495326551576 0 0.47652975213937199 -0.091635549067057065 0 0.46683976751390588 -0.086617099886465918 0 0.46456669494636288 -0.10350535152343909 0 0.48827073793524339 -0.097774102912636218 0 0.47838814501791832 -0.1066654575105275 0 0.47652975213937199 -0.091635549067057065 0 0.47148248434309947 -0.114916285604633 0 0.47838814501791832 -0.1066654575105275 0 0.46456669494636288 -0.10350535152343909 0 0.47838814501791832 -0.1066654575105275 0 0.47652975213937199 -0.091635549067057065 0 0.46456669494636288 -0.10350535152343909 0 0.48827073793524339 -0.097774102912636218 0 0.47652975213937199 -0.091635549067057065 0 0.48517560116245317 -0.075735340614307423 0 0.47652975213937199 -0.091635549067057065 0 0.48517560116245317 -0.075735340614307423 0 0.46683976751390588 -0.086617099886465918 0 0.47652975213937199 -0.091635549067057065 0 0.46683976751390588 -0.086617099886465918 0 0.50000000000000266 -0.090942495326551576 0 0.49822883029603021 -0.079095214302948247 0 0.5 -0.065807826202193331 0 0.48827073793524339 -0.097774102912636218 0 0.50000000000000266 -0.090942495326551576 0 0.48517560116245317 -0.075735340614307423 0 0.50000000000000266 -0.090942495326551576 0 0.48517560116245317 -0.075735340614307423 0 0.50000000000000266 -0.090942495326551576 0 0.49822883029603021 -0.079095214302948247 0 0.48517560116245317 -0.075735340614307423 0 0.49273196020270971 -0.051916148640471983 0 0.49822883029603021 -0.079095214302948247 0 0.48384360039889979 -0.062204599920787272 0 0.49822883029603021 -0.079095214302948247 0 0.48517560116245317 -0.075735340614307423 0 0.49273196020270971 -0.051916148640471983 0 0.48384360039889979 -0.062204599920787272 0 0.49822883029603021 -0.079095214302948247 0 0.49273196020270971 -0.051916148640471983 0 0.49822883029603021 -0.079095214302948247 0 0.5 -0.065807826202193331 0 0.47035120232490191 -0.060528185902064997 0 0.48517560116245317 -0.075735340614307423 0 0.47035120232490191 -0.060528185902064997 0 0.48517560116245317 -0.075735340614307423 0 0.46683976751390588 -0.086617099886465918 0 0.48384360039889979 -0.062204599920787272 0 0.47035120232490191 -0.060528185902064997 0 0.48517560116245317 -0.075735340614307423 0 0.47035120232490191 -0.060528185902064997 0 0.46683976751390588 -0.086617099886465918 0 0.47035120232490191 -0.060528185902064997 0 0.44249197108241189 -0.074007360679063244 0 0.46683976751390588 -0.086617099886465918 0 0.47035120232490191 -0.060528185902064997 0 0.43963483674523918 -0.055334607978488382 0 0.44249197108241189 -0.074007360679063244 0 0.44249197108241189 -0.074007360679063244 0 0.46683976751390588 -0.086617099886465918 0 0.4490662803509099 -0.094083529251462475 0 0.44249197108241189 -0.074007360679063244 0 0.4490662803509099 -0.094083529251462475 0 0.42834270349958448 -0.099226311759436261 0 0.44249197108241189 -0.074007360679063244 0 0.46683976751390588 -0.086617099886465918 0 0.46683976751390588 -0.086617099886465918 0 0.46456669494636288 -0.10350535152343909 0 0.4490662803509099 -0.094083529251462475 0 0.46683976751390588 -0.086617099886465918 0 0.46456669494636288 -0.10350535152343909 0 0.46456669494636288 -0.10350535152343909 0 0.4490662803509099 -0.094083529251462475 0 0.44386094964032902 -0.11054798122052439 0 0.4490662803509099 -0.094083529251462475 0 0.44386094964032902 -0.11054798122052439 0 0.42834270349958448 -0.099226311759436261 0 0.44386094964032902 -0.11054798122052439 0 0.46257396642688631 -0.12529077885077469 0 0.45239247298790419 -0.125419693033265 0 0.44386094964032902 -0.11054798122052439 0 0.42916935431308728 -0.1205456085246996 0 0.4435038969132965 -0.12540022695152131 0 0.44386094964032902 -0.11054798122052439 0 0.45239247298790419 -0.125419693033265 0 0.4435038969132965 -0.12540022695152131 0 0.44386094964032902 -0.11054798122052439 0 0.46229362237882032 -0.1203936031604123 0 0.46257396642688631 -0.12529077885077469 0 0.46456669494636288 -0.10350535152343909 0 0.46229362237882032 -0.1203936031604123 0 0.46456669494636288 -0.10350535152343909 0 0.44386094964032902 -0.11054798122052439 0 0.46229362237882032 -0.1203936031604123 0 0.44386094964032902 -0.11054798122052439 0 0.46257396642688631 -0.12529077885077469 0 0.47148248434309947 -0.114916285604633 0 0.46456669494636288 -0.10350535152343909 0 0.46229362237882032 -0.1203936031604123 0 0.47129126618897188 -0.1223351355815797 0 0.46229362237882032 -0.1203936031604123 0 0.46257396642688631 -0.12529077885077469 0 0.47129126618897188 -0.1223351355815797 0 0.47148248434309947 -0.114916285604633 0 0.46229362237882032 -0.1203936031604123 0 0.44386094964032902 -0.11054798122052439 0 0.42916935431308728 -0.1205456085246996 0 0.42834270349958448 -0.099226311759436261 0 0.41143930547928681 -0.11934523636421419 0 0.42916935431308728 -0.1205456085246996 0 0.42834270349958448 -0.099226311759436261 0 0.41143930547928681 -0.11934523636421419 0 0.40555832972599831 -0.095826118330896617 0 0.41143930547928681 -0.11934523636421419 0 0.42834270349958448 -0.099226311759436261 0 0.40555832972599831 -0.095826118330896617 0 0.42834270349958448 -0.099226311759436261 0 0.41884290658632428 -0.080552882507727325 0 0.40555832972599831 -0.095826118330896617 0 0.41884290658632428 -0.080552882507727325 0 0.39967735397270959 -0.072307000297579083 0 0.40555832972599831 -0.095826118330896617 0 0.44249197108241189 -0.074007360679063244 0 0.42834270349958448 -0.099226311759436261 0 0.41884290658632428 -0.080552882507727325 0 0.44249197108241189 -0.074007360679063244 0 0.41814417465091752 -0.061397621471661459 0 0.43963483674523918 -0.055334607978488382 0 0.44249197108241189 -0.074007360679063244 0 0.41814417465091752 -0.061397621471661459 0 0.44249197108241189 -0.074007360679063244 0 0.41884290658632428 -0.080552882507727325 0 0.41814417465091752 -0.061397621471661459 0 0.41884290658632428 -0.080552882507727325 0 0.39967735397270959 -0.072307000297579083 0 0.41814417465091752 -0.061397621471661459 0 0.39967735397270959 -0.072307000297579083 0 0.38669795957132042 -0.057310603286660967 0 0.37240766699872252 -0.068318548019290964 0 0.39967735397270959 -0.072307000297579083 0 0.37781097748786241 -0.089314889372882261 0 0.37240766699872252 -0.068318548019290964 0 0.39967735397270959 -0.072307000297579083 0 0.37781097748786241 -0.089314889372882261 0 0.40555832972599831 -0.095826118330896617 0 0.39967735397270959 -0.072307000297579083 0 0.40555832972599831 -0.095826118330896617 0 0.40555832972599831 -0.095826118330896617 0 0.38953803654933628 -0.10754997095337659 0 0.39823574772599779 -0.11763079726210079 0 0.37781097748786241 -0.089314889372882261 0 0.40555832972599831 -0.095826118330896617 0 0.38953803654933628 -0.10754997095337659 0 0.37781097748786241 -0.089314889372882261 0 0.38953803654933628 -0.10754997095337659 0 0.37644505785585192 -0.1058120404938334 0 0.38953803654933628 -0.10754997095337659 0 0.37644505785585192 -0.1058120404938334 0 0.37720890243704291 -0.12310924361699779 0 0.38953803654933628 -0.10754997095337659 0 0.37720890243704291 -0.12310924361699779 0 0.38918813321375051 -0.12739880168557821 0 0.38953803654933628 -0.10754997095337659 0 0.39823574772599779 -0.11763079726210079 0 0.38918813321375051 -0.12739880168557821 0 0.41143930547928681 -0.11934523636421419 0 0.39823574772599779 -0.11763079726210079 0 0.40257569972698831 -0.13396225485532559 0 0.41143930547928681 -0.11934523636421419 0 0.40555832972599831 -0.095826118330896617 0 0.39823574772599779 -0.11763079726210079 0 0.42011428296152808 -0.02169968792975261 0 0.41401194260749391 -0.028450411104576211 0 0.41343304557213612 -0.018371446868227208 0 0.42011428296152808 -0.02169968792975261 0 0.41343304557213612 -0.018371446868227208 0 0.41928481904255338 -0.01548900553927589 0 0.42011428296152808 -0.02169968792975261 0 0.41928481904255338 -0.01548900553927589 0 0.42542521438275183 -0.0144422395697206 0 0.42011428296152808 -0.02169968792975261 0 0.41401194260749391 -0.028450411104576211 0 0.42742255973229643 -0.030069766767760062 0 0.41401194260749391 -0.028450411104576211 0 0.40522076275047969 -0.019933987949522329 0 0.40044964155059998 -0.029094842751199331 0 0.41401194260749391 -0.028450411104576211 0 0.41343304557213612 -0.018371446868227208 0 0.40522076275047969 -0.019933987949522329 0 0.41343304557213612 -0.018371446868227208 0 0.40806592415966281 -0.01253819616599721 0 0.40522076275047969 -0.019933987949522329 0 0.40806592415966281 -0.01253819616599721 0 0.4135204533098043 -0.0054466611181140526 0 0.41498054603746559 -0.011947546426581419 0 0.41343304557213612 -0.018371446868227208 0 0.40806592415966281 -0.01253819616599721 0 0.41498054603746559 -0.011947546426581419 0 0.41081432206005303 0.0037114498956348132 0 0.4135204533098043 -0.0054466611181140526 0 0.4046584776842293 -0.0050702490882302163 0 0.40806592415966281 -0.01253819616599721 0 0.4135204533098043 -0.0054466611181140526 0 0.4046584776842293 -0.0050702490882302163 0 0.41081432206005303 0.0037114498956348132 0 0.42248564151892998 0.0016345051066286029 0 0.4135204533098043 -0.0054466611181140526 0 0.42248564151892998 0.0016345051066286029 0 0.4135204533098043 -0.0054466611181140526 0 0.42119781252485211 -0.0083000839364812864 0 0.41343304557213612 -0.018371446868227208 0 0.41498054603746559 -0.011947546426581419 0 0.41928481904255338 -0.01548900553927589 0 0.4135204533098043 -0.0054466611181140526 0 0.41498054603746559 -0.011947546426581419 0 0.42119781252485211 -0.0083000839364812864 0 0.41498054603746559 -0.011947546426581419 0 0.42119781252485211 -0.0083000839364812864 0 0.41928481904255338 -0.01548900553927589 0 0.42542521438275183 -0.0144422395697206 0 0.42820760236351979 -0.0076976995852137747 0 0.42907711285764621 -0.01818842757435184 0 0.4382820622288856 -0.0014159552958160841 0 0.42820760236351979 -0.0076976995852137747 0 0.42907711285764621 -0.01818842757435184 0 0.42119781252485211 -0.0083000839364812864 0 0.41928481904255338 -0.01548900553927589 0 0.42542521438275183 -0.0144422395697206 0 0.42248564151892998 0.0016345051066286029 0 0.4382820622288856 -0.0014159552958160841 0 0.42820760236351979 -0.0076976995852137747 0 0.42119781252485211 -0.0083000839364812864 0 0.42542521438275183 -0.0144422395697206 0 0.42820760236351979 -0.0076976995852137747 0 0.42248564151892998 0.0016345051066286029 0 0.42119781252485211 -0.0083000839364812864 0 0.42820760236351979 -0.0076976995852137747 0 0.44971415759127392 -0.039358306738208573 0 0.42907711285764621 -0.01818842757435184 0 0.42742255973229643 -0.030069766767760062 0 0.42011428296152808 -0.02169968792975261 0 0.42907711285764621 -0.01818842757435184 0 0.42742255973229643 -0.030069766767760062 0 0.42011428296152808 -0.02169968792975261 0 0.42542521438275183 -0.0144422395697206 0 0.42907711285764621 -0.01818842757435184 0 0.42011428296152808 -0.02169968792975261 0 0.42907711285764621 -0.01818842757435184 0 0.42542521438275183 -0.0144422395697206 0 0.42907711285764621 -0.01818842757435184 0 0.44971415759127392 -0.039358306738208573 0 0.42742255973229643 -0.030069766767760062 0 0.42419530264354072 -0.042652000491910397 0 0.41401194260749391 -0.028450411104576211 0 0.42742255973229643 -0.030069766767760062 0 0.42419530264354072 -0.042652000491910397 0 0.43963483674523918 -0.055334607978488382 0 0.42419530264354072 -0.042652000491910397 0 0.41814417465091752 -0.061397621471661459 0 0.41814417465091752 -0.061397621471661459 0 0.41107184061272262 -0.047596707948501772 0 0.39379637821942232 -0.04878788226426127 0 0.42419530264354072 -0.042652000491910397 0 0.41814417465091752 -0.061397621471661459 0 0.41107184061272262 -0.047596707948501772 0 0.41401194260749391 -0.028450411104576211 0 0.42419530264354072 -0.042652000491910397 0 0.40815150693701141 -0.037549327566173699 0 0.42419530264354072 -0.042652000491910397 0 0.41107184061272262 -0.047596707948501772 0 0.40815150693701141 -0.037549327566173699 0 0.41401194260749391 -0.028450411104576211 0 0.40815150693701141 -0.037549327566173699 0 0.40044964155059998 -0.029094842751199331 0 0.41107184061272262 -0.047596707948501772 0 0.40815150693701141 -0.037549327566173699 0 0.39379637821942232 -0.04878788226426127 0 0.40815150693701141 -0.037549327566173699 0 0.39379637821942232 -0.04878788226426127 0 0.40044964155059998 -0.029094842751199331 0 0.39379637821942232 -0.04878788226426127 0 0.38867892262788012 -0.028322223649632432 0 0.39379637821942232 -0.04878788226426127 0 0.38867892262788012 -0.028322223649632432 0 0.40044964155059998 -0.029094842751199331 0 0.39967735397270959 -0.072307000297579083 0 0.39379637821942232 -0.04878788226426127 0 0.38669795957132042 -0.057310603286660967 0 0.41814417465091752 -0.061397621471661459 0 0.39379637821942232 -0.04878788226426127 0 0.39967735397270959 -0.072307000297579083 0 0.39379637821942232 -0.04878788226426127 0 0.39967735397270959 -0.072307000297579083 0 0.41814417465091752 -0.061397621471661459 0 0.39379637821942232 -0.04878788226426127 0 0.39379637821942232 -0.04878788226426127 0 0.38896036142985008 -0.046283306103098283 0 0.38669795957132042 -0.057310603286660967 0 0.37839056082150663 -0.050608978831784571 0 0.37240766699872252 -0.068318548019290964 0 0.38669795957132042 -0.057310603286660967 0 0.37839056082150663 -0.050608978831784571 0 0.38896036142985008 -0.046283306103098283 0 0.39379637821942232 -0.04878788226426127 0 0.38669795957132042 -0.057310603286660967 0 0.38896036142985008 -0.046283306103098283 0 0.39379637821942232 -0.04878788226426127 0 0.38896036142985008 -0.046283306103098283 0 0.38867892262788012 -0.028322223649632432 0 0.3834615598562825 -0.037386722635115492 0 0.38896036142985008 -0.046283306103098283 0 0.38867892262788012 -0.028322223649632432 0 0.37839056082150663 -0.050608978831784571 0 0.3834615598562825 -0.037386722635115492 0 0.38896036142985008 -0.046283306103098283 0 0.37839056082150663 -0.050608978831784571 0 0.3834615598562825 -0.037386722635115492 0 0.37356965880113402 -0.040783236975350308 0 0.38867892262788012 -0.028322223649632432 0 0.38356146703633898 -0.0078565650350033434 0 0.3834615598562825 -0.037386722635115492 0 0.37600683512296651 -0.014087071697862221 0 0.37356965880113402 -0.040783236975350308 0 0.3834615598562825 -0.037386722635115492 0 0.38867892262788012 -0.028322223649632432 0 0.37600683512296651 -0.014087071697862221 0 0.38867892262788012 -0.028322223649632432 0 0.37600683512296651 -0.014087071697862221 0 0.38356146703633898 -0.0078565650350033434 0 0.38867892262788012 -0.028322223649632432 0 0.39658225960386179 -0.014459285545308009 0 0.38356146703633898 -0.0078565650350033434 0 0.38867892262788012 -0.028322223649632432 0 0.40044964155059998 -0.029094842751199331 0 0.39658225960386179 -0.014459285545308009 0 0.40522076275047969 -0.019933987949522329 0 0.40044964155059998 -0.029094842751199331 0 0.39658225960386179 -0.014459285545308009 0 0.40806592415966281 -0.01253819616599721 0 0.40522076275047969 -0.019933987949522329 0 0.39658225960386179 -0.014459285545308009 0 0.40060323373222451 0.0042547197705496897 0 0.4046584776842293 -0.0050702490882302163 0 0.39531848553630572 -0.0042569273994520467 0 0.40806592415966281 -0.01253819616599721 0 0.4046584776842293 -0.0050702490882302163 0 0.39658225960386179 -0.014459285545308009 0 0.4046584776842293 -0.0050702490882302163 0 0.39658225960386179 -0.014459285545308009 0 0.39531848553630572 -0.0042569273994520467 0 0.39658225960386179 -0.014459285545308009 0 0.39531848553630572 -0.0042569273994520467 0 0.38356146703633898 -0.0078565650350033434 0 0.39025836247721268 0.0036292771787240202 0 0.39531848553630572 -0.0042569273994520467 0 0.38356146703633898 -0.0078565650350033434 0 0.37844401144479839 0.012609093579625891 0 0.37600683512296651 -0.014087071697862221 0 0.37844401144479839 0.012609093579625891 0 0.37600683512296651 -0.014087071697862221 0 0.38356146703633898 -0.0078565650350033434 0 0.37600683512296651 -0.014087071697862221 0 0.36665723294200347 -0.001883505129568449 0 0.35850646790810559 -0.01395473468271459 0 0.37844401144479839 0.012609093579625891 0 0.37600683512296651 -0.014087071697862221 0 0.36665723294200347 -0.001883505129568449 0 0.36665723294200347 -0.001883505129568449 0 0.35531676971978082 -0.0033532784323768001 0 0.35850646790810559 -0.01395473468271459 0 0.37600683512296651 -0.014087071697862221 0 0.37356965880113402 -0.040783236975350308 0 0.37600683512296651 -0.014087071697862221 0 0.36404947753274258 -0.026706798856440471 0 0.35850646790810559 -0.01395473468271459 0 0.37600683512296651 -0.014087071697862221 0 0.36404947753274258 -0.026706798856440471 0 0.37356965880113402 -0.040783236975350308 0 0.34748556133762742 -0.02738266599094942 0 0.35850646790810559 -0.01395473468271459 0 0.34370628527030811 -0.0115647124322744 0 0.36404947753274258 -0.026706798856440471 0 0.34748556133762742 -0.02738266599094942 0 0.35850646790810559 -0.01395473468271459 0 0.36404947753274258 -0.026706798856440471 0 0.34748556133762742 -0.02738266599094942 0 0.36012817770438982 -0.039413746555128387 0 0.33689267375143878 0.0039255003288513873 0 0.35531676971978082 -0.0033532784323768001 0 0.34370628527030811 -0.0115647124322744 0 0.35531676971978082 -0.0033532784323768001 0 0.35850646790810559 -0.01395473468271459 0 0.34370628527030811 -0.0115647124322744 0 0.33689267375143878 0.0039255003288513873 0 0.34370628527030811 -0.0115647124322744 0 0.32469666258817742 -0.019557632270551 0 0.33689267375143878 0.0039255003288513873 0 0.30352242257352219 0.0039185454548519476 0 0.32469666258817742 -0.019557632270551 0 0.34748556133762742 -0.02738266599094942 0 0.34370628527030811 -0.0115647124322744 0 0.32469666258817742 -0.019557632270551 0 0.34748556133762742 -0.02738266599094942 0 0.32469666258817742 -0.019557632270551 0 0.33457477032001748 -0.043965109755099818 0 0.31326255248553708 -0.043768501277314603 0 0.32924913997341337 -0.063603686862235317 0 0.31014365419524398 -0.06072536978512106 0 0.31326255248553708 -0.043768501277314603 0 0.32924913997341337 -0.063603686862235317 0 0.31326255248553708 -0.043768501277314603 0 0.33457477032001748 -0.043965109755099818 0 0.32924913997341337 -0.063603686862235317 0 0.32469666258817742 -0.019557632270551 0 0.31326255248553708 -0.043768501277314603 0 0.33457477032001748 -0.043965109755099818 0 0.33457477032001748 -0.043965109755099818 0 0.34313363496153881 -0.061193084728204693 0 0.35029003257871461 -0.048624574981710279 0 0.33457477032001748 -0.043965109755099818 0 0.34313363496153881 -0.061193084728204693 0 0.32924913997341337 -0.063603686862235317 0 0.35029003257871461 -0.048624574981710279 0 0.36524615827173029 -0.053571455971191423 0 0.35631850447425872 -0.066333179594821989 0 0.34313363496153881 -0.061193084728204693 0 0.35029003257871461 -0.048624574981710279 0 0.35631850447425872 -0.066333179594821989 0 0.35029003257871461 -0.048624574981710279 0 0.36012817770438982 -0.039413746555128387 0 0.36524615827173029 -0.053571455971191423 0 0.34748556133762742 -0.02738266599094942 0 0.33457477032001748 -0.043965109755099818 0 0.35029003257871461 -0.048624574981710279 0 0.34748556133762742 -0.02738266599094942 0 0.35029003257871461 -0.048624574981710279 0 0.36012817770438982 -0.039413746555128387 0 0.36404947753274258 -0.026706798856440471 0 0.36012817770438982 -0.039413746555128387 0 0.37356965880113402 -0.040783236975350308 0 0.36012817770438982 -0.039413746555128387 0 0.37356965880113402 -0.040783236975350308 0 0.36524615827173029 -0.053571455971191423 0 0.37839056082150663 -0.050608978831784571 0 0.36524615827173029 -0.053571455971191423 0 0.37240766699872252 -0.068318548019290964 0 0.37839056082150663 -0.050608978831784571 0 0.37356965880113402 -0.040783236975350308 0 0.36524615827173029 -0.053571455971191423 0 0.36524615827173029 -0.053571455971191423 0 0.37240766699872252 -0.068318548019290964 0 0.35631850447425872 -0.066333179594821989 0 0.37240766699872252 -0.068318548019290964 0 0.36259903827425999 -0.08213590949324566 0 0.35631850447425872 -0.066333179594821989 0 0.37781097748786241 -0.089314889372882261 0 0.37240766699872252 -0.068318548019290964 0 0.36259903827425999 -0.08213590949324566 0 0.37781097748786241 -0.089314889372882261 0 0.36259903827425999 -0.08213590949324566 0 0.3612223149491664 -0.1032740580320769 0 0.34523572746128989 -0.083438872447156087 0 0.3612223149491664 -0.1032740580320769 0 0.36259903827425999 -0.08213590949324566 0 0.34523572746128989 -0.083438872447156087 0 0.3612223149491664 -0.1032740580320769 0 0.34313363496153881 -0.061193084728204693 0 0.34523572746128989 -0.083438872447156087 0 0.35631850447425872 -0.066333179594821989 0 0.36259903827425999 -0.08213590949324566 0 0.34523572746128989 -0.083438872447156087 0 0.35631850447425872 -0.066333179594821989 0 0.37720890243704291 -0.12310924361699779 0 0.36253108037134668 -0.1248744885805331 0 0.3612223149491664 -0.1032740580320769 0 0.37644505785585192 -0.1058120404938334 0 0.37720890243704291 -0.12310924361699779 0 0.3612223149491664 -0.1032740580320769 0 0.37720890243704291 -0.12310924361699779 0 0.3612223149491664 -0.1032740580320769 0 0.37781097748786241 -0.089314889372882261 0 0.37644505785585192 -0.1058120404938334 0 0.3612223149491664 -0.1032740580320769 0 0.34523572746128989 -0.083438872447156087 0 0.3612223149491664 -0.1032740580320769 0 0.33932087337301742 -0.1007066993955318 0 0.3612223149491664 -0.1032740580320769 0 0.34941185211170689 -0.1127717253903176 0 0.33932087337301742 -0.1007066993955318 0 0.36253108037134668 -0.1248744885805331 0 0.33587402752894302 -0.122350175475488 0 0.36253108037134668 -0.1248744885805331 0 0.34941185211170689 -0.1127717253903176 0 0.33587402752894302 -0.122350175475488 0 0.36253108037134668 -0.1248744885805331 0 0.3612223149491664 -0.1032740580320769 0 0.34941185211170689 -0.1127717253903176 0 0.34941185211170689 -0.1127717253903176 0 0.33587402752894302 -0.122350175475488 0 0.33932087337301742 -0.1007066993955318 0 0.33587402752894302 -0.122350175475488 0 0.33932087337301742 -0.1007066993955318 0 0.31943204723016899 -0.10139701157958859 0 0.33932087337301742 -0.1007066993955318 0 0.31943204723016899 -0.10139701157958859 0 0.32474927095682959 -0.081008353448563344 0 0.33587402752894302 -0.122350175475488 0 0.31943204723016899 -0.10139701157958859 0 0.3092169746865393 -0.1198258623704429 0 0.33587402752894302 -0.122350175475488 0 0.3092169746865393 -0.1198258623704429 0 0.34523572746128989 -0.083438872447156087 0 0.32924913997341337 -0.063603686862235317 0 0.32474927095682959 -0.081008353448563344 0 0.34523572746128989 -0.083438872447156087 0 0.32924913997341337 -0.063603686862235317 0 0.34313363496153881 -0.061193084728204693 0 0.34523572746128989 -0.083438872447156087 0 0.32924913997341337 -0.063603686862235317 0 0.34523572746128989 -0.083438872447156087 0 0.33932087337301742 -0.1007066993955318 0 0.32474927095682959 -0.081008353448563344 0 0.31943204723016899 -0.10139701157958859 0 0.32474927095682959 -0.081008353448563344 0 0.31117343018006932 -0.08835554327446378 0 0.32474927095682959 -0.081008353448563344 0 0.30201438303726968 -0.075929904193525521 0 0.32474927095682959 -0.081008353448563344 0 0.30201438303726968 -0.075929904193525521 0 0.31117343018006932 -0.08835554327446378 0 0.32924913997341337 -0.063603686862235317 0 0.32474927095682959 -0.081008353448563344 0 0.31014365419524398 -0.06072536978512106 0 0.32474927095682959 -0.081008353448563344 0 0.30201438303726968 -0.075929904193525521 0 0.31014365419524398 -0.06072536978512106 0 0.30201438303726968 -0.075929904193525521 0 0.31014365419524398 -0.06072536978512106 0 0.29222542489931519 -0.060978945333093171 0 0.31117343018006932 -0.08835554327446378 0 0.29442961060618023 -0.089764156713605506 0 0.30306705175182019 -0.101009202806625 0 0.30201438303726968 -0.075929904193525521 0 0.31117343018006932 -0.08835554327446378 0 0.29442961060618023 -0.089764156713605506 0 0.29442961060618023 -0.089764156713605506 0 0.28691460331806928 -0.079185378374353493 0 0.27734124638624891 -0.089737863242296378 0 0.30201438303726968 -0.075929904193525521 0 0.29442961060618023 -0.089764156713605506 0 0.28691460331806928 -0.079185378374353493 0 0.30201438303726968 -0.075929904193525521 0 0.27927949511770961 -0.070851454938488739 0 0.29222542489931519 -0.060978945333093171 0 0.30201438303726968 -0.075929904193525521 0 0.27927949511770961 -0.070851454938488739 0 0.30201438303726968 -0.075929904193525521 0 0.28691460331806928 -0.079185378374353493 0 0.27927949511770961 -0.070851454938488739 0 0.28691460331806928 -0.079185378374353493 0 0.27927949511770961 -0.070851454938488739 0 0.27809334201771629 -0.079209584513290715 0 0.28691460331806928 -0.079185378374353493 0 0.27927949511770961 -0.070851454938488739 0 0.27927949511770961 -0.070851454938488739 0 0.27868582307562201 -0.055886184139343542 0 0.29222542489931519 -0.060978945333093171 0 0.31943204723016899 -0.10139701157958859 0 0.3092169746865393 -0.1198258623704429 0 0.30306705175182019 -0.101009202806625 0 0.3092169746865393 -0.1198258623704429 0 0.30306705175182019 -0.101009202806625 0 0.28879183359809052 -0.10393054527906551 0 0.31943204723016899 -0.10139701157958859 0 0.31117343018006932 -0.08835554327446378 0 0.30306705175182019 -0.101009202806625 0 0.28879183359809052 -0.10393054527906551 0 0.28255992184413548 -0.11730154926539781 0 0.27267591943638608 -0.1048970298088977 0 0.29442961060618023 -0.089764156713605506 0 0.28879183359809052 -0.10393054527906551 0 0.27734124638624891 -0.089737863242296378 0 0.29442961060618023 -0.089764156713605506 0 0.30306705175182019 -0.101009202806625 0 0.28879183359809052 -0.10393054527906551 0 0.3092169746865393 -0.1198258623704429 0 0.28255992184413548 -0.11730154926539781 0 0.3092169746865393 -0.1198258623704429 0 0.28879183359809052 -0.10393054527906551 0 0.28255992184413548 -0.11730154926539781 0 0.3092169746865393 -0.1198258623704429 0 0.28255992184413548 -0.11730154926539781 0 0.28721398294742878 -0.13035474923543569 0 0.28255992184413548 -0.11730154926539781 0 0.26776517015272971 -0.1222840496799191 0 0.28721398294742878 -0.13035474923543569 0 0.28255992184413548 -0.11730154926539781 0 0.26776517015272971 -0.1222840496799191 0 0.27267591943638608 -0.1048970298088977 0 0.26776517015272971 -0.1222840496799191 0 0.27267591943638608 -0.1048970298088977 0 0.26047800574605201 -0.11084537767631369 0 0.28879183359809052 -0.10393054527906551 0 0.27267591943638608 -0.1048970298088977 0 0.27734124638624891 -0.089737863242296378 0 0.27267591943638608 -0.1048970298088977 0 0.27734124638624891 -0.089737863242296378 0 0.26256105175446781 -0.092679464148907056 0 0.25771864553297669 -0.099620140202181948 0 0.26047800574605201 -0.11084537767631369 0 0.24375228786211539 -0.116580291014256 0 0.27267591943638608 -0.1048970298088977 0 0.25771864553297669 -0.099620140202181948 0 0.26256105175446781 -0.092679464148907056 0 0.25771864553297669 -0.099620140202181948 0 0.25304747237378489 -0.090741332181114118 0 0.24292322406264641 -0.096552741650977186 0 0.25771864553297669 -0.099620140202181948 0 0.26256105175446781 -0.092679464148907056 0 0.25304747237378489 -0.090741332181114118 0 0.27267591943638608 -0.1048970298088977 0 0.25771864553297669 -0.099620140202181948 0 0.26047800574605201 -0.11084537767631369 0 0.26776517015272971 -0.1222840496799191 0 0.26153006621115998 -0.13421007507225571 0 0.24375228786211539 -0.116580291014256 0 0.26776517015272971 -0.1222840496799191 0 0.24375228786211539 -0.116580291014256 0 0.26776517015272971 -0.1222840496799191 0 0.26047800574605201 -0.11084537767631369 0 0.24375228786211539 -0.116580291014256 0 0.27927949511770961 -0.070851454938488739 0 0.25811154610651499 -0.066123023671663908 0 0.26329678137076351 -0.053405898285071182 0 0.27927949511770961 -0.070851454938488739 0 0.25811154610651499 -0.066123023671663908 0 0.26883802324883782 -0.077063641498024305 0 0.27927949511770961 -0.070851454938488739 0 0.25811154610651499 -0.066123023671663908 0 0.26883802324883782 -0.077063641498024305 0 0.27927949511770961 -0.070851454938488739 0 0.27809334201771629 -0.079209584513290715 0 0.26883802324883782 -0.077063641498024305 0 0.27809334201771629 -0.079209584513290715 0 0.27734124638624891 -0.089737863242296378 0 0.26883802324883782 -0.077063641498024305 0 0.27734124638624891 -0.089737863242296378 0 0.25202197504294188 -0.078400955310045109 0 0.28691460331806928 -0.079185378374353493 0 0.27809334201771629 -0.079209584513290715 0 0.27734124638624891 -0.089737863242296378 0 0.27734124638624891 -0.089737863242296378 0 0.26256105175446781 -0.092679464148907056 0 0.25202197504294188 -0.078400955310045109 0 0.27734124638624891 -0.089737863242296378 0 0.25202197504294188 -0.078400955310045109 0 0.26256105175446781 -0.092679464148907056 0 0.25304747237378489 -0.090741332181114118 0 0.25202197504294188 -0.078400955310045109 0 0.25304747237378489 -0.090741332181114118 0 0.25202197504294188 -0.078400955310045109 0 0.24624903761231479 -0.086847438891893419 0 0.26883802324883782 -0.077063641498024305 0 0.25202197504294188 -0.078400955310045109 0 0.25811154610651499 -0.066123023671663908 0 0.25811154610651499 -0.066123023671663908 0 0.26329678137076351 -0.053405898285071182 0 0.24870160087168189 -0.052882304334001928 0 0.26329678137076351 -0.053405898285071182 0 0.24870160087168189 -0.052882304334001928 0 0.24731406762381819 -0.035960341631652723 0 0.27927949511770961 -0.070851454938488739 0 0.26329678137076351 -0.053405898285071182 0 0.27868582307562201 -0.055886184139343542 0 0.27927949511770961 -0.070851454938488739 0 0.26329678137076351 -0.053405898285071182 0 0.26329678137076351 -0.053405898285071182 0 0.27868582307562201 -0.055886184139343542 0 0.27337213238318842 -0.044040078526876879 0 0.27868582307562201 -0.055886184139343542 0 0.27337213238318842 -0.044040078526876879 0 0.28525528160713332 -0.050154543613187753 0 0.26329678137076351 -0.053405898285071182 0 0.27337213238318842 -0.044040078526876879 0 0.26311483972878968 -0.036713614733010089 0 0.27337213238318842 -0.044040078526876879 0 0.27217486102646721 -0.027861542379398439 0 0.28494473946257981 -0.034556038004921102 0 0.27337213238318842 -0.044040078526876879 0 0.26311483972878968 -0.036713614733010089 0 0.27217486102646721 -0.027861542379398439 0 0.27337213238318842 -0.044040078526876879 0 0.28525528160713332 -0.050154543613187753 0 0.28494473946257981 -0.034556038004921102 0 0.26311483972878968 -0.036713614733010089 0 0.25941635623971138 -0.02230021284205122 0 0.24731406762381819 -0.035960341631652723 0 0.26329678137076351 -0.053405898285071182 0 0.24731406762381819 -0.035960341631652723 0 0.26329678137076351 -0.053405898285071182 0 0.26311483972878968 -0.036713614733010089 0 0.24731406762381819 -0.035960341631652723 0 0.25941635623971138 -0.02230021284205122 0 0.24731406762381819 -0.035960341631652723 0 0.2482857443068576 -0.021714794414400052 0 0.25941635623971138 -0.02230021284205122 0 0.25508119948702751 -0.010083838205662381 0 0.2482857443068576 -0.021714794414400052 0 0.26311483972878968 -0.036713614733010089 0 0.25941635623971138 -0.02230021284205122 0 0.27217486102646721 -0.027861542379398439 0 0.2541426920980116 -0.0036136263454906951 0 0.25508119948702751 -0.010083838205662381 0 0.24138147174972829 -0.0061427828714447699 0 0.2541426920980116 -0.0036136263454906951 0 0.25508119948702751 -0.010083838205662381 0 0.26047117107291767 -0.0019720443344692288 0 0.25446675038947358 0.0029162606258486688 0 0.2541426920980116 -0.0036136263454906951 0 0.26047117107291767 -0.0019720443344692288 0 0.25941635623971138 -0.02230021284205122 0 0.25508119948702751 -0.010083838205662381 0 0.26474460583379889 -0.01023883548432745 0 0.25941635623971138 -0.02230021284205122 0 0.26474460583379889 -0.01023883548432745 0 0.27166734417845928 -0.01430021117376327 0 0.25508119948702751 -0.010083838205662381 0 0.26474460583379889 -0.01023883548432745 0 0.26047117107291767 -0.0019720443344692288 0 0.26474460583379889 -0.01023883548432745 0 0.26047117107291767 -0.0019720443344692288 0 0.27708695819087842 -0.0025378708656911609 0 0.26474460583379889 -0.01023883548432745 0 0.27166734417845928 -0.01430021117376327 0 0.27708695819087842 -0.0025378708656911609 0 0.27166734417845928 -0.01430021117376327 0 0.27708695819087842 -0.0025378708656911609 0 0.28469269166600031 -0.01545933141113482 0 0.27217486102646721 -0.027861542379398439 0 0.28469269166600031 -0.01545933141113482 0 0.28494473946257981 -0.034556038004921102 0 0.25941635623971138 -0.02230021284205122 0 0.27166734417845928 -0.01430021117376327 0 0.27217486102646721 -0.027861542379398439 0 0.27166734417845928 -0.01430021117376327 0 0.27217486102646721 -0.027861542379398439 0 0.28469269166600031 -0.01545933141113482 0 0.28469269166600031 -0.01545933141113482 0 0.29727596499766062 -0.023933315692393788 0 0.28494473946257981 -0.034556038004921102 0 0.30352242257352219 0.0039185454548519476 0 0.28469269166600031 -0.01545933141113482 0 0.29727596499766062 -0.023933315692393788 0 0.30352242257352219 0.0039185454548519476 0 0.27708695819087842 -0.0025378708656911609 0 0.28469269166600031 -0.01545933141113482 0 0.30352242257352219 0.0039185454548519476 0 0.32469666258817742 -0.019557632270551 0 0.29727596499766062 -0.023933315692393788 0 0.32469666258817742 -0.019557632270551 0 0.31326255248553708 -0.043768501277314603 0 0.29727596499766062 -0.023933315692393788 0 0.31326255248553708 -0.043768501277314603 0 0.29727596499766062 -0.023933315692393788 0 0.2968975050950291 -0.045887416406534938 0 0.31326255248553708 -0.043768501277314603 0 0.29727596499766062 -0.023933315692393788 0 0.31326255248553708 -0.043768501277314603 0 0.2968975050950291 -0.045887416406534938 0 0.31014365419524398 -0.06072536978512106 0 0.2968975050950291 -0.045887416406534938 0 0.31014365419524398 -0.06072536978512106 0 0.29222542489931519 -0.060978945333093171 0 0.2968975050950291 -0.045887416406534938 0 0.29222542489931519 -0.060978945333093171 0 0.28525528160713332 -0.050154543613187753 0 0.27868582307562201 -0.055886184139343542 0 0.29222542489931519 -0.060978945333093171 0 0.28525528160713332 -0.050154543613187753 0 0.2968975050950291 -0.045887416406534938 0 0.28525528160713332 -0.050154543613187753 0 0.28494473946257981 -0.034556038004921102 0 0.29727596499766062 -0.023933315692393788 0 0.2968975050950291 -0.045887416406534938 0 0.28494473946257981 -0.034556038004921102 0 0.29579617193404978 -0.19432558104056491 0 0.30588539897632072 -0.22256652654210629 0 0.2776594049058328 -0.2175861504380624 0 0.29579617193404978 -0.19432558104056491 0 0.2776594049058328 -0.2175861504380624 0 0.2764107852420567 -0.19644220614923899 0 0.29579617193404978 -0.19432558104056491 0 0.2764107852420567 -0.19644220614923899 0 0.2792899687438003 -0.18116405860585089 0 0.29579617193404978 -0.19432558104056491 0 0.31045946319455608 -0.20263901644370941 0 0.31057073564158039 -0.17760626025882659 0 0.29579617193404978 -0.19432558104056491 0 0.30588539897632072 -0.22256652654210629 0 0.31045946319455608 -0.20263901644370941 0 0.30588539897632072 -0.22256652654210629 0 0.32020032842118662 -0.2136972324735969 0 0.29579617193404978 -0.19432558104056491 0 0.31045946319455608 -0.20263901644370941 0 0.30588539897632072 -0.22256652654210629 0 0.29681701546221179 -0.23419681124085551 0 0.31597462601859122 -0.25080747204364812 0 0.30111904597271899 -0.2536098058489899 0 0.30588539897632072 -0.22256652654210629 0 0.29681701546221179 -0.23419681124085551 0 0.31597462601859122 -0.25080747204364812 0 0.30588539897632072 -0.22256652654210629 0 0.31597462601859122 -0.25080747204364812 0 0.29681701546221179 -0.23419681124085551 0 0.31597462601859122 -0.25080747204364812 0 0.29681701546221179 -0.23419681124085551 0 0.30111904597271899 -0.2536098058489899 0 0.28456511698073272 -0.25518130134833977 0 0.29681701546221179 -0.23419681124085551 0 0.27830026498091959 -0.23745462562099759 0 0.28456511698073272 -0.25518130134833977 0 0.30588539897632072 -0.22256652654210629 0 0.29681701546221179 -0.23419681124085551 0 0.2776594049058328 -0.2175861504380624 0 0.29681701546221179 -0.23419681124085551 0 0.27830026498091959 -0.23745462562099759 0 0.2776594049058328 -0.2175861504380624 0 0.29681701546221179 -0.23419681124085551 0 0.2776594049058328 -0.2175861504380624 0 0.26584409390649738 -0.23415831621220631 0 0.27830026498091959 -0.23745462562099759 0 0.2776594049058328 -0.2175861504380624 0 0.26584409390649738 -0.23415831621220631 0 0.25658827463044448 -0.2222138965281123 0 0.2776594049058328 -0.2175861504380624 0 0.27830026498091959 -0.23745462562099759 0 0.28456511698073272 -0.25518130134833977 0 0.26629969424128969 -0.25192769388052821 0 0.26584409390649738 -0.23415831621220631 0 0.27830026498091959 -0.23745462562099759 0 0.26629969424128969 -0.25192769388052821 0 0.26584409390649738 -0.23415831621220631 0 0.25037283077400019 -0.2416092145933311 0 0.26629969424128969 -0.25192769388052821 0 0.25037283077400019 -0.2416092145933311 0 0.25658827463044448 -0.2222138965281123 0 0.2446094219978813 -0.2276121794933563 0 0.26584409390649738 -0.23415831621220631 0 0.25037283077400019 -0.2416092145933311 0 0.25658827463044448 -0.2222138965281123 0 0.25658827463044448 -0.2222138965281123 0 0.2776594049058328 -0.2175861504380624 0 0.25850179434945381 -0.20097548963526929 0 0.25658827463044448 -0.2222138965281123 0 0.25850179434945381 -0.20097548963526929 0 0.23907695871134879 -0.21289681242661959 0 0.2776594049058328 -0.2175861504380624 0 0.25850179434945381 -0.20097548963526929 0 0.2776594049058328 -0.2175861504380624 0 0.2764107852420567 -0.19644220614923899 0 0.25850179434945381 -0.20097548963526929 0 0.2764107852420567 -0.19644220614923899 0 0.25850179434945381 -0.20097548963526929 0 0.26539786460737957 -0.18100391429238191 0 0.25850179434945381 -0.20097548963526929 0 0.26539786460737957 -0.18100391429238191 0 0.23934418379307471 -0.18436482883247621 0 0.26539786460737957 -0.18100391429238191 0 0.25449645062408999 -0.16331052089379791 0 0.23934418379307471 -0.18436482883247621 0 0.26539786460737957 -0.18100391429238191 0 0.25449645062408999 -0.16331052089379791 0 0.27043371620885309 -0.16438603764101259 0 0.25449645062408999 -0.16331052089379791 0 0.27043371620885309 -0.16438603764101259 0 0.2633734196266177 -0.15149826902969399 0 0.27043371620885309 -0.16438603764101259 0 0.2792899687438003 -0.18116405860585089 0 0.28570694489177878 -0.1660846355390232 0 0.27043371620885309 -0.16438603764101259 0 0.27930784456020519 -0.15183985913025491 0 0.28570694489177878 -0.1660846355390232 0 0.26539786460737957 -0.18100391429238191 0 0.27043371620885309 -0.16438603764101259 0 0.2792899687438003 -0.18116405860585089 0 0.2764107852420567 -0.19644220614923899 0 0.26539786460737957 -0.18100391429238191 0 0.2792899687438003 -0.18116405860585089 0 0.26153006621115998 -0.13421007507225571 0 0.24375228786211539 -0.116580291014256 0 0.24955680073527009 -0.143898101237383 0 0.26153006621115998 -0.13421007507225571 0 0.24375228786211539 -0.116580291014256 0 0.25449645062408999 -0.16331052089379791 0 0.2633734196266177 -0.15149826902969399 0 0.24955680073527009 -0.143898101237383 0 0.26153006621115998 -0.13421007507225571 0 0.2633734196266177 -0.15149826902969399 0 0.24955680073527009 -0.143898101237383 0 0.27043371620885309 -0.16438603764101259 0 0.2633734196266177 -0.15149826902969399 0 0.27930784456020519 -0.15183985913025491 0 0.27561771784950778 -0.13784369003748159 0 0.28570694489177878 -0.1660846355390232 0 0.26153006621115998 -0.13421007507225571 0 0.27930784456020519 -0.15183985913025491 0 0.27561771784950778 -0.13784369003748159 0 0.27930784456020519 -0.15183985913025491 0 0.27561771784950778 -0.13784369003748159 0 0.28570694489177878 -0.1660846355390232 0 0.26153006621115998 -0.13421007507225571 0 0.2633734196266177 -0.15149826902969399 0 0.27930784456020519 -0.15183985913025491 0 0.26153006621115998 -0.13421007507225571 0 0.27930784456020519 -0.15183985913025491 0 0.26776517015272971 -0.1222840496799191 0 0.27561771784950778 -0.13784369003748159 0 0.28721398294742878 -0.13035474923543569 0 0.26776517015272971 -0.1222840496799191 0 0.26153006621115998 -0.13421007507225571 0 0.27561771784950778 -0.13784369003748159 0 0.27561771784950778 -0.13784369003748159 0 0.28721398294742878 -0.13035474923543569 0 0.28891568690104508 -0.14625428249578579 0 0.28721398294742878 -0.13035474923543569 0 0.28891568690104508 -0.14625428249578579 0 0.29920842625061578 -0.1386190615635868 0 0.28891568690104508 -0.14625428249578579 0 0.29920842625061578 -0.1386190615635868 0 0.29789574789403661 -0.15876522012859751 0 0.27561771784950778 -0.13784369003748159 0 0.28891568690104508 -0.14625428249578579 0 0.28570694489177878 -0.1660846355390232 0 0.30985117626407932 -0.1486491484402036 0 0.29920842625061578 -0.1386190615635868 0 0.29789574789403661 -0.15876522012859751 0 0.30985117626407932 -0.1486491484402036 0 0.29789574789403661 -0.15876522012859751 0 0.3134799250960158 -0.16133035304856411 0 0.30985117626407932 -0.1486491484402036 0 0.29920842625061578 -0.1386190615635868 0 0.31980994510895661 -0.13408045692276491 0 0.3092169746865393 -0.1198258623704429 0 0.28721398294742878 -0.13035474923543569 0 0.29920842625061578 -0.1386190615635868 0 0.3092169746865393 -0.1198258623704429 0 0.29920842625061578 -0.1386190615635868 0 0.31980994510895661 -0.13408045692276491 0 0.29579617193404978 -0.19432558104056491 0 0.2792899687438003 -0.18116405860585089 0 0.28570694489177878 -0.1660846355390232 0 0.29579617193404978 -0.19432558104056491 0 0.28570694489177878 -0.1660846355390232 0 0.29579617193404978 -0.19432558104056491 0 0.28570694489177878 -0.1660846355390232 0 0.29784246694311001 -0.17248502473641619 0 0.28891568690104508 -0.14625428249578579 0 0.28570694489177878 -0.1660846355390232 0 0.29789574789403661 -0.15876522012859751 0 0.28570694489177878 -0.1660846355390232 0 0.29789574789403661 -0.15876522012859751 0 0.29784246694311001 -0.17248502473641619 0 0.29789574789403661 -0.15876522012859751 0 0.31057073564158039 -0.17760626025882659 0 0.3134799250960158 -0.16133035304856411 0 0.29789574789403661 -0.15876522012859751 0 0.31057073564158039 -0.17760626025882659 0 0.29784246694311001 -0.17248502473641619 0 0.29789574789403661 -0.15876522012859751 0 0.31057073564158039 -0.17760626025882659 0 0.29579617193404978 -0.19432558104056491 0 0.31057073564158039 -0.17760626025882659 0 0.29784246694311001 -0.17248502473641619 0 0.31057073564158039 -0.17760626025882659 0 0.33117051957001492 -0.16690810347740409 0 0.33960500058918919 -0.18923554211963439 0 0.31057073564158039 -0.17760626025882659 0 0.32324572338912438 -0.19644730038905581 0 0.3134799250960158 -0.16133035304856411 0 0.33117051957001492 -0.16690810347740409 0 0.32297156368297691 -0.15191279281852399 0 0.31057073564158039 -0.17760626025882659 0 0.3134799250960158 -0.16133035304856411 0 0.33117051957001492 -0.16690810347740409 0 0.33117051957001492 -0.16690810347740409 0 0.34312821131240068 -0.1490342399984359 0 0.35150112372442083 -0.17432517416681301 0 0.33117051957001492 -0.16690810347740409 0 0.35150112372442083 -0.17432517416681301 0 0.33960500058918919 -0.18923554211963439 0 0.33587402752894302 -0.122350175475488 0 0.3092169746865393 -0.1198258623704429 0 0.31980994510895661 -0.13408045692276491 0 0.30985117626407932 -0.1486491484402036 0 0.31980994510895661 -0.13408045692276491 0 0.32297156368297691 -0.15191279281852399 0 0.30985117626407932 -0.1486491484402036 0 0.3134799250960158 -0.16133035304856411 0 0.32297156368297691 -0.15191279281852399 0 0.33117051957001492 -0.16690810347740409 0 0.32297156368297691 -0.15191279281852399 0 0.34312821131240068 -0.1490342399984359 0 0.31980994510895661 -0.13408045692276491 0 0.32297156368297691 -0.15191279281852399 0 0.34312821131240068 -0.1490342399984359 0 0.33587402752894302 -0.122350175475488 0 0.31980994510895661 -0.13408045692276491 0 0.34312821131240068 -0.1490342399984359 0 0.36253108037134668 -0.1248744885805331 0 0.33587402752894302 -0.122350175475488 0 0.3555623608711499 -0.1359942506039106 0 0.33587402752894302 -0.122350175475488 0 0.34312821131240068 -0.1490342399984359 0 0.3555623608711499 -0.1359942506039106 0 0.34312821131240068 -0.1490342399984359 0 0.3555623608711499 -0.1359942506039106 0 0.36858459771950869 -0.15733985743645959 0 0.3555623608711499 -0.1359942506039106 0 0.36652086356581781 -0.12946943863695781 0 0.36858459771950869 -0.15733985743645959 0 0.36652086356581781 -0.12946943863695781 0 0.36858459771950869 -0.15733985743645959 0 0.36652086356581781 -0.12946943863695781 0 0.36858459771950869 -0.15733985743645959 0 0.3787995421462832 -0.1425544525875144 0 0.36652086356581781 -0.12946943863695781 0 0.37808333446084269 -0.1309391893982525 0 0.3787995421462832 -0.1425544525875144 0 0.36253108037134668 -0.1248744885805331 0 0.36652086356581781 -0.12946943863695781 0 0.37808333446084269 -0.1309391893982525 0 0.36253108037134668 -0.1248744885805331 0 0.3555623608711499 -0.1359942506039106 0 0.36652086356581781 -0.12946943863695781 0 0.35150112372442083 -0.17432517416681301 0 0.37064833187319962 -0.1852102762359614 0 0.35587008128221181 -0.19822302573298239 0 0.35150112372442083 -0.17432517416681301 0 0.35587008128221181 -0.19822302573298239 0 0.33960500058918919 -0.18923554211963439 0 0.34312821131240068 -0.1490342399984359 0 0.35150112372442083 -0.17432517416681301 0 0.36858459771950869 -0.15733985743645959 0 0.36858459771950869 -0.15733985743645959 0 0.37064833187319962 -0.1852102762359614 0 0.35150112372442083 -0.17432517416681301 0 0.36858459771950869 -0.15733985743645959 0 0.37064833187319962 -0.1852102762359614 0 0.36858459771950869 -0.15733985743645959 0 0.37064833187319962 -0.1852102762359614 0 0.3834788620725188 -0.17954848884060079 0 0.37064833187319962 -0.1852102762359614 0 0.37271206602689039 -0.21308069503546309 0 0.38139900114097952 -0.20469292352659629 0 0.37064833187319962 -0.1852102762359614 0 0.37271206602689039 -0.21308069503546309 0 0.37064833187319962 -0.1852102762359614 0 0.37271206602689039 -0.21308069503546309 0 0.35587008128221181 -0.19822302573298239 0 0.37271206602689039 -0.21308069503546309 0 0.35603419272415182 -0.2169366224123114 0 0.35587008128221181 -0.19822302573298239 0 0.35603419272415182 -0.2169366224123114 0 0.35587008128221181 -0.19822302573298239 0 0.33592071113666833 -0.21528834051928489 0 0.35587008128221181 -0.19822302573298239 0 0.33960500058918919 -0.18923554211963439 0 0.33592071113666833 -0.21528834051928489 0 0.33960500058918919 -0.18923554211963439 0 0.33592071113666833 -0.21528834051928489 0 0.32324572338912438 -0.19644730038905581 0 0.33592071113666833 -0.21528834051928489 0 0.32324572338912438 -0.19644730038905581 0 0.33592071113666833 -0.21528834051928489 0 0.32020032842118662 -0.2136972324735969 0 0.32324572338912438 -0.19644730038905581 0 0.31045946319455608 -0.20263901644370941 0 0.32020032842118662 -0.2136972324735969 0 0.32324572338912438 -0.19644730038905581 0 0.31057073564158039 -0.17760626025882659 0 0.33960500058918919 -0.18923554211963439 0 0.32324572338912438 -0.19644730038905581 0 0.31045946319455608 -0.20263901644370941 0 0.31057073564158039 -0.17760626025882659 0 0.32324572338912438 -0.19644730038905581 0 0.32549034540926353 -0.23154497847382799 0 0.33517615116993849 -0.24743488902137309 0 0.31597462601859122 -0.25080747204364812 0 0.30588539897632072 -0.22256652654210629 0 0.32549034540926353 -0.23154497847382799 0 0.31597462601859122 -0.25080747204364812 0 0.30588539897632072 -0.22256652654210629 0 0.32020032842118662 -0.2136972324735969 0 0.32549034540926353 -0.23154497847382799 0 0.33592071113666833 -0.21528834051928489 0 0.32020032842118662 -0.2136972324735969 0 0.32549034540926353 -0.23154497847382799 0 0.33592071113666833 -0.21528834051928489 0 0.32549034540926353 -0.23154497847382799 0 0.34859569888421221 -0.23412938064951411 0 0.33592071113666833 -0.21528834051928489 0 0.34859569888421221 -0.23412938064951411 0 0.32549034540926353 -0.23154497847382799 0 0.33517615116993849 -0.24743488902137309 0 0.34859569888421221 -0.23412938064951411 0 0.33517615116993849 -0.24743488902137309 0 0.34859569888421221 -0.23412938064951411 0 0.35185333732921159 -0.25428502110151557 0 0.34859569888421221 -0.23412938064951411 0 0.36075586336603621 -0.2426037127049111 0 0.35185333732921159 -0.25428502110151557 0 0.34859569888421221 -0.23412938064951411 0 0.36291464790978972 -0.22902601310760301 0 0.36075586336603621 -0.2426037127049111 0 0.35603419272415182 -0.2169366224123114 0 0.34859569888421221 -0.23412938064951411 0 0.36291464790978972 -0.22902601310760301 0 0.35603419272415182 -0.2169366224123114 0 0.33592071113666833 -0.21528834051928489 0 0.34859569888421221 -0.23412938064951411 0 0.37271206602689039 -0.21308069503546309 0 0.35603419272415182 -0.2169366224123114 0 0.36291464790978972 -0.22902601310760301 0 0.37271206602689039 -0.21308069503546309 0 0.37477580018058132 -0.24095111383496479 0 0.37555308153547928 -0.22286467051027881 0 0.37271206602689039 -0.21308069503546309 0 0.37477580018058132 -0.24095111383496479 0 0.37271206602689039 -0.21308069503546309 0 0.36291464790978972 -0.22902601310760301 0 0.37477580018058132 -0.24095111383496479 0 0.36075586336603621 -0.2426037127049111 0 0.37477580018058132 -0.24095111383496479 0 0.36563983252638571 -0.25462703483095822 0 0.36291464790978972 -0.22902601310760301 0 0.36075586336603621 -0.2426037127049111 0 0.37477580018058132 -0.24095111383496479 0 0.37477580018058132 -0.24095111383496479 0 0.39321551516580561 -0.23618023300957031 0 0.38725375881062551 -0.25185160038302579 0 0.39321551516580561 -0.23618023300957031 0 0.41087794879613182 -0.2494957955088617 0 0.40741230325918792 -0.23450562481703699 0 0.39321551516580561 -0.23618023300957031 0 0.41087794879613182 -0.2494957955088617 0 0.39321551516580561 -0.23618023300957031 0 0.38725375881062551 -0.25185160038302579 0 0.39640803358832022 -0.25154779433757402 0 0.39321551516580561 -0.23618023300957031 0 0.41087794879613182 -0.2494957955088617 0 0.39640803358832022 -0.25154779433757402 0 0.4055308246994358 -0.22407667781788709 0 0.39424069285124719 -0.22310079746779379 0 0.40434357831770951 -0.21487406561090469 0 0.4055308246994358 -0.22407667781788709 0 0.39424069285124719 -0.22310079746779379 0 0.40741230325918792 -0.23450562481703699 0 0.39321551516580561 -0.23618023300957031 0 0.39424069285124719 -0.22310079746779379 0 0.40741230325918792 -0.23450562481703699 0 0.37477580018058132 -0.24095111383496479 0 0.39321551516580561 -0.23618023300957031 0 0.37555308153547928 -0.22286467051027881 0 0.39424069285124719 -0.22310079746779379 0 0.37555308153547928 -0.22286467051027881 0 0.38300691860546521 -0.21527996176244341 0 0.39321551516580561 -0.23618023300957031 0 0.37555308153547928 -0.22286467051027881 0 0.39321551516580561 -0.23618023300957031 0 0.39424069285124719 -0.22310079746779379 0 0.37555308153547928 -0.22286467051027881 0 0.37271206602689039 -0.21308069503546309 0 0.37555308153547928 -0.22286467051027881 0 0.38300691860546521 -0.21527996176244341 0 0.37271206602689039 -0.21308069503546309 0 0.38139900114097952 -0.20469292352659629 0 0.38300691860546521 -0.21527996176244341 0 0.38139900114097952 -0.20469292352659629 0 0.39078770323730427 -0.19674260859680251 0 0.39112975147272949 -0.2126607222720846 0 0.38139900114097952 -0.20469292352659629 0 0.38300691860546521 -0.21527996176244341 0 0.39112975147272949 -0.2126607222720846 0 0.39424069285124719 -0.22310079746779379 0 0.38300691860546521 -0.21527996176244341 0 0.39112975147272949 -0.2126607222720846 0 0.37064833187319962 -0.1852102762359614 0 0.38139900114097952 -0.20469292352659629 0 0.39078770323730427 -0.19674260859680251 0 0.39078770323730427 -0.19674260859680251 0 0.40475141021500721 -0.1910589369573561 0 0.39510197637232292 -0.1839605883432579 0 0.39078770323730427 -0.19674260859680251 0 0.40426546228868082 -0.20108352786525729 0 0.397631623829106 -0.20634023108626229 0 0.39078770323730427 -0.19674260859680251 0 0.40426546228868082 -0.20108352786525729 0 0.40475141021500721 -0.1910589369573561 0 0.39078770323730427 -0.19674260859680251 0 0.39112975147272949 -0.2126607222720846 0 0.397631623829106 -0.20634023108626229 0 0.39112975147272949 -0.2126607222720846 0 0.397631623829106 -0.20634023108626229 0 0.40434357831770951 -0.21487406561090469 0 0.39424069285124719 -0.22310079746779379 0 0.39112975147272949 -0.2126607222720846 0 0.40434357831770951 -0.21487406561090469 0 0.40426546228868082 -0.20108352786525729 0 0.397631623829106 -0.20634023108626229 0 0.40434357831770951 -0.21487406561090469 0 0.40434357831770951 -0.21487406561090469 0 0.41713092845542321 -0.20900944133272009 0 0.41612672436959858 -0.22382622337581301 0 0.40426546228868082 -0.20108352786525729 0 0.40434357831770951 -0.21487406561090469 0 0.41713092845542321 -0.20900944133272009 0 0.41713092845542321 -0.20900944133272009 0 0.42330136258736267 -0.2174116668913772 0 0.41612672436959858 -0.22382622337581301 0 0.40475141021500721 -0.1910589369573561 0 0.41487892771890261 -0.19826025474908979 0 0.4146572714410397 -0.186958864794112 0 0.40426546228868082 -0.20108352786525729 0 0.41713092845542321 -0.20900944133272009 0 0.41487892771890261 -0.19826025474908979 0 0.40426546228868082 -0.20108352786525729 0 0.40475141021500721 -0.1910589369573561 0 0.41487892771890261 -0.19826025474908979 0 0.41713092845542321 -0.20900944133272009 0 0.41487892771890261 -0.19826025474908979 0 0.42701217502226602 -0.19751647228806199 0 0.41487892771890261 -0.19826025474908979 0 0.42053294087941678 -0.1923617771039739 0 0.42701217502226602 -0.19751647228806199 0 0.42053294087941678 -0.1923617771039739 0 0.4146572714410397 -0.186958864794112 0 0.42558338933545942 -0.1867115165846317 0 0.41487892771890261 -0.19826025474908979 0 0.42053294087941678 -0.1923617771039739 0 0.4146572714410397 -0.186958864794112 0 0.42701217502226602 -0.19751647228806199 0 0.43844209377108118 -0.18689286854296691 0 0.44355474576021348 -0.2050869029196882 0 0.42053294087941678 -0.1923617771039739 0 0.42701217502226602 -0.19751647228806199 0 0.42558338933545942 -0.1867115165846317 0 0.42701217502226602 -0.19751647228806199 0 0.42558338933545942 -0.1867115165846317 0 0.43844209377108118 -0.18689286854296691 0 0.42701217502226602 -0.19751647228806199 0 0.43006687167525981 -0.21185300334864521 0 0.44355474576021348 -0.2050869029196882 0 0.41713092845542321 -0.20900944133272009 0 0.42330136258736267 -0.2174116668913772 0 0.43006687167525981 -0.21185300334864521 0 0.42330136258736267 -0.2174116668913772 0 0.43006687167525981 -0.21185300334864521 0 0.42988092584916948 -0.2249579995083304 0 0.41713092845542321 -0.20900944133272009 0 0.42701217502226602 -0.19751647228806199 0 0.43006687167525981 -0.21185300334864521 0 0.43006687167525981 -0.21185300334864521 0 0.42988092584916948 -0.2249579995083304 0 0.44009267276725389 -0.2176624614444449 0 0.42330136258736267 -0.2174116668913772 0 0.42988092584916948 -0.2249579995083304 0 0.41612672436959858 -0.22382622337581301 0 0.42988092584916948 -0.2249579995083304 0 0.43458399188612801 -0.2397076170126072 0 0.42159465327244361 -0.23640953485310751 0 0.42988092584916948 -0.2249579995083304 0 0.42159465327244361 -0.23640953485310751 0 0.41612672436959858 -0.22382622337581301 0 0.42988092584916948 -0.2249579995083304 0 0.43458399188612801 -0.2397076170126072 0 0.44416109061426973 -0.22983272991065171 0 0.43458399188612801 -0.2397076170126072 0 0.42656562700980838 -0.24831468624349931 0 0.4372088962240912 -0.25169219704383999 0 0.43458399188612801 -0.2397076170126072 0 0.42656562700980838 -0.24831468624349931 0 0.42159465327244361 -0.23640953485310751 0 0.42656562700980838 -0.24831468624349931 0 0.42159465327244361 -0.23640953485310751 0 0.41087794879613182 -0.2494957955088617 0 0.42159465327244361 -0.23640953485310751 0 0.41087794879613182 -0.2494957955088617 0 0.40741230325918792 -0.23450562481703699 0 0.4055308246994358 -0.22407667781788709 0 0.40741230325918792 -0.23450562481703699 0 0.41612672436959858 -0.22382622337581301 0 0.4055308246994358 -0.22407667781788709 0 0.40434357831770951 -0.21487406561090469 0 0.41612672436959858 -0.22382622337581301 0 0.42159465327244361 -0.23640953485310751 0 0.40741230325918792 -0.23450562481703699 0 0.41612672436959858 -0.22382622337581301 0 0.39823574772599779 -0.11763079726210079 0 0.40257569972698831 -0.13396225485532559 0 0.38918813321375051 -0.12739880168557821 0 0.40257569972698831 -0.13396225485532559 0 0.38918813321375051 -0.12739880168557821 0 0.39017348084279901 -0.13955387731924049 0 0.38918813321375051 -0.12739880168557821 0 0.37808333446084269 -0.1309391893982525 0 0.39017348084279901 -0.13955387731924049 0 0.37720890243704291 -0.12310924361699779 0 0.36253108037134668 -0.1248744885805331 0 0.38918813321375051 -0.12739880168557821 0 0.36253108037134668 -0.1248744885805331 0 0.38918813321375051 -0.12739880168557821 0 0.37808333446084269 -0.1309391893982525 0 0.36253108037134668 -0.1248744885805331 0 0.38918813321375051 -0.12739880168557821 0 0.37808333446084269 -0.1309391893982525 0 0.39017348084279901 -0.13955387731924049 0 0.3787995421462832 -0.1425544525875144 0 0.36858459771950869 -0.15733985743645959 0 0.3787995421462832 -0.1425544525875144 0 0.38535727780346091 -0.1527557998392445 0 0.39017348084279901 -0.13955387731924049 0 0.3787995421462832 -0.1425544525875144 0 0.38535727780346091 -0.1527557998392445 0 0.40257569972698831 -0.13396225485532559 0 0.39822107621443897 -0.1501202070538992 0 0.41732028123257531 -0.14286435439753159 0 0.40257569972698831 -0.13396225485532559 0 0.39017348084279901 -0.13955387731924049 0 0.39822107621443897 -0.1501202070538992 0 0.39017348084279901 -0.13955387731924049 0 0.38535727780346091 -0.1527557998392445 0 0.39822107621443897 -0.1501202070538992 0 0.39822107621443897 -0.1501202070538992 0 0.39107178753907162 -0.16851380255406381 0 0.40713652226246821 -0.16744863749245631 0 0.39107178753907162 -0.16851380255406381 0 0.40713652226246821 -0.16744863749245631 0 0.38535727780346091 -0.1527557998392445 0 0.39822107621443897 -0.1501202070538992 0 0.39107178753907162 -0.16851380255406381 0 0.39107178753907162 -0.16851380255406381 0 0.40460499843718001 -0.17902112385493851 0 0.40713652226246821 -0.16744863749245631 0 0.36858459771950869 -0.15733985743645959 0 0.38535727780346091 -0.1527557998392445 0 0.39107178753907162 -0.16851380255406381 0 0.36858459771950869 -0.15733985743645959 0 0.39107178753907162 -0.16851380255406381 0 0.3834788620725188 -0.17954848884060079 0 0.39107178753907162 -0.16851380255406381 0 0.3834788620725188 -0.17954848884060079 0 0.39510197637232292 -0.1839605883432579 0 0.39078770323730427 -0.19674260859680251 0 0.3834788620725188 -0.17954848884060079 0 0.39510197637232292 -0.1839605883432579 0 0.37064833187319962 -0.1852102762359614 0 0.39078770323730427 -0.19674260859680251 0 0.3834788620725188 -0.17954848884060079 0 0.39107178753907162 -0.16851380255406381 0 0.39510197637232292 -0.1839605883432579 0 0.40460499843718001 -0.17902112385493851 0 0.40475141021500721 -0.1910589369573561 0 0.39510197637232292 -0.1839605883432579 0 0.40460499843718001 -0.17902112385493851 0 0.40475141021500721 -0.1910589369573561 0 0.40460499843718001 -0.17902112385493851 0 0.4146572714410397 -0.186958864794112 0 0.40460499843718001 -0.17902112385493851 0 0.41491102279317088 -0.17618591298838529 0 0.4146572714410397 -0.186958864794112 0 0.40460499843718001 -0.17902112385493851 0 0.41491102279317088 -0.17618591298838529 0 0.40713652226246821 -0.16744863749245631 0 0.41491102279317088 -0.17618591298838529 0 0.42527009306055918 -0.1746571334479238 0 0.4232012569858648 -0.16638347243084889 0 0.41491102279317088 -0.17618591298838529 0 0.42095079563492938 -0.18072636251124541 0 0.42527009306055918 -0.1746571334479238 0 0.41491102279317088 -0.17618591298838529 0 0.42095079563492938 -0.18072636251124541 0 0.4146572714410397 -0.186958864794112 0 0.42095079563492938 -0.18072636251124541 0 0.4146572714410397 -0.186958864794112 0 0.42558338933545942 -0.1867115165846317 0 0.43180268423531071 -0.1802632517690351 0 0.42527009306055918 -0.1746571334479238 0 0.44880083799057491 -0.164686103644653 0 0.42095079563492938 -0.18072636251124541 0 0.42558338933545942 -0.1867115165846317 0 0.43180268423531071 -0.1802632517690351 0 0.42558338933545942 -0.1867115165846317 0 0.43180268423531071 -0.1802632517690351 0 0.43844209377108118 -0.18689286854296691 0 0.42095079563492938 -0.18072636251124541 0 0.43180268423531071 -0.1802632517690351 0 0.42527009306055918 -0.1746571334479238 0 0.42527009306055918 -0.1746571334479238 0 0.4232012569858648 -0.16638347243084889 0 0.44880083799057491 -0.164686103644653 0 0.4232012569858648 -0.16638347243084889 0 0.43334283997313311 -0.15135273030925811 0 0.44880083799057491 -0.164686103644653 0 0.4232012569858648 -0.16638347243084889 0 0.44880083799057491 -0.164686103644653 0 0.42527009306055918 -0.1746571334479238 0 0.4232012569858648 -0.16638347243084889 0 0.4232012569858648 -0.16638347243084889 0 0.40713652226246821 -0.16744863749245631 0 0.41732028123257531 -0.14286435439753159 0 0.41491102279317088 -0.17618591298838529 0 0.4232012569858648 -0.16638347243084889 0 0.40713652226246821 -0.16744863749245631 0 0.4232012569858648 -0.16638347243084889 0 0.40713652226246821 -0.16744863749245631 0 0.4232012569858648 -0.16638347243084889 0 0.41732028123257531 -0.14286435439753159 0 0.39822107621443897 -0.1501202070538992 0 0.40713652226246821 -0.16744863749245631 0 0.41732028123257531 -0.14286435439753159 0 0.41732028123257531 -0.14286435439753159 0 0.43334283997313311 -0.15135273030925811 0 0.43763345530417341 -0.13584027725706749 0 0.4232012569858648 -0.16638347243084889 0 0.41732028123257531 -0.14286435439753159 0 0.43334283997313311 -0.15135273030925811 0 0.42916935431308728 -0.1205456085246996 0 0.41732028123257531 -0.14286435439753159 0 0.43763345530417341 -0.13584027725706749 0 0.42916935431308728 -0.1205456085246996 0 0.4435038969132965 -0.12540022695152131 0 0.43763345530417341 -0.13584027725706749 0 0.41143930547928681 -0.11934523636421419 0 0.42916935431308728 -0.1205456085246996 0 0.41732028123257531 -0.14286435439753159 0 0.41143930547928681 -0.11934523636421419 0 0.40257569972698831 -0.13396225485532559 0 0.41732028123257531 -0.14286435439753159 0 0.41143930547928681 -0.11934523636421419 0 0.41732028123257531 -0.14286435439753159 0 0.46257396642688631 -0.12529077885077469 0 0.46381730130484328 -0.1363472541609663 0 0.4585659370706795 -0.1308283620105129 0 0.46381730130484328 -0.1363472541609663 0 0.4585659370706795 -0.1308283620105129 0 0.45274550479158487 -0.1345999168850856 0 0.46381730130484328 -0.1363472541609663 0 0.45274550479158487 -0.1345999168850856 0 0.46138481906560302 -0.14686228775601681 0 0.46257396642688631 -0.12529077885077469 0 0.4585659370706795 -0.1308283620105129 0 0.45239247298790419 -0.125419693033265 0 0.4585659370706795 -0.1308283620105129 0 0.45239247298790419 -0.125419693033265 0 0.45274550479158487 -0.1345999168850856 0 0.45239247298790419 -0.125419693033265 0 0.4435038969132965 -0.12540022695152131 0 0.45274550479158487 -0.1345999168850856 0 0.4435038969132965 -0.12540022695152131 0 0.43763345530417341 -0.13584027725706749 0 0.45274550479158487 -0.1345999168850856 0 0.43763345530417341 -0.13584027725706749 0 0.45274550479158487 -0.1345999168850856 0 0.44678149142501389 -0.1466682631704162 0 0.43334283997313311 -0.15135273030925811 0 0.44678149142501389 -0.1466682631704162 0 0.44880083799057491 -0.164686103644653 0 0.44678149142501389 -0.1466682631704162 0 0.46138481906560302 -0.14686228775601681 0 0.44880083799057491 -0.164686103644653 0 0.43334283997313311 -0.15135273030925811 0 0.43763345530417341 -0.13584027725706749 0 0.44678149142501389 -0.1466682631704162 0 0.45274550479158487 -0.1345999168850856 0 0.44678149142501389 -0.1466682631704162 0 0.46138481906560302 -0.14686228775601681 0 0.46138481906560302 -0.14686228775601681 0 0.44880083799057491 -0.164686103644653 0 0.47440041899528501 -0.16298873485845719 0 0.44880083799057491 -0.164686103644653 0 0.46834799031954211 -0.17915452781490099 0 0.47440041899528501 -0.16298873485845719 0 0.44880083799057491 -0.164686103644653 0 0.47440041899528501 -0.16298873485845719 0 0.43180268423531071 -0.1802632517690351 0 0.44880083799057491 -0.164686103644653 0 0.43844209377108118 -0.18689286854296691 0 0.44880083799057491 -0.164686103644653 0 0.43844209377108118 -0.18689286854296691 0 0.45508032593701309 -0.1914137801830845 0 0.44880083799057491 -0.164686103644653 0 0.46834799031954211 -0.17915452781490099 0 0.45508032593701309 -0.1914137801830845 0 0.46834799031954211 -0.17915452781490099 0 0.48419704391512092 -0.17843144908975531 0 0.47440041899528501 -0.16298873485845719 0 0.46834799031954211 -0.17915452781490099 0 0.48419704391512092 -0.17843144908975531 0 0.47823681026078202 -0.19812675643970101 0 0.48419704391512092 -0.17843144908975531 0 0.49999999999999523 -0.16129136607226169 0 0.5 -0.1905958602634561 0 0.49999999999999523 -0.16129136607226169 0 0.47440041899528501 -0.16298873485845719 0 0.50000000000000067 -0.1547763741112759 0 0.48419704391512092 -0.17843144908975531 0 0.49999999999999523 -0.16129136607226169 0 0.47440041899528501 -0.16298873485845719 0 0.49999999999999523 -0.16129136607226169 0 0.47440041899528501 -0.16298873485845719 0 0.46138481906560302 -0.14686228775601681 0 0.47440041899528501 -0.16298873485845719 0 0.48128698321344371 -0.14003357648102521 0 0.46381730130484328 -0.1363472541609663 0 0.46138481906560302 -0.14686228775601681 0 0.48128698321344371 -0.14003357648102521 0 0.50000000000000067 -0.1547763741112759 0 0.48128698321344371 -0.14003357648102521 0 0.50000000000000067 -0.1547763741112759 0 0.5 -0.13349841451636779 0 0.48128698321344371 -0.14003357648102521 0 0.47440041899528501 -0.16298873485845719 0 0.50000000000000067 -0.1547763741112759 0 0.48128698321344371 -0.14003357648102521 0 0.48087269318342413 -0.1216818802472065 0 0.5 -0.13349841451636779 0 0.48128698321344371 -0.14003357648102521 0 0.46257396642688631 -0.12529077885077469 0 0.48128698321344371 -0.14003357648102521 0 0.46257396642688631 -0.12529077885077469 0 0.46381730130484328 -0.1363472541609663 0 0.48128698321344371 -0.14003357648102521 0 0.47129126618897188 -0.1223351355815797 0 0.48087269318342413 -0.1216818802472065 0 0.48128698321344371 -0.14003357648102521 0 0.47129126618897188 -0.1223351355815797 0 0.46257396642688631 -0.12529077885077469 0 0.48128698321344371 -0.14003357648102521 0 0.46029750420545162 -0.23134667767863379 0 0.45079963313025367 -0.219495204315066 0 0.46126535540865482 -0.21094244298034759 0 0.46029750420545162 -0.23134667767863379 0 0.46126535540865482 -0.21094244298034759 0 0.47937109712497578 -0.22608105856418539 0 0.46029750420545162 -0.23134667767863379 0 0.44856132313442931 -0.24393079079591279 0 0.47387431588802909 -0.25499376211151131 0 0.46029750420545162 -0.23134667767863379 0 0.44856132313442931 -0.24393079079591279 0 0.44416109061426973 -0.22983272991065171 0 0.43458399188612801 -0.2397076170126072 0 0.44856132313442931 -0.24393079079591279 0 0.4372088962240912 -0.25169219704383999 0 0.43458399188612801 -0.2397076170126072 0 0.44856132313442931 -0.24393079079591279 0 0.44416109061426973 -0.22983272991065171 0 0.46029750420545162 -0.23134667767863379 0 0.44416109061426973 -0.22983272991065171 0 0.45079963313025367 -0.219495204315066 0 0.44416109061426973 -0.22983272991065171 0 0.45079963313025367 -0.219495204315066 0 0.44009267276725389 -0.2176624614444449 0 0.42988092584916948 -0.2249579995083304 0 0.44416109061426973 -0.22983272991065171 0 0.44009267276725389 -0.2176624614444449 0 0.45079963313025367 -0.219495204315066 0 0.44355474576021348 -0.2050869029196882 0 0.46126535540865482 -0.21094244298034759 0 0.43006687167525981 -0.21185300334864521 0 0.44009267276725389 -0.2176624614444449 0 0.44355474576021348 -0.2050869029196882 0 0.45079963313025367 -0.219495204315066 0 0.44009267276725389 -0.2176624614444449 0 0.44355474576021348 -0.2050869029196882 0 0.43844209377108118 -0.18689286854296691 0 0.44355474576021348 -0.2050869029196882 0 0.45508032593701309 -0.1914137801830845 0 0.46834799031954211 -0.17915452781490099 0 0.45508032593701309 -0.1914137801830845 0 0.47823681026078202 -0.19812675643970101 0 0.44355474576021348 -0.2050869029196882 0 0.45508032593701309 -0.1914137801830845 0 0.46126535540865482 -0.21094244298034759 0 0.45508032593701309 -0.1914137801830845 0 0.46126535540865482 -0.21094244298034759 0 0.47823681026078202 -0.19812675643970101 0 0.46126535540865482 -0.21094244298034759 0 0.47823681026078202 -0.19812675643970101 0 0.47937109712497578 -0.22608105856418539 0 0.48419704391512092 -0.17843144908975531 0 0.47823681026078202 -0.19812675643970101 0 0.5 -0.1905958602634561 0 0.47823681026078202 -0.19812675643970101 0 0.5 -0.1905958602634561 0 0.5 -0.21990035445465039 0 0.47823681026078202 -0.19812675643970101 0 0.5 -0.21990035445465039 0 0.47937109712497578 -0.22608105856418539 0 0.5 -0.21990035445465039 0 0.47937109712497578 -0.22608105856418539 0 0.50000000000000444 -0.24920484864584491 0 0.46029750420545162 -0.23134667767863379 0 0.47937109712497578 -0.22608105856418539 0 0.47387431588802909 -0.25499376211151131 0 0.47937109712497578 -0.22608105856418539 0 0.50000000000000444 -0.24920484864584491 0 0.47387431588802909 -0.25499376211151131 0 0.50000000000000444 -0.24920484864584491 0 0.4915669900217115 -0.25615479242606781 0 0.5 -0.27170772691138367 0 0.50000000000000444 -0.24920484864584491 0 0.4915669900217115 -0.25615479242606781 0 0.47387431588802909 -0.25499376211151131 0 0.50000000000000444 -0.24920484864584491 0 0.47387431588802909 -0.25499376211151131 0 0.4915669900217115 -0.25615479242606781 0 0.48280749151585822 -0.27129304150170008 0 0.47954864786353962 -0.26301133191085868 0 0.4915669900217115 -0.25615479242606781 0 0.5 -0.27170772691138367 0 0.48280749151585822 -0.27129304150170008 0 0.5 -0.27170772691138367 0 0.48280749151585822 -0.27129304150170008 0 0.48951500520952212 -0.28458010338455908 0 0.48280749151585822 -0.27129304150170008 0 0.47474596181800061 -0.28621450290334632 0 0.48951500520952212 -0.28458010338455908 0 0.48280749151585822 -0.27129304150170008 0 0.47416229901770612 -0.26612875971404459 0 0.47954864786353962 -0.26301133191085868 0 0.48280749151585822 -0.27129304150170008 0 0.47416229901770612 -0.26612875971404459 0 0.47052118473631321 -0.27447720361836658 0 0.47416229901770612 -0.26612875971404459 0 0.47052118473631321 -0.27447720361836658 0 0.46319689217890331 -0.26835660325056299 0 0.48280749151585822 -0.27129304150170008 0 0.47052118473631321 -0.27447720361836658 0 0.47474596181800061 -0.28621450290334632 0 0.4915669900217115 -0.25615479242606781 0 0.46965781089888248 -0.25846873400162218 0 0.4915669900217115 -0.25615479242606781 0 0.47387431588802909 -0.25499376211151131 0 0.46965781089888248 -0.25846873400162218 0 0.4915669900217115 -0.25615479242606781 0 0.47954864786353962 -0.26301133191085868 0 0.46965781089888248 -0.25846873400162218 0 0.47416229901770612 -0.26612875971404459 0 0.47954864786353962 -0.26301133191085868 0 0.46965781089888248 -0.25846873400162218 0 0.47416229901770612 -0.26612875971404459 0 0.46965781089888248 -0.25846873400162218 0 0.46319689217890331 -0.26835660325056299 0 0.46965781089888248 -0.25846873400162218 0 0.46319689217890331 -0.26835660325056299 0 0.4477486317760534 -0.26078267557717671 0 0.44856132313442931 -0.24393079079591279 0 0.47387431588802909 -0.25499376211151131 0 0.4477486317760534 -0.26078267557717671 0 0.47387431588802909 -0.25499376211151131 0 0.4477486317760534 -0.26078267557717671 0 0.46965781089888248 -0.25846873400162218 0 0.4477486317760534 -0.26078267557717671 0 0.47387431588802909 -0.25499376211151131 0 0.46965781089888248 -0.25846873400162218 0 0.4477486317760534 -0.26078267557717671 0 0.47052118473631321 -0.27447720361836658 0 0.45389453446556111 -0.28192564334160541 0 0.47474596181800061 -0.28621450290334632 0 0.47052118473631321 -0.27447720361836658 0 0.46319689217890331 -0.26835660325056299 0 0.45389453446556111 -0.28192564334160541 0 0.46319689217890331 -0.26835660325056299 0 0.4477486317760534 -0.26078267557717671 0 0.45389453446556111 -0.28192564334160541 0 0.45389453446556111 -0.28192564334160541 0 0.430823863629894 -0.26453285558412298 0 0.45389453446556111 -0.28192564334160541 0 0.430823863629894 -0.26453285558412298 0 0.43570592202634773 -0.28205449164250063 0 0.4477486317760534 -0.26078267557717671 0 0.45389453446556111 -0.28192564334160541 0 0.430823863629894 -0.26453285558412298 0 0.4477486317760534 -0.26078267557717671 0 0.42854038242645709 -0.26281135800815408 0 0.44856132313442931 -0.24393079079591279 0 0.4477486317760534 -0.26078267557717671 0 0.4372088962240912 -0.25169219704383999 0 0.4477486317760534 -0.26078267557717671 0 0.42854038242645709 -0.26281135800815408 0 0.4372088962240912 -0.25169219704383999 0 0.4477486317760534 -0.26078267557717671 0 0.430823863629894 -0.26453285558412298 0 0.44815314542162782 -0.30273998798419938 0 0.44271266904340639 -0.31513600928105973 0 0.43092107089682352 -0.30573631325696571 0 0.44815314542162782 -0.30273998798419938 0 0.43874415768382158 -0.29310671547163403 0 0.43092107089682352 -0.30573631325696571 0 0.43874415768382158 -0.29310671547163403 0 0.45389453446556111 -0.28192564334160541 0 0.43570592202634773 -0.28205449164250063 0 0.44815314542162782 -0.30273998798419938 0 0.43874415768382158 -0.29310671547163403 0 0.45389453446556111 -0.28192564334160541 0 0.45389453446556111 -0.28192564334160541 0 0.46668010371271101 -0.29937682325086112 0 0.47474596181800061 -0.28621450290334632 0 0.44815314542162782 -0.30273998798419938 0 0.45389453446556111 -0.28192564334160541 0 0.46668010371271101 -0.29937682325086112 0 0.46668010371271101 -0.29937682325086112 0 0.45907432653114449 -0.32014896664993769 0 0.44815314542162782 -0.30273998798419938 0 0.46668010371271101 -0.29937682325086112 0 0.45907432653114449 -0.32014896664993769 0 0.46668010371271101 -0.29937682325086112 0 0.48375110351916628 -0.30725513966339157 0 0.45907432653114449 -0.32014896664993769 0 0.46668010371271101 -0.29937682325086112 0 0.48375110351916628 -0.30725513966339157 0 0.47474596181800061 -0.28621450290334632 0 0.48375110351916628 -0.30725513966339157 0 0.47474596181800061 -0.28621450290334632 0 0.48951500520952212 -0.28458010338455908 0 0.48375110351916628 -0.30725513966339157 0 0.5 -0.29421060517692271 0 0.48951500520952212 -0.28458010338455908 0 0.5 -0.27170772691138367 0 0.5 -0.29421060517692271 0 0.48951500520952212 -0.28458010338455908 0 0.48375110351916628 -0.30725513966339157 0 0.5 -0.29421060517692271 0 0.49999999999999972 -0.31671348344246159 0 0.48375110351916628 -0.30725513966339157 0 0.49999999999999972 -0.31671348344246159 0 0.48658745812515303 -0.32591538654610069 0 0.49999999999999972 -0.31671348344246159 0 0.49107839048707969 -0.33844651150006611 0 0.49999999999999972 -0.31671348344246159 0 0.48658745812515303 -0.32591538654610069 0 0.49107839048707969 -0.33844651150006611 0 0.49999999999999972 -0.31671348344246159 0 0.5 -0.34354646621870782 0 0.49107839048707969 -0.33844651150006611 0 0.48658745812515303 -0.32591538654610069 0 0.49107839048707969 -0.33844651150006611 0 0.48013111160135669 -0.33592777501669763 0 0.48658745812515303 -0.32591538654610069 0 0.48013111160135669 -0.33592777501669763 0 0.47588582758327369 -0.32632043512378739 0 0.48013111160135669 -0.33592777501669763 0 0.46883970942210401 -0.33989811375075968 0 0.47588582758327369 -0.32632043512378739 0 0.48375110351916628 -0.30725513966339157 0 0.48658745812515303 -0.32591538654610069 0 0.47588582758327369 -0.32632043512378739 0 0.48375110351916628 -0.30725513966339157 0 0.47588582758327369 -0.32632043512378739 0 0.45907432653114449 -0.32014896664993769 0 0.5 -0.37037944899495368 0 0.48466784746851571 -0.3739080713738358 0 0.48215678097416009 -0.36017953955767068 0 0.5 -0.34354646621870782 0 0.49107839048707969 -0.33844651150006611 0 0.48215678097416009 -0.36017953955767068 0 0.49107839048707969 -0.33844651150006611 0 0.48013111160135669 -0.33592777501669763 0 0.48215678097416009 -0.36017953955767068 0 0.5 -0.34354646621870782 0 0.5 -0.37037944899495368 0 0.48215678097416009 -0.36017953955767068 0 0.49107839048707969 -0.33844651150006611 0 0.48215678097416009 -0.36017953955767068 0 0.48013111160135669 -0.33592777501669763 0 0.46883970942210401 -0.33989811375075968 0 0.48215678097416009 -0.36017953955767068 0 0.46883970942210401 -0.33989811375075968 0 0.48215678097416009 -0.36017953955767068 0 0.46166172922915721 -0.35810144835948332 0 0.48215678097416009 -0.36017953955767068 0 0.47323517146124039 -0.38191256761527542 0 0.48215678097416009 -0.36017953955767068 0 0.4671179630262795 -0.37324494563770522 0 0.47323517146124039 -0.38191256761527542 0 0.48466784746851571 -0.3739080713738358 0 0.48215678097416009 -0.36017953955767068 0 0.47323517146124039 -0.38191256761527542 0 0.48215678097416009 -0.36017953955767068 0 0.4671179630262795 -0.37324494563770522 0 0.46166172922915721 -0.35810144835948332 0 0.45652460043480969 -0.37267172771365881 0 0.46166172922915721 -0.35810144835948332 0 0.44386277216801179 -0.36169325344809122 0 0.45652460043480969 -0.37267172771365881 0 0.4671179630262795 -0.37324494563770522 0 0.46166172922915721 -0.35810144835948332 0 0.46883970942210401 -0.33989811375075968 0 0.46166172922915721 -0.35810144835948332 0 0.45146854934957792 -0.34092111004901438 0 0.43963091224731599 -0.34751792105314822 0 0.44386277216801179 -0.36169325344809122 0 0.45146854934957792 -0.34092111004901438 0 0.44386277216801179 -0.36169325344809122 0 0.45146854934957792 -0.34092111004901438 0 0.46166172922915721 -0.35810144835948332 0 0.44386277216801179 -0.36169325344809122 0 0.45146854934957792 -0.34092111004901438 0 0.44386277216801179 -0.36169325344809122 0 0.43376943787959182 -0.36708850497004442 0 0.43808065797110041 -0.37748478958974491 0 0.45652460043480969 -0.37267172771365881 0 0.44386277216801179 -0.36169325344809122 0 0.44783900322824399 -0.38008781189722518 0 0.44386277216801179 -0.36169325344809122 0 0.43808065797110041 -0.37748478958974491 0 0.44386277216801179 -0.36169325344809122 0 0.43808065797110041 -0.37748478958974491 0 0.44783900322824399 -0.38008781189722518 0 0.45652460043480969 -0.37267172771365881 0 0.44386277216801179 -0.36169325344809122 0 0.46883970942210401 -0.33989811375075968 0 0.45907432653114449 -0.32014896664993769 0 0.45146854934957792 -0.34092111004901438 0 0.45907432653114449 -0.32014896664993769 0 0.45146854934957792 -0.34092111004901438 0 0.46883970942210401 -0.33989811375075968 0 0.47588582758327369 -0.32632043512378739 0 0.45907432653114449 -0.32014896664993769 0 0.43963091224731599 -0.34751792105314822 0 0.45146854934957792 -0.34092111004901438 0 0.43565299676263758 -0.3352386806192425 0 0.45146854934957792 -0.34092111004901438 0 0.44493724809618768 -0.32603283426431229 0 0.43565299676263758 -0.3352386806192425 0 0.45907432653114449 -0.32014896664993769 0 0.45146854934957792 -0.34092111004901438 0 0.44493724809618768 -0.32603283426431229 0 0.45907432653114449 -0.32014896664993769 0 0.44493724809618768 -0.32603283426431229 0 0.44271266904340639 -0.31513600928105973 0 0.44493724809618768 -0.32603283426431229 0 0.44271266904340639 -0.31513600928105973 0 0.43047755427124879 -0.32102194424988317 0 0.44815314542162782 -0.30273998798419938 0 0.45907432653114449 -0.32014896664993769 0 0.44271266904340639 -0.31513600928105973 0 0.44271266904340639 -0.31513600928105973 0 0.43047755427124879 -0.32102194424988317 0 0.43092107089682352 -0.30573631325696571 0 0.43047755427124879 -0.32102194424988317 0 0.41919911313656122 -0.31385112706466711 0 0.41739686236043672 -0.32199345155319897 0 0.43047755427124879 -0.32102194424988317 0 0.41919911313656122 -0.31385112706466711 0 0.43092107089682352 -0.30573631325696571 0 0.43047755427124879 -0.32102194424988317 0 0.42053718701310799 -0.32957674384091618 0 0.41739686236043672 -0.32199345155319897 0 0.44493724809618768 -0.32603283426431229 0 0.43047755427124879 -0.32102194424988317 0 0.43565299676263758 -0.3352386806192425 0 0.43565299676263758 -0.3352386806192425 0 0.42053718701310799 -0.32957674384091618 0 0.4250793590774925 -0.34540704162396091 0 0.43963091224731599 -0.34751792105314822 0 0.43565299676263758 -0.3352386806192425 0 0.4250793590774925 -0.34540704162396091 0 0.43047755427124879 -0.32102194424988317 0 0.43565299676263758 -0.3352386806192425 0 0.42053718701310799 -0.32957674384091618 0 0.4062959459869725 -0.32912082979983148 0 0.4250793590774925 -0.34540704162396091 0 0.41055923831377589 -0.34398547157316572 0 0.42053718701310799 -0.32957674384091618 0 0.4062959459869725 -0.32912082979983148 0 0.4250793590774925 -0.34540704162396091 0 0.4062959459869725 -0.32912082979983148 0 0.4250793590774925 -0.34540704162396091 0 0.42053718701310799 -0.32957674384091618 0 0.4062959459869725 -0.32912082979983148 0 0.40802480504278882 -0.32457497099322458 0 0.4062959459869725 -0.32912082979983148 0 0.40802480504278882 -0.32457497099322458 0 0.4062959459869725 -0.32912082979983148 0 0.40802480504278882 -0.32457497099322458 0 0.40572459905769331 -0.31910551143285631 0 0.40802480504278882 -0.32457497099322458 0 0.4119015194344513 -0.31818912214386269 0 0.41739686236043672 -0.32199345155319897 0 0.40802480504278882 -0.32457497099322458 0 0.4119015194344513 -0.31818912214386269 0 0.40572459905769331 -0.31910551143285631 0 0.4119015194344513 -0.31818912214386269 0 0.41919911313656122 -0.31385112706466711 0 0.40916221757477672 -0.31142054967536659 0 0.4119015194344513 -0.31818912214386269 0 0.40572459905769331 -0.31910551143285631 0 0.40916221757477672 -0.31142054967536659 0 0.4119015194344513 -0.31818912214386269 0 0.41919911313656122 -0.31385112706466711 0 0.41739686236043672 -0.32199345155319897 0 0.42053718701310799 -0.32957674384091618 0 0.40802480504278882 -0.32457497099322458 0 0.41739686236043672 -0.32199345155319897 0 0.44386277216801179 -0.36169325344809122 0 0.43376943787959182 -0.36708850497004442 0 0.42728564025893462 -0.35958684797927032 0 0.42489657602010461 -0.37065940299189432 0 0.43376943787959182 -0.36708850497004442 0 0.43808065797110041 -0.37748478958974491 0 0.42489657602010461 -0.37065940299189432 0 0.43376943787959182 -0.36708850497004442 0 0.42728564025893462 -0.35958684797927032 0 0.44386277216801179 -0.36169325344809122 0 0.4250793590774925 -0.34540704162396091 0 0.43963091224731599 -0.34751792105314822 0 0.44386277216801179 -0.36169325344809122 0 0.4250793590774925 -0.34540704162396091 0 0.44386277216801179 -0.36169325344809122 0 0.42728564025893462 -0.35958684797927032 0 0.4250793590774925 -0.34540704162396091 0 0.42728564025893462 -0.35958684797927032 0 0.4250793590774925 -0.34540704162396091 0 0.41069622259092692 -0.35617360609135817 0 0.4250793590774925 -0.34540704162396091 0 0.41055923831377589 -0.34398547157316572 0 0.41069622259092692 -0.35617360609135817 0 0.41055923831377589 -0.34398547157316572 0 0.41069622259092692 -0.35617360609135817 0 0.40016542559971202 -0.34524040877751239 0 0.42489657602010461 -0.37065940299189432 0 0.42728564025893462 -0.35958684797927032 0 0.41069622259092692 -0.35617360609135817 0 0.42489657602010461 -0.37065940299189432 0 0.41069622259092692 -0.35617360609135817 0 0.4070765621089808 -0.37107032214525337 0 0.42489657602010461 -0.37065940299189432 0 0.41069622259092692 -0.35617360609135817 0 0.39585190457779329 -0.37201308858561799 0 0.3940349052124521 -0.36135998775519362 0 0.38601585554704992 -0.38244526212700758 0 0.41069622259092692 -0.35617360609135817 0 0.4070765621089808 -0.37107032214525337 0 0.3940349052124521 -0.36135998775519362 0 0.4070765621089808 -0.37107032214525337 0 0.39585190457779329 -0.37201308858561799 0 0.3940349052124521 -0.36135998775519362 0 0.39585190457779329 -0.37201308858561799 0 0.3940349052124521 -0.36135998775519362 0 0.3940349052124521 -0.36135998775519362 0 0.40016542559971202 -0.34524040877751239 0 0.38974443050024338 -0.33620485529262373 0 0.3940349052124521 -0.36135998775519362 0 0.38974443050024338 -0.33620485529262373 0 0.3940349052124521 -0.36135998775519362 0 0.40016542559971202 -0.34524040877751239 0 0.41069622259092692 -0.35617360609135817 0 0.3940349052124521 -0.36135998775519362 0 0.40016542559971202 -0.34524040877751239 0 0.3940349052124521 -0.36135998775519362 0 0.38974443050024338 -0.33620485529262373 0 0.37368731816096312 -0.34897020548070451 0 0.3940349052124521 -0.36135998775519362 0 0.38601585554704992 -0.38244526212700758 0 0.3940349052124521 -0.36135998775519362 0 0.38601585554704992 -0.38244526212700758 0 0.3689120952668708 -0.37284951495870189 0 0.3940349052124521 -0.36135998775519362 0 0.3689120952668708 -0.37284951495870189 0 0.37368731816096312 -0.34897020548070451 0 0.4062959459869725 -0.32912082979983148 0 0.40572459905769331 -0.31910551143285631 0 0.39816778062817881 -0.31191488097197773 0 0.4062959459869725 -0.32912082979983148 0 0.38974443050024338 -0.33620485529262373 0 0.38545395578803499 -0.31104972283005378 0 0.4062959459869725 -0.32912082979983148 0 0.38545395578803499 -0.31104972283005378 0 0.4062959459869725 -0.32912082979983148 0 0.38545395578803499 -0.31104972283005378 0 0.39816778062817881 -0.31191488097197773 0 0.40572459905769331 -0.31910551143285631 0 0.39816778062817881 -0.31191488097197773 0 0.40916221757477672 -0.31142054967536659 0 0.4062959459869725 -0.32912082979983148 0 0.40016542559971202 -0.34524040877751239 0 0.38974443050024338 -0.33620485529262373 0 0.4062959459869725 -0.32912082979983148 0 0.40016542559971202 -0.34524040877751239 0 0.4062959459869725 -0.32912082979983148 0 0.41055923831377589 -0.34398547157316572 0 0.40016542559971202 -0.34524040877751239 0 0.38974443050024338 -0.33620485529262373 0 0.36945761595668469 -0.32738841673247931 0 0.37368731816096312 -0.34897020548070451 0 0.38974443050024338 -0.33620485529262373 0 0.38545395578803499 -0.31104972283005378 0 0.36945761595668469 -0.32738841673247931 0 0.38974443050024338 -0.33620485529262373 0 0.38545395578803499 -0.31104972283005378 0 0.38545395578803499 -0.31104972283005378 0 0.38245755150739558 -0.29348174920317632 0 0.37101427446782781 -0.29852975601036341 0 0.38545395578803499 -0.31104972283005378 0 0.38245755150739558 -0.29348174920317632 0 0.38545395578803499 -0.31104972283005378 0 0.37101427446782781 -0.29852975601036341 0 0.38545395578803499 -0.31104972283005378 0 0.39567659353887108 -0.29306988619604551 0 0.38245755150739558 -0.29348174920317632 0 0.39816778062817881 -0.31191488097197773 0 0.40563314249086863 -0.30155395497769039 0 0.39567659353887108 -0.29306988619604551 0 0.38545395578803499 -0.31104972283005378 0 0.39816778062817881 -0.31191488097197773 0 0.39567659353887108 -0.29306988619604551 0 0.39816778062817881 -0.31191488097197773 0 0.40563314249086863 -0.30155395497769039 0 0.40916221757477672 -0.31142054967536659 0 0.39567659353887108 -0.29306988619604551 0 0.40514250542832608 -0.27022331558021301 0 0.41160024963212011 -0.28933460066763711 0 0.40563314249086863 -0.30155395497769039 0 0.39567659353887108 -0.29306988619604551 0 0.41160024963212011 -0.28933460066763711 0 0.38245755150739558 -0.29348174920317632 0 0.37946114722675722 -0.27591377557629859 0 0.39567659353887108 -0.29306988619604551 0 0.38245755150739558 -0.29348174920317632 0 0.37946114722675722 -0.27591377557629859 0 0.38245755150739558 -0.29348174920317632 0 0.37795999762798671 -0.28395322059410122 0 0.37946114722675722 -0.27591377557629859 0 0.37519981906117678 -0.29055939022370142 0 0.38245755150739558 -0.29348174920317632 0 0.37101427446782781 -0.29852975601036341 0 0.37519981906117678 -0.29055939022370142 0 0.38245755150739558 -0.29348174920317632 0 0.37795999762798671 -0.28395322059410122 0 0.37795999762798671 -0.28395322059410122 0 0.37946114722675722 -0.27591377557629859 0 0.37739853904771847 -0.27637080706343392 0 0.37739853904771847 -0.27637080706343392 0 0.37683953433427181 -0.26882153263446662 0 0.37273728942595791 -0.27740364396778311 0 0.37795999762798671 -0.28395322059410122 0 0.37739853904771847 -0.27637080706343392 0 0.37273728942595791 -0.27740364396778311 0 0.37946114722675722 -0.27591377557629859 0 0.38774772661347989 -0.26664574742688191 0 0.3964002279028962 -0.26984905957103239 0 0.37946114722675722 -0.27591377557629859 0 0.3964002279028962 -0.26984905957103239 0 0.37795999762798671 -0.28395322059410122 0 0.37739853904771847 -0.27637080706343392 0 0.37739853904771847 -0.27637080706343392 0 0.37273728942595791 -0.27740364396778311 0 0.37946114722675722 -0.27591377557629859 0 0.37739853904771847 -0.27637080706343392 0 0.37683953433427181 -0.26882153263446662 0 0.37946114722675722 -0.27591377557629859 0 0.37739853904771847 -0.27637080706343392 0 0.37946114722675722 -0.27591377557629859 0 0.37843581040967561 -0.26746760801825881 0 0.38284686623937531 -0.26497045393317709 0 0.37946114722675722 -0.27591377557629859 0 0.37683953433427181 -0.26882153263446662 0 0.37843581040967561 -0.26746760801825881 0 0.37739853904771847 -0.27637080706343392 0 0.37683953433427181 -0.26882153263446662 0 0.37683953433427181 -0.26882153263446662 0 0.37843581040967561 -0.26746760801825881 0 0.37946114722675722 -0.27591377557629859 0 0.38774772661347989 -0.26664574742688191 0 0.38284686623937531 -0.26497045393317709 0 0.37477580018058132 -0.24095111383496479 0 0.37683953433427181 -0.26882153263446662 0 0.38107906364546162 -0.25934379353391329 0 0.37477580018058132 -0.24095111383496479 0 0.37683953433427181 -0.26882153263446662 0 0.37477580018058132 -0.24095111383496479 0 0.38107906364546162 -0.25934379353391329 0 0.38725375881062551 -0.25185160038302579 0 0.37843581040967561 -0.26746760801825881 0 0.38107906364546162 -0.25934379353391329 0 0.38284686623937531 -0.26497045393317709 0 0.37683953433427181 -0.26882153263446662 0 0.37843581040967561 -0.26746760801825881 0 0.38107906364546162 -0.25934379353391329 0 0.38107906364546162 -0.25934379353391329 0 0.38632261189823958 -0.26200045239958702 0 0.38284686623937531 -0.26497045393317709 0 0.38774772661347989 -0.26664574742688191 0 0.38632261189823958 -0.26200045239958702 0 0.38284686623937531 -0.26497045393317709 0 0.38774772661347989 -0.26664574742688191 0 0.38955528694719099 -0.2630172622662057 0 0.39295554709344072 -0.26445586107842978 0 0.38774772661347989 -0.26664574742688191 0 0.38632261189823958 -0.26200045239958702 0 0.38955528694719099 -0.2630172622662057 0 0.38632261189823958 -0.26200045239958702 0 0.38955528694719099 -0.2630172622662057 0 0.39119526218360401 -0.25896698815992442 0 0.38632261189823958 -0.26200045239958702 0 0.38725375881062551 -0.25185160038302579 0 0.39119526218360401 -0.25896698815992442 0 0.38107906364546162 -0.25934379353391329 0 0.38632261189823958 -0.26200045239958702 0 0.38725375881062551 -0.25185160038302579 0 0.40314688718896508 -0.2619981766022052 0 0.39707581272688741 -0.26613449373937459 0 0.41345304600685079 -0.26440480953867462 0 0.39707581272688741 -0.26613449373937459 0 0.41345304600685079 -0.26440480953867462 0 0.38725375881062551 -0.25185160038302579 0 0.39640803358832022 -0.25154779433757402 0 0.39119526218360401 -0.25896698815992442 0 0.39640803358832022 -0.25154779433757402 0 0.39702034872720737 -0.26014738253762237 0 0.39119526218360401 -0.25896698815992442 0 0.39702034872720737 -0.26014738253762237 0 0.39119526218360401 -0.25896698815992442 0 0.39295554709344072 -0.26445586107842978 0 0.38955528694719099 -0.2630172622662057 0 0.39119526218360401 -0.25896698815992442 0 0.39295554709344072 -0.26445586107842978 0 0.39702034872720737 -0.26014738253762237 0 0.39295554709344072 -0.26445586107842978 0 0.39707581272688741 -0.26613449373937459 0 0.39702034872720737 -0.26014738253762237 0 0.40314688718896508 -0.2619981766022052 0 0.39707581272688741 -0.26613449373937459 0 0.40314688718896508 -0.2619981766022052 0 0.40257909468765629 -0.25704117102420471 0 0.40998094690083942 -0.2590606397541646 0 0.39702034872720737 -0.26014738253762237 0 0.40314688718896508 -0.2619981766022052 0 0.40257909468765629 -0.25704117102420471 0 0.39640803358832022 -0.25154779433757402 0 0.39702034872720737 -0.26014738253762237 0 0.40257909468765629 -0.25704117102420471 0 0.41087794879613182 -0.2494957955088617 0 0.39640803358832022 -0.25154779433757402 0 0.40257909468765629 -0.25704117102420471 0 0.40514250542832608 -0.27022331558021301 0 0.3964002279028962 -0.26984905957103239 0 0.41345304600685079 -0.26440480953867462 0 0.37946114722675722 -0.27591377557629859 0 0.40514250542832608 -0.27022331558021301 0 0.3964002279028962 -0.26984905957103239 0 0.39707581272688741 -0.26613449373937459 0 0.3964002279028962 -0.26984905957103239 0 0.41345304600685079 -0.26440480953867462 0 0.37946114722675722 -0.27591377557629859 0 0.40514250542832608 -0.27022331558021301 0 0.3964002279028962 -0.26984905957103239 0 0.41345304600685079 -0.26440480953867462 0 0.39567659353887108 -0.29306988619604551 0 0.37946114722675722 -0.27591377557629859 0 0.40514250542832608 -0.27022331558021301 0 0.38774772661347989 -0.26664574742688191 0 0.39295554709344072 -0.26445586107842978 0 0.3964002279028962 -0.26984905957103239 0 0.39295554709344072 -0.26445586107842978 0 0.39707581272688741 -0.26613449373937459 0 0.3964002279028962 -0.26984905957103239 0 0.40514250542832608 -0.27022331558021301 0 0.41345304600685079 -0.26440480953867462 0 0.430823863629894 -0.26453285558412298 0 0.40514250542832608 -0.27022331558021301 0 0.430823863629894 -0.26453285558412298 0 0.40514250542832608 -0.27022331558021301 0 0.42166373126508722 -0.27984448092147479 0 0.41160024963212011 -0.28933460066763711 0 0.40514250542832608 -0.27022331558021301 0 0.42166373126508722 -0.27984448092147479 0 0.430823863629894 -0.26453285558412298 0 0.41087794879613182 -0.2494957955088617 0 0.41984775782459283 -0.2623632460968765 0 0.42854038242645709 -0.26281135800815408 0 0.41087794879613182 -0.2494957955088617 0 0.42854038242645709 -0.26281135800815408 0 0.41087794879613182 -0.2494957955088617 0 0.40257909468765629 -0.25704117102420471 0 0.40998094690083942 -0.2590606397541646 0 0.41087794879613182 -0.2494957955088617 0 0.40998094690083942 -0.2590606397541646 0 0.41984775782459283 -0.2623632460968765 0 0.40314688718896508 -0.2619981766022052 0 0.40998094690083942 -0.2590606397541646 0 0.41345304600685079 -0.26440480953867462 0 0.41345304600685079 -0.26440480953867462 0 0.41984775782459283 -0.2623632460968765 0 0.42854038242645709 -0.26281135800815408 0 0.40998094690083942 -0.2590606397541646 0 0.41345304600685079 -0.26440480953867462 0 0.41984775782459283 -0.2623632460968765 0 0.41345304600685079 -0.26440480953867462 0 0.42854038242645709 -0.26281135800815408 0 0.41345304600685079 -0.26440480953867462 0 0.41984775782459283 -0.2623632460968765 0 0.42656562700980838 -0.24831468624349931 0 0.41087794879613182 -0.2494957955088617 0 0.42854038242645709 -0.26281135800815408 0 0.4477486317760534 -0.26078267557717671 0 0.42854038242645709 -0.26281135800815408 0 0.430823863629894 -0.26453285558412298 0 0.41345304600685079 -0.26440480953867462 0 0.42854038242645709 -0.26281135800815408 0 0.430823863629894 -0.26453285558412298 0 0.42854038242645709 -0.26281135800815408 0 0.430823863629894 -0.26453285558412298 0 0.42656562700980838 -0.24831468624349931 0 0.42854038242645709 -0.26281135800815408 0 0.4372088962240912 -0.25169219704383999 0 0.42166373126508722 -0.27984448092147479 0 0.430823863629894 -0.26453285558412298 0 0.43570592202634773 -0.28205449164250063 0 0.42166373126508722 -0.27984448092147479 0 0.43570592202634773 -0.28205449164250063 0 0.42504611560874761 -0.29307714113289868 0 0.43874415768382158 -0.29310671547163403 0 0.43570592202634773 -0.28205449164250063 0 0.42504611560874761 -0.29307714113289868 0 0.43874415768382158 -0.29310671547163403 0 0.42504611560874761 -0.29307714113289868 0 0.43092107089682352 -0.30573631325696571 0 0.41919911313656122 -0.31385112706466711 0 0.43092107089682352 -0.30573631325696571 0 0.41692698488998292 -0.30249561446253759 0 0.42504611560874761 -0.29307714113289868 0 0.43092107089682352 -0.30573631325696571 0 0.41692698488998292 -0.30249561446253759 0 0.41919911313656122 -0.31385112706466711 0 0.41692698488998292 -0.30249561446253759 0 0.40916221757477672 -0.31142054967536659 0 0.40563314249086863 -0.30155395497769039 0 0.41692698488998292 -0.30249561446253759 0 0.40916221757477672 -0.31142054967536659 0 0.40563314249086863 -0.30155395497769039 0 0.41692698488998292 -0.30249561446253759 0 0.41160024963212011 -0.28933460066763711 0 0.42166373126508722 -0.27984448092147479 0 0.42504611560874761 -0.29307714113289868 0 0.41160024963212011 -0.28933460066763711 0 0.42504611560874761 -0.29307714113289868 0 0.41692698488998292 -0.30249561446253759 0 0.41160024963212011 -0.28933460066763711 0 0.5 -0.5 0 0.47532784176218862 -0.47257481327436679 0 0.43264288253940292 -0.48275234633568048 0 0.5 -0.5 0 0.41749257905485199 -0.50000000000000033 0 0.43264288253940292 -0.48275234633568048 0 0.47532784176218862 -0.47257481327436679 0 0.44779318602395363 -0.46550469267136052 0 0.43264288253940292 -0.48275234633568048 0 0.44779318602395363 -0.46550469267136052 0 0.43264288253940292 -0.48275234633568048 0 0.5 -0.5 0 0.47532784176218862 -0.47257481327436679 0 0.49999999999999828 -0.44642064777577001 0 0.47532784176218862 -0.47257481327436679 0 0.47918453573141367 -0.4495963838019249 0 0.46294348950850428 -0.44825703900704061 0 0.47532784176218862 -0.47257481327436679 0 0.49999999999999828 -0.44642064777577001 0 0.47918453573141367 -0.4495963838019249 0 0.49999999999999828 -0.44642064777577001 0 0.47846681165496419 -0.4311330351505217 0 0.49999999999999828 -0.44642064777577001 0 0.47918453573141367 -0.4495963838019249 0 0.47846681165496419 -0.4311330351505217 0 0.47918453573141367 -0.4495963838019249 0 0.46294348950850428 -0.44825703900704061 0 0.47846681165496419 -0.4311330351505217 0 0.46294348950850428 -0.44825703900704061 0 0.44442683605218691 -0.44583817528272968 0 0.45721208074107311 -0.43281318479414382 0 0.46294348950850428 -0.44825703900704061 0 0.44779318602395363 -0.46550469267136052 0 0.47532784176218862 -0.47257481327436679 0 0.46294348950850428 -0.44825703900704061 0 0.44779318602395363 -0.46550469267136052 0 0.44779318602395363 -0.46550469267136052 0 0.44442683605218691 -0.44583817528272968 0 0.43057418754349119 -0.46211781715143319 0 0.46294348950850428 -0.44825703900704061 0 0.44779318602395363 -0.46550469267136052 0 0.44442683605218691 -0.44583817528272968 0 0.44442683605218691 -0.44583817528272968 0 0.44324354583686831 -0.42153379012121539 0 0.45721208074107311 -0.43281318479414382 0 0.44442683605218691 -0.44583817528272968 0 0.44324354583686831 -0.42153379012121539 0 0.42653452723640378 -0.44279137365393179 0 0.44324354583686831 -0.42153379012121539 0 0.45693362330993059 -0.41584542252527262 0 0.45721208074107311 -0.43281318479414382 0 0.45693362330993059 -0.41584542252527262 0 0.4354004349648965 -0.40055780990002432 0 0.44324354583686831 -0.42153379012121539 0 0.45693362330993059 -0.41584542252527262 0 0.4354004349648965 -0.40055780990002432 0 0.45693362330993059 -0.41584542252527262 0 0.46461049463358839 -0.41117161714406408 0 0.47846681165496419 -0.4311330351505217 0 0.45693362330993059 -0.41584542252527262 0 0.46461049463358839 -0.41117161714406408 0 0.45329728287846061 -0.39963099679296588 0 0.46294348950850428 -0.44825703900704061 0 0.45721208074107311 -0.43281318479414382 0 0.47846681165496419 -0.4311330351505217 0 0.45693362330993059 -0.41584542252527262 0 0.45721208074107311 -0.43281318479414382 0 0.47846681165496419 -0.4311330351505217 0 0.45693362330993059 -0.41584542252527262 0 0.47846681165496419 -0.4311330351505217 0 0.49999999999999828 -0.44642064777577001 0 0.47846681165496419 -0.4311330351505217 0 0.5 -0.42181653977348488 0 0.5 -0.42181653977348488 0 0.48394518954555588 -0.41195106762427058 0 0.49999999999999789 -0.3972124317711998 0 0.47846681165496419 -0.4311330351505217 0 0.5 -0.42181653977348488 0 0.48394518954555588 -0.41195106762427058 0 0.46461049463358839 -0.41117161714406408 0 0.47846681165496419 -0.4311330351505217 0 0.48394518954555588 -0.41195106762427058 0 0.46461049463358839 -0.41117161714406408 0 0.48394518954555588 -0.41195106762427058 0 0.47664864143922919 -0.39842171428208217 0 0.47664864143922919 -0.39842171428208217 0 0.47975395238035062 -0.3854291032725421 0 0.46812846895096999 -0.38912968091376021 0 0.47664864143922919 -0.39842171428208217 0 0.49999999999999789 -0.3972124317711998 0 0.48779058149940679 -0.38751051868815611 0 0.48394518954555588 -0.41195106762427058 0 0.47664864143922919 -0.39842171428208217 0 0.49999999999999789 -0.3972124317711998 0 0.47664864143922919 -0.39842171428208217 0 0.49999999999999789 -0.3972124317711998 0 0.5 -0.37037944899495368 0 0.49999999999999789 -0.3972124317711998 0 0.48779058149940679 -0.38751051868815611 0 0.5 -0.37037944899495368 0 0.48466784746851571 -0.3739080713738358 0 0.48779058149940679 -0.38751051868815611 0 0.48466784746851571 -0.3739080713738358 0 0.47975395238035062 -0.3854291032725421 0 0.47323517146124039 -0.38191256761527542 0 0.48466784746851571 -0.3739080713738358 0 0.48779058149940679 -0.38751051868815611 0 0.47975395238035062 -0.3854291032725421 0 0.47664864143922919 -0.39842171428208217 0 0.48779058149940679 -0.38751051868815611 0 0.47975395238035062 -0.3854291032725421 0 0.47975395238035062 -0.3854291032725421 0 0.47323517146124039 -0.38191256761527542 0 0.46812846895096999 -0.38912968091376021 0 0.46918642870160698 -0.38365020197922722 0 0.47323517146124039 -0.38191256761527542 0 0.46812846895096999 -0.38912968091376021 0 0.4671179630262795 -0.37324494563770522 0 0.46918642870160698 -0.38365020197922722 0 0.47323517146124039 -0.38191256761527542 0 0.45652460043480969 -0.37267172771365881 0 0.4671179630262795 -0.37324494563770522 0 0.46918642870160698 -0.38365020197922722 0 0.45652460043480969 -0.37267172771365881 0 0.46918642870160698 -0.38365020197922722 0 0.45652460043480969 -0.37267172771365881 0 0.45606522570456098 -0.38599652494351028 0 0.44783900322824399 -0.38008781189722518 0 0.45652460043480969 -0.37267172771365881 0 0.46918642870160698 -0.38365020197922722 0 0.45606522570456098 -0.38599652494351028 0 0.46918642870160698 -0.38365020197922722 0 0.45606522570456098 -0.38599652494351028 0 0.46812846895096999 -0.38912968091376021 0 0.46461049463358839 -0.41117161714406408 0 0.47664864143922919 -0.39842171428208217 0 0.45329728287846061 -0.39963099679296588 0 0.47664864143922919 -0.39842171428208217 0 0.45329728287846061 -0.39963099679296588 0 0.47664864143922919 -0.39842171428208217 0 0.46812846895096999 -0.38912968091376021 0 0.45329728287846061 -0.39963099679296588 0 0.46461049463358839 -0.41117161714406408 0 0.45329728287846061 -0.39963099679296588 0 0.45606522570456098 -0.38599652494351028 0 0.46812846895096999 -0.38912968091376021 0 0.45329728287846061 -0.39963099679296588 0 0.45693362330993059 -0.41584542252527262 0 0.45329728287846061 -0.39963099679296588 0 0.4354004349648965 -0.40055780990002432 0 0.45329728287846061 -0.39963099679296588 0 0.4354004349648965 -0.40055780990002432 0 0.45329728287846061 -0.39963099679296588 0 0.4390969294492823 -0.3851451998924304 0 0.4354004349648965 -0.40055780990002432 0 0.45329728287846061 -0.39963099679296588 0 0.4390969294492823 -0.3851451998924304 0 0.45606522570456098 -0.38599652494351028 0 0.4390969294492823 -0.3851451998924304 0 0.44783900322824399 -0.38008781189722518 0 0.45606522570456098 -0.38599652494351028 0 0.45329728287846061 -0.39963099679296588 0 0.4390969294492823 -0.3851451998924304 0 0.4390969294492823 -0.3851451998924304 0 0.43808065797110041 -0.37748478958974491 0 0.44783900322824399 -0.38008781189722518 0 0.42782015831496062 -0.38505662608606978 0 0.4354004349648965 -0.40055780990002432 0 0.41188669282555868 -0.38386409155992901 0 0.42489657602010461 -0.37065940299189432 0 0.4390969294492823 -0.3851451998924304 0 0.42782015831496062 -0.38505662608606978 0 0.42489657602010461 -0.37065940299189432 0 0.4390969294492823 -0.3851451998924304 0 0.43808065797110041 -0.37748478958974491 0 0.42489657602010461 -0.37065940299189432 0 0.4390969294492823 -0.3851451998924304 0 0.4390969294492823 -0.3851451998924304 0 0.42782015831496062 -0.38505662608606978 0 0.4354004349648965 -0.40055780990002432 0 0.4354004349648965 -0.40055780990002432 0 0.41188669282555868 -0.38386409155992901 0 0.4354004349648965 -0.40055780990002432 0 0.40669862042327182 -0.40204417319942209 0 0.4354004349648965 -0.40055780990002432 0 0.40669862042327182 -0.40204417319942209 0 0.41188669282555868 -0.38386409155992901 0 0.42489657602010461 -0.37065940299189432 0 0.42782015831496062 -0.38505662608606978 0 0.41188669282555868 -0.38386409155992901 0 0.42489657602010461 -0.37065940299189432 0 0.4070765621089808 -0.37107032214525337 0 0.41188669282555868 -0.38386409155992901 0 0.4070765621089808 -0.37107032214525337 0 0.39585190457779329 -0.37201308858561799 0 0.39886607975096749 -0.38470810625682389 0 0.40669862042327182 -0.40204417319942209 0 0.41188669282555868 -0.38386409155992901 0 0.39886607975096749 -0.38470810625682389 0 0.4070765621089808 -0.37107032214525337 0 0.41188669282555868 -0.38386409155992901 0 0.39886607975096749 -0.38470810625682389 0 0.39585190457779329 -0.37201308858561799 0 0.39886607975096749 -0.38470810625682389 0 0.38601585554704992 -0.38244526212700758 0 0.39886607975096749 -0.38470810625682389 0 0.38601585554704992 -0.38244526212700758 0 0.37799680588164719 -0.40353053649882148 0 0.38601585554704992 -0.38244526212700758 0 0.37799680588164719 -0.40353053649882148 0 0.38601585554704992 -0.38244526212700758 0 0.37799680588164719 -0.40353053649882148 0 0.36816388811638329 -0.39545065246060412 0 0.37799680588164719 -0.40353053649882148 0 0.37635446215448021 -0.40784891206015261 0 0.37799680588164719 -0.40353053649882148 0 0.37505152225636262 -0.40368306209891941 0 0.37635446215448021 -0.40784891206015261 0 0.37799680588164719 -0.40353053649882148 0 0.37505152225636262 -0.40368306209891941 0 0.40669862042327182 -0.40204417319942209 0 0.39886607975096749 -0.38470810625682389 0 0.37799680588164719 -0.40353053649882148 0 0.40669862042327182 -0.40204417319942209 0 0.37799680588164719 -0.40353053649882148 0 0.40669862042327182 -0.40204417319942209 0 0.38553791301154328 -0.41840677215457472 0 0.40567792500840172 -0.4277251834563135 0 0.40669862042327182 -0.40204417319942209 0 0.37799680588164719 -0.40353053649882148 0 0.38553791301154328 -0.41840677215457472 0 0.38553791301154328 -0.41840677215457472 0 0.36905142820508552 -0.42917232846767789 0 0.37241381966677689 -0.417360225696081 0 0.38553791301154328 -0.41840677215457472 0 0.37635446215448021 -0.40784891206015261 0 0.37241381966677689 -0.417360225696081 0 0.37799680588164719 -0.40353053649882148 0 0.38553791301154328 -0.41840677215457472 0 0.37635446215448021 -0.40784891206015261 0 0.38553791301154328 -0.41840677215457472 0 0.38807715457860831 -0.4388905332329941 0 0.36905142820508552 -0.42917232846767789 0 0.38553791301154328 -0.41840677215457472 0 0.40567792500840172 -0.4277251834563135 0 0.38807715457860831 -0.4388905332329941 0 0.40567792500840172 -0.4277251834563135 0 0.42351101069396863 -0.41893046606618117 0 0.42653452723640378 -0.44279137365393179 0 0.4354004349648965 -0.40055780990002432 0 0.40669862042327182 -0.40204417319942209 0 0.42351101069396863 -0.41893046606618117 0 0.40669862042327182 -0.40204417319942209 0 0.40567792500840172 -0.4277251834563135 0 0.42351101069396863 -0.41893046606618117 0 0.44324354583686831 -0.42153379012121539 0 0.4354004349648965 -0.40055780990002432 0 0.42351101069396863 -0.41893046606618117 0 0.44324354583686831 -0.42153379012121539 0 0.42653452723640378 -0.44279137365393179 0 0.44324354583686831 -0.42153379012121539 0 0.42351101069396863 -0.41893046606618117 0 0.42653452723640378 -0.44279137365393179 0 0.44442683605218691 -0.44583817528272968 0 0.42653452723640378 -0.44279137365393179 0 0.43057418754349119 -0.46211781715143319 0 0.42653452723640378 -0.44279137365393179 0 0.43057418754349119 -0.46211781715143319 0 0.40982550863593931 -0.46404895718664829 0 0.42653452723640378 -0.44279137365393179 0 0.40982550863593931 -0.46404895718664829 0 0.42653452723640378 -0.44279137365393179 0 0.40982550863593931 -0.46404895718664829 0 0.4036378289262339 -0.44671034290208689 0 0.40567792500840172 -0.4277251834563135 0 0.42653452723640378 -0.44279137365393179 0 0.4036378289262339 -0.44671034290208689 0 0.40567792500840172 -0.4277251834563135 0 0.4036378289262339 -0.44671034290208689 0 0.38807715457860831 -0.4388905332329941 0 0.4036378289262339 -0.44671034290208689 0 0.38807715457860831 -0.4388905332329941 0 0.38807402917181633 -0.46009566698054732 0 0.38807715457860831 -0.4388905332329941 0 0.3733961412993268 -0.45022493016754961 0 0.36905142820508552 -0.42917232846767789 0 0.38807715457860831 -0.4388905332329941 0 0.38807402917181633 -0.46009566698054732 0 0.3733961412993268 -0.45022493016754961 0 0.38807402917181633 -0.46009566698054732 0 0.36593927904035028 -0.47432204071884282 0 0.3733961412993268 -0.45022493016754961 0 0.40982550863593931 -0.46404895718664829 0 0.4036378289262339 -0.44671034290208689 0 0.38807402917181633 -0.46009566698054732 0 0.40982550863593931 -0.46404895718664829 0 0.39311649003547477 -0.48530654071936469 0 0.40982550863593931 -0.46404895718664829 0 0.38807402917181633 -0.46009566698054732 0 0.39311649003547477 -0.48530654071936469 0 0.38807402917181633 -0.46009566698054732 0 0.39311649003547477 -0.48530654071936469 0 0.36593927904035028 -0.47432204071884282 0 0.37603974257992701 -0.49999999999999978 0 0.39311649003547477 -0.48530654071936469 0 0.36593927904035028 -0.47432204071884282 0 0.37603974257992701 -0.49999999999999978 0 0.39676616081738958 -0.5 0 0.39311649003547477 -0.48530654071936469 0 0.39676616081738958 -0.5 0 0.39311649003547477 -0.48530654071936469 0 0.41749257905485199 -0.50000000000000033 0 0.40982550863593931 -0.46404895718664829 0 0.41749257905485199 -0.50000000000000033 0 0.43264288253940292 -0.48275234633568048 0 0.40982550863593931 -0.46404895718664829 0 0.39311649003547477 -0.48530654071936469 0 0.41749257905485199 -0.50000000000000033 0 0.43057418754349119 -0.46211781715143319 0 0.40982550863593931 -0.46404895718664829 0 0.43264288253940292 -0.48275234633568048 0 0.44779318602395363 -0.46550469267136052 0 0.43057418754349119 -0.46211781715143319 0 0.43264288253940292 -0.48275234633568048 0 0.41749257905485199 -0.50000000000000033 0 0.43264288253940292 -0.48275234633568048 0 0.32215468257820618 -0.5 0 0.33760568703239408 -0.47417818032706111 0 0.31005432530219129 -0.48106067464861729 0 0.33760568703239408 -0.47417818032706111 0 0.3189449745883719 -0.46117016543644002 0 0.31005432530219129 -0.48106067464861729 0 0.32215468257820618 -0.5 0 0.33760568703239408 -0.47417818032706111 0 0.34909721257906662 -0.5 0 0.37603974257992701 -0.49999999999999978 0 0.34909721257906662 -0.5 0 0.36593927904035028 -0.47432204071884282 0 0.37603974257992701 -0.49999999999999978 0 0.36593927904035028 -0.47432204071884282 0 0.33760568703239408 -0.47417818032706111 0 0.34909721257906662 -0.5 0 0.36593927904035028 -0.47432204071884282 0 0.33760568703239408 -0.47417818032706111 0 0.36593927904035028 -0.47432204071884282 0 0.35583881550077368 -0.44864408143768569 0 0.36593927904035028 -0.47432204071884282 0 0.35583881550077368 -0.44864408143768569 0 0.36593927904035028 -0.47432204071884282 0 0.3733961412993268 -0.45022493016754961 0 0.35583881550077368 -0.44864408143768569 0 0.3733961412993268 -0.45022493016754961 0 0.35583881550077368 -0.44864408143768569 0 0.36905142820508552 -0.42917232846767789 0 0.35583881550077368 -0.44864408143768569 0 0.33540415989768779 -0.44905252560006492 0 0.34573835196119679 -0.42296612215652868 0 0.33760568703239408 -0.47417818032706111 0 0.35583881550077368 -0.44864408143768569 0 0.33540415989768779 -0.44905252560006492 0 0.33760568703239408 -0.47417818032706111 0 0.33540415989768779 -0.44905252560006492 0 0.3189449745883719 -0.46117016543644002 0 0.33540415989768779 -0.44905252560006492 0 0.3189449745883719 -0.46117016543644002 0 0.32126124445813709 -0.43429719032362252 0 0.3189449745883719 -0.46117016543644002 0 0.32126124445813709 -0.43429719032362252 0 0.30480654487456732 -0.44641521679941309 0 0.32126124445813709 -0.43429719032362252 0 0.3193156137706864 -0.40941365839269389 0 0.29937418247959258 -0.41817563384508599 0 0.3193156137706864 -0.40941365839269389 0 0.34573835196119679 -0.42296612215652868 0 0.33563788842162012 -0.39728816287537172 0 0.34573835196119679 -0.42296612215652868 0 0.33563788842162012 -0.39728816287537172 0 0.33540415989768779 -0.44905252560006492 0 0.32126124445813709 -0.43429719032362252 0 0.34573835196119679 -0.42296612215652868 0 0.32126124445813709 -0.43429719032362252 0 0.3193156137706864 -0.40941365839269389 0 0.34573835196119679 -0.42296612215652868 0 0.35583881550077368 -0.44864408143768569 0 0.34573835196119679 -0.42296612215652868 0 0.36905142820508552 -0.42917232846767789 0 0.35583881550077368 -0.44864408143768569 0 0.34573835196119679 -0.42296612215652868 0 0.36905142820508552 -0.42917232846767789 0 0.37241381966677689 -0.417360225696081 0 0.36195200988480669 -0.41065981681110758 0 0.36990343230398692 -0.40830781576793279 0 0.37241381966677689 -0.417360225696081 0 0.36195200988480669 -0.41065981681110758 0 0.37635446215448021 -0.40784891206015261 0 0.36990343230398692 -0.40830781576793279 0 0.37241381966677689 -0.417360225696081 0 0.37505152225636262 -0.40368306209891941 0 0.37635446215448021 -0.40784891206015261 0 0.36990343230398692 -0.40830781576793279 0 0.36990343230398692 -0.40830781576793279 0 0.36195200988480669 -0.41065981681110758 0 0.36876771314038492 -0.40452533678464098 0 0.34573835196119679 -0.42296612215652868 0 0.36195200988480669 -0.41065981681110758 0 0.35211107663302149 -0.40015425695529971 0 0.34573835196119679 -0.42296612215652868 0 0.36905142820508552 -0.42917232846767789 0 0.36195200988480669 -0.41065981681110758 0 0.34573835196119679 -0.42296612215652868 0 0.35211107663302149 -0.40015425695529971 0 0.33563788842162012 -0.39728816287537172 0 0.35211107663302149 -0.40015425695529971 0 0.35352794608594401 -0.38791341326287138 0 0.33563788842162012 -0.39728816287537172 0 0.35211107663302149 -0.40015425695529971 0 0.36816388811638329 -0.39545065246060412 0 0.35352794608594401 -0.38791341326287138 0 0.36195200988480669 -0.41065981681110758 0 0.36816388811638329 -0.39545065246060412 0 0.36876771314038492 -0.40452533678464098 0 0.36195200988480669 -0.41065981681110758 0 0.35211107663302149 -0.40015425695529971 0 0.36816388811638329 -0.39545065246060412 0 0.37505152225636262 -0.40368306209891941 0 0.36816388811638329 -0.39545065246060412 0 0.36876771314038492 -0.40452533678464098 0 0.37799680588164719 -0.40353053649882148 0 0.37505152225636262 -0.40368306209891941 0 0.36816388811638329 -0.39545065246060412 0 0.37505152225636262 -0.40368306209891941 0 0.36990343230398692 -0.40830781576793279 0 0.36876771314038492 -0.40452533678464098 0 0.38601585554704992 -0.38244526212700758 0 0.36816388811638329 -0.39545065246060412 0 0.3689120952668708 -0.37284951495870189 0 0.36816388811638329 -0.39545065246060412 0 0.35352794608594401 -0.38791341326287138 0 0.3689120952668708 -0.37284951495870189 0 0.35352794608594401 -0.38791341326287138 0 0.33563788842162012 -0.39728816287537172 0 0.34467783115022588 -0.37252705130409253 0 0.35352794608594401 -0.38791341326287138 0 0.3689120952668708 -0.37284951495870189 0 0.34467783115022588 -0.37252705130409253 0 0.33563788842162012 -0.39728816287537172 0 0.3255374248820434 -0.37161020359421471 0 0.33563788842162012 -0.39728816287537172 0 0.34467783115022588 -0.37252705130409253 0 0.3255374248820434 -0.37161020359421471 0 0.3193156137706864 -0.40941365839269389 0 0.33563788842162012 -0.39728816287537172 0 0.30534853388527528 -0.38930881101125692 0 0.33563788842162012 -0.39728816287537172 0 0.30534853388527528 -0.38930881101125692 0 0.3255374248820434 -0.37161020359421471 0 0.30534853388527528 -0.38930881101125692 0 0.3255374248820434 -0.37161020359421471 0 0.30525369772634148 -0.37164386163485291 0 0.30534853388527528 -0.38930881101125692 0 0.28783989868818821 -0.37644057584389279 0 0.30525369772634148 -0.37164386163485291 0 0.3193156137706864 -0.40941365839269389 0 0.30534853388527528 -0.38930881101125692 0 0.29937418247959258 -0.41817563384508599 0 0.30534853388527528 -0.38930881101125692 0 0.28922044672054198 -0.39637746652331562 0 0.29937418247959258 -0.41817563384508599 0 0.28922044672054198 -0.39637746652331562 0 0.27510086349567708 -0.39798721671617321 0 0.28320928432356041 -0.41012407252970262 0 0.28922044672054198 -0.39637746652331562 0 0.28783989868818821 -0.37644057584389279 0 0.27924907625512951 -0.38731579260330862 0 0.30534853388527528 -0.38930881101125692 0 0.28922044672054198 -0.39637746652331562 0 0.28783989868818821 -0.37644057584389279 0 0.30534853388527528 -0.38930881101125692 0 0.28783989868818821 -0.37644057584389279 0 0.28783989868818821 -0.37644057584389279 0 0.27447250226623809 -0.37821124143188289 0 0.27924907625512951 -0.38731579260330862 0 0.27447250226623809 -0.37821124143188289 0 0.27924907625512951 -0.38731579260330862 0 0.26961167010500181 -0.38756246250127813 0 0.27447250226623809 -0.37821124143188289 0 0.26961167010500181 -0.38756246250127813 0 0.26423397132697279 -0.37890457124200982 0 0.26961167010500181 -0.38756246250127813 0 0.26423397132697279 -0.37890457124200982 0 0.25687819372407023 -0.38903915957053298 0 0.26423397132697279 -0.37890457124200982 0 0.25687819372407023 -0.38903915957053298 0 0.24987622704845311 -0.37613765202982719 0 0.25108303853213881 -0.40002667887407228 0 0.26390234922262928 -0.39930308446362528 0 0.256136481120742 -0.41447562176841068 0 0.25687819372407023 -0.38903915957053298 0 0.25108303853213881 -0.40002667887407228 0 0.24309899287842279 -0.39271330151873202 0 0.25687819372407023 -0.38903915957053298 0 0.25108303853213881 -0.40002667887407228 0 0.26390234922262928 -0.39930308446362528 0 0.26961167010500181 -0.38756246250127813 0 0.25687819372407023 -0.38903915957053298 0 0.26390234922262928 -0.39930308446362528 0 0.26390234922262928 -0.39930308446362528 0 0.27510086349567708 -0.39798721671617321 0 0.2708804648698091 -0.41009655218672442 0 0.26961167010500181 -0.38756246250127813 0 0.26390234922262928 -0.39930308446362528 0 0.27510086349567708 -0.39798721671617321 0 0.28922044672054198 -0.39637746652331562 0 0.27924907625512951 -0.38731579260330862 0 0.27510086349567708 -0.39798721671617321 0 0.27924907625512951 -0.38731579260330862 0 0.26961167010500181 -0.38756246250127813 0 0.27510086349567708 -0.39798721671617321 0 0.27510086349567708 -0.39798721671617321 0 0.2708804648698091 -0.41009655218672442 0 0.28320928432356041 -0.41012407252970262 0 0.2708804648698091 -0.41009655218672442 0 0.256136481120742 -0.41447562176841068 0 0.27433621812851161 -0.42550461519375637 0 0.2708804648698091 -0.41009655218672442 0 0.27433621812851161 -0.42550461519375637 0 0.28320928432356041 -0.41012407252970262 0 0.26390234922262928 -0.39930308446362528 0 0.2708804648698091 -0.41009655218672442 0 0.256136481120742 -0.41447562176841068 0 0.25108303853213881 -0.40002667887407228 0 0.256136481120742 -0.41447562176841068 0 0.24629253832767661 -0.41022035877505542 0 0.256136481120742 -0.41447562176841068 0 0.25513396950241118 -0.43290986753561628 0 0.2453827316299185 -0.42192330194190181 0 0.256136481120742 -0.41447562176841068 0 0.25513396950241118 -0.43290986753561628 0 0.27433621812851161 -0.42550461519375637 0 0.25513396950241118 -0.43290986753561628 0 0.27433621812851161 -0.42550461519375637 0 0.26752346795397081 -0.44788636482661331 0 0.27433621812851161 -0.42550461519375637 0 0.29937418247959258 -0.41817563384508599 0 0.28546596250580908 -0.44246723239800262 0 0.29937418247959258 -0.41817563384508599 0 0.30480654487456732 -0.44641521679941309 0 0.28546596250580908 -0.44246723239800262 0 0.28922044672054198 -0.39637746652331562 0 0.28320928432356041 -0.41012407252970262 0 0.29937418247959258 -0.41817563384508599 0 0.27433621812851161 -0.42550461519375637 0 0.28320928432356041 -0.41012407252970262 0 0.29937418247959258 -0.41817563384508599 0 0.32126124445813709 -0.43429719032362252 0 0.29937418247959258 -0.41817563384508599 0 0.30480654487456732 -0.44641521679941309 0 0.3189449745883719 -0.46117016543644002 0 0.30480654487456732 -0.44641521679941309 0 0.28880919487484108 -0.4658549053918814 0 0.30480654487456732 -0.44641521679941309 0 0.28880919487484108 -0.4658549053918814 0 0.28546596250580908 -0.44246723239800262 0 0.27433621812851161 -0.42550461519375637 0 0.28546596250580908 -0.44246723239800262 0 0.26752346795397081 -0.44788636482661331 0 0.28880919487484108 -0.4658549053918814 0 0.28546596250580908 -0.44246723239800262 0 0.26752346795397081 -0.44788636482661331 0 0.25513396950241118 -0.43290986753561628 0 0.26752346795397081 -0.44788636482661331 0 0.24480843210435321 -0.45079661158300749 0 0.26752346795397081 -0.44788636482661331 0 0.2588368117714554 -0.46700690363883102 0 0.24480843210435321 -0.45079661158300749 0 0.28880919487484108 -0.4658549053918814 0 0.26752346795397081 -0.44788636482661331 0 0.2588368117714554 -0.46700690363883102 0 0.28880919487484108 -0.4658549053918814 0 0.2588368117714554 -0.46700690363883102 0 0.27227655507569209 -0.48076744006000099 0 0.2588368117714554 -0.46700690363883102 0 0.27227655507569209 -0.48076744006000099 0 0.25270961841775552 -0.48460016746525392 0 0.2588368117714554 -0.46700690363883102 0 0.25270961841775552 -0.48460016746525392 0 0.23949561189523169 -0.47426551941090739 0 0.25270961841775552 -0.48460016746525392 0 0.26826962257648529 -0.5 0 0.2413270925756249 -0.5 0 0.27227655507569209 -0.48076744006000099 0 0.25270961841775552 -0.48460016746525392 0 0.26826962257648529 -0.5 0 0.27227655507569209 -0.48076744006000099 0 0.26826962257648529 -0.5 0 0.29521215257734579 -0.5 0 0.28880919487484108 -0.4658549053918814 0 0.27227655507569209 -0.48076744006000099 0 0.29521215257734579 -0.5 0 0.28880919487484108 -0.4658549053918814 0 0.29521215257734579 -0.5 0 0.31005432530219129 -0.48106067464861729 0 0.3189449745883719 -0.46117016543644002 0 0.28880919487484108 -0.4658549053918814 0 0.31005432530219129 -0.48106067464861729 0 0.32215468257820618 -0.5 0 0.29521215257734579 -0.5 0 0.31005432530219129 -0.48106067464861729 0 0.33463237856908817 -0.28956894479377399 0 0.33485830675890288 -0.30442904333306592 0 0.35657459314761941 -0.2860097891906741 0 0.33463237856908817 -0.28956894479377399 0 0.32894302133540282 -0.28710755170783531 0 0.35195887039823659 -0.28200771363307098 0 0.32894302133540282 -0.28710755170783531 0 0.35195887039823659 -0.28200771363307098 0 0.32894302133540282 -0.28710755170783531 0 0.33255663915089151 -0.29722249741805129 0 0.33463237856908817 -0.28956894479377399 0 0.32894302133540282 -0.28710755170783531 0 0.33255663915089151 -0.29722249741805129 0 0.32894302133540282 -0.28710755170783531 0 0.33255663915089151 -0.29722249741805129 0 0.32301709761150521 -0.2972128627914089 0 0.33485830675890288 -0.30442904333306592 0 0.34824447571033601 -0.30253517369681238 0 0.34533870308018377 -0.31598934501886372 0 0.33485830675890288 -0.30442904333306592 0 0.33255663915089151 -0.29722249741805129 0 0.32434770264142349 -0.30499280498860082 0 0.33463237856908817 -0.28956894479377399 0 0.33485830675890288 -0.30442904333306592 0 0.33255663915089151 -0.29722249741805129 0 0.32301709761150521 -0.2972128627914089 0 0.32434770264142349 -0.30499280498860082 0 0.3171485971304504 -0.30589952111326829 0 0.32434770264142349 -0.30499280498860082 0 0.3171485971304504 -0.30589952111326829 0 0.31314202037018413 -0.32284829747545468 0 0.33485830675890288 -0.30442904333306592 0 0.32434770264142349 -0.30499280498860082 0 0.31314202037018413 -0.32284829747545468 0 0.33255663915089151 -0.29722249741805129 0 0.32301709761150521 -0.2972128627914089 0 0.32434770264142349 -0.30499280498860082 0 0.3171485971304504 -0.30589952111326829 0 0.31208952779935789 -0.2908419387292881 0 0.30833746379913463 -0.30503745501229762 0 0.32301709761150521 -0.2972128627914089 0 0.3171485971304504 -0.30589952111326829 0 0.31208952779935789 -0.2908419387292881 0 0.32894302133540282 -0.28710755170783531 0 0.31611371382327402 -0.28007222207304999 0 0.31208952779935789 -0.2908419387292881 0 0.32894302133540282 -0.28710755170783531 0 0.32301709761150521 -0.2972128627914089 0 0.31208952779935789 -0.2908419387292881 0 0.32894302133540282 -0.28710755170783531 0 0.31208952779935789 -0.2908419387292881 0 0.32894302133540282 -0.28710755170783531 0 0.32245882367699719 -0.26895751187574157 0 0.32894302133540282 -0.28710755170783531 0 0.31611371382327402 -0.28007222207304999 0 0.32245882367699719 -0.26895751187574157 0 0.31611371382327402 -0.28007222207304999 0 0.32245882367699719 -0.26895751187574157 0 0.30706455279928557 -0.27339796693147528 0 0.32245882367699719 -0.26895751187574157 0 0.30981211567343969 -0.26250129009931661 0 0.30706455279928557 -0.27339796693147528 0 0.32245882367699719 -0.26895751187574157 0 0.31597462601859122 -0.25080747204364812 0 0.32245882367699719 -0.26895751187574157 0 0.31597462601859122 -0.25080747204364812 0 0.30981211567343969 -0.26250129009931661 0 0.32245882367699719 -0.26895751187574157 0 0.31597462601859122 -0.25080747204364812 0 0.33396674820841349 -0.26640759283836002 0 0.31597462601859122 -0.25080747204364812 0 0.33396674820841349 -0.26640759283836002 0 0.33517615116993849 -0.24743488902137309 0 0.33396674820841349 -0.26640759283836002 0 0.35185333732921159 -0.25428502110151557 0 0.33517615116993849 -0.24743488902137309 0 0.31597462601859122 -0.25080747204364812 0 0.33396674820841349 -0.26640759283836002 0 0.32894302133540282 -0.28710755170783531 0 0.32245882367699719 -0.26895751187574157 0 0.33396674820841349 -0.26640759283836002 0 0.33396674820841349 -0.26640759283836002 0 0.35195887039823659 -0.28200771363307098 0 0.32894302133540282 -0.28710755170783531 0 0.33396674820841349 -0.26640759283836002 0 0.35195887039823659 -0.28200771363307098 0 0.33396674820841349 -0.26640759283836002 0 0.35159414215374007 -0.26901089914998932 0 0.35195887039823659 -0.28200771363307098 0 0.35159414215374007 -0.26901089914998932 0 0.36459381448795669 -0.2792080702757721 0 0.35195887039823659 -0.28200771363307098 0 0.36459381448795669 -0.2792080702757721 0 0.35195887039823659 -0.28200771363307098 0 0.33396674820841349 -0.26640759283836002 0 0.35159414215374007 -0.26901089914998932 0 0.35185333732921159 -0.25428502110151557 0 0.35159414215374007 -0.26901089914998932 0 0.35185333732921159 -0.25428502110151557 0 0.36435388824524378 -0.26651308148643732 0 0.37477580018058132 -0.24095111383496479 0 0.37683953433427181 -0.26882153263446662 0 0.36563983252638571 -0.25462703483095822 0 0.36075586336603621 -0.2426037127049111 0 0.35185333732921159 -0.25428502110151557 0 0.36563983252638571 -0.25462703483095822 0 0.35185333732921159 -0.25428502110151557 0 0.36563983252638571 -0.25462703483095822 0 0.36435388824524378 -0.26651308148643732 0 0.37683953433427181 -0.26882153263446662 0 0.36563983252638571 -0.25462703483095822 0 0.36435388824524378 -0.26651308148643732 0 0.36459381448795669 -0.2792080702757721 0 0.36308990924476459 -0.28048364807874221 0 0.35195887039823659 -0.28200771363307098 0 0.36459381448795669 -0.2792080702757721 0 0.36308990924476459 -0.28048364807874221 0 0.37273728942595791 -0.27740364396778311 0 0.36459381448795669 -0.2792080702757721 0 0.36308990924476459 -0.28048364807874221 0 0.35159414215374007 -0.26901089914998932 0 0.36459381448795669 -0.2792080702757721 0 0.36435388824524378 -0.26651308148643732 0 0.37683953433427181 -0.26882153263446662 0 0.36459381448795669 -0.2792080702757721 0 0.36435388824524378 -0.26651308148643732 0 0.36459381448795669 -0.2792080702757721 0 0.37273728942595791 -0.27740364396778311 0 0.37683953433427181 -0.26882153263446662 0 0.36459381448795669 -0.2792080702757721 0 0.37273728942595791 -0.27740364396778311 0 0.37683953433427181 -0.26882153263446662 0 0.36459381448795669 -0.2792080702757721 0 0.36308990924476459 -0.28048364807874221 0 0.37273728942595791 -0.27740364396778311 0 0.37795999762798671 -0.28395322059410122 0 0.37273728942595791 -0.27740364396778311 0 0.36936745264149701 -0.28627283508716472 0 0.35657459314761941 -0.2860097891906741 0 0.35620629985463748 -0.30371251724464648 0 0.37101427446782781 -0.29852975601036341 0 0.36308990924476459 -0.28048364807874221 0 0.37273728942595791 -0.27740364396778311 0 0.36936745264149701 -0.28627283508716472 0 0.37519981906117678 -0.29055939022370142 0 0.37795999762798671 -0.28395322059410122 0 0.36936745264149701 -0.28627283508716472 0 0.37519981906117678 -0.29055939022370142 0 0.36936745264149701 -0.28627283508716472 0 0.37101427446782781 -0.29852975601036341 0 0.36936745264149701 -0.28627283508716472 0 0.35657459314761941 -0.2860097891906741 0 0.37101427446782781 -0.29852975601036341 0 0.35657459314761941 -0.2860097891906741 0 0.37101427446782781 -0.29852975601036341 0 0.36308990924476459 -0.28048364807874221 0 0.36936745264149701 -0.28627283508716472 0 0.35657459314761941 -0.2860097891906741 0 0.36308990924476459 -0.28048364807874221 0 0.35657459314761941 -0.2860097891906741 0 0.36308990924476459 -0.28048364807874221 0 0.35366972758071469 -0.28349111722646431 0 0.33463237856908817 -0.28956894479377399 0 0.35366972758071469 -0.28349111722646431 0 0.33463237856908817 -0.28956894479377399 0 0.35366972758071469 -0.28349111722646431 0 0.35195887039823659 -0.28200771363307098 0 0.36308990924476459 -0.28048364807874221 0 0.35366972758071469 -0.28349111722646431 0 0.35195887039823659 -0.28200771363307098 0 0.33485830675890288 -0.30442904333306592 0 0.35657459314761941 -0.2860097891906741 0 0.36308990924476459 -0.28048364807874221 0 0.35366972758071469 -0.28349111722646431 0 0.35657459314761941 -0.2860097891906741 0 0.33463237856908817 -0.28956894479377399 0 0.35366972758071469 -0.28349111722646431 0 0.35657459314761941 -0.2860097891906741 0 0.35366972758071469 -0.28349111722646431 0 0.35657459314761941 -0.2860097891906741 0 0.35366972758071469 -0.28349111722646431 0 0.35195887039823659 -0.28200771363307098 0 0.35620629985463748 -0.30371251724464648 0 0.36380134767337091 -0.31365371592763602 0 0.34533870308018377 -0.31598934501886372 0 0.35657459314761941 -0.2860097891906741 0 0.34824447571033601 -0.30253517369681238 0 0.35620629985463748 -0.30371251724464648 0 0.33485830675890288 -0.30442904333306592 0 0.35657459314761941 -0.2860097891906741 0 0.34824447571033601 -0.30253517369681238 0 0.34824447571033601 -0.30253517369681238 0 0.35620629985463748 -0.30371251724464648 0 0.34533870308018377 -0.31598934501886372 0 0.38545395578803499 -0.31104972283005378 0 0.37101427446782781 -0.29852975601036341 0 0.36380134767337091 -0.31365371592763602 0 0.35620629985463748 -0.30371251724464648 0 0.37101427446782781 -0.29852975601036341 0 0.36380134767337091 -0.31365371592763602 0 0.38545395578803499 -0.31104972283005378 0 0.36380134767337091 -0.31365371592763602 0 0.36945761595668469 -0.32738841673247931 0 0.36380134767337091 -0.31365371592763602 0 0.36945761595668469 -0.32738841673247931 0 0.35533723689285712 -0.32525253772940937 0 0.36945761595668469 -0.32738841673247931 0 0.35618710249729552 -0.34088690244721892 0 0.35533723689285712 -0.32525253772940937 0 0.36945761595668469 -0.32738841673247931 0 0.35618710249729552 -0.34088690244721892 0 0.37368731816096312 -0.34897020548070451 0 0.35618710249729552 -0.34088690244721892 0 0.33810128782584858 -0.35072533414536311 0 0.34064131712366241 -0.33181983138849169 0 0.35618710249729552 -0.34088690244721892 0 0.35533723689285712 -0.32525253772940937 0 0.34064131712366241 -0.33181983138849169 0 0.34533870308018377 -0.31598934501886372 0 0.35533723689285712 -0.32525253772940937 0 0.34064131712366241 -0.33181983138849169 0 0.36380134767337091 -0.31365371592763602 0 0.34533870308018377 -0.31598934501886372 0 0.35533723689285712 -0.32525253772940937 0 0.3689120952668708 -0.37284951495870189 0 0.37368731816096312 -0.34897020548070451 0 0.35738528973841999 -0.35772904562383351 0 0.35618710249729552 -0.34088690244721892 0 0.37368731816096312 -0.34897020548070451 0 0.35738528973841999 -0.35772904562383351 0 0.35618710249729552 -0.34088690244721892 0 0.35738528973841999 -0.35772904562383351 0 0.33810128782584858 -0.35072533414536311 0 0.35738528973841999 -0.35772904562383351 0 0.34467783115022588 -0.37252705130409253 0 0.33810128782584858 -0.35072533414536311 0 0.3689120952668708 -0.37284951495870189 0 0.35738528973841999 -0.35772904562383351 0 0.34467783115022588 -0.37252705130409253 0 0.34467783115022588 -0.37252705130409253 0 0.33810128782584858 -0.35072533414536311 0 0.3255374248820434 -0.37161020359421471 0 0.31543696134246668 -0.34593224431305769 0 0.3255374248820434 -0.37161020359421471 0 0.30900602422585888 -0.35865430802761772 0 0.31543696134246668 -0.34593224431305769 0 0.3255374248820434 -0.37161020359421471 0 0.33810128782584858 -0.35072533414536311 0 0.31543696134246668 -0.34593224431305769 0 0.3255374248820434 -0.37161020359421471 0 0.3255374248820434 -0.37161020359421471 0 0.30525369772634148 -0.37164386163485291 0 0.30900602422585888 -0.35865430802761772 0 0.34533870308018377 -0.31598934501886372 0 0.33130220335757699 -0.32186248444176119 0 0.34064131712366241 -0.33181983138849169 0 0.33485830675890288 -0.30442904333306592 0 0.34533870308018377 -0.31598934501886372 0 0.33130220335757699 -0.32186248444176119 0 0.33810128782584858 -0.35072533414536311 0 0.34064131712366241 -0.33181983138849169 0 0.3268430880468266 -0.33457206034663262 0 0.33130220335757699 -0.32186248444176119 0 0.34064131712366241 -0.33181983138849169 0 0.3268430880468266 -0.33457206034663262 0 0.31543696134246668 -0.34593224431305769 0 0.3268430880468266 -0.33457206034663262 0 0.31314202037018413 -0.32284829747545468 0 0.33810128782584858 -0.35072533414536311 0 0.31543696134246668 -0.34593224431305769 0 0.3268430880468266 -0.33457206034663262 0 0.33130220335757699 -0.32186248444176119 0 0.3268430880468266 -0.33457206034663262 0 0.31314202037018413 -0.32284829747545468 0 0.33485830675890288 -0.30442904333306592 0 0.31314202037018413 -0.32284829747545468 0 0.3171485971304504 -0.30589952111326829 0 0.31314202037018413 -0.32284829747545468 0 0.3109911447756647 -0.31350988965823029 0 0.33485830675890288 -0.30442904333306592 0 0.33130220335757699 -0.32186248444176119 0 0.31314202037018413 -0.32284829747545468 0 0.31314202037018413 -0.32284829747545468 0 0.30533649780288991 -0.32025428503190068 0 0.3109911447756647 -0.31350988965823029 0 0.30533649780288991 -0.32025428503190068 0 0.3109911447756647 -0.31350988965823029 0 0.30833746379913463 -0.30503745501229762 0 0.31543696134246668 -0.34593224431305769 0 0.30533649780288991 -0.32025428503190068 0 0.30314188851555429 -0.3464145030398364 0 0.30533649780288991 -0.32025428503190068 0 0.29792146783109758 -0.32077626486014349 0 0.30314188851555429 -0.3464145030398364 0 0.31543696134246668 -0.34593224431305769 0 0.31314202037018413 -0.32284829747545468 0 0.30533649780288991 -0.32025428503190068 0 0.29792146783109758 -0.32077626486014349 0 0.30314188851555429 -0.3464145030398364 0 0.31543696134246668 -0.34593224431305769 0 0.30533649780288991 -0.32025428503190068 0 0.29792146783109758 -0.32077626486014349 0 0.29422135484035322 -0.33366994296298719 0 0.30314188851555429 -0.3464145030398364 0 0.29422135484035322 -0.33366994296298719 0 0.29546103181119637 -0.34185893253319311 0 0.30314188851555429 -0.3464145030398364 0 0.29422135484035322 -0.33366994296298719 0 0.29546103181119637 -0.34185893253319311 0 0.28827175492889229 -0.34275780055790278 0 0.29546103181119637 -0.34185893253319311 0 0.28827175492889229 -0.34275780055790278 0 0.29811044553331972 -0.34650788457159087 0 0.29422135484035322 -0.33366994296298719 0 0.28827175492889229 -0.34275780055790278 0 0.27955848846152698 -0.33666113426449551 0 0.29422135484035322 -0.33366994296298719 0 0.28744860979629389 -0.32474860906702402 0 0.27955848846152698 -0.33666113426449551 0 0.28744860979629389 -0.32474860906702402 0 0.29019889155513462 -0.31620785207956748 0 0.28097437988070417 -0.31138482246715898 0 0.29792146783109758 -0.32077626486014349 0 0.29019889155513462 -0.31620785207956748 0 0.29244758100571983 -0.32385066724243061 0 0.29422135484035322 -0.33366994296298719 0 0.28744860979629389 -0.32474860906702402 0 0.29244758100571983 -0.32385066724243061 0 0.29792146783109758 -0.32077626486014349 0 0.29422135484035322 -0.33366994296298719 0 0.29244758100571983 -0.32385066724243061 0 0.28744860979629389 -0.32474860906702402 0 0.29019889155513462 -0.31620785207956748 0 0.29244758100571983 -0.32385066724243061 0 0.30525369772634148 -0.37164386163485291 0 0.30031449930387721 -0.36082981960256849 0 0.30900602422585888 -0.35865430802761772 0 0.30525369772634148 -0.37164386163485291 0 0.30031449930387721 -0.36082981960256849 0 0.29483415024835152 -0.36747827247447862 0 0.30080593951138668 -0.35381036279877531 0 0.30900602422585888 -0.35865430802761772 0 0.30314188851555429 -0.3464145030398364 0 0.30080593951138668 -0.35381036279877531 0 0.29811044553331972 -0.34650788457159087 0 0.29345683997832372 -0.35664529875226292 0 0.30031449930387721 -0.36082981960256849 0 0.30080593951138668 -0.35381036279877531 0 0.30900602422585888 -0.35865430802761772 0 0.30031449930387721 -0.36082981960256849 0 0.30080593951138668 -0.35381036279877531 0 0.29345683997832372 -0.35664529875226292 0 0.31543696134246668 -0.34593224431305769 0 0.30900602422585888 -0.35865430802761772 0 0.30314188851555429 -0.3464145030398364 0 0.30080593951138668 -0.35381036279877531 0 0.30314188851555429 -0.3464145030398364 0 0.29811044553331972 -0.34650788457159087 0 0.29546103181119637 -0.34185893253319311 0 0.30314188851555429 -0.3464145030398364 0 0.29811044553331972 -0.34650788457159087 0 0.29811044553331972 -0.34650788457159087 0 0.29345683997832372 -0.35664529875226292 0 0.28122462644821988 -0.35688066365974619 0 0.28827175492889229 -0.34275780055790278 0 0.29811044553331972 -0.34650788457159087 0 0.28122462644821988 -0.35688066365974619 0 0.28827175492889229 -0.34275780055790278 0 0.28122462644821988 -0.35688066365974619 0 0.27955848846152698 -0.33666113426449551 0 0.29811044553331972 -0.34650788457159087 0 0.28122462644821988 -0.35688066365974619 0 0.29345683997832372 -0.35664529875226292 0 0.28676543400443838 -0.36101512068260139 0 0.28122462644821988 -0.35688066365974619 0 0.28676543400443838 -0.36101512068260139 0 0.28122462644821988 -0.35688066365974619 0 0.28783989868818821 -0.37644057584389279 0 0.30525369772634148 -0.37164386163485291 0 0.29483415024835152 -0.36747827247447862 0 0.28783989868818821 -0.37644057584389279 0 0.28676543400443838 -0.36101512068260139 0 0.27033126349110148 -0.36357234067652822 0 0.29357505063040601 -0.36145191270551408 0 0.28676543400443838 -0.36101512068260139 0 0.29483415024835152 -0.36747827247447862 0 0.30031449930387721 -0.36082981960256849 0 0.29357505063040601 -0.36145191270551408 0 0.29483415024835152 -0.36747827247447862 0 0.30031449930387721 -0.36082981960256849 0 0.29345683997832372 -0.35664529875226292 0 0.29357505063040601 -0.36145191270551408 0 0.29345683997832372 -0.35664529875226292 0 0.29357505063040601 -0.36145191270551408 0 0.28676543400443838 -0.36101512068260139 0 0.28783989868818821 -0.37644057584389279 0 0.28676543400443838 -0.36101512068260139 0 0.29483415024835152 -0.36747827247447862 0 0.28783989868818821 -0.37644057584389279 0 0.27033126349110148 -0.36357234067652822 0 0.28783989868818821 -0.37644057584389279 0 0.27447250226623809 -0.37821124143188289 0 0.27033126349110148 -0.36357234067652822 0 0.28676543400443838 -0.36101512068260139 0 0.27033126349110148 -0.36357234067652822 0 0.28122462644821988 -0.35688066365974619 0 0.27447250226623809 -0.37821124143188289 0 0.26423397132697279 -0.37890457124200982 0 0.27033126349110148 -0.36357234067652822 0 0.27033126349110148 -0.36357234067652822 0 0.28122462644821988 -0.35688066365974619 0 0.28122462644821988 -0.35688066365974619 0 0.26082083375001269 -0.34165569813656432 0 0.27033126349110148 -0.36357234067652822 0 0.28122462644821988 -0.35688066365974619 0 0.26082083375001269 -0.34165569813656432 0 0.28122462644821988 -0.35688066365974619 0 0.27955848846152698 -0.33666113426449551 0 0.26082083375001269 -0.34165569813656432 0 0.27033126349110148 -0.36357234067652822 0 0.25099839141978419 -0.34936335514031408 0 0.27033126349110148 -0.36357234067652822 0 0.25099839141978419 -0.34936335514031408 0 0.26082083375001269 -0.34165569813656432 0 0.27033126349110148 -0.36357234067652822 0 0.25099839141978419 -0.34936335514031408 0 0.24534349961555019 -0.36253701182870851 0 0.26423397132697279 -0.37890457124200982 0 0.27033126349110148 -0.36357234067652822 0 0.24987622704845311 -0.37613765202982719 0 0.27033126349110148 -0.36357234067652822 0 0.24534349961555019 -0.36253701182870851 0 0.24987622704845311 -0.37613765202982719 0 0.27033126349110148 -0.36357234067652822 0 0.24987622704845311 -0.37613765202982719 0 0.28744860979629389 -0.32474860906702402 0 0.26598899428458778 -0.32103793389256657 0 0.27955848846152698 -0.33666113426449551 0 0.28744860979629389 -0.32474860906702402 0 0.26598899428458778 -0.32103793389256657 0 0.28097437988070417 -0.31138482246715898 0 0.26598899428458778 -0.32103793389256657 0 0.27955848846152698 -0.33666113426449551 0 0.26082083375001269 -0.34165569813656432 0 0.26082083375001269 -0.34165569813656432 0 0.2404170410518052 -0.32643073261338312 0 0.26598899428458778 -0.32103793389256657 0 0.26082083375001269 -0.34165569813656432 0 0.2404170410518052 -0.32643073261338312 0 0.25099839141978419 -0.34936335514031408 0 0.26082083375001269 -0.34165569813656432 0 0.2404170410518052 -0.32643073261338312 0 0.26598899428458778 -0.32103793389256657 0 0.24423538898563429 -0.30587701823941071 0 0.2404170410518052 -0.32643073261338312 0 0.26846821806613752 -0.30050752245993012 0 0.24423538898563429 -0.30587701823941071 0 0.25301376652256202 -0.2892367573709661 0 0.26846821806613752 -0.30050752245993012 0 0.24423538898563429 -0.30587701823941071 0 0.26598899428458778 -0.32103793389256657 0 0.26846821806613752 -0.30050752245993012 0 0.24423538898563429 -0.30587701823941071 0 0.25301376652256202 -0.2892367573709661 0 0.26500420865911251 -0.28331687632378699 0 0.26846821806613752 -0.30050752245993012 0 0.25301376652256202 -0.2892367573709661 0 0.26500420865911251 -0.28331687632378699 0 0.2507153324002197 -0.27704953531328702 0 0.26500420865911251 -0.28331687632378699 0 0.27805302037335089 -0.28584974436810762 0 0.26846821806613752 -0.30050752245993012 0 0.27805302037335089 -0.28584974436810762 0 0.26846821806613752 -0.30050752245993012 0 0.29270104714664102 -0.29513802668045069 0 0.26500420865911251 -0.28331687632378699 0 0.27805302037335089 -0.28584974436810762 0 0.27342558025451552 -0.27498979272208851 0 0.26598899428458778 -0.32103793389256657 0 0.26846821806613752 -0.30050752245993012 0 0.28097437988070417 -0.31138482246715898 0 0.26846821806613752 -0.30050752245993012 0 0.28097437988070417 -0.31138482246715898 0 0.29270104714664102 -0.29513802668045069 0 0.26846821806613752 -0.30050752245993012 0 0.29270104714664102 -0.29513802668045069 0 0.29792146783109758 -0.32077626486014349 0 0.29270104714664102 -0.29513802668045069 0 0.29019889155513462 -0.31620785207956748 0 0.28097437988070417 -0.31138482246715898 0 0.29270104714664102 -0.29513802668045069 0 0.29792146783109758 -0.32077626486014349 0 0.29019889155513462 -0.31620785207956748 0 0.29270104714664102 -0.29513802668045069 0 0.29792146783109758 -0.32077626486014349 0 0.29270104714664102 -0.29513802668045069 0 0.29523603426331357 -0.29457632575074338 0 0.27805302037335089 -0.28584974436810762 0 0.29026987947112831 -0.28319821192468808 0 0.29270104714664102 -0.29513802668045069 0 0.27805302037335089 -0.28584974436810762 0 0.29026987947112831 -0.28319821192468808 0 0.28863308206368682 -0.27515966401439529 0 0.29026987947112831 -0.28319821192468808 0 0.29523603426331357 -0.29457632575074338 0 0.29026987947112831 -0.28319821192468808 0 0.29523603426331357 -0.29457632575074338 0 0.30320790951940702 -0.28313078900162059 0 0.29026987947112831 -0.28319821192468808 0 0.29270104714664102 -0.29513802668045069 0 0.29523603426331357 -0.29457632575074338 0 0.29026987947112831 -0.28319821192468808 0 0.29270104714664102 -0.29513802668045069 0 0.29270104714664102 -0.29513802668045069 0 0.29523603426331357 -0.29457632575074338 0 0.29523603426331357 -0.29457632575074338 0 0.31208952779935789 -0.2908419387292881 0 0.29523603426331357 -0.29457632575074338 0 0.30320790951940702 -0.28313078900162059 0 0.31208952779935789 -0.2908419387292881 0 0.29523603426331357 -0.29457632575074338 0 0.31208952779935789 -0.2908419387292881 0 0.30833746379913463 -0.30503745501229762 0 0.31611371382327402 -0.28007222207304999 0 0.30320790951940702 -0.28313078900162059 0 0.31208952779935789 -0.2908419387292881 0 0.30533649780288991 -0.32025428503190068 0 0.29523603426331357 -0.29457632575074338 0 0.30833746379913463 -0.30503745501229762 0 0.30533649780288991 -0.32025428503190068 0 0.29792146783109758 -0.32077626486014349 0 0.29523603426331357 -0.29457632575074338 0 0.30533649780288991 -0.32025428503190068 0 0.29523603426331357 -0.29457632575074338 0 0.3171485971304504 -0.30589952111326829 0 0.3109911447756647 -0.31350988965823029 0 0.30833746379913463 -0.30503745501229762 0 0.29812220868357159 -0.26533402464574418 0 0.30111904597271899 -0.2536098058489899 0 0.30981211567343969 -0.26250129009931661 0 0.31597462601859122 -0.25080747204364812 0 0.30111904597271899 -0.2536098058489899 0 0.30981211567343969 -0.26250129009931661 0 0.29812220868357159 -0.26533402464574418 0 0.30981211567343969 -0.26250129009931661 0 0.30706455279928557 -0.27339796693147528 0 0.31611371382327402 -0.28007222207304999 0 0.30320790951940702 -0.28313078900162059 0 0.30706455279928557 -0.27339796693147528 0 0.29026987947112831 -0.28319821192468808 0 0.30320790951940702 -0.28313078900162059 0 0.29755036247591721 -0.27602563541609298 0 0.30320790951940702 -0.28313078900162059 0 0.30706455279928557 -0.27339796693147528 0 0.29755036247591721 -0.27602563541609298 0 0.29812220868357159 -0.26533402464574418 0 0.30706455279928557 -0.27339796693147528 0 0.29755036247591721 -0.27602563541609298 0 0.29812220868357159 -0.26533402464574418 0 0.29755036247591721 -0.27602563541609298 0 0.28863308206368682 -0.27515966401439529 0 0.29026987947112831 -0.28319821192468808 0 0.28863308206368682 -0.27515966401439529 0 0.29026987947112831 -0.28319821192468808 0 0.29755036247591721 -0.27602563541609298 0 0.28863308206368682 -0.27515966401439529 0 0.28863308206368682 -0.27515966401439529 0 0.28456511698073272 -0.25518130134833977 0 0.29812220868357159 -0.26533402464574418 0 0.28863308206368682 -0.27515966401439529 0 0.28456511698073272 -0.25518130134833977 0 0.29812220868357159 -0.26533402464574418 0 0.30111904597271899 -0.2536098058489899 0 0.28456511698073272 -0.25518130134833977 0 0.28863308206368682 -0.27515966401439529 0 0.28456511698073272 -0.25518130134833977 0 0.27223885194073971 -0.26265851400849172 0 0.28456511698073272 -0.25518130134833977 0 0.27223885194073971 -0.26265851400849172 0 0.26629969424128969 -0.25192769388052821 0 0.27223885194073971 -0.26265851400849172 0 0.26629969424128969 -0.25192769388052821 0 0.2629172406837702 -0.26740365320709081 0 0.26500420865911251 -0.28331687632378699 0 0.27342558025451552 -0.27498979272208851 0 0.2629172406837702 -0.26740365320709081 0 0.28863308206368682 -0.27515966401439529 0 0.27223885194073971 -0.26265851400849172 0 0.27342558025451552 -0.27498979272208851 0 0.27805302037335089 -0.28584974436810762 0 0.28863308206368682 -0.27515966401439529 0 0.27342558025451552 -0.27498979272208851 0 0.27223885194073971 -0.26265851400849172 0 0.27342558025451552 -0.27498979272208851 0 0.2629172406837702 -0.26740365320709081 0 0.26500420865911251 -0.28331687632378699 0 0.2629172406837702 -0.26740365320709081 0 0.2507153324002197 -0.27704953531328702 0 0.2629172406837702 -0.26740365320709081 0 0.2507153324002197 -0.27704953531328702 0 0.2466218950091964 -0.26012473444713258 0 0.25037283077400019 -0.2416092145933311 0 0.26629969424128969 -0.25192769388052821 0 0.2466218950091964 -0.26012473444713258 0 0.26629969424128969 -0.25192769388052821 0 0.2629172406837702 -0.26740365320709081 0 0.2466218950091964 -0.26012473444713258 0 0.25037283077400019 -0.2416092145933311 0 0.2466218950091964 -0.26012473444713258 0 0.2339549802858914 -0.24933471903745599 0 0.2466218950091964 -0.26012473444713258 0 0.22717476572977791 -0.26325637954660608 0 0.2339549802858914 -0.24933471903745599 0 0.2466218950091964 -0.26012473444713258 0 0.23628574795648369 -0.27498419313581679 0 0.22717476572977791 -0.26325637954660608 0 0.2507153324002197 -0.27704953531328702 0 0.2466218950091964 -0.26012473444713258 0 0.23628574795648369 -0.27498419313581679 0 0.2507153324002197 -0.27704953531328702 0 0.23628574795648369 -0.27498419313581679 0 0.24044913557019401 -0.28723099739492908 0 0.2247339410531527 -0.27667652802353632 0 0.21554844428562811 -0.26491471108287651 0 0.21653111649902579 -0.28712771180040292 0 0.23628574795648369 -0.27498419313581679 0 0.2247339410531527 -0.27667652802353632 0 0.22717476572977791 -0.26325637954660608 0 0.2247339410531527 -0.27667652802353632 0 0.22717476572977791 -0.26325637954660608 0 0.21554844428562811 -0.26491471108287651 0 0.22717476572977791 -0.26325637954660608 0 0.22331750647786899 -0.25281133177650322 0 0.2339549802858914 -0.24933471903745599 0 0.22717476572977791 -0.26325637954660608 0 0.22331750647786899 -0.25281133177650322 0 0.21554844428562811 -0.26491471108287651 0 0.2084475354763706 -0.25511513831035743 0 0.21554844428562811 -0.26491471108287651 0 0.1982966667633215 -0.26354120971092698 0 0.21554844428562811 -0.26491471108287651 0 0.21456577207223029 -0.24270171036535029 0 0.22331750647786899 -0.25281133177650322 0 0.21554844428562811 -0.26491471108287651 0 0.21456577207223029 -0.24270171036535029 0 0.2084475354763706 -0.25511513831035743 0 0.21554844428562811 -0.26491471108287651 0 0.21336353465090491 -0.24693864317134839 0 0.21554844428562811 -0.26491471108287651 0 0.21336353465090491 -0.24693864317134839 0 0.21456577207223029 -0.24270171036535029 0 0.2084475354763706 -0.25511513831035743 0 0.1982966667633215 -0.26354120971092698 0 0.2080714594183444 -0.2424179483002232 0 0.1982966667633215 -0.26354120971092698 0 0.2080714594183444 -0.2424179483002232 0 0.21554844428562811 -0.26491471108287651 0 0.21653111649902579 -0.28712771180040292 0 0.21554844428562811 -0.26491471108287651 0 0.20859607852913339 -0.28093905456482821 0 0.21653111649902579 -0.28712771180040292 0 0.21554844428562811 -0.26491471108287651 0 0.20859607852913339 -0.28093905456482821 0 0.2011380539128553 -0.27767933622792518 0 0.21554844428562811 -0.26491471108287651 0 0.2011380539128553 -0.27767933622792518 0 0.1982966667633215 -0.26354120971092698 0 0.1982966667633215 -0.26354120971092698 0 0.18852187410829821 -0.28466447112163068 0 0.1982966667633215 -0.26354120971092698 0 0.18852187410829821 -0.28466447112163068 0 0.1845366839674035 -0.26640487959885623 0 0.2011380539128553 -0.27767933622792518 0 0.1982966667633215 -0.26354120971092698 0 0.18852187410829821 -0.28466447112163068 0 0.1982966667633215 -0.26354120971092698 0 0.2080714594183444 -0.2424179483002232 0 0.19254414318066221 -0.24961624770678509 0 0.1982966667633215 -0.26354120971092698 0 0.18706352147094041 -0.25756661524031438 0 0.1845366839674035 -0.26640487959885623 0 0.1982966667633215 -0.26354120971092698 0 0.18706352147094041 -0.25756661524031438 0 0.19254414318066221 -0.24961624770678509 0 0.18706352147094041 -0.25756661524031438 0 0.19254414318066221 -0.24961624770678509 0 0.18399505531774341 -0.24981832115951039 0 0.20249447748908611 -0.29813355613580778 0 0.1976485991634879 -0.30796138879627621 0 0.19462594870140809 -0.30164723750547567 0 0.20249447748908611 -0.29813355613580778 0 0.19462594870140809 -0.30164723750547567 0 0.19392418081794471 -0.29575522021664652 0 0.20249447748908611 -0.29813355613580778 0 0.1976485991634879 -0.30796138879627621 0 0.20782414549410869 -0.30817847155873718 0 0.1976485991634879 -0.30796138879627621 0 0.20782414549410869 -0.30817847155873718 0 0.20282381327660201 -0.31505297042611552 0 0.1976485991634879 -0.30796138879627621 0 0.19009702279388629 -0.3064242775921906 0 0.18802618722583669 -0.31833181955932999 0 0.1976485991634879 -0.30796138879627621 0 0.19009702279388629 -0.3064242775921906 0 0.19462594870140809 -0.30164723750547567 0 0.19009702279388629 -0.3064242775921906 0 0.19462594870140809 -0.30164723750547567 0 0.1880606218677118 -0.30022154946313712 0 0.19462594870140809 -0.30164723750547567 0 0.19110113081553529 -0.29631368747161629 0 0.19392418081794471 -0.29575522021664652 0 0.1880606218677118 -0.30022154946313712 0 0.19110113081553529 -0.29631368747161629 0 0.18734834214976739 -0.29514628785519947 0 0.19462594870140809 -0.30164723750547567 0 0.1880606218677118 -0.30022154946313712 0 0.19110113081553529 -0.29631368747161629 0 0.20249447748908611 -0.29813355613580778 0 0.18747516626574931 -0.28692639975368628 0 0.20249447748908611 -0.29813355613580778 0 0.19392418081794471 -0.29575522021664652 0 0.18747516626574931 -0.28692639975368628 0 0.19110113081553529 -0.29631368747161629 0 0.19392418081794471 -0.29575522021664652 0 0.18747516626574931 -0.28692639975368628 0 0.19110113081553529 -0.29631368747161629 0 0.18747516626574931 -0.28692639975368628 0 0.18734834214976739 -0.29514628785519947 0 0.18852187410829821 -0.28466447112163068 0 0.19787122383615691 -0.29172525818392958 0 0.18852187410829821 -0.28466447112163068 0 0.19731262536099689 -0.28481999283041842 0 0.19787122383615691 -0.29172525818392958 0 0.18852187410829821 -0.28466447112163068 0 0.19787122383615691 -0.29172525818392958 0 0.18747516626574931 -0.28692639975368628 0 0.18852187410829821 -0.28466447112163068 0 0.18747516626574931 -0.28692639975368628 0 0.2011380539128553 -0.27767933622792518 0 0.18852187410829821 -0.28466447112163068 0 0.19731262536099689 -0.28481999283041842 0 0.201719349586677 -0.2852109057881882 0 0.19787122383615691 -0.29172525818392958 0 0.206049533411369 -0.28982701925762389 0 0.19731262536099689 -0.28481999283041842 0 0.201719349586677 -0.2852109057881882 0 0.19787122383615691 -0.29172525818392958 0 0.2011380539128553 -0.27767933622792518 0 0.19731262536099689 -0.28481999283041842 0 0.201719349586677 -0.2852109057881882 0 0.20249447748908611 -0.29813355613580778 0 0.19787122383615691 -0.29172525818392958 0 0.18747516626574931 -0.28692639975368628 0 0.20249447748908611 -0.29813355613580778 0 0.19787122383615691 -0.29172525818392958 0 0.206049533411369 -0.28982701925762389 0 0.20249447748908611 -0.29813355613580778 0 0.206049533411369 -0.28982701925762389 0 0.20903552332543929 -0.29406903275804652 0 0.206049533411369 -0.28982701925762389 0 0.20903552332543929 -0.29406903275804652 0 0.21653111649902579 -0.28712771180040292 0 0.20249447748908611 -0.29813355613580778 0 0.20903552332543929 -0.29406903275804652 0 0.2123558614978226 -0.29827812898856709 0 0.20859607852913339 -0.28093905456482821 0 0.206049533411369 -0.28982701925762389 0 0.21653111649902579 -0.28712771180040292 0 0.20859607852913339 -0.28093905456482821 0 0.201719349586677 -0.2852109057881882 0 0.206049533411369 -0.28982701925762389 0 0.20859607852913339 -0.28093905456482821 0 0.2011380539128553 -0.27767933622792518 0 0.201719349586677 -0.2852109057881882 0 0.20903552332543929 -0.29406903275804652 0 0.21653111649902579 -0.28712771180040292 0 0.2123558614978226 -0.29827812898856709 0 0.21653111649902579 -0.28712771180040292 0 0.2175137887124228 -0.30934071251792922 0 0.21653111649902579 -0.28712771180040292 0 0.2123558614978226 -0.29827812898856709 0 0.2175137887124228 -0.30934071251792922 0 0.20249447748908611 -0.29813355613580778 0 0.2123558614978226 -0.29827812898856709 0 0.2175137887124228 -0.30934071251792922 0 0.20249447748908611 -0.29813355613580778 0 0.2175137887124228 -0.30934071251792922 0 0.20782414549410869 -0.30817847155873718 0 0.2176214393273678 -0.31177412129290383 0 0.20282381327660201 -0.31505297042611552 0 0.20249447748908611 -0.29813355613580778 0 0.20782414549410869 -0.30817847155873718 0 0.2175137887124228 -0.30934071251792922 0 0.20782414549410869 -0.30817847155873718 0 0.2175137887124228 -0.30934071251792922 0 0.2176214393273678 -0.31177412129290383 0 0.2175137887124228 -0.30934071251792922 0 0.2176214393273678 -0.31177412129290383 0 0.2175137887124228 -0.30934071251792922 0 0.2176214393273678 -0.31177412129290383 0 0.21999804566891551 -0.31122614102315033 0 0.21999804566891551 -0.31122614102315033 0 0.24423538898563429 -0.30587701823941071 0 0.2175137887124228 -0.30934071251792922 0 0.21999804566891551 -0.31122614102315033 0 0.22812963079484819 -0.29309964455197901 0 0.21999804566891551 -0.31122614102315033 0 0.22812963079484819 -0.29309964455197901 0 0.21999804566891551 -0.31122614102315033 0 0.22812963079484819 -0.29309964455197901 0 0.24423538898563429 -0.30587701823941071 0 0.2176214393273678 -0.31177412129290383 0 0.21999804566891551 -0.31122614102315033 0 0.2175137887124228 -0.30934071251792922 0 0.21999804566891551 -0.31122614102315033 0 0.23628574795648369 -0.27498419313581679 0 0.22812963079484819 -0.29309964455197901 0 0.2247339410531527 -0.27667652802353632 0 0.21653111649902579 -0.28712771180040292 0 0.22812963079484819 -0.29309964455197901 0 0.23628574795648369 -0.27498419313581679 0 0.2247339410531527 -0.27667652802353632 0 0.22812963079484819 -0.29309964455197901 0 0.21653111649902579 -0.28712771180040292 0 0.2175137887124228 -0.30934071251792922 0 0.22812963079484819 -0.29309964455197901 0 0.23628574795648369 -0.27498419313581679 0 0.22812963079484819 -0.29309964455197901 0 0.24044913557019401 -0.28723099739492908 0 0.25301376652256202 -0.2892367573709661 0 0.24044913557019401 -0.28723099739492908 0 0.24423538898563429 -0.30587701823941071 0 0.22812963079484819 -0.29309964455197901 0 0.24044913557019401 -0.28723099739492908 0 0.24423538898563429 -0.30587701823941071 0 0.25301376652256202 -0.2892367573709661 0 0.2507153324002197 -0.27704953531328702 0 0.24044913557019401 -0.28723099739492908 0 0.21999804566891551 -0.31122614102315033 0 0.24423538898563429 -0.30587701823941071 0 0.2404170410518052 -0.32643073261338312 0 0.25099839141978419 -0.34936335514031408 0 0.2316655193484673 -0.33515436960409939 0 0.25099839141978419 -0.34936335514031408 0 0.2404170410518052 -0.32643073261338312 0 0.2316655193484673 -0.33515436960409939 0 0.2404170410518052 -0.32643073261338312 0 0.2316655193484673 -0.33515436960409939 0 0.2247705650129608 -0.32491873692320528 0 0.2316655193484673 -0.33515436960409939 0 0.22208049410379579 -0.34309390150507102 0 0.22867514261462599 -0.34782526071452929 0 0.2316655193484673 -0.33515436960409939 0 0.22208049410379579 -0.34309390150507102 0 0.220555537226792 -0.33578323097752499 0 0.22208049410379579 -0.34309390150507102 0 0.220555537226792 -0.33578323097752499 0 0.21451162402718699 -0.34512658597487872 0 0.220555537226792 -0.33578323097752499 0 0.2247705650129608 -0.32491873692320528 0 0.21820242441149371 -0.32490710899175251 0 0.2316655193484673 -0.33515436960409939 0 0.220555537226792 -0.33578323097752499 0 0.2247705650129608 -0.32491873692320528 0 0.21999804566891551 -0.31122614102315033 0 0.2404170410518052 -0.32643073261338312 0 0.2247705650129608 -0.32491873692320528 0 0.21999804566891551 -0.31122614102315033 0 0.2404170410518052 -0.32643073261338312 0 0.2247705650129608 -0.32491873692320528 0 0.21780935440599439 -0.31602188338433101 0 0.21820242441149371 -0.32490710899175251 0 0.21999804566891551 -0.31122614102315033 0 0.2247705650129608 -0.32491873692320528 0 0.21780935440599439 -0.31602188338433101 0 0.21999804566891551 -0.31122614102315033 0 0.21780935440599439 -0.31602188338433101 0 0.23679608458568241 -0.3713456781615978 0 0.24534349961555019 -0.36253701182870851 0 0.24987622704845311 -0.37613765202982719 0 0.23679608458568241 -0.3713456781615978 0 0.24534349961555019 -0.36253701182870851 0 0.23133102347449649 -0.35950822589080189 0 0.25099839141978419 -0.34936335514031408 0 0.2316655193484673 -0.33515436960409939 0 0.23760271529458479 -0.35087764463569071 0 0.24534349961555019 -0.36253701182870851 0 0.23760271529458479 -0.35087764463569071 0 0.23133102347449649 -0.35950822589080189 0 0.25099839141978419 -0.34936335514031408 0 0.24534349961555019 -0.36253701182870851 0 0.23760271529458479 -0.35087764463569071 0 0.2316655193484673 -0.33515436960409939 0 0.23760271529458479 -0.35087764463569071 0 0.22867514261462599 -0.34782526071452929 0 0.22208049410379579 -0.34309390150507102 0 0.22076837523631451 -0.35267920974236072 0 0.21451162402718699 -0.34512658597487872 0 0.22208049410379579 -0.34309390150507102 0 0.22867514261462599 -0.34782526071452929 0 0.22076837523631451 -0.35267920974236072 0 0.22076837523631451 -0.35267920974236072 0 0.22341137818785181 -0.36337688942730773 0 0.21609027172906259 -0.36087537471117581 0 0.22076837523631451 -0.35267920974236072 0 0.23133102347449649 -0.35950822589080189 0 0.22341137818785181 -0.36337688942730773 0 0.22867514261462599 -0.34782526071452929 0 0.22076837523631451 -0.35267920974236072 0 0.23133102347449649 -0.35950822589080189 0 0.23760271529458479 -0.35087764463569071 0 0.22867514261462599 -0.34782526071452929 0 0.23133102347449649 -0.35950822589080189 0 0.23133102347449649 -0.35950822589080189 0 0.22341137818785181 -0.36337688942730773 0 0.22699371624108439 -0.37103399677892651 0 0.22341137818785181 -0.36337688942730773 0 0.22699371624108439 -0.37103399677892651 0 0.21663927632257499 -0.37152038636996992 0 0.22699371624108439 -0.37103399677892651 0 0.21663927632257499 -0.37152038636996992 0 0.22189277223980711 -0.38054577212349588 0 0.23679608458568241 -0.3713456781615978 0 0.22699371624108439 -0.37103399677892651 0 0.23010576568282681 -0.37607478874810818 0 0.23679608458568241 -0.3713456781615978 0 0.23133102347449649 -0.35950822589080189 0 0.22699371624108439 -0.37103399677892651 0 0.21663927632257499 -0.37152038636996992 0 0.20683644217058031 -0.36558797855932218 0 0.20576161095015591 -0.37595213443190167 0 0.22341137818785181 -0.36337688942730773 0 0.21663927632257499 -0.37152038636996992 0 0.21609027172906259 -0.36087537471117581 0 0.21609027172906259 -0.36087537471117581 0 0.20683644217058031 -0.36558797855932218 0 0.21089823393406021 -0.35324530101306001 0 0.21663927632257499 -0.37152038636996992 0 0.21609027172906259 -0.36087537471117581 0 0.20683644217058031 -0.36558797855932218 0 0.19940837682496099 -0.35689206815154528 0 0.20777431361625601 -0.33831058893907762 0 0.21089823393406021 -0.35324530101306001 0 0.19940837682496099 -0.35689206815154528 0 0.20777431361625601 -0.33831058893907762 0 0.20683644217058031 -0.36558797855932218 0 0.21089823393406021 -0.35324530101306001 0 0.19940837682496099 -0.35689206815154528 0 0.22076837523631451 -0.35267920974236072 0 0.21609027172906259 -0.36087537471117581 0 0.21089823393406021 -0.35324530101306001 0 0.21089823393406021 -0.35324530101306001 0 0.21451162402718699 -0.34512658597487872 0 0.20777431361625601 -0.33831058893907762 0 0.22076837523631451 -0.35267920974236072 0 0.21089823393406021 -0.35324530101306001 0 0.21451162402718699 -0.34512658597487872 0 0.1971616983813648 -0.34495631128618592 0 0.19940837682496099 -0.35689206815154528 0 0.20777431361625601 -0.33831058893907762 0 0.1971616983813648 -0.34495631128618592 0 0.18787137947787569 -0.35180034780069419 0 0.18864170350563411 -0.33720407153827198 0 0.1971616983813648 -0.34495631128618592 0 0.18787137947787569 -0.35180034780069419 0 0.19940837682496099 -0.35689206815154528 0 0.20683644217058031 -0.36558797855932218 0 0.20576161095015591 -0.37595213443190167 0 0.1910424400336663 -0.37547354736401328 0 0.18787137947787569 -0.35180034780069419 0 0.19940837682496099 -0.35689206815154528 0 0.1910424400336663 -0.37547354736401328 0 0.19940837682496099 -0.35689206815154528 0 0.1910424400336663 -0.37547354736401328 0 0.20683644217058031 -0.36558797855932218 0 0.19940837682496099 -0.35689206815154528 0 0.1910424400336663 -0.37547354736401328 0 0.21780935440599439 -0.31602188338433101 0 0.20777431361625601 -0.33831058893907762 0 0.21780935440599439 -0.31602188338433101 0 0.20777431361625601 -0.33831058893907762 0 0.20282381327660201 -0.31505297042611552 0 0.21780935440599439 -0.31602188338433101 0 0.21820242441149371 -0.32490710899175251 0 0.20777431361625601 -0.33831058893907762 0 0.2176214393273678 -0.31177412129290383 0 0.20282381327660201 -0.31505297042611552 0 0.2176214393273678 -0.31177412129290383 0 0.21780935440599439 -0.31602188338433101 0 0.20282381327660201 -0.31505297042611552 0 0.2176214393273678 -0.31177412129290383 0 0.21780935440599439 -0.31602188338433101 0 0.2176214393273678 -0.31177412129290383 0 0.21999804566891551 -0.31122614102315033 0 0.21780935440599439 -0.31602188338433101 0 0.21780935440599439 -0.31602188338433101 0 0.21820242441149371 -0.32490710899175251 0 0.220555537226792 -0.33578323097752499 0 0.21820242441149371 -0.32490710899175251 0 0.20777431361625601 -0.33831058893907762 0 0.220555537226792 -0.33578323097752499 0 0.21451162402718699 -0.34512658597487872 0 0.20777431361625601 -0.33831058893907762 0 0.21451162402718699 -0.34512658597487872 0 0.20777431361625601 -0.33831058893907762 0 0.1971616983813648 -0.34495631128618592 0 0.20777431361625601 -0.33831058893907762 0 0.18864170350563411 -0.33720407153827198 0 0.20777431361625601 -0.33831058893907762 0 0.18802618722583669 -0.31833181955932999 0 0.20777431361625601 -0.33831058893907762 0 0.18864170350563411 -0.33720407153827198 0 0.18802618722583669 -0.31833181955932999 0 0.20777431361625601 -0.33831058893907762 0 0.20282381327660201 -0.31505297042611552 0 0.18802618722583669 -0.31833181955932999 0 0.20282381327660201 -0.31505297042611552 0 0.18802618722583669 -0.31833181955932999 0 0.1976485991634879 -0.30796138879627621 0 0.20282381327660201 -0.31505297042611552 0 0.18802618722583669 -0.31833181955932999 0 0.18802618722583669 -0.31833181955932999 0 0.1791507244663583 -0.32983729973660558 0 0.16791254130802971 -0.3227885891963716 0 0.18802618722583669 -0.31833181955932999 0 0.17151825735526699 -0.31325416760549368 0 0.16791254130802971 -0.3227885891963716 0 0.18802618722583669 -0.31833181955932999 0 0.16791254130802971 -0.3227885891963716 0 0.18864170350563411 -0.33720407153827198 0 0.18802618722583669 -0.31833181955932999 0 0.1791507244663583 -0.32983729973660558 0 0.17202246582593331 -0.34102471865244838 0 0.1791507244663583 -0.32983729973660558 0 0.16791254130802971 -0.3227885891963716 0 0.18787137947787569 -0.35180034780069419 0 0.18864170350563411 -0.33720407153827198 0 0.17202246582593331 -0.34102471865244838 0 0.18864170350563411 -0.33720407153827198 0 0.17202246582593331 -0.34102471865244838 0 0.1791507244663583 -0.32983729973660558 0 0.17202246582593331 -0.34102471865244838 0 0.1546435437787094 -0.34381338892778002 0 0.1557586906108582 -0.32786840018592928 0 0.17202246582593331 -0.34102471865244838 0 0.16791254130802971 -0.3227885891963716 0 0.1557586906108582 -0.32786840018592928 0 0.16791254130802971 -0.3227885891963716 0 0.1557586906108582 -0.32786840018592928 0 0.1602411687519314 -0.31190927739118429 0 0.17151825735526699 -0.31325416760549368 0 0.16791254130802971 -0.3227885891963716 0 0.1602411687519314 -0.31190927739118429 0 0.18787137947787569 -0.35180034780069419 0 0.17662324672053431 -0.35795823269279659 0 0.1910424400336663 -0.37547354736401328 0 0.17662324672053431 -0.35795823269279659 0 0.17035242753357599 -0.36877211446365682 0 0.1910424400336663 -0.37547354736401328 0 0.17035242753357599 -0.36877211446365682 0 0.1910424400336663 -0.37547354736401328 0 0.1737051017910701 -0.38004230502140057 0 0.18787137947787569 -0.35180034780069419 0 0.17202246582593331 -0.34102471865244838 0 0.17662324672053431 -0.35795823269279659 0 0.17202246582593331 -0.34102471865244838 0 0.17662324672053431 -0.35795823269279659 0 0.16265844046108829 -0.35526087104265458 0 0.17202246582593331 -0.34102471865244838 0 0.16265844046108829 -0.35526087104265458 0 0.1546435437787094 -0.34381338892778002 0 0.17662324672053431 -0.35795823269279659 0 0.16265844046108829 -0.35526087104265458 0 0.17035242753357599 -0.36877211446365682 0 0.16265844046108829 -0.35526087104265458 0 0.1569593121701936 -0.36832063090657668 0 0.17035242753357599 -0.36877211446365682 0 0.1569593121701936 -0.36832063090657668 0 0.17035242753357599 -0.36877211446365682 0 0.16307541855137739 -0.37743582412871929 0 0.14536400873927011 -0.3681220756701501 0 0.1426630499740982 -0.35652090160864008 0 0.13524945632583441 -0.37311377610700652 0 0.16265844046108829 -0.35526087104265458 0 0.1569593121701936 -0.36832063090657668 0 0.1426630499740982 -0.35652090160864008 0 0.14536400873927011 -0.3681220756701501 0 0.13524945632583441 -0.37311377610700652 0 0.14973869037300869 -0.38096853745143089 0 0.1569593121701936 -0.36832063090657668 0 0.14536400873927011 -0.3681220756701501 0 0.14973869037300869 -0.38096853745143089 0 0.1569593121701936 -0.36832063090657668 0 0.14536400873927011 -0.3681220756701501 0 0.1426630499740982 -0.35652090160864008 0 0.1546435437787094 -0.34381338892778002 0 0.1426630499740982 -0.35652090160864008 0 0.1424354920479888 -0.33775294740649747 0 0.16265844046108829 -0.35526087104265458 0 0.1546435437787094 -0.34381338892778002 0 0.1426630499740982 -0.35652090160864008 0 0.13449730155472761 -0.34743155680512378 0 0.12784456261830821 -0.36308533366748658 0 0.123981461538115 -0.35128285539313481 0 0.1426630499740982 -0.35652090160864008 0 0.13449730155472761 -0.34743155680512378 0 0.1424354920479888 -0.33775294740649747 0 0.1426630499740982 -0.35652090160864008 0 0.13449730155472761 -0.34743155680512378 0 0.12784456261830821 -0.36308533366748658 0 0.13449730155472761 -0.34743155680512378 0 0.13051916655351839 -0.33696304048325831 0 0.123981461538115 -0.35128285539313481 0 0.1426630499740982 -0.35652090160864008 0 0.12784456261830821 -0.36308533366748658 0 0.13524945632583441 -0.37311377610700652 0 0.12784456261830821 -0.36308533366748658 0 0.13524945632583441 -0.37311377610700652 0 0.12609635470998201 -0.38402791619100712 0 0.14855409589738661 -0.31441038212804873 0 0.1557586906108582 -0.32786840018592928 0 0.1602411687519314 -0.31190927739118429 0 0.1445015266660287 -0.32337949759917511 0 0.14855409589738661 -0.31441038212804873 0 0.13871327718005111 -0.31332369293528212 0 0.1445015266660287 -0.32337949759917511 0 0.14855409589738661 -0.31441038212804873 0 0.1557586906108582 -0.32786840018592928 0 0.1546435437787094 -0.34381338892778002 0 0.1557586906108582 -0.32786840018592928 0 0.1424354920479888 -0.33775294740649747 0 0.1445015266660287 -0.32337949759917511 0 0.1557586906108582 -0.32786840018592928 0 0.1424354920479888 -0.33775294740649747 0 0.1445015266660287 -0.32337949759917511 0 0.1424354920479888 -0.33775294740649747 0 0.13219802669416811 -0.32498852212276208 0 0.1424354920479888 -0.33775294740649747 0 0.13051916655351839 -0.33696304048325831 0 0.13219802669416811 -0.32498852212276208 0 0.13449730155472761 -0.34743155680512378 0 0.1424354920479888 -0.33775294740649747 0 0.13051916655351839 -0.33696304048325831 0 0.13051916655351839 -0.33696304048325831 0 0.13219802669416811 -0.32498852212276208 0 0.12260601330919629 -0.33072698382653798 0 0.1445015266660287 -0.32337949759917511 0 0.13219802669416811 -0.32498852212276208 0 0.13871327718005111 -0.31332369293528212 0 0.13219802669416811 -0.32498852212276208 0 0.1265219532001009 -0.3124330460259736 0 0.1192961391526948 -0.32261879728377291 0 0.13219802669416811 -0.32498852212276208 0 0.13871327718005111 -0.31332369293528212 0 0.1265219532001009 -0.3124330460259736 0 0.1265219532001009 -0.3124330460259736 0 0.1332586495603032 -0.30031372317270688 0 0.1198701537204314 -0.30089140532399938 0 0.1332586495603032 -0.30031372317270688 0 0.1242383748246253 -0.29131174999725179 0 0.1198701537204314 -0.30089140532399938 0 0.13871327718005111 -0.31332369293528212 0 0.1265219532001009 -0.3124330460259736 0 0.1332586495603032 -0.30031372317270688 0 0.13871327718005111 -0.31332369293528212 0 0.1332586495603032 -0.30031372317270688 0 0.147245411062319 -0.30441698656302629 0 0.14855409589738661 -0.31441038212804873 0 0.13871327718005111 -0.31332369293528212 0 0.147245411062319 -0.30441698656302629 0 0.147245411062319 -0.30441698656302629 0 0.15432967412725099 -0.29846298066074151 0 0.14327492933615671 -0.29425024746867751 0 0.1332586495603032 -0.30031372317270688 0 0.147245411062319 -0.30441698656302629 0 0.14327492933615671 -0.29425024746867751 0 0.147245411062319 -0.30441698656302629 0 0.15432967412725099 -0.29846298066074151 0 0.1602411687519314 -0.31190927739118429 0 0.14855409589738661 -0.31441038212804873 0 0.147245411062319 -0.30441698656302629 0 0.1602411687519314 -0.31190927739118429 0 0.15432967412725099 -0.29846298066074151 0 0.1517600770447052 -0.28164214899084639 0 0.14327492933615671 -0.29425024746867751 0 0.1517600770447052 -0.28164214899084639 0 0.14327492933615671 -0.29425024746867751 0 0.13646338677899769 -0.28546266283427663 0 0.1332586495603032 -0.30031372317270688 0 0.14327492933615671 -0.29425024746867751 0 0.13646338677899769 -0.28546266283427663 0 0.1332586495603032 -0.30031372317270688 0 0.13646338677899769 -0.28546266283427663 0 0.1242383748246253 -0.29131174999725179 0 0.13646338677899769 -0.28546266283427663 0 0.1233023238440631 -0.28097148456094378 0 0.1242383748246253 -0.29131174999725179 0 0.1517600770447052 -0.28164214899084639 0 0.13646338677899769 -0.28546266283427663 0 0.1311170075682456 -0.27142576198599933 0 0.1517600770447052 -0.28164214899084639 0 0.1311170075682456 -0.27142576198599933 0 0.1364827709165429 -0.26618641562940759 0 0.13646338677899769 -0.28546266283427663 0 0.1311170075682456 -0.27142576198599933 0 0.1233023238440631 -0.28097148456094378 0 0.1311170075682456 -0.27142576198599933 0 0.1364827709165429 -0.26618641562940759 0 0.1212054647883809 -0.25073068226796852 0 0.1364827709165429 -0.26618641562940759 0 0.13217397618885759 -0.25462043987800831 0 0.1212054647883809 -0.25073068226796852 0 0.1364827709165429 -0.26618641562940759 0 0.1212054647883809 -0.25073068226796852 0 0.1364827709165429 -0.26618641562940759 0 0.13217397618885759 -0.25462043987800831 0 0.14275904560399111 -0.25945725309375861 0 0.13217397618885759 -0.25462043987800831 0 0.1429630926125974 -0.2502577086919005 0 0.14275904560399111 -0.25945725309375861 0 0.1429630926125974 -0.2502577086919005 0 0.16574248336044761 -0.26746108990676593 0 0.1429630926125974 -0.2502577086919005 0 0.15128247879849499 -0.26292486595599002 0 0.16574248336044761 -0.26746108990676593 0 0.1429630926125974 -0.2502577086919005 0 0.16574248336044761 -0.26746108990676593 0 0.16001236861667459 -0.2513654190734112 0 0.1429630926125974 -0.2502577086919005 0 0.14275904560399111 -0.25945725309375861 0 0.15128247879849499 -0.26292486595599002 0 0.1364827709165429 -0.26618641562940759 0 0.14275904560399111 -0.25945725309375861 0 0.15128247879849499 -0.26292486595599002 0 0.1517600770447052 -0.28164214899084639 0 0.1364827709165429 -0.26618641562940759 0 0.15128247879849499 -0.26292486595599002 0 0.1517600770447052 -0.28164214899084639 0 0.15128247879849499 -0.26292486595599002 0 0.15776774232478771 -0.26956647822523339 0 0.1517600770447052 -0.28164214899084639 0 0.1311170075682456 -0.27142576198599933 0 0.1517600770447052 -0.28164214899084639 0 0.1364827709165429 -0.26618641562940759 0 0.1517600770447052 -0.28164214899084639 0 0.16209364730358741 -0.27452888323759039 0 0.16594555478614451 -0.28284233368471318 0 0.1517600770447052 -0.28164214899084639 0 0.16209364730358741 -0.27452888323759039 0 0.15776774232478771 -0.26956647822523339 0 0.16209364730358741 -0.27452888323759039 0 0.15776774232478771 -0.26956647822523339 0 0.16574248336044761 -0.26746108990676593 0 0.15128247879849499 -0.26292486595599002 0 0.15776774232478771 -0.26956647822523339 0 0.16574248336044761 -0.26746108990676593 0 0.16209364730358741 -0.27452888323759039 0 0.16574248336044761 -0.26746108990676593 0 0.16920230535812411 -0.27329149954452342 0 0.16209364730358741 -0.27452888323759039 0 0.16920230535812411 -0.27329149954452342 0 0.16594555478614451 -0.28284233368471318 0 0.16920230535812411 -0.27329149954452342 0 0.1710222018321049 -0.28124575318360368 0 0.16594555478614451 -0.28284233368471318 0 0.16574248336044761 -0.26746108990676593 0 0.16001236861667459 -0.2513654190734112 0 0.16988601458932601 -0.2589500224365659 0 0.16574248336044761 -0.26746108990676593 0 0.16988601458932601 -0.2589500224365659 0 0.17628584543496439 -0.26683535894776161 0 0.16001236861667459 -0.2513654190734112 0 0.16988601458932601 -0.2589500224365659 0 0.16978669848249819 -0.25098739912941831 0 0.1767458594742066 -0.25730285456071711 0 0.17619278994504239 -0.24587918172992959 0 0.18399505531774341 -0.24981832115951039 0 0.16978669848249819 -0.25098739912941831 0 0.1767458594742066 -0.25730285456071711 0 0.17619278994504239 -0.24587918172992959 0 0.16988601458932601 -0.2589500224365659 0 0.16978669848249819 -0.25098739912941831 0 0.1767458594742066 -0.25730285456071711 0 0.16988601458932601 -0.2589500224365659 0 0.1767458594742066 -0.25730285456071711 0 0.17628584543496439 -0.26683535894776161 0 0.1767458594742066 -0.25730285456071711 0 0.17628584543496439 -0.26683535894776161 0 0.1845366839674035 -0.26640487959885623 0 0.1767458594742066 -0.25730285456071711 0 0.18706352147094041 -0.25756661524031438 0 0.1845366839674035 -0.26640487959885623 0 0.1767458594742066 -0.25730285456071711 0 0.18706352147094041 -0.25756661524031438 0 0.18399505531774341 -0.24981832115951039 0 0.18852187410829821 -0.28466447112163068 0 0.17628584543496439 -0.26683535894776161 0 0.1845366839674035 -0.26640487959885623 0 0.18852187410829821 -0.28466447112163068 0 0.16574248336044761 -0.26746108990676593 0 0.18852187410829821 -0.28466447112163068 0 0.16574248336044761 -0.26746108990676593 0 0.17628584543496439 -0.26683535894776161 0 0.16920230535812411 -0.27329149954452342 0 0.18747516626574931 -0.28692639975368628 0 0.17602993407772211 -0.2832030986568283 0 0.18852187410829821 -0.28466447112163068 0 0.16574248336044761 -0.26746108990676593 0 0.16920230535812411 -0.27329149954452342 0 0.16920230535812411 -0.27329149954452342 0 0.18747516626574931 -0.28692639975368628 0 0.16920230535812411 -0.27329149954452342 0 0.1710222018321049 -0.28124575318360368 0 0.17602993407772211 -0.2832030986568283 0 0.18747516626574931 -0.28692639975368628 0 0.1806905449634813 -0.28832929748571318 0 0.17602993407772211 -0.2832030986568283 0 0.18852187410829821 -0.28466447112163068 0 0.16920230535812411 -0.27329149954452342 0 0.18747516626574931 -0.28692639975368628 0 0.18747516626574931 -0.28692639975368628 0 0.1806905449634813 -0.28832929748571318 0 0.18301660310609241 -0.29114958545392738 0 0.17291101310642881 -0.28564608084835003 0 0.17864991096044419 -0.29495009963706692 0 0.16594555478614451 -0.28284233368471318 0 0.1806905449634813 -0.28832929748571318 0 0.17602993407772211 -0.2832030986568283 0 0.17673138357400531 -0.28840876668861409 0 0.17602993407772211 -0.2832030986568283 0 0.17673138357400531 -0.28840876668861409 0 0.17291101310642881 -0.28564608084835003 0 0.1710222018321049 -0.28124575318360368 0 0.17602993407772211 -0.2832030986568283 0 0.17291101310642881 -0.28564608084835003 0 0.17673138357400531 -0.28840876668861409 0 0.17291101310642881 -0.28564608084835003 0 0.17864991096044419 -0.29495009963706692 0 0.17673138357400531 -0.28840876668861409 0 0.17909088347012619 -0.29088019083727579 0 0.17864991096044419 -0.29495009963706692 0 0.1806905449634813 -0.28832929748571318 0 0.17673138357400531 -0.28840876668861409 0 0.17909088347012619 -0.29088019083727579 0 0.17909088347012619 -0.29088019083727579 0 0.17864991096044419 -0.29495009963706692 0 0.18114425154506539 -0.29221912984395187 0 0.18747516626574931 -0.28692639975368628 0 0.18734834214976739 -0.29514628785519947 0 0.1827564496500734 -0.29712351473235832 0 0.18747516626574931 -0.28692639975368628 0 0.18301660310609241 -0.29114958545392738 0 0.1827564496500734 -0.29712351473235832 0 0.18114425154506539 -0.29221912984395187 0 0.18301660310609241 -0.29114958545392738 0 0.1827564496500734 -0.29712351473235832 0 0.17864991096044419 -0.29495009963706692 0 0.18114425154506539 -0.29221912984395187 0 0.1827564496500734 -0.29712351473235832 0 0.18747516626574931 -0.28692639975368628 0 0.1827564496500734 -0.29712351473235832 0 0.1806905449634813 -0.28832929748571318 0 0.18114425154506539 -0.29221912984395187 0 0.18301660310609241 -0.29114958545392738 0 0.1806905449634813 -0.28832929748571318 0 0.17909088347012619 -0.29088019083727579 0 0.18114425154506539 -0.29221912984395187 0 0.18802618722583669 -0.31833181955932999 0 0.18221347423979239 -0.30458962683289892 0 0.1698931321352706 -0.29998698427508858 0 0.1880606218677118 -0.30022154946313712 0 0.18734834214976739 -0.29514628785519947 0 0.1827564496500734 -0.29712351473235832 0 0.19009702279388629 -0.3064242775921906 0 0.1880606218677118 -0.30022154946313712 0 0.18221347423979239 -0.30458962683289892 0 0.18802618722583669 -0.31833181955932999 0 0.17151825735526699 -0.31325416760549368 0 0.1698931321352706 -0.29998698427508858 0 0.1880606218677118 -0.30022154946313712 0 0.18221347423979239 -0.30458962683289892 0 0.1827564496500734 -0.29712351473235832 0 0.18802618722583669 -0.31833181955932999 0 0.1698931321352706 -0.29998698427508858 0 0.17864991096044419 -0.29495009963706692 0 0.1827564496500734 -0.29712351473235832 0 0.17837824174639511 -0.29916255636935318 0 0.18221347423979239 -0.30458962683289892 0 0.1827564496500734 -0.29712351473235832 0 0.17837824174639511 -0.29916255636935318 0 0.19009702279388629 -0.3064242775921906 0 0.18802618722583669 -0.31833181955932999 0 0.18221347423979239 -0.30458962683289892 0 0.18221347423979239 -0.30458962683289892 0 0.17837824174639511 -0.29916255636935318 0 0.1698931321352706 -0.29998698427508858 0 0.17864991096044419 -0.29495009963706692 0 0.17837824174639511 -0.29916255636935318 0 0.1698931321352706 -0.29998698427508858 0 0.17151825735526699 -0.31325416760549368 0 0.1698931321352706 -0.29998698427508858 0 0.1602411687519314 -0.31190927739118429 0 0.15432967412725099 -0.29846298066074151 0 0.1698931321352706 -0.29998698427508858 0 0.1602411687519314 -0.31190927739118429 0 0.1517600770447052 -0.28164214899084639 0 0.17864991096044419 -0.29495009963706692 0 0.1698931321352706 -0.29998698427508858 0 0.1517600770447052 -0.28164214899084639 0 0.1698931321352706 -0.29998698427508858 0 0.15432967412725099 -0.29846298066074151 0 0.1517600770447052 -0.28164214899084639 0 0.1698931321352706 -0.29998698427508858 0 0.1517600770447052 -0.28164214899084639 0 0.17864991096044419 -0.29495009963706692 0 0.1517600770447052 -0.28164214899084639 0 0.17864991096044419 -0.29495009963706692 0 0.16594555478614451 -0.28284233368471318 0 0.1710222018321049 -0.28124575318360368 0 0.17291101310642881 -0.28564608084835003 0 0.16594555478614451 -0.28284233368471318 0 0.21438456257476449 -0.5 0 0.2048745361024723 -0.48472171768082351 0 0.18744203257390391 -0.5 0 0.19122796324104871 -0.48466606029959602 0 0.2048745361024723 -0.48472171768082351 0 0.18744203257390391 -0.5 0 0.19122796324104871 -0.48466606029959602 0 0.20365346230900849 -0.47086657296764728 0 0.1938641377332887 -0.4633108835168005 0 0.19122796324104871 -0.48466606029959602 0 0.20365346230900849 -0.47086657296764728 0 0.2048745361024723 -0.48472171768082351 0 0.21766866328091511 -0.47157360957620892 0 0.2048745361024723 -0.48472171768082351 0 0.22288060450936709 -0.48400008360299168 0 0.20365346230900849 -0.47086657296764728 0 0.21766866328091511 -0.47157360957620892 0 0.2048745361024723 -0.48472171768082351 0 0.21438456257476449 -0.5 0 0.2048745361024723 -0.48472171768082351 0 0.22288060450936709 -0.48400008360299168 0 0.21438456257476449 -0.5 0 0.23633351028628971 -0.48712361601618398 0 0.2413270925756249 -0.5 0 0.21438456257476449 -0.5 0 0.23633351028628971 -0.48712361601618398 0 0.22288060450936709 -0.48400008360299168 0 0.25270961841775552 -0.48460016746525392 0 0.23633351028628971 -0.48712361601618398 0 0.2413270925756249 -0.5 0 0.25270961841775552 -0.48460016746525392 0 0.23633351028628971 -0.48712361601618398 0 0.23949561189523169 -0.47426551941090739 0 0.23949561189523169 -0.47426551941090739 0 0.22288060450936709 -0.48400008360299168 0 0.22545312399173489 -0.46028769725088831 0 0.21766866328091511 -0.47157360957620892 0 0.22288060450936709 -0.48400008360299168 0 0.22545312399173489 -0.46028769725088831 0 0.23633351028628971 -0.48712361601618398 0 0.23949561189523169 -0.47426551941090739 0 0.22288060450936709 -0.48400008360299168 0 0.22288060450936709 -0.48400008360299168 0 0.22545312399173489 -0.46028769725088831 0 0.21766866328091511 -0.47157360957620892 0 0.22545312399173489 -0.46028769725088831 0 0.2186728293425339 -0.44755637628226819 0 0.2588368117714554 -0.46700690363883102 0 0.23949561189523169 -0.47426551941090739 0 0.2409729068143365 -0.46262444708906358 0 0.22545312399173489 -0.46028769725088831 0 0.2409729068143365 -0.46262444708906358 0 0.24480843210435321 -0.45079661158300749 0 0.2588368117714554 -0.46700690363883102 0 0.2409729068143365 -0.46262444708906358 0 0.24480843210435321 -0.45079661158300749 0 0.23949561189523169 -0.47426551941090739 0 0.22545312399173489 -0.46028769725088831 0 0.2409729068143365 -0.46262444708906358 0 0.24480843210435321 -0.45079661158300749 0 0.22802564347410281 -0.43657531089878487 0 0.2418992233321238 -0.43333026798624508 0 0.25513396950241118 -0.43290986753561628 0 0.24480843210435321 -0.45079661158300749 0 0.2418992233321238 -0.43333026798624508 0 0.22545312399173489 -0.46028769725088831 0 0.22802564347410281 -0.43657531089878487 0 0.2186728293425339 -0.44755637628226819 0 0.21246462128442831 -0.43168381348743168 0 0.22802564347410281 -0.43657531089878487 0 0.22545312399173489 -0.46028769725088831 0 0.2186728293425339 -0.44755637628226819 0 0.22802564347410281 -0.43657531089878487 0 0.22545312399173489 -0.46028769725088831 0 0.24480843210435321 -0.45079661158300749 0 0.22802564347410281 -0.43657531089878487 0 0.20442019459899149 -0.44533796874460208 0 0.2186728293425339 -0.44755637628226819 0 0.21246462128442831 -0.43168381348743168 0 0.21766866328091511 -0.47157360957620892 0 0.20442019459899149 -0.44533796874460208 0 0.21766866328091511 -0.47157360957620892 0 0.20442019459899149 -0.44533796874460208 0 0.2186728293425339 -0.44755637628226819 0 0.20365346230900849 -0.47086657296764728 0 0.21766866328091511 -0.47157360957620892 0 0.20442019459899149 -0.44533796874460208 0 0.20365346230900849 -0.47086657296764728 0 0.20442019459899149 -0.44533796874460208 0 0.1938641377332887 -0.4633108835168005 0 0.20442019459899149 -0.44533796874460208 0 0.18484232774876749 -0.43033534366960768 0 0.18590039067086719 -0.44115637567916172 0 0.20442019459899149 -0.44533796874460208 0 0.18923595964957429 -0.45067509688328122 0 0.18590039067086719 -0.44115637567916172 0 0.20442019459899149 -0.44533796874460208 0 0.1938641377332887 -0.4633108835168005 0 0.18923595964957429 -0.45067509688328122 0 0.20442019459899149 -0.44533796874460208 0 0.1911717259170673 -0.41910232791299562 0 0.20473537155931409 -0.42802668409371708 0 0.20442019459899149 -0.44533796874460208 0 0.1911717259170673 -0.41910232791299562 0 0.20442019459899149 -0.44533796874460208 0 0.1911717259170673 -0.41910232791299562 0 0.18484232774876749 -0.43033534366960768 0 0.1911717259170673 -0.41910232791299562 0 0.21088494443676881 -0.41598262622983972 0 0.20473537155931409 -0.42802668409371708 0 0.18851111772050869 -0.41383358608972459 0 0.208966154163157 -0.40126827473642579 0 0.1911717259170673 -0.41910232791299562 0 0.21088494443676881 -0.41598262622983972 0 0.1911717259170673 -0.41910232791299562 0 0.18851111772050869 -0.41383358608972459 0 0.21088494443676881 -0.41598262622983972 0 0.18851111772050869 -0.41383358608972459 0 0.21088494443676881 -0.41598262622983972 0 0.208966154163157 -0.40126827473642579 0 0.1911717259170673 -0.41910232791299562 0 0.18851111772050869 -0.41383358608972459 0 0.21088494443676881 -0.41598262622983972 0 0.22155668588658281 -0.40529615173032069 0 0.208966154163157 -0.40126827473642579 0 0.21088494443676881 -0.41598262622983972 0 0.20473537155931409 -0.42802668409371708 0 0.21246462128442831 -0.43168381348743168 0 0.21088494443676881 -0.41598262622983972 0 0.21246462128442831 -0.43168381348743168 0 0.21959695705502991 -0.42408781639437282 0 0.20442019459899149 -0.44533796874460208 0 0.20473537155931409 -0.42802668409371708 0 0.21246462128442831 -0.43168381348743168 0 0.21246462128442831 -0.43168381348743168 0 0.21959695705502991 -0.42408781639437282 0 0.22802564347410281 -0.43657531089878487 0 0.22802564347410281 -0.43657531089878487 0 0.23614533994983331 -0.4244462479719151 0 0.23059816295646979 -0.4128629245466815 0 0.22802564347410281 -0.43657531089878487 0 0.23059816295646979 -0.4128629245466815 0 0.21959695705502991 -0.42408781639437282 0 0.22802564347410281 -0.43657531089878487 0 0.23059816295646979 -0.4128629245466815 0 0.22802564347410281 -0.43657531089878487 0 0.2418992233321238 -0.43333026798624508 0 0.23614533994983331 -0.4244462479719151 0 0.2418992233321238 -0.43333026798624508 0 0.23614533994983331 -0.4244462479719151 0 0.2453827316299185 -0.42192330194190181 0 0.25513396950241118 -0.43290986753561628 0 0.2418992233321238 -0.43333026798624508 0 0.2453827316299185 -0.42192330194190181 0 0.256136481120742 -0.41447562176841068 0 0.2453827316299185 -0.42192330194190181 0 0.24629253832767661 -0.41022035877505542 0 0.2453827316299185 -0.42192330194190181 0 0.24629253832767661 -0.41022035877505542 0 0.2366098857920339 -0.41191154353144788 0 0.23614533994983331 -0.4244462479719151 0 0.2366098857920339 -0.41191154353144788 0 0.23059816295646979 -0.4128629245466815 0 0.23614533994983331 -0.4244462479719151 0 0.2453827316299185 -0.42192330194190181 0 0.2366098857920339 -0.41191154353144788 0 0.24629253832767661 -0.41022035877505542 0 0.2366098857920339 -0.41191154353144788 0 0.2422505545635501 -0.40276464775944387 0 0.21088494443676881 -0.41598262622983972 0 0.23059816295646979 -0.4128629245466815 0 0.2366098857920339 -0.41191154353144788 0 0.23059816295646979 -0.4128629245466815 0 0.23156745731421779 -0.4039283829592023 0 0.23059816295646979 -0.4128629245466815 0 0.22155668588658281 -0.40529615173032069 0 0.23156745731421779 -0.4039283829592023 0 0.23059816295646979 -0.4128629245466815 0 0.23156745731421779 -0.4039283829592023 0 0.21088494443676881 -0.41598262622983972 0 0.23059816295646979 -0.4128629245466815 0 0.22155668588658281 -0.40529615173032069 0 0.21088494443676881 -0.41598262622983972 0 0.21959695705502991 -0.42408781639437282 0 0.23059816295646979 -0.4128629245466815 0 0.2366098857920339 -0.41191154353144788 0 0.23059816295646979 -0.4128629245466815 0 0.22155668588658281 -0.40529615173032069 0 0.22942119060580499 -0.38870296338312649 0 0.208966154163157 -0.40126827473642579 0 0.22155668588658281 -0.40529615173032069 0 0.23156745731421779 -0.4039283829592023 0 0.22942119060580499 -0.38870296338312649 0 0.22942119060580499 -0.38870296338312649 0 0.208966154163157 -0.40126827473642579 0 0.23156745731421779 -0.4039283829592023 0 0.24309899287842279 -0.39271330151873202 0 0.2422505545635501 -0.40276464775944387 0 0.2366098857920339 -0.41191154353144788 0 0.23156745731421779 -0.4039283829592023 0 0.2422505545635501 -0.40276464775944387 0 0.23156745731421779 -0.4039283829592023 0 0.24309899287842279 -0.39271330151873202 0 0.22942119060580499 -0.38870296338312649 0 0.25108303853213881 -0.40002667887407228 0 0.24629253832767661 -0.41022035877505542 0 0.2422505545635501 -0.40276464775944387 0 0.25108303853213881 -0.40002667887407228 0 0.24309899287842279 -0.39271330151873202 0 0.2422505545635501 -0.40276464775944387 0 0.24987622704845311 -0.37613765202982719 0 0.22942119060580499 -0.38870296338312649 0 0.24309899287842279 -0.39271330151873202 0 0.24987622704845311 -0.37613765202982719 0 0.22942119060580499 -0.38870296338312649 0 0.24987622704845311 -0.37613765202982719 0 0.23474048966473349 -0.38137370792841258 0 0.22942119060580499 -0.38870296338312649 0 0.25687819372407023 -0.38903915957053298 0 0.24309899287842279 -0.39271330151873202 0 0.24987622704845311 -0.37613765202982719 0 0.23679608458568241 -0.3713456781615978 0 0.24987622704845311 -0.37613765202982719 0 0.23474048966473349 -0.38137370792841258 0 0.23474048966473349 -0.38137370792841258 0 0.23010576568282681 -0.37607478874810818 0 0.22189277223980711 -0.38054577212349588 0 0.23474048966473349 -0.38137370792841258 0 0.22189277223980711 -0.38054577212349588 0 0.20961824525516401 -0.3936281247522696 0 0.23474048966473349 -0.38137370792841258 0 0.22942119060580499 -0.38870296338312649 0 0.20961824525516401 -0.3936281247522696 0 0.23679608458568241 -0.3713456781615978 0 0.23474048966473349 -0.38137370792841258 0 0.23010576568282681 -0.37607478874810818 0 0.23474048966473349 -0.38137370792841258 0 0.20961824525516401 -0.3936281247522696 0 0.22699371624108439 -0.37103399677892651 0 0.23010576568282681 -0.37607478874810818 0 0.22189277223980711 -0.38054577212349588 0 0.21663927632257499 -0.37152038636996992 0 0.22189277223980711 -0.38054577212349588 0 0.21119602619295649 -0.38157571206759561 0 0.21663927632257499 -0.37152038636996992 0 0.21119602619295649 -0.38157571206759561 0 0.20576161095015591 -0.37595213443190167 0 0.21119602619295649 -0.38157571206759561 0 0.20576161095015591 -0.37595213443190167 0 0.20229958674085519 -0.38616776423662919 0 0.21119602619295649 -0.38157571206759561 0 0.20961824525516401 -0.3936281247522696 0 0.20229958674085519 -0.38616776423662919 0 0.22189277223980711 -0.38054577212349588 0 0.21119602619295649 -0.38157571206759561 0 0.20961824525516401 -0.3936281247522696 0 0.22942119060580499 -0.38870296338312649 0 0.208966154163157 -0.40126827473642579 0 0.20961824525516401 -0.3936281247522696 0 0.20961824525516401 -0.3936281247522696 0 0.18449600084559339 -0.40588254157612419 0 0.20961824525516401 -0.3936281247522696 0 0.19262774622386039 -0.39991289132556063 0 0.20229958674085519 -0.38616776423662919 0 0.18851111772050869 -0.41383358608972459 0 0.20961824525516401 -0.3936281247522696 0 0.18449600084559339 -0.40588254157612419 0 0.19262774622386039 -0.39991289132556063 0 0.193172237845981 -0.38760648281860499 0 0.20229958674085519 -0.38616776423662919 0 0.20961824525516401 -0.3936281247522696 0 0.19262774622386039 -0.39991289132556063 0 0.18449600084559339 -0.40588254157612419 0 0.18851111772050869 -0.41383358608972459 0 0.208966154163157 -0.40126827473642579 0 0.20961824525516401 -0.3936281247522696 0 0.19262774622386039 -0.39991289132556063 0 0.18963514604776821 -0.39361523539988952 0 0.193172237845981 -0.38760648281860499 0 0.19262774622386039 -0.39991289132556063 0 0.18963514604776821 -0.39361523539988952 0 0.18221634088723479 -0.40136818287387582 0 0.18963514604776821 -0.39361523539988952 0 0.193172237845981 -0.38760648281860499 0 0.18267650324237161 -0.39405502657648112 0 0.193172237845981 -0.38760648281860499 0 0.1910424400336663 -0.37547354736401328 0 0.18267650324237161 -0.39405502657648112 0 0.20576161095015591 -0.37595213443190167 0 0.1910424400336663 -0.37547354736401328 0 0.20229958674085519 -0.38616776423662919 0 0.193172237845981 -0.38760648281860499 0 0.1910424400336663 -0.37547354736401328 0 0.20229958674085519 -0.38616776423662919 0 0.1910424400336663 -0.37547354736401328 0 0.17822948803450961 -0.38676940160015832 0 0.1737051017910701 -0.38004230502140057 0 0.1910424400336663 -0.37547354736401328 0 0.18267650324237161 -0.39405502657648112 0 0.1910424400336663 -0.37547354736401328 0 0.17822948803450961 -0.38676940160015832 0 0.18267650324237161 -0.39405502657648112 0 0.17822948803450961 -0.38676940160015832 0 0.17910183421640119 -0.39520059623836468 0 0.1646215608890387 -0.38907553280053181 0 0.17822948803450961 -0.38676940160015832 0 0.1737051017910701 -0.38004230502140057 0 0.1646215608890387 -0.38907553280053181 0 0.17822948803450961 -0.38676940160015832 0 0.18267650324237161 -0.39405502657648112 0 0.17910183421640119 -0.39520059623836468 0 0.18221634088723479 -0.40136818287387582 0 0.17910183421640119 -0.39520059623836468 0 0.15805845094365739 -0.40474493864538458 0 0.18963514604776821 -0.39361523539988952 0 0.18267650324237161 -0.39405502657648112 0 0.18221634088723479 -0.40136818287387582 0 0.18267650324237161 -0.39405502657648112 0 0.18221634088723479 -0.40136818287387582 0 0.17910183421640119 -0.39520059623836468 0 0.18221634088723479 -0.40136818287387582 0 0.17910183421640119 -0.39520059623836468 0 0.19262774622386039 -0.39991289132556063 0 0.18221634088723479 -0.40136818287387582 0 0.19262774622386039 -0.39991289132556063 0 0.18449600084559339 -0.40588254157612419 0 0.18221634088723479 -0.40136818287387582 0 0.18449600084559339 -0.40588254157612419 0 0.18221634088723479 -0.40136818287387582 0 0.17910183421640119 -0.39520059623836468 0 0.15805845094365739 -0.40474493864538458 0 0.1646215608890387 -0.38907553280053181 0 0.18221634088723479 -0.40136818287387582 0 0.15805845094365739 -0.40474493864538458 0 0.15805845094365739 -0.40474493864538458 0 0.1646215608890387 -0.38907553280053181 0 0.14706277844018539 -0.39464292458295508 0 0.1737051017910701 -0.38004230502140057 0 0.1646215608890387 -0.38907553280053181 0 0.16307541855137739 -0.37743582412871929 0 0.17035242753357599 -0.36877211446365682 0 0.1737051017910701 -0.38004230502140057 0 0.16307541855137739 -0.37743582412871929 0 0.1569593121701936 -0.36832063090657668 0 0.16307541855137739 -0.37743582412871929 0 0.14973869037300869 -0.38096853745143089 0 0.1646215608890387 -0.38907553280053181 0 0.16307541855137739 -0.37743582412871929 0 0.14973869037300869 -0.38096853745143089 0 0.1646215608890387 -0.38907553280053181 0 0.14973869037300869 -0.38096853745143089 0 0.14706277844018539 -0.39464292458295508 0 0.14973869037300869 -0.38096853745143089 0 0.1375772795987745 -0.38493757303029391 0 0.14706277844018539 -0.39464292458295508 0 0.13524945632583441 -0.37311377610700652 0 0.14973869037300869 -0.38096853745143089 0 0.1375772795987745 -0.38493757303029391 0 0.13524945632583441 -0.37311377610700652 0 0.1375772795987745 -0.38493757303029391 0 0.12609635470998201 -0.38402791619100712 0 0.1375772795987745 -0.38493757303029391 0 0.12609635470998201 -0.38402791619100712 0 0.13569313113510631 -0.39589912548093298 0 0.12645644117523869 -0.39722706905544619 0 0.13569313113510631 -0.39589912548093298 0 0.1339005610000801 -0.40812169441689322 0 0.12645644117523869 -0.39722706905544619 0 0.1339005610000801 -0.40812169441689322 0 0.1250254850364893 -0.40936224001308058 0 0.12609635470998201 -0.38402791619100712 0 0.12645644117523869 -0.39722706905544619 0 0.13569313113510631 -0.39589912548093298 0 0.1375772795987745 -0.38493757303029391 0 0.13569313113510631 -0.39589912548093298 0 0.14706277844018539 -0.39464292458295508 0 0.13569313113510631 -0.39589912548093298 0 0.14706277844018539 -0.39464292458295508 0 0.1339005610000801 -0.40812169441689322 0 0.13569313113510631 -0.39589912548093298 0 0.1339005610000801 -0.40812169441689322 0 0.15805845094365739 -0.40474493864538458 0 0.14706277844018539 -0.39464292458295508 0 0.1339005610000801 -0.40812169441689322 0 0.15805845094365739 -0.40474493864538458 0 0.1339005610000801 -0.40812169441689322 0 0.15805845094365739 -0.40474493864538458 0 0.15398562739609989 -0.414436145328195 0 0.14500783119440661 -0.41410657591589572 0 0.15805845094365739 -0.40474493864538458 0 0.14500783119440661 -0.41410657591589572 0 0.1339005610000801 -0.40812169441689322 0 0.15398562739609989 -0.414436145328195 0 0.15088002640467921 -0.42009116626417142 0 0.14500783119440661 -0.41410657591589572 0 0.15088002640467921 -0.42009116626417142 0 0.15979138776423191 -0.42406840149736191 0 0.15636365466176849 -0.41960526040447821 0 0.15398562739609989 -0.414436145328195 0 0.15088002640467921 -0.42009116626417142 0 0.15636365466176849 -0.41960526040447821 0 0.15088002640467921 -0.42009116626417142 0 0.14500783119440661 -0.41410657591589572 0 0.14354831806896931 -0.42663893719234869 0 0.14500783119440661 -0.41410657591589572 0 0.1339005610000801 -0.40812169441689322 0 0.13212255532719441 -0.42024495614079282 0 0.14500783119440661 -0.41410657591589572 0 0.13212255532719441 -0.42024495614079282 0 0.14354831806896931 -0.42663893719234869 0 0.1339005610000801 -0.40812169441689322 0 0.13212255532719441 -0.42024495614079282 0 0.13212255532719441 -0.42024495614079282 0 0.1250254850364893 -0.40936224001308058 0 0.117866085899093 -0.41583132647739651 0 0.13212255532719441 -0.42024495614079282 0 0.1250254850364893 -0.40936224001308058 0 0.1339005610000801 -0.40812169441689322 0 0.13212255532719441 -0.42024495614079282 0 0.1250254850364893 -0.40936224001308058 0 0.1339005610000801 -0.40812169441689322 0 0.1250254850364893 -0.40936224001308058 0 0.13212255532719441 -0.42024495614079282 0 0.14354831806896931 -0.42663893719234869 0 0.1460535583969573 -0.44160689079445481 0 0.13212255532719441 -0.42024495614079282 0 0.128223579302082 -0.44682997076052833 0 0.13212255532719441 -0.42024495614079282 0 0.128223579302082 -0.44682997076052833 0 0.1159996351348133 -0.43474120747525058 0 0.13212255532719441 -0.42024495614079282 0 0.1460535583969573 -0.44160689079445481 0 0.13212255532719441 -0.42024495614079282 0 0.1460535583969573 -0.44160689079445481 0 0.128223579302082 -0.44682997076052833 0 0.15088002640467921 -0.42009116626417142 0 0.14354831806896931 -0.42663893719234869 0 0.15979138776423191 -0.42406840149736191 0 0.14354831806896931 -0.42663893719234869 0 0.15979138776423191 -0.42406840149736191 0 0.14354831806896931 -0.42663893719234869 0 0.15423293294423909 -0.43386412417913311 0 0.1460535583969573 -0.44160689079445481 0 0.14354831806896931 -0.42663893719234869 0 0.15423293294423909 -0.43386412417913311 0 0.15979138776423191 -0.42406840149736191 0 0.15423293294423909 -0.43386412417913311 0 0.16088991666547389 -0.43196094602310392 0 0.16557730454712019 -0.44172028084172121 0 0.1713980071398 -0.42434598792645378 0 0.15979138776423191 -0.42406840149736191 0 0.1760344574594947 -0.42149786580237669 0 0.15423293294423909 -0.43386412417913311 0 0.16088991666547389 -0.43196094602310392 0 0.15979138776423191 -0.42406840149736191 0 0.15979138776423191 -0.42406840149736191 0 0.1760344574594947 -0.42149786580237669 0 0.16626302434537371 -0.43076979168845952 0 0.17509911994716071 -0.43336510097506958 0 0.16557730454712019 -0.44172028084172121 0 0.16088991666547389 -0.43196094602310392 0 0.16626302434537371 -0.43076979168845952 0 0.16557730454712019 -0.44172028084172121 0 0.16626302434537371 -0.43076979168845952 0 0.1713980071398 -0.42434598792645378 0 0.17509911994716071 -0.43336510097506958 0 0.16626302434537371 -0.43076979168845952 0 0.1713980071398 -0.42434598792645378 0 0.15979138776423191 -0.42406840149736191 0 0.16088991666547389 -0.43196094602310392 0 0.16626302434537371 -0.43076979168845952 0 0.15979138776423191 -0.42406840149736191 0 0.15636365466176849 -0.41960526040447821 0 0.16176651730702801 -0.41283252991975622 0 0.17042982775368151 -0.41274390099030239 0 0.18221634088723479 -0.40136818287387582 0 0.15805845094365739 -0.40474493864538458 0 0.17042982775368151 -0.41274390099030239 0 0.15979138776423191 -0.42406840149736191 0 0.15636365466176849 -0.41960526040447821 0 0.17042982775368151 -0.41274390099030239 0 0.15636365466176849 -0.41960526040447821 0 0.17042982775368151 -0.41274390099030239 0 0.15979138776423191 -0.42406840149736191 0 0.17042982775368151 -0.41274390099030239 0 0.1760344574594947 -0.42149786580237669 0 0.15398562739609989 -0.414436145328195 0 0.15636365466176849 -0.41960526040447821 0 0.16176651730702801 -0.41283252991975622 0 0.15805845094365739 -0.40474493864538458 0 0.15398562739609989 -0.414436145328195 0 0.16176651730702801 -0.41283252991975622 0 0.15805845094365739 -0.40474493864538458 0 0.16176651730702801 -0.41283252991975622 0 0.17042982775368151 -0.41274390099030239 0 0.17042982775368151 -0.41274390099030239 0 0.1760344574594947 -0.42149786580237669 0 0.17986785094481991 -0.4134894736146324 0 0.18449600084559339 -0.40588254157612419 0 0.17042982775368151 -0.41274390099030239 0 0.18449600084559339 -0.40588254157612419 0 0.18221634088723479 -0.40136818287387582 0 0.17042982775368151 -0.41274390099030239 0 0.18449600084559339 -0.40588254157612419 0 0.17042982775368151 -0.41274390099030239 0 0.17986785094481991 -0.4134894736146324 0 0.18851111772050869 -0.41383358608972459 0 0.18449600084559339 -0.40588254157612419 0 0.18851111772050869 -0.41383358608972459 0 0.18449600084559339 -0.40588254157612419 0 0.17986785094481991 -0.4134894736146324 0 0.18851111772050869 -0.41383358608972459 0 0.1760344574594947 -0.42149786580237669 0 0.1911717259170673 -0.41910232791299562 0 0.1760344574594947 -0.42149786580237669 0 0.18851111772050869 -0.41383358608972459 0 0.1760344574594947 -0.42149786580237669 0 0.17986785094481991 -0.4134894736146324 0 0.1911717259170673 -0.41910232791299562 0 0.18851111772050869 -0.41383358608972459 0 0.1760344574594947 -0.42149786580237669 0 0.1911717259170673 -0.41910232791299562 0 0.1760344574594947 -0.42149786580237669 0 0.18484232774876749 -0.43033534366960768 0 0.18484232774876749 -0.43033534366960768 0 0.17509911994716071 -0.43336510097506958 0 0.18590039067086719 -0.44115637567916172 0 0.18484232774876749 -0.43033534366960768 0 0.17509911994716071 -0.43336510097506958 0 0.17653319474121221 -0.42750765242104072 0 0.1713980071398 -0.42434598792645378 0 0.17509911994716071 -0.43336510097506958 0 0.17653319474121221 -0.42750765242104072 0 0.1760344574594947 -0.42149786580237669 0 0.18484232774876749 -0.43033534366960768 0 0.17653319474121221 -0.42750765242104072 0 0.1713980071398 -0.42434598792645378 0 0.1760344574594947 -0.42149786580237669 0 0.17653319474121221 -0.42750765242104072 0 0.1713980071398 -0.42434598792645378 0 0.1760344574594947 -0.42149786580237669 0 0.17791556380287959 -0.4455361086535346 0 0.17376504419967539 -0.46076368888843938 0 0.16557730454712019 -0.44172028084172121 0 0.17509911994716071 -0.43336510097506958 0 0.17791556380287959 -0.4455361086535346 0 0.18590039067086719 -0.44115637567916172 0 0.17509911994716071 -0.43336510097506958 0 0.17791556380287959 -0.4455361086535346 0 0.16557730454712019 -0.44172028084172121 0 0.18923595964957429 -0.45067509688328122 0 0.17791556380287959 -0.4455361086535346 0 0.18590039067086719 -0.44115637567916172 0 0.18923595964957429 -0.45067509688328122 0 0.17791556380287959 -0.4455361086535346 0 0.17376504419967539 -0.46076368888843938 0 0.1938641377332887 -0.4633108835168005 0 0.18923595964957429 -0.45067509688328122 0 0.17376504419967539 -0.46076368888843938 0 0.1938641377332887 -0.4633108835168005 0 0.17376504419967539 -0.46076368888843938 0 0.17718182015316611 -0.48165544175840053 0 0.17376504419967539 -0.46076368888843938 0 0.15550290350416551 -0.45157236434768988 0 0.1539044029471725 -0.46809795184702829 0 0.17376504419967539 -0.46076368888843938 0 0.16557730454712019 -0.44172028084172121 0 0.15550290350416551 -0.45157236434768988 0 0.15423293294423909 -0.43386412417913311 0 0.16557730454712019 -0.44172028084172121 0 0.15550290350416551 -0.45157236434768988 0 0.15423293294423909 -0.43386412417913311 0 0.15550290350416551 -0.45157236434768988 0 0.1460535583969573 -0.44160689079445481 0 0.15550290350416551 -0.45157236434768988 0 0.1460535583969573 -0.44160689079445481 0 0.14153074802588431 -0.45654190970348868 0 0.1460535583969573 -0.44160689079445481 0 0.128223579302082 -0.44682997076052833 0 0.14153074802588431 -0.45654190970348868 0 0.128223579302082 -0.44682997076052833 0 0.12432460327697011 -0.47341498538026422 0 0.128223579302082 -0.44682997076052833 0 0.14153074802588431 -0.45654190970348868 0 0.12432460327697011 -0.47341498538026422 0 0.1539044029471725 -0.46809795184702829 0 0.14153074802588431 -0.45654190970348868 0 0.12432460327697011 -0.47341498538026422 0 0.15550290350416551 -0.45157236434768988 0 0.1539044029471725 -0.46809795184702829 0 0.14153074802588431 -0.45654190970348868 0 0.1539044029471725 -0.46809795184702829 0 0.15048103374274721 -0.48484579871078243 0 0.12432460327697011 -0.47341498538026422 0 0.1404625649124509 -0.5 0 0.15048103374274721 -0.48484579871078243 0 0.12432460327697011 -0.47341498538026422 0 0.1404625649124509 -0.5 0 0.12042562725185831 -0.49999999999999989 0 0.12432460327697011 -0.47341498538026422 0 0.1404625649124509 -0.5 0 0.15048103374274721 -0.48484579871078243 0 0.16049950257304349 -0.50000000000000033 0 0.16049950257304349 -0.50000000000000033 0 0.17718182015316611 -0.48165544175840053 0 0.15048103374274721 -0.48484579871078243 0 0.16049950257304349 -0.50000000000000033 0 0.17718182015316611 -0.48165544175840053 0 0.17376504419967539 -0.46076368888843938 0 0.1539044029471725 -0.46809795184702829 0 0.17718182015316611 -0.48165544175840053 0 0.1539044029471725 -0.46809795184702829 0 0.15048103374274721 -0.48484579871078243 0 0.17718182015316611 -0.48165544175840053 0 0.1938641377332887 -0.4633108835168005 0 0.17718182015316611 -0.48165544175840053 0 0.19122796324104871 -0.48466606029959602 0 0.1938641377332887 -0.4633108835168005 0 0.17718182015316611 -0.48165544175840053 0 0.16049950257304349 -0.50000000000000033 0 0.17718182015316611 -0.48165544175840053 0 0.18744203257390391 -0.5 0 0.19122796324104871 -0.48466606029959602 0 0.17718182015316611 -0.48165544175840053 0 0.18744203257390391 -0.5 0 0.072018957471098571 -0.48629524479662273 0 0.069142552082564368 -0.5 0 0.082735946582200875 -0.4892045976485363 0 0.072018957471098571 -0.48629524479662273 0 0.079568506083734697 -0.4785915255016745 0 0.082735946582200875 -0.4892045976485363 0 0.072018957471098571 -0.48629524479662273 0 0.062670741706174135 -0.48944359682069549 0 0.064881374578912687 -0.4815757870058418 0 0.072018957471098571 -0.48629524479662273 0 0.069142552082564368 -0.5 0 0.062670741706174135 -0.48944359682069549 0 0.073180054077148754 -0.46968413697177741 0 0.079568506083734697 -0.4785915255016745 0 0.081395248040860374 -0.46160025678040811 0 0.067447632246636219 -0.45716428258124142 0 0.05849497948899289 -0.47642287528831911 0 0.061758178687080389 -0.47580514524370598 0 0.072018957471098571 -0.48629524479662273 0 0.064881374578912687 -0.4815757870058418 0 0.070673492561877091 -0.4782128222507579 0 0.064881374578912687 -0.4815757870058418 0 0.066280053791524171 -0.47680462027284459 0 0.061758178687080389 -0.47580514524370598 0 0.064881374578912687 -0.4815757870058418 0 0.066280053791524171 -0.47680462027284459 0 0.070673492561877091 -0.4782128222507579 0 0.066280053791524171 -0.47680462027284459 0 0.067807169338226503 -0.47162472659107291 0 0.061758178687080389 -0.47580514524370598 0 0.066280053791524171 -0.47680462027284459 0 0.067807169338226503 -0.47162472659107291 0 0.070673492561877091 -0.4782128222507579 0 0.067807169338226503 -0.47162472659107291 0 0.073180054077148754 -0.46968413697177741 0 0.070673492561877091 -0.4782128222507579 0 0.073180054077148754 -0.46968413697177741 0 0.070673492561877091 -0.4782128222507579 0 0.079568506083734697 -0.4785915255016745 0 0.072018957471098571 -0.48629524479662273 0 0.070673492561877091 -0.4782128222507579 0 0.079568506083734697 -0.4785915255016745 0 0.096876661376123455 -0.48080012839020431 0 0.081395248040860374 -0.46160025678040811 0 0.096876661376123455 -0.48080012839020431 0 0.095349939854524335 -0.46404107218864848 0 0.081395248040860374 -0.46160025678040811 0 0.079568506083734697 -0.4785915255016745 0 0.082735946582200875 -0.4892045976485363 0 0.096876661376123455 -0.48080012839020431 0 0.079568506083734697 -0.4785915255016745 0 0.096876661376123455 -0.48080012839020431 0 0.081395248040860374 -0.46160025678040811 0 0.090750313396975479 -0.5 0 0.082735946582200875 -0.4892045976485363 0 0.096876661376123455 -0.48080012839020431 0 0.069142552082564368 -0.5 0 0.090750313396975479 -0.5 0 0.082735946582200875 -0.4892045976485363 0 0.1123580747113867 -0.50000000000000033 0 0.1124728586670535 -0.48406595427175642 0 0.096876661376123455 -0.48080012839020431 0 0.090750313396975479 -0.5 0 0.1123580747113867 -0.50000000000000033 0 0.096876661376123455 -0.48080012839020431 0 0.1123580747113867 -0.50000000000000033 0 0.096876661376123455 -0.48080012839020431 0 0.1123580747113867 -0.50000000000000033 0 0.12042562725185831 -0.49999999999999989 0 0.1124728586670535 -0.48406595427175642 0 0.12042562725185831 -0.49999999999999989 0 0.1124728586670535 -0.48406595427175642 0 0.12432460327697011 -0.47341498538026422 0 0.12042562725185831 -0.49999999999999989 0 0.12432460327697011 -0.47341498538026422 0 0.1124728586670535 -0.48406595427175642 0 0.12432460327697011 -0.47341498538026422 0 0.1082250197838846 -0.46311527911574241 0 0.096876661376123455 -0.48080012839020431 0 0.095349939854524335 -0.46404107218864848 0 0.1082250197838846 -0.46311527911574241 0 0.1124728586670535 -0.48406595427175642 0 0.096876661376123455 -0.48080012839020431 0 0.1082250197838846 -0.46311527911574241 0 0.095349939854524335 -0.46404107218864848 0 0.1082250197838846 -0.46311527911574241 0 0.094902830217228867 -0.45064862446823939 0 0.128223579302082 -0.44682997076052833 0 0.12432460327697011 -0.47341498538026422 0 0.1082250197838846 -0.46311527911574241 0 0.128223579302082 -0.44682997076052833 0 0.1069391861142964 -0.44299064961396012 0 0.1159996351348133 -0.43474120747525058 0 0.128223579302082 -0.44682997076052833 0 0.1082250197838846 -0.46311527911574241 0 0.1069391861142964 -0.44299064961396012 0 0.1082250197838846 -0.46311527911574241 0 0.1069391861142964 -0.44299064961396012 0 0.094902830217228867 -0.45064862446823939 0 0.1069391861142964 -0.44299064961396012 0 0.091812697424993442 -0.4386357446441016 0 0.098414951810672224 -0.43233268446502993 0 0.1069391861142964 -0.44299064961396012 0 0.094902830217228867 -0.45064862446823939 0 0.091812697424993442 -0.4386357446441016 0 0.094902830217228867 -0.45064862446823939 0 0.091812697424993442 -0.4386357446441016 0 0.082434724511159588 -0.44537142502386151 0 0.094902830217228867 -0.45064862446823939 0 0.082434724511159588 -0.44537142502386151 0 0.081395248040860374 -0.46160025678040811 0 0.091812697424993442 -0.4386357446441016 0 0.082434724511159588 -0.44537142502386151 0 0.078149012167117934 -0.43357211405594609 0 0.095349939854524335 -0.46404107218864848 0 0.094902830217228867 -0.45064862446823939 0 0.081395248040860374 -0.46160025678040811 0 0.067447632246636219 -0.45716428258124142 0 0.065913834705597293 -0.44240038517061198 0 0.057068655694905858 -0.46015288389510001 0 0.067447632246636219 -0.45716428258124142 0 0.05849497948899289 -0.47642287528831911 0 0.067807169338226503 -0.47162472659107291 0 0.067447632246636219 -0.45716428258124142 0 0.061758178687080389 -0.47580514524370598 0 0.081395248040860374 -0.46160025678040811 0 0.067447632246636219 -0.45716428258124142 0 0.065913834705597293 -0.44240038517061198 0 0.073180054077148754 -0.46968413697177741 0 0.081395248040860374 -0.46160025678040811 0 0.067447632246636219 -0.45716428258124142 0 0.067807169338226503 -0.47162472659107291 0 0.073180054077148754 -0.46968413697177741 0 0.067447632246636219 -0.45716428258124142 0 0.081395248040860374 -0.46160025678040811 0 0.065913834705597293 -0.44240038517061198 0 0.082434724511159588 -0.44537142502386151 0 0.081395248040860374 -0.46160025678040811 0 0.065913834705597293 -0.44240038517061198 0 0.082434724511159588 -0.44537142502386151 0 0.065913834705597293 -0.44240038517061198 0 0.078149012167117934 -0.43357211405594609 0 0.065921365320016911 -0.4273577277455588 0 0.073982485551444349 -0.42005290588181732 0 0.078149012167117934 -0.43357211405594609 0 0.065913834705597293 -0.44240038517061198 0 0.065921365320016911 -0.4273577277455588 0 0.078149012167117934 -0.43357211405594609 0 0.073982485551444349 -0.42005290588181732 0 0.069775570718114244 -0.40426700169235308 0 0.060774245729122177 -0.41691050055794487 0 0.065921365320016911 -0.4273577277455588 0 0.073982485551444349 -0.42005290588181732 0 0.060774245729122177 -0.41691050055794487 0 0.073982485551444349 -0.42005290588181732 0 0.086447448161059384 -0.41120764722282821 0 0.069775570718114244 -0.40426700169235308 0 0.073982485551444349 -0.42005290588181732 0 0.086447448161059384 -0.41120764722282821 0 0.088692331433278357 -0.42535053834926723 0 0.086447448161059384 -0.41120764722282821 0 0.093827427438274241 -0.41775801958915132 0 0.099702730965631758 -0.41290181884877419 0 0.086447448161059384 -0.41120764722282821 0 0.088692331433278357 -0.42535053834926723 0 0.093827427438274241 -0.41775801958915132 0 0.088692331433278357 -0.42535053834926723 0 0.097645949564215143 -0.42435504664253748 0 0.093827427438274241 -0.41775801958915132 0 0.073982485551444349 -0.42005290588181732 0 0.088692331433278357 -0.42535053834926723 0 0.078149012167117934 -0.43357211405594609 0 0.091812697424993442 -0.4386357446441016 0 0.088692331433278357 -0.42535053834926723 0 0.078149012167117934 -0.43357211405594609 0 0.091812697424993442 -0.4386357446441016 0 0.088692331433278357 -0.42535053834926723 0 0.098414951810672224 -0.43233268446502993 0 0.098414951810672224 -0.43233268446502993 0 0.097645949564215143 -0.42435504664253748 0 0.1061961683754654 -0.43004895598907111 0 0.088692331433278357 -0.42535053834926723 0 0.098414951810672224 -0.43233268446502993 0 0.097645949564215143 -0.42435504664253748 0 0.1061961683754654 -0.43004895598907111 0 0.11152958735588871 -0.42539382439527612 0 0.1045809803654715 -0.42051706085107571 0 0.097645949564215143 -0.42435504664253748 0 0.1061961683754654 -0.43004895598907111 0 0.1045809803654715 -0.42051706085107571 0 0.1069391861142964 -0.44299064961396012 0 0.098414951810672224 -0.43233268446502993 0 0.1061961683754654 -0.43004895598907111 0 0.1061961683754654 -0.43004895598907111 0 0.1159996351348133 -0.43474120747525058 0 0.11152958735588871 -0.42539382439527612 0 0.13212255532719441 -0.42024495614079282 0 0.1159996351348133 -0.43474120747525058 0 0.11851153239627241 -0.42275952171654291 0 0.1069391861142964 -0.44299064961396012 0 0.1061961683754654 -0.43004895598907111 0 0.1159996351348133 -0.43474120747525058 0 0.1159996351348133 -0.43474120747525058 0 0.11152958735588871 -0.42539382439527612 0 0.11851153239627241 -0.42275952171654291 0 0.11152958735588871 -0.42539382439527612 0 0.11851153239627241 -0.42275952171654291 0 0.1123596205074209 -0.41890237594444008 0 0.1250254850364893 -0.40936224001308058 0 0.117866085899093 -0.41583132647739651 0 0.1096180349996463 -0.41151587164058129 0 0.1250254850364893 -0.40936224001308058 0 0.1096180349996463 -0.41151587164058129 0 0.13212255532719441 -0.42024495614079282 0 0.11851153239627241 -0.42275952171654291 0 0.117866085899093 -0.41583132647739651 0 0.117866085899093 -0.41583132647739651 0 0.1123596205074209 -0.41890237594444008 0 0.1096180349996463 -0.41151587164058129 0 0.11851153239627241 -0.42275952171654291 0 0.117866085899093 -0.41583132647739651 0 0.1123596205074209 -0.41890237594444008 0 0.11152958735588871 -0.42539382439527612 0 0.1123596205074209 -0.41890237594444008 0 0.1045809803654715 -0.42051706085107571 0 0.1123596205074209 -0.41890237594444008 0 0.1096180349996463 -0.41151587164058129 0 0.1065506547415149 -0.41613106226330793 0 0.1096180349996463 -0.41151587164058129 0 0.1065506547415149 -0.41613106226330793 0 0.099702730965631758 -0.41290181884877419 0 0.1096180349996463 -0.41151587164058129 0 0.099702730965631758 -0.41290181884877419 0 0.1096180349996463 -0.41151587164058129 0 0.099702730965631758 -0.41290181884877419 0 0.1041447551606165 -0.40305668800175581 0 0.1123596205074209 -0.41890237594444008 0 0.1065506547415149 -0.41613106226330793 0 0.1045809803654715 -0.42051706085107571 0 0.1065506547415149 -0.41613106226330793 0 0.1045809803654715 -0.42051706085107571 0 0.099702730965631758 -0.41290181884877419 0 0.1045809803654715 -0.42051706085107571 0 0.093827427438274241 -0.41775801958915132 0 0.099702730965631758 -0.41290181884877419 0 0.097645949564215143 -0.42435504664253748 0 0.1045809803654715 -0.42051706085107571 0 0.093827427438274241 -0.41775801958915132 0 0.086447448161059384 -0.41120764722282821 0 0.099702730965631758 -0.41290181884877419 0 0.095691580682652475 -0.39908469234235189 0 0.095691580682652475 -0.39908469234235189 0 0.1041447551606165 -0.40305668800175581 0 0.1115666739945345 -0.38872436917531578 0 0.099702730965631758 -0.41290181884877419 0 0.095691580682652475 -0.39908469234235189 0 0.1041447551606165 -0.40305668800175581 0 0.1096180349996463 -0.41151587164058129 0 0.1041447551606165 -0.40305668800175581 0 0.1115666739945345 -0.38872436917531578 0 0.1250254850364893 -0.40936224001308058 0 0.1115666739945345 -0.38872436917531578 0 0.1096180349996463 -0.41151587164058129 0 0.1115666739945345 -0.38872436917531578 0 0.1250254850364893 -0.40936224001308058 0 0.1096180349996463 -0.41151587164058129 0 0.1115666739945345 -0.38872436917531578 0 0.12645644117523869 -0.39722706905544619 0 0.1250254850364893 -0.40936224001308058 0 0.1115666739945345 -0.38872436917531578 0 0.12609635470998201 -0.38402791619100712 0 0.1115666739945345 -0.38872436917531578 0 0.113745377556003 -0.36324200547299851 0 0.1115666739945345 -0.38872436917531578 0 0.113745377556003 -0.36324200547299851 0 0.12609635470998201 -0.38402791619100712 0 0.12645644117523869 -0.39722706905544619 0 0.1115666739945345 -0.38872436917531578 0 0.1115666739945345 -0.38872436917531578 0 0.096372132326470572 -0.36542491223168638 0 0.1115666739945345 -0.38872436917531578 0 0.089853218628298884 -0.38394717958202601 0 0.096372132326470572 -0.36542491223168638 0 0.095691580682652475 -0.39908469234235189 0 0.1115666739945345 -0.38872436917531578 0 0.089853218628298884 -0.38394717958202601 0 0.089853218628298884 -0.38394717958202601 0 0.082924844884061683 -0.39714926844771359 0 0.072939106935086151 -0.38728773006234168 0 0.089853218628298884 -0.38394717958202601 0 0.072939106935086151 -0.38728773006234168 0 0.07582030708563034 -0.37256671738353597 0 0.095691580682652475 -0.39908469234235189 0 0.089853218628298884 -0.38394717958202601 0 0.082924844884061683 -0.39714926844771359 0 0.086447448161059384 -0.41120764722282821 0 0.082924844884061683 -0.39714926844771359 0 0.069775570718114244 -0.40426700169235308 0 0.086447448161059384 -0.41120764722282821 0 0.095691580682652475 -0.39908469234235189 0 0.082924844884061683 -0.39714926844771359 0 0.069775570718114244 -0.40426700169235308 0 0.072939106935086151 -0.38728773006234168 0 0.058313699768321348 -0.39007371912844929 0 0.082924844884061683 -0.39714926844771359 0 0.069775570718114244 -0.40426700169235308 0 0.072939106935086151 -0.38728773006234168 0 0.072939106935086151 -0.38728773006234168 0 0.05933500968155693 -0.37671477575793533 0 0.058313699768321348 -0.39007371912844929 0 0.072939106935086151 -0.38728773006234168 0 0.05933500968155693 -0.37671477575793533 0 0.07582030708563034 -0.37256671738353597 0 0.05933500968155693 -0.37671477575793533 0 0.043300396670470892 -0.38581293046691678 0 0.039079294002052851 -0.37065651216905859 0 0.05933500968155693 -0.37671477575793533 0 0.058313699768321348 -0.39007371912844929 0 0.043300396670470892 -0.38581293046691678 0 0.058313699768321348 -0.39007371912844929 0 0.0466875803122518 -0.39705513158652528 0 0.054373060569327003 -0.40663711634463268 0 0.069775570718114244 -0.40426700169235308 0 0.058313699768321348 -0.39007371912844929 0 0.054373060569327003 -0.40663711634463268 0 0.058313699768321348 -0.39007371912844929 0 0.054373060569327003 -0.40663711634463268 0 0.0466875803122518 -0.39705513158652528 0 0.042121557959679479 -0.40689397827368962 0 0.054373060569327003 -0.40663711634463268 0 0.058313699768321348 -0.39007371912844929 0 0.0466875803122518 -0.39705513158652528 0 0.043300396670470892 -0.38581293046691678 0 0.0466875803122518 -0.39705513158652528 0 0.032645317368698572 -0.39721328630736241 0 0.043300396670470892 -0.38581293046691678 0 0.0466875803122518 -0.39705513158652528 0 0.032645317368698572 -0.39721328630736241 0 0.042121557959679479 -0.40689397827368962 0 0.032645317368698572 -0.39721328630736241 0 0.043300396670470892 -0.38581293046691678 0 0.025542853711361019 -0.38384675294920401 0 0.043300396670470892 -0.38581293046691678 0 0.025542853711361019 -0.38384675294920401 0 0.039079294002052851 -0.37065651216905859 0 0.025542853711361019 -0.38384675294920401 0 0.009690974369139977 -0.39295199195252922 0 0.016784443680880379 -0.36713146693108112 0 -0.0064694903547723136 -0.38059021958606692 0 0.009690974369139977 -0.39295199195252922 0 0.016784443680880379 -0.36713146693108112 0 0.032645317368698572 -0.39721328630736241 0 0.009690974369139977 -0.39295199195252922 0 0.030062121183744069 -0.41560348860952728 0 0.032645317368698572 -0.39721328630736241 0 0.025542853711361019 -0.38384675294920401 0 0.009690974369139977 -0.39295199195252922 0 0.009690974369139977 -0.39295199195252922 0 0.030062121183744069 -0.41560348860952728 0 0.01224976062295041 -0.42183763890738629 0 -0.0080625817845775948 -0.40608726553411861 0 0.009690974369139977 -0.39295199195252922 0 0.01224976062295041 -0.42183763890738629 0 0.009690974369139977 -0.39295199195252922 0 0.01224976062295041 -0.42183763890738629 0 0.01224976062295041 -0.42183763890738629 0 0.01480854687676085 -0.45072328586224342 0 0.030062121183744069 -0.41560348860952728 0 0.01224976062295041 -0.42183763890738629 0 0.028535899264767479 -0.43733174884408438 0 0.01224976062295041 -0.42183763890738629 0 0.028535899264767479 -0.43733174884408438 0 0.01480854687676085 -0.45072328586224342 0 0.030062121183744069 -0.41560348860952728 0 0.028535899264767479 -0.43733174884408438 0 0.039909128579099777 -0.42893709763038412 0 0.039909128579099777 -0.42893709763038412 0 0.050432421370333713 -0.42320051356081623 0 0.04400553312424714 -0.45021417746364167 0 0.039909128579099777 -0.42893709763038412 0 0.046509667952406512 -0.41833555967385072 0 0.050432421370333713 -0.42320051356081623 0 0.032645317368698572 -0.39721328630736241 0 0.030062121183744069 -0.41560348860952728 0 0.042121557959679479 -0.40689397827368962 0 0.030062121183744069 -0.41560348860952728 0 0.039909128579099777 -0.42893709763038412 0 0.046509667952406512 -0.41833555967385072 0 0.030062121183744069 -0.41560348860952728 0 0.042121557959679479 -0.40689397827368962 0 0.046509667952406512 -0.41833555967385072 0 0.054373060569327003 -0.40663711634463268 0 0.050432421370333713 -0.42320051356081623 0 0.046509667952406512 -0.41833555967385072 0 0.054373060569327003 -0.40663711634463268 0 0.050432421370333713 -0.42320051356081623 0 0.054373060569327003 -0.40663711634463268 0 0.060774245729122177 -0.41691050055794487 0 0.050432421370333713 -0.42320051356081623 0 0.046509667952406512 -0.41833555967385072 0 0.050432421370333713 -0.42320051356081623 0 0.042121557959679479 -0.40689397827368962 0 0.046509667952406512 -0.41833555967385072 0 0.054373060569327003 -0.40663711634463268 0 0.069775570718114244 -0.40426700169235308 0 0.054373060569327003 -0.40663711634463268 0 0.060774245729122177 -0.41691050055794487 0 0.050432421370333713 -0.42320051356081623 0 0.04400553312424714 -0.45021417746364167 0 0.065913834705597293 -0.44240038517061198 0 0.050432421370333713 -0.42320051356081623 0 0.065913834705597293 -0.44240038517061198 0 0.065921365320016911 -0.4273577277455588 0 0.050432421370333713 -0.42320051356081623 0 0.065921365320016911 -0.4273577277455588 0 0.060774245729122177 -0.41691050055794487 0 0.050432421370333713 -0.42320051356081623 0 0.065913834705597293 -0.44240038517061198 0 0.050432421370333713 -0.42320051356081623 0 0.04400553312424714 -0.45021417746364167 0 0.065913834705597293 -0.44240038517061198 0 0.057068655694905858 -0.46015288389510001 0 0.04400553312424714 -0.45021417746364167 0 0.057068655694905858 -0.46015288389510001 0 0.048043393468649283 -0.46676160836513853 0 0.04400553312424714 -0.45021417746364167 0 0.067447632246636219 -0.45716428258124142 0 0.057068655694905858 -0.46015288389510001 0 0.05849497948899289 -0.47642287528831911 0 0.057068655694905858 -0.46015288389510001 0 0.048043393468649283 -0.46676160836513853 0 0.052635520687858477 -0.47072247146996382 0 0.04400553312424714 -0.45021417746364167 0 0.037578644878161642 -0.47722784136646751 0 0.048043393468649283 -0.46676160836513853 0 0.04400553312424714 -0.45021417746364167 0 0.037578644878161642 -0.47722784136646751 0 0.04400553312424714 -0.45021417746364167 0 0.030366658319331299 -0.45781827645911538 0 0.037578644878161642 -0.47722784136646751 0 0.028535899264767479 -0.43733174884408438 0 0.039909128579099777 -0.42893709763038412 0 0.04400553312424714 -0.45021417746364167 0 0.028535899264767479 -0.43733174884408438 0 0.04400553312424714 -0.45021417746364167 0 0.030366658319331299 -0.45781827645911538 0 0.028535899264767479 -0.43733174884408438 0 0.01480854687676085 -0.45072328586224342 0 0.030366658319331299 -0.45781827645911538 0 -0.008216644178786571 -0.4466179140804285 0 0.01224976062295041 -0.42183763890738629 0 0.01480854687676085 -0.45072328586224342 0 0.01480854687676085 -0.45072328586224342 0 0.017367333130571299 -0.47960893281710049 0 0.0084119176919832291 -0.471974008478943 0 -0.0021957942935651631 -0.46571035637089769 0 0.01480854687676085 -0.45072328586224342 0 0.0084119176919832291 -0.471974008478943 0 -0.008216644178786571 -0.4466179140804285 0 -0.0021957942935651631 -0.46571035637089769 0 0.01480854687676085 -0.45072328586224342 0 0.01480854687676085 -0.45072328586224342 0 0.017367333130571299 -0.47960893281710049 0 0.01480854687676085 -0.45072328586224342 0 0.030366658319331299 -0.45781827645911538 0 0.0269046674527194 -0.47359432875914009 0 0.01480854687676085 -0.45072328586224342 0 0.0269046674527194 -0.47359432875914009 0 0.017367333130571299 -0.47960893281710049 0 0.017367333130571299 -0.47960893281710049 0 0.012735562036971701 -0.48508522326900949 0 0.035615270762982369 -0.48075404927866472 0 0.012735562036971701 -0.48508522326900949 0 0.035615270762982369 -0.48075404927866472 0 0.0269046674527194 -0.47359432875914009 0 0.017367333130571299 -0.47960893281710049 0 0.035615270762982369 -0.48075404927866472 0 0.017367333130571299 -0.47960893281710049 0 0.0084119176919832291 -0.471974008478943 0 0.012735562036971701 -0.48508522326900949 0 -0.00065605929082254884 -0.47874224407546379 0 0.0084119176919832291 -0.471974008478943 0 0.012735562036971701 -0.48508522326900949 0 -0.0021957942935651631 -0.46571035637089769 0 -0.00065605929082254884 -0.47874224407546379 0 0.0084119176919832291 -0.471974008478943 0 -0.010144146689038991 -0.48941639725935437 0 -0.00065605929082254884 -0.47874224407546379 0 0.012735562036971701 -0.48508522326900949 0 -0.010144146689038991 -0.48941639725935437 0 0.012735562036971701 -0.48508522326900949 0 -0.011489863113854141 -0.5 0 0.012735562036971701 -0.48508522326900949 0 0.01802246382714956 -0.5 0 0.01802246382714956 -0.5 0 0.025329369399590369 -0.48901546815995378 0 0.047534790768153173 -0.50000000000000044 0 0.012735562036971701 -0.48508522326900949 0 0.025329369399590369 -0.48901546815995378 0 0.035615270762982369 -0.48075404927866472 0 0.012735562036971701 -0.48508522326900949 0 0.01802246382714956 -0.5 0 0.025329369399590369 -0.48901546815995378 0 0.025329369399590369 -0.48901546815995378 0 0.035615270762982369 -0.48075404927866472 0 0.047534790768153173 -0.50000000000000044 0 0.030366658319331299 -0.45781827645911538 0 0.0269046674527194 -0.47359432875914009 0 0.037578644878161642 -0.47722784136646751 0 0.0269046674527194 -0.47359432875914009 0 0.037578644878161642 -0.47722784136646751 0 0.035615270762982369 -0.48075404927866472 0 0.048043393468649283 -0.46676160836513853 0 0.037578644878161642 -0.47722784136646751 0 0.046296380844488463 -0.47463440362945558 0 0.035615270762982369 -0.48075404927866472 0 0.046296380844488463 -0.47463440362945558 0 0.049693011087844949 -0.4756354888466594 0 0.037578644878161642 -0.47722784136646751 0 0.035615270762982369 -0.48075404927866472 0 0.046296380844488463 -0.47463440362945558 0 0.057068655694905858 -0.46015288389510001 0 0.052635520687858477 -0.47072247146996382 0 0.05849497948899289 -0.47642287528831911 0 0.035615270762982369 -0.48075404927866472 0 0.049693011087844949 -0.4756354888466594 0 0.05849497948899289 -0.47642287528831911 0 0.035615270762982369 -0.48075404927866472 0 0.05849497948899289 -0.47642287528831911 0 0.048043393468649283 -0.46676160836513853 0 0.046296380844488463 -0.47463440362945558 0 0.052635520687858477 -0.47072247146996382 0 0.049693011087844949 -0.4756354888466594 0 0.052635520687858477 -0.47072247146996382 0 0.05849497948899289 -0.47642287528831911 0 0.046296380844488463 -0.47463440362945558 0 0.049693011087844949 -0.4756354888466594 0 0.052635520687858477 -0.47072247146996382 0 0.05849497948899289 -0.47642287528831911 0 0.061758178687080389 -0.47580514524370598 0 0.062670741706174135 -0.48944359682069549 0 0.064881374578912687 -0.4815757870058418 0 0.05849497948899289 -0.47642287528831911 0 0.064881374578912687 -0.4815757870058418 0 0.05849497948899289 -0.47642287528831911 0 0.061758178687080389 -0.47580514524370598 0 0.069142552082564368 -0.5 0 0.062670741706174135 -0.48944359682069549 0 0.047534790768153173 -0.50000000000000044 0 0.05849497948899289 -0.47642287528831911 0 0.047534790768153173 -0.50000000000000044 0 0.035615270762982369 -0.48075404927866472 0 0.05849497948899289 -0.47642287528831911 0 0.047534790768153173 -0.50000000000000044 0 0.062670741706174135 -0.48944359682069549 0 0.05849497948899289 -0.47642287528831911 0 0.047534790768153173 -0.50000000000000044 0 0.089727975817252392 -0.29646224842349211 0 0.069967983226982527 -0.30495776272600778 0 0.075483032258224086 -0.28815868119130272 0 0.089727975817252392 -0.29646224842349211 0 0.088503230311337153 -0.27716835087377989 0 0.101883582619993 -0.28460947857741209 0 0.089727975817252392 -0.29646224842349211 0 0.075483032258224086 -0.28815868119130272 0 0.088503230311337153 -0.27716835087377989 0 0.089727975817252392 -0.29646224842349211 0 0.086214248119208581 -0.31193359067875348 0 0.069967983226982527 -0.30495776272600778 0 0.089727975817252392 -0.29646224842349211 0 0.086214248119208581 -0.31193359067875348 0 0.10049372866807189 -0.31082656242210721 0 0.069967983226982527 -0.30495776272600778 0 0.075483032258224086 -0.28815868119130272 0 0.059449054433483903 -0.28956707473318272 0 0.075483032258224086 -0.28815868119130272 0 0.0646939085167762 -0.2722383315448984 0 0.059449054433483903 -0.28956707473318272 0 0.0646939085167762 -0.2722383315448984 0 0.077350866508299074 -0.27549126298099152 0 0.080723294946858856 -0.26439968831398508 0 0.075483032258224086 -0.28815868119130272 0 0.0646939085167762 -0.2722383315448984 0 0.077350866508299074 -0.27549126298099152 0 0.0646939085167762 -0.2722383315448984 0 0.070005134957367529 -0.25889031236374099 0 0.080723294946858856 -0.26439968831398508 0 0.070005134957367529 -0.25889031236374099 0 0.061490933840310687 -0.25382890142296882 0 0.070069103552599196 -0.24823964670048029 0 0.0646939085167762 -0.2722383315448984 0 0.070005134957367529 -0.25889031236374099 0 0.060614126731859473 -0.2624009925450973 0 0.070005134957367529 -0.25889031236374099 0 0.061490933840310687 -0.25382890142296882 0 0.060614126731859473 -0.2624009925450973 0 0.070005134957367529 -0.25889031236374099 0 0.080071368274292315 -0.25145738896057979 0 0.080723294946858856 -0.26439968831398508 0 0.070005134957367529 -0.25889031236374099 0 0.080071368274292315 -0.25145738896057979 0 0.070069103552599196 -0.24823964670048029 0 0.080071368274292315 -0.25145738896057979 0 0.080723294946858856 -0.26439968831398508 0 0.090706365013478091 -0.25245448435890872 0 0.080723294946858856 -0.26439968831398508 0 0.090706365013478091 -0.25245448435890872 0 0.095060577752172304 -0.26241188567384149 0 0.075483032258224086 -0.28815868119130272 0 0.077350866508299074 -0.27549126298099152 0 0.088503230311337153 -0.27716835087377989 0 0.077350866508299074 -0.27549126298099152 0 0.080723294946858856 -0.26439968831398508 0 0.088503230311337153 -0.27716835087377989 0 0.080723294946858856 -0.26439968831398508 0 0.088503230311337153 -0.27716835087377989 0 0.095060577752172304 -0.26241188567384149 0 0.088503230311337153 -0.27716835087377989 0 0.1016952336099234 -0.27235330725820578 0 0.101883582619993 -0.28460947857741209 0 0.088503230311337153 -0.27716835087377989 0 0.1016952336099234 -0.27235330725820578 0 0.095060577752172304 -0.26241188567384149 0 0.1016952336099234 -0.27235330725820578 0 0.1104739380917857 -0.2612093749811526 0 0.1125548392743288 -0.27636744618484282 0 0.1016952336099234 -0.27235330725820578 0 0.1125548392743288 -0.27636744618484282 0 0.101883582619993 -0.28460947857741209 0 0.090706365013478091 -0.25245448435890872 0 0.099550463170151926 -0.25262580003909579 0 0.095060577752172304 -0.26241188567384149 0 0.1016952336099234 -0.27235330725820578 0 0.095060577752172304 -0.26241188567384149 0 0.1104739380917857 -0.2612093749811526 0 0.099550463170151926 -0.25262580003909579 0 0.095060577752172304 -0.26241188567384149 0 0.1104739380917857 -0.2612093749811526 0 0.099550463170151926 -0.25262580003909579 0 0.1104739380917857 -0.2612093749811526 0 0.1078238037173969 -0.24832262031645649 0 0.1311170075682456 -0.27142576198599933 0 0.1104739380917857 -0.2612093749811526 0 0.1212054647883809 -0.25073068226796852 0 0.1104739380917857 -0.2612093749811526 0 0.1212054647883809 -0.25073068226796852 0 0.1078238037173969 -0.24832262031645649 0 0.1311170075682456 -0.27142576198599933 0 0.1104739380917857 -0.2612093749811526 0 0.1311170075682456 -0.27142576198599933 0 0.1104739380917857 -0.2612093749811526 0 0.1193620271946058 -0.27249351692823448 0 0.1104739380917857 -0.2612093749811526 0 0.1125548392743288 -0.27636744618484282 0 0.1193620271946058 -0.27249351692823448 0 0.1125548392743288 -0.27636744618484282 0 0.1193620271946058 -0.27249351692823448 0 0.1233023238440631 -0.28097148456094378 0 0.1311170075682456 -0.27142576198599933 0 0.1193620271946058 -0.27249351692823448 0 0.1233023238440631 -0.28097148456094378 0 0.1233023238440631 -0.28097148456094378 0 0.1242383748246253 -0.29131174999725179 0 0.1141297936923768 -0.28878453930630188 0 0.1242383748246253 -0.29131174999725179 0 0.1141297936923768 -0.28878453930630188 0 0.1198701537204314 -0.30089140532399938 0 0.1141297936923768 -0.28878453930630188 0 0.10622170970645189 -0.29895353846799488 0 0.1198701537204314 -0.30089140532399938 0 0.1125548392743288 -0.27636744618484282 0 0.1233023238440631 -0.28097148456094378 0 0.1141297936923768 -0.28878453930630188 0 0.1125548392743288 -0.27636744618484282 0 0.1141297936923768 -0.28878453930630188 0 0.101883582619993 -0.28460947857741209 0 0.089727975817252392 -0.29646224842349211 0 0.101883582619993 -0.28460947857741209 0 0.10622170970645189 -0.29895353846799488 0 0.1141297936923768 -0.28878453930630188 0 0.101883582619993 -0.28460947857741209 0 0.10622170970645189 -0.29895353846799488 0 0.089727975817252392 -0.29646224842349211 0 0.10049372866807189 -0.31082656242210721 0 0.10622170970645189 -0.29895353846799488 0 0.10049372866807189 -0.31082656242210721 0 0.10622170970645189 -0.29895353846799488 0 0.1134387524627216 -0.31086840579325631 0 0.10622170970645189 -0.29895353846799488 0 0.1134387524627216 -0.31086840579325631 0 0.1198701537204314 -0.30089140532399938 0 0.1265219532001009 -0.3124330460259736 0 0.1134387524627216 -0.31086840579325631 0 0.1198701537204314 -0.30089140532399938 0 0.1265219532001009 -0.3124330460259736 0 0.1134387524627216 -0.31086840579325631 0 0.1192961391526948 -0.32261879728377291 0 0.1134387524627216 -0.31086840579325631 0 0.1192961391526948 -0.32261879728377291 0 0.1082288303285789 -0.31948708523568958 0 0.1192961391526948 -0.32261879728377291 0 0.1093748658769356 -0.32997486192450581 0 0.1082288303285789 -0.31948708523568958 0 0.1192961391526948 -0.32261879728377291 0 0.1168506625355451 -0.3296807312869221 0 0.1093748658769356 -0.32997486192450581 0 0.1192961391526948 -0.32261879728377291 0 0.12260601330919629 -0.33072698382653798 0 0.1168506625355451 -0.3296807312869221 0 0.13219802669416811 -0.32498852212276208 0 0.1192961391526948 -0.32261879728377291 0 0.12260601330919629 -0.33072698382653798 0 0.13051916655351839 -0.33696304048325831 0 0.12260601330919629 -0.33072698382653798 0 0.1159240811174677 -0.33775964177068091 0 0.12260601330919629 -0.33072698382653798 0 0.1159240811174677 -0.33775964177068091 0 0.1161256318033537 -0.33540228211287182 0 0.12260601330919629 -0.33072698382653798 0 0.1168506625355451 -0.3296807312869221 0 0.1161256318033537 -0.33540228211287182 0 0.13051916655351839 -0.33696304048325831 0 0.1159240811174677 -0.33775964177068091 0 0.13051916655351839 -0.33696304048325831 0 0.1159240811174677 -0.33775964177068091 0 0.123981461538115 -0.35128285539313481 0 0.1159240811174677 -0.33775964177068091 0 0.1161256318033537 -0.33540228211287182 0 0.1168506625355451 -0.3296807312869221 0 0.1161256318033537 -0.33540228211287182 0 0.1093748658769356 -0.32997486192450581 0 0.1159240811174677 -0.33775964177068091 0 0.1161256318033537 -0.33540228211287182 0 0.1093748658769356 -0.32997486192450581 0 0.1159240811174677 -0.33775964177068091 0 0.092335912071574502 -0.33904708650077298 0 0.1159240811174677 -0.33775964177068091 0 0.1093748658769356 -0.32997486192450581 0 0.092335912071574502 -0.33904708650077298 0 0.1093748658769356 -0.32997486192450581 0 0.096347407600029022 -0.32440529872184809 0 0.092335912071574502 -0.33904708650077298 0 0.1159240811174677 -0.33775964177068091 0 0.10211321446004019 -0.35101158716873732 0 0.092335912071574502 -0.33904708650077298 0 0.086214248119208581 -0.31193359067875348 0 0.10049372866807189 -0.31082656242210721 0 0.096347407600029022 -0.32440529872184809 0 0.10049372866807189 -0.31082656242210721 0 0.1134387524627216 -0.31086840579325631 0 0.1082288303285789 -0.31948708523568958 0 0.10049372866807189 -0.31082656242210721 0 0.096347407600029022 -0.32440529872184809 0 0.1082288303285789 -0.31948708523568958 0 0.1093748658769356 -0.32997486192450581 0 0.096347407600029022 -0.32440529872184809 0 0.1082288303285789 -0.31948708523568958 0 0.12784456261830821 -0.36308533366748658 0 0.12609635470998201 -0.38402791619100712 0 0.113745377556003 -0.36324200547299851 0 0.1159240811174677 -0.33775964177068091 0 0.113745377556003 -0.36324200547299851 0 0.123981461538115 -0.35128285539313481 0 0.1159240811174677 -0.33775964177068091 0 0.113745377556003 -0.36324200547299851 0 0.1159240811174677 -0.33775964177068091 0 0.113745377556003 -0.36324200547299851 0 0.10211321446004019 -0.35101158716873732 0 0.12784456261830821 -0.36308533366748658 0 0.113745377556003 -0.36324200547299851 0 0.123981461538115 -0.35128285539313481 0 0.1115666739945345 -0.38872436917531578 0 0.113745377556003 -0.36324200547299851 0 0.096372132326470572 -0.36542491223168638 0 0.113745377556003 -0.36324200547299851 0 0.10211321446004019 -0.35101158716873732 0 0.096372132326470572 -0.36542491223168638 0 0.089853218628298884 -0.38394717958202601 0 0.096372132326470572 -0.36542491223168638 0 0.07582030708563034 -0.37256671738353597 0 0.096372132326470572 -0.36542491223168638 0 0.082110249222110576 -0.35466523699539548 0 0.07582030708563034 -0.37256671738353597 0 0.10211321446004019 -0.35101158716873732 0 0.096372132326470572 -0.36542491223168638 0 0.082110249222110576 -0.35466523699539548 0 0.082110249222110576 -0.35466523699539548 0 0.092335912071574502 -0.33904708650077298 0 0.068747743025681235 -0.34033453123086538 0 0.10211321446004019 -0.35101158716873732 0 0.082110249222110576 -0.35466523699539548 0 0.092335912071574502 -0.33904708650077298 0 0.082110249222110576 -0.35466523699539548 0 0.068747743025681235 -0.34033453123086538 0 0.057272186363266697 -0.35960658745677498 0 0.082110249222110576 -0.35466523699539548 0 0.07582030708563034 -0.37256671738353597 0 0.057272186363266697 -0.35960658745677498 0 0.05933500968155693 -0.37671477575793533 0 0.07582030708563034 -0.37256671738353597 0 0.057272186363266697 -0.35960658745677498 0 0.086214248119208581 -0.31193359067875348 0 0.096347407600029022 -0.32440529872184809 0 0.078030795921920637 -0.32434601069550512 0 0.092335912071574502 -0.33904708650077298 0 0.068747743025681235 -0.34033453123086538 0 0.078030795921920637 -0.32434601069550512 0 0.092335912071574502 -0.33904708650077298 0 0.068747743025681235 -0.34033453123086538 0 0.096347407600029022 -0.32440529872184809 0 0.092335912071574502 -0.33904708650077298 0 0.078030795921920637 -0.32434601069550512 0 0.068747743025681235 -0.34033453123086538 0 0.078030795921920637 -0.32434601069550512 0 0.053863538987460123 -0.3232816795844588 0 0.069967983226982527 -0.30495776272600778 0 0.078030795921920637 -0.32434601069550512 0 0.053863538987460123 -0.3232816795844588 0 0.086214248119208581 -0.31193359067875348 0 0.069967983226982527 -0.30495776272600778 0 0.078030795921920637 -0.32434601069550512 0 0.068747743025681235 -0.34033453123086538 0 0.045159573979787898 -0.34162197596095778 0 0.068747743025681235 -0.34033453123086538 0 0.053863538987460123 -0.3232816795844588 0 0.045159573979787898 -0.34162197596095778 0 0.053863538987460123 -0.3232816795844588 0 0.034832013842728909 -0.33032259781876938 0 0.045159573979787898 -0.34162197596095778 0 0.034832013842728909 -0.33032259781876938 0 0.045159573979787898 -0.34162197596095778 0 0.02157140493389462 -0.34290942069105018 0 0.045159573979787898 -0.34162197596095778 0 0.02157140493389462 -0.34290942069105018 0 0.053863538987460123 -0.3232816795844588 0 0.034832013842728909 -0.33032259781876938 0 0.03621734991660093 -0.31670946998547028 0 0.053863538987460123 -0.3232816795844588 0 0.03621734991660093 -0.31670946998547028 0 0.048768037075517537 -0.30442990221103089 0 0.05933500968155693 -0.37671477575793533 0 0.057272186363266697 -0.35960658745677498 0 0.039079294002052851 -0.37065651216905859 0 0.068747743025681235 -0.34033453123086538 0 0.045159573979787898 -0.34162197596095778 0 0.057272186363266697 -0.35960658745677498 0 0.045159573979787898 -0.34162197596095778 0 0.034512899630155462 -0.3545258348651717 0 0.02157140493389462 -0.34290942069105018 0 0.045159573979787898 -0.34162197596095778 0 0.057272186363266697 -0.35960658745677498 0 0.034512899630155462 -0.3545258348651717 0 0.057272186363266697 -0.35960658745677498 0 0.034512899630155462 -0.3545258348651717 0 0.039079294002052851 -0.37065651216905859 0 0.025542853711361019 -0.38384675294920401 0 0.039079294002052851 -0.37065651216905859 0 0.016784443680880379 -0.36713146693108112 0 0.034512899630155462 -0.3545258348651717 0 0.039079294002052851 -0.37065651216905859 0 0.016784443680880379 -0.36713146693108112 0 0.034512899630155462 -0.3545258348651717 0 0.016784443680880379 -0.36713146693108112 0 0.02157140493389462 -0.34290942069105018 0 -0.0043130761299947744 -0.35643483176966217 0 0.016784443680880379 -0.36713146693108112 0 0.02157140493389462 -0.34290942069105018 0 -0.0038616663111063101 -0.33241552487502413 0 -0.0043130761299947744 -0.35643483176966217 0 0.02157140493389462 -0.34290942069105018 0 -0.0043130761299947744 -0.35643483176966217 0 -0.0064694903547723136 -0.38059021958606692 0 0.016784443680880379 -0.36713146693108112 0 0.03621734991660093 -0.31670946998547028 0 0.020048637459846991 -0.32439583124448262 0 0.029165048793799431 -0.30349547286963757 0 0.034832013842728909 -0.33032259781876938 0 0.03621734991660093 -0.31670946998547028 0 0.020048637459846991 -0.32439583124448262 0 0.020048637459846991 -0.32439583124448262 0 0.0094652366165251054 -0.31053241408104548 0 0.029165048793799431 -0.30349547286963757 0 0.034832013842728909 -0.33032259781876938 0 0.020048637459846991 -0.32439583124448262 0 0.02157140493389462 -0.34290942069105018 0 -0.0038616663111063101 -0.33241552487502413 0 0.020048637459846991 -0.32439583124448262 0 0.02157140493389462 -0.34290942069105018 0 -0.0038616663111063101 -0.33241552487502413 0 0.020048637459846991 -0.32439583124448262 0 0.0094652366165251054 -0.31053241408104548 0 -0.01007927323019326 -0.3103345258507364 0 0.0094652366165251054 -0.31053241408104548 0 0.0017563221397047381 -0.2997067901486577 0 0.0094652366165251054 -0.31053241408104548 0 0.0017563221397047381 -0.2997067901486577 0 0.017453688627786131 -0.29322190620108468 0 0.0017563221397047381 -0.2997067901486577 0 0.0066437179820165657 -0.2861171845936395 0 0.017453688627786131 -0.29322190620108468 0 -0.0080748459131490501 -0.2914060437848453 0 0.0017563221397047381 -0.2997067901486577 0 0.0066437179820165657 -0.2861171845936395 0 0.0066437179820165657 -0.2861171845936395 0 0.017453688627786131 -0.29322190620108468 0 0.01908241754038794 -0.28073467218482329 0 0.017453688627786131 -0.29322190620108468 0 0.029398966714908509 -0.28692964748338379 0 0.029165048793799431 -0.30349547286963757 0 0.017453688627786131 -0.29322190620108468 0 0.029398966714908509 -0.28692964748338379 0 0.01908241754038794 -0.28073467218482329 0 0.0094652366165251054 -0.31053241408104548 0 0.017453688627786131 -0.29322190620108468 0 0.029165048793799431 -0.30349547286963757 0 0.03621734991660093 -0.31670946998547028 0 0.029165048793799431 -0.30349547286963757 0 0.048768037075517537 -0.30442990221103089 0 0.029165048793799431 -0.30349547286963757 0 0.043029943860180789 -0.28970337243015992 0 0.048768037075517537 -0.30442990221103089 0 0.029398966714908509 -0.28692964748338379 0 0.029165048793799431 -0.30349547286963757 0 0.043029943860180789 -0.28970337243015992 0 0.029398966714908509 -0.28692964748338379 0 0.043029943860180789 -0.28970337243015992 0 0.038396769586432553 -0.27977596087564799 0 0.043029943860180789 -0.28970337243015992 0 0.051749435803858171 -0.27840569125857739 0 0.038396769586432553 -0.27977596087564799 0 0.043029943860180789 -0.28970337243015992 0 0.059449054433483903 -0.28956707473318272 0 0.051749435803858171 -0.27840569125857739 0 0.043029943860180789 -0.28970337243015992 0 0.059449054433483903 -0.28956707473318272 0 0.048768037075517537 -0.30442990221103089 0 0.069967983226982527 -0.30495776272600778 0 0.059449054433483903 -0.28956707473318272 0 0.048768037075517537 -0.30442990221103089 0 0.069967983226982527 -0.30495776272600778 0 0.053863538987460123 -0.3232816795844588 0 0.048768037075517537 -0.30442990221103089 0 0.053380735395516472 -0.25867595766617779 0 0.04428054005230446 -0.26275141268032309 0 0.045372505498807933 -0.25408090721008542 0 0.053380735395516472 -0.25867595766617779 0 0.053158010572478251 -0.26777612517812432 0 0.04428054005230446 -0.26275141268032309 0 0.053380735395516472 -0.25867595766617779 0 0.045372505498807933 -0.25408090721008542 0 0.05268811686830014 -0.24901610311096159 0 0.053380735395516472 -0.25867595766617779 0 0.061490933840310687 -0.25382890142296882 0 0.05268811686830014 -0.24901610311096159 0 0.053380735395516472 -0.25867595766617779 0 0.060614126731859473 -0.2624009925450973 0 0.053158010572478251 -0.26777612517812432 0 0.053380735395516472 -0.25867595766617779 0 0.061490933840310687 -0.25382890142296882 0 0.060614126731859473 -0.2624009925450973 0 0.0646939085167762 -0.2722383315448984 0 0.060614126731859473 -0.2624009925450973 0 0.053158010572478251 -0.26777612517812432 0 0.0646939085167762 -0.2722383315448984 0 0.059449054433483903 -0.28956707473318272 0 0.051749435803858171 -0.27840569125857739 0 0.0646939085167762 -0.2722383315448984 0 0.051749435803858171 -0.27840569125857739 0 0.053158010572478251 -0.26777612517812432 0 0.053158010572478251 -0.26777612517812432 0 0.044229316934554799 -0.27218436537367241 0 0.04428054005230446 -0.26275141268032309 0 0.051749435803858171 -0.27840569125857739 0 0.053158010572478251 -0.26777612517812432 0 0.044229316934554799 -0.27218436537367241 0 0.044229316934554799 -0.27218436537367241 0 0.031885251388666561 -0.26470215361104171 0 0.04428054005230446 -0.26275141268032309 0 0.051749435803858171 -0.27840569125857739 0 0.044229316934554799 -0.27218436537367241 0 0.038396769586432553 -0.27977596087564799 0 0.044229316934554799 -0.27218436537367241 0 0.038396769586432553 -0.27977596087564799 0 0.029696712261103771 -0.27487286106778819 0 0.029398966714908509 -0.28692964748338379 0 0.038396769586432553 -0.27977596087564799 0 0.029696712261103771 -0.27487286106778819 0 0.044229316934554799 -0.27218436537367241 0 0.031885251388666561 -0.26470215361104171 0 0.029696712261103771 -0.27487286106778819 0 0.037315510146954597 -0.25849363249326118 0 0.031885251388666561 -0.26470215361104171 0 0.04428054005230446 -0.26275141268032309 0 0.037315510146954597 -0.25849363249326118 0 0.031885251388666561 -0.26470215361104171 0 0.03069464768829987 -0.25176037071845259 0 0.037315510146954597 -0.25849363249326118 0 0.04428054005230446 -0.26275141268032309 0 0.045372505498807933 -0.25408090721008542 0 0.045372505498807933 -0.25408090721008542 0 0.03069464768829987 -0.25176037071845259 0 0.042588116356466379 -0.2448823624008481 0 0.037315510146954597 -0.25849363249326118 0 0.045372505498807933 -0.25408090721008542 0 0.03069464768829987 -0.25176037071845259 0 0.031885251388666561 -0.26470215361104171 0 0.021199614426200629 -0.26114166245967918 0 0.019908913466960752 -0.27058631964059482 0 0.031885251388666561 -0.26470215361104171 0 0.03069464768829987 -0.25176037071845259 0 0.021199614426200629 -0.26114166245967918 0 0.03069464768829987 -0.25176037071845259 0 0.021199614426200629 -0.26114166245967918 0 0.016145176335298529 -0.25210595968411048 0 0.029398966714908509 -0.28692964748338379 0 0.029696712261103771 -0.27487286106778819 0 0.01908241754038794 -0.28073467218482329 0 0.031885251388666561 -0.26470215361104171 0 0.029696712261103771 -0.27487286106778819 0 0.019908913466960752 -0.27058631964059482 0 0.019908913466960752 -0.27058631964059482 0 0.01908241754038794 -0.28073467218482329 0 0.01128192931255503 -0.27464126756021451 0 0.029696712261103771 -0.27487286106778819 0 0.019908913466960752 -0.27058631964059482 0 0.01908241754038794 -0.28073467218482329 0 -0.01145854626600548 -0.26602311564559261 0 0.01128192931255503 -0.27464126756021451 0 0.0057158633005241696 -0.26337829885565528 0 0.0066437179820165657 -0.2861171845936395 0 0.01908241754038794 -0.28073467218482329 0 0.01128192931255503 -0.27464126756021451 0 0.019908913466960752 -0.27058631964059482 0 0.01128192931255503 -0.27464126756021451 0 0.0057158633005241696 -0.26337829885565528 0 -0.002848760243290064 -0.27761611820401882 0 0.0066437179820165657 -0.2861171845936395 0 0.01128192931255503 -0.27464126756021451 0 0.016145176335298529 -0.25210595968411048 0 0.0057158633005241696 -0.26337829885565528 0 0.0054759062840018038 -0.25064707341720888 0 0.021199614426200629 -0.26114166245967918 0 0.019908913466960752 -0.27058631964059482 0 0.0057158633005241696 -0.26337829885565528 0 0.021199614426200629 -0.26114166245967918 0 0.016145176335298529 -0.25210595968411048 0 0.0057158633005241696 -0.26337829885565528 0 -0.0009620894167222515 -0.25496392916579452 0 0.0057158633005241696 -0.26337829885565528 0 0.0054759062840018038 -0.25064707341720888 0 -0.0009620894167222515 -0.25496392916579452 0 -0.0029313858115674811 -0.24854412401401971 0 0.0054759062840018038 -0.25064707341720888 0 0.0054759062840018038 -0.25064707341720888 0 0.0026199421412959989 -0.2430643023623929 0 0.011589873569895199 -0.24127835128668559 0 -0.0029313858115674811 -0.24854412401401971 0 0.0054759062840018038 -0.25064707341720888 0 0.0026199421412959989 -0.2430643023623929 0 0.016145176335298529 -0.25210595968411048 0 0.0054759062840018038 -0.25064707341720888 0 0.011589873569895199 -0.24127835128668559 0 0.011589873569895199 -0.24127835128668559 0 0.010668172172219499 -0.2272828987723072 0 0.020574075722817331 -0.2351284197632682 0 0.0026199421412959989 -0.2430643023623929 0 0.011589873569895199 -0.24127835128668559 0 0.0017465435191736189 -0.23378549097037141 0 -0.00080535468136348092 -0.21995366459000901 0 0.010668172172219499 -0.2272828987723072 0 0.01016515501406726 -0.20926501301563591 0 -0.00080535468136348092 -0.21995366459000901 0 0.0017465435191736189 -0.23378549097037141 0 0.010668172172219499 -0.2272828987723072 0 0.010668172172219499 -0.2272828987723072 0 0.02170661161633574 -0.22145314359659171 0 0.01016515501406726 -0.20926501301563591 0 0.011589873569895199 -0.24127835128668559 0 0.0017465435191736189 -0.23378549097037141 0 0.010668172172219499 -0.2272828987723072 0 0.010668172172219499 -0.2272828987723072 0 0.02170661161633574 -0.22145314359659171 0 0.020574075722817331 -0.2351284197632682 0 0.02170661161633574 -0.22145314359659171 0 0.02866695829179056 -0.22960637228307629 0 0.036392787169896093 -0.22322562645731159 0 0.02170661161633574 -0.22145314359659171 0 0.02866695829179056 -0.22960637228307629 0 0.020574075722817331 -0.2351284197632682 0 0.02866695829179056 -0.22960637228307629 0 0.020574075722817331 -0.2351284197632682 0 0.032071787069821417 -0.24054619649286721 0 0.022195152742869501 -0.2444300013669817 0 0.020574075722817331 -0.2351284197632682 0 0.032071787069821417 -0.24054619649286721 0 0.03069464768829987 -0.25176037071845259 0 0.022195152742869501 -0.2444300013669817 0 0.032071787069821417 -0.24054619649286721 0 0.03069464768829987 -0.25176037071845259 0 0.016145176335298529 -0.25210595968411048 0 0.022195152742869501 -0.2444300013669817 0 0.016145176335298529 -0.25210595968411048 0 0.011589873569895199 -0.24127835128668559 0 0.022195152742869501 -0.2444300013669817 0 0.011589873569895199 -0.24127835128668559 0 0.022195152742869501 -0.2444300013669817 0 0.020574075722817331 -0.2351284197632682 0 -0.003739977245034012 -0.19168309442994089 0 0.010514116253606281 -0.1925853606064957 0 0.01016515501406726 -0.20926501301563591 0 0.010514116253606281 -0.1925853606064957 0 0.01016515501406726 -0.20926501301563591 0 0.018596641755985681 -0.20049862993462389 0 0.02170661161633574 -0.22145314359659171 0 0.01016515501406726 -0.20926501301563591 0 0.028304225500431591 -0.20785134554231141 0 0.01016515501406726 -0.20926501301563591 0 0.028304225500431591 -0.20785134554231141 0 0.018596641755985681 -0.20049862993462389 0 0.02170661161633574 -0.22145314359659171 0 0.028304225500431591 -0.20785134554231141 0 0.036392787169896093 -0.22322562645731159 0 0.028304225500431591 -0.20785134554231141 0 0.018596641755985681 -0.20049862993462389 0 0.02540307025583758 -0.19229280057405279 0 0.010514116253606281 -0.1925853606064957 0 0.018596641755985681 -0.20049862993462389 0 0.02540307025583758 -0.19229280057405279 0 0.010514116253606281 -0.1925853606064957 0 0.02540307025583758 -0.19229280057405279 0 0.015764016274472759 -0.1812646672695073 0 0.02540307025583758 -0.19229280057405279 0 0.041440672425083092 -0.19607701236864419 0 0.030421272951226121 -0.1778391783376792 0 0.028304225500431591 -0.20785134554231141 0 0.02540307025583758 -0.19229280057405279 0 0.041440672425083092 -0.19607701236864419 0 0.041440672425083092 -0.19607701236864419 0 0.042310424588804782 -0.2140630995529598 0 0.055497750511994078 -0.2086068857692274 0 0.028304225500431591 -0.20785134554231141 0 0.041440672425083092 -0.19607701236864419 0 0.042310424588804782 -0.2140630995529598 0 0.028304225500431591 -0.20785134554231141 0 0.042310424588804782 -0.2140630995529598 0 0.036392787169896093 -0.22322562645731159 0 0.042310424588804782 -0.2140630995529598 0 0.055497750511994078 -0.2086068857692274 0 0.052955454276687589 -0.2198291654371925 0 0.062338921595789062 -0.21792006704763969 0 0.055497750511994078 -0.2086068857692274 0 0.052955454276687589 -0.2198291654371925 0 0.062338921595789062 -0.21792006704763969 0 0.055497750511994078 -0.2086068857692274 0 0.067863046951983474 -0.20503048868511209 0 0.055497750511994078 -0.2086068857692274 0 0.056257937900538298 -0.19577788601322099 0 0.067863046951983474 -0.20503048868511209 0 0.041440672425083092 -0.19607701236864419 0 0.056257937900538298 -0.19577788601322099 0 0.051449240160577621 -0.1762857105508405 0 0.041440672425083092 -0.19607701236864419 0 0.055497750511994078 -0.2086068857692274 0 0.056257937900538298 -0.19577788601322099 0 0.040491861427302538 -0.2355872617630255 0 0.042588116356466379 -0.2448823624008481 0 0.052307832003780613 -0.23884346229351339 0 0.040491861427302538 -0.2355872617630255 0 0.045866106706223042 -0.22907627795895011 0 0.052307832003780613 -0.23884346229351339 0 0.03069464768829987 -0.25176037071845259 0 0.042588116356466379 -0.2448823624008481 0 0.032071787069821417 -0.24054619649286721 0 0.040491861427302538 -0.2355872617630255 0 0.042588116356466379 -0.2448823624008481 0 0.032071787069821417 -0.24054619649286721 0 0.02866695829179056 -0.22960637228307629 0 0.040491861427302538 -0.2355872617630255 0 0.032071787069821417 -0.24054619649286721 0 0.02866695829179056 -0.22960637228307629 0 0.040491861427302538 -0.2355872617630255 0 0.036392787169896093 -0.22322562645731159 0 0.042310424588804782 -0.2140630995529598 0 0.036392787169896093 -0.22322562645731159 0 0.045866106706223042 -0.22907627795895011 0 0.040491861427302538 -0.2355872617630255 0 0.036392787169896093 -0.22322562645731159 0 0.045866106706223042 -0.22907627795895011 0 0.045866106706223042 -0.22907627795895011 0 0.058764067980626958 -0.22947949685718549 0 0.052307832003780613 -0.23884346229351339 0 0.045866106706223042 -0.22907627795895011 0 0.052955454276687589 -0.2198291654371925 0 0.058764067980626958 -0.22947949685718549 0 0.042310424588804782 -0.2140630995529598 0 0.045866106706223042 -0.22907627795895011 0 0.052955454276687589 -0.2198291654371925 0 0.062338921595789062 -0.21792006704763969 0 0.058764067980626958 -0.22947949685718549 0 0.065719467571416057 -0.22489822263154319 0 0.062338921595789062 -0.21792006704763969 0 0.052955454276687589 -0.2198291654371925 0 0.058764067980626958 -0.22947949685718549 0 0.058764067980626958 -0.22947949685718549 0 0.062159259289524899 -0.2368834247622158 0 0.052307832003780613 -0.23884346229351339 0 0.062159259289524899 -0.2368834247622158 0 0.052307832003780613 -0.23884346229351339 0 0.061229972926465738 -0.2445427902389527 0 0.045372505498807933 -0.25408090721008542 0 0.042588116356466379 -0.2448823624008481 0 0.05268811686830014 -0.24901610311096159 0 0.042588116356466379 -0.2448823624008481 0 0.052307832003780613 -0.23884346229351339 0 0.05268811686830014 -0.24901610311096159 0 0.061490933840310687 -0.25382890142296882 0 0.05268811686830014 -0.24901610311096159 0 0.061229972926465738 -0.2445427902389527 0 0.052307832003780613 -0.23884346229351339 0 0.05268811686830014 -0.24901610311096159 0 0.061229972926465738 -0.2445427902389527 0 0.061490933840310687 -0.25382890142296882 0 0.061229972926465738 -0.2445427902389527 0 0.070069103552599196 -0.24823964670048029 0 0.061229972926465738 -0.2445427902389527 0 0.070069103552599196 -0.24823964670048029 0 0.069856411684105391 -0.23913895996007839 0 0.062159259289524899 -0.2368834247622158 0 0.061229972926465738 -0.2445427902389527 0 0.069856411684105391 -0.23913895996007839 0 0.062159259289524899 -0.2368834247622158 0 0.069856411684105391 -0.23913895996007839 0 0.067142239376285745 -0.23139328163069281 0 0.069856411684105391 -0.23913895996007839 0 0.077788170153509889 -0.24196191377257101 0 0.076767606518392539 -0.23187249677345001 0 0.080071368274292315 -0.25145738896057979 0 0.070069103552599196 -0.24823964670048029 0 0.077788170153509889 -0.24196191377257101 0 0.070069103552599196 -0.24823964670048029 0 0.069856411684105391 -0.23913895996007839 0 0.077788170153509889 -0.24196191377257101 0 0.080071368274292315 -0.25145738896057979 0 0.090706365013478091 -0.25245448435890872 0 0.085906732882507178 -0.24385162082211831 0 0.080071368274292315 -0.25145738896057979 0 0.077788170153509889 -0.24196191377257101 0 0.085906732882507178 -0.24385162082211831 0 0.077788170153509889 -0.24196191377257101 0 0.085906732882507178 -0.24385162082211831 0 0.083256636250354649 -0.23616880796388259 0 0.077788170153509889 -0.24196191377257101 0 0.083256636250354649 -0.23616880796388259 0 0.076767606518392539 -0.23187249677345001 0 0.085906732882507178 -0.24385162082211831 0 0.089657973372422345 -0.23730775202069579 0 0.094006026236525903 -0.2441335510050745 0 0.085906732882507178 -0.24385162082211831 0 0.083256636250354649 -0.23616880796388259 0 0.089657973372422345 -0.23730775202069579 0 0.083256636250354649 -0.23616880796388259 0 0.089657973372422345 -0.23730775202069579 0 0.089763789457938253 -0.2306791647953326 0 0.089657973372422345 -0.23730775202069579 0 0.089763789457938253 -0.2306791647953326 0 0.096012267649498176 -0.23702186761809721 0 0.089657973372422345 -0.23730775202069579 0 0.094006026236525903 -0.2441335510050745 0 0.096012267649498176 -0.23702186761809721 0 0.090706365013478091 -0.25245448435890872 0 0.085906732882507178 -0.24385162082211831 0 0.094006026236525903 -0.2441335510050745 0 0.086446736705125371 -0.22420087797706609 0 0.091303359373345411 -0.22339335178318359 0 0.089763789457938253 -0.2306791647953326 0 0.086446736705125371 -0.22420087797706609 0 0.091303359373345411 -0.22339335178318359 0 0.086853981468707001 -0.2185547472363609 0 0.091303359373345411 -0.22339335178318359 0 0.086853981468707001 -0.2185547472363609 0 0.09077468002378962 -0.21857675351640271 0 0.091303359373345411 -0.22339335178318359 0 0.09077468002378962 -0.21857675351640271 0 0.094530837428433365 -0.22086489816084981 0 0.091303359373345411 -0.22339335178318359 0 0.089763789457938253 -0.2306791647953326 0 0.098670227838192195 -0.22970514568366851 0 0.086446736705125371 -0.22420087797706609 0 0.089763789457938253 -0.2306791647953326 0 0.083020570332336119 -0.22791650227557511 0 0.083256636250354649 -0.23616880796388259 0 0.083020570332336119 -0.22791650227557511 0 0.076767606518392539 -0.23187249677345001 0 0.083256636250354649 -0.23616880796388259 0 0.089763789457938253 -0.2306791647953326 0 0.083020570332336119 -0.22791650227557511 0 0.083020570332336119 -0.22791650227557511 0 0.077930889523722374 -0.22519622511208121 0 0.076767606518392539 -0.23187249677345001 0 0.083020570332336119 -0.22791650227557511 0 0.081291982893300085 -0.22046062379487821 0 0.077930889523722374 -0.22519622511208121 0 0.086446736705125371 -0.22420087797706609 0 0.083020570332336119 -0.22791650227557511 0 0.081291982893300085 -0.22046062379487821 0 0.086446736705125371 -0.22420087797706609 0 0.081291982893300085 -0.22046062379487821 0 0.086853981468707001 -0.2185547472363609 0 0.081291982893300085 -0.22046062379487821 0 0.077930889523722374 -0.22519622511208121 0 0.073706539318973169 -0.21796036257100029 0 0.072234091795087663 -0.22574485878751241 0 0.065719467571416057 -0.22489822263154319 0 0.073706539318973169 -0.21796036257100029 0 0.077930889523722374 -0.22519622511208121 0 0.072234091795087663 -0.22574485878751241 0 0.073706539318973169 -0.21796036257100029 0 0.069856411684105391 -0.23913895996007839 0 0.076767606518392539 -0.23187249677345001 0 0.067142239376285745 -0.23139328163069281 0 0.072234091795087663 -0.22574485878751241 0 0.076767606518392539 -0.23187249677345001 0 0.067142239376285745 -0.23139328163069281 0 0.077930889523722374 -0.22519622511208121 0 0.072234091795087663 -0.22574485878751241 0 0.076767606518392539 -0.23187249677345001 0 0.058764067980626958 -0.22947949685718549 0 0.062159259289524899 -0.2368834247622158 0 0.067142239376285745 -0.23139328163069281 0 0.058764067980626958 -0.22947949685718549 0 0.067142239376285745 -0.23139328163069281 0 0.065719467571416057 -0.22489822263154319 0 0.072234091795087663 -0.22574485878751241 0 0.067142239376285745 -0.23139328163069281 0 0.065719467571416057 -0.22489822263154319 0 0.062338921595789062 -0.21792006704763969 0 0.065719467571416057 -0.22489822263154319 0 0.073706539318973169 -0.21796036257100029 0 0.062338921595789062 -0.21792006704763969 0 0.067863046951983474 -0.20503048868511209 0 0.073706539318973169 -0.21796036257100029 0 0.067863046951983474 -0.20503048868511209 0 0.073706539318973169 -0.21796036257100029 0 0.079094442607528917 -0.20913243433380641 0 0.067863046951983474 -0.20503048868511209 0 0.081482512553192915 -0.1953056794767786 0 0.079094442607528917 -0.20913243433380641 0 0.056257937900538298 -0.19577788601322099 0 0.067863046951983474 -0.20503048868511209 0 0.066040058368007956 -0.18964665730407451 0 0.067863046951983474 -0.20503048868511209 0 0.066040058368007956 -0.18964665730407451 0 0.081482512553192915 -0.1953056794767786 0 0.081482512553192915 -0.1953056794767786 0 0.095454742848087734 -0.19451486061966669 0 0.093505174579280592 -0.1731787749771625 0 0.081482512553192915 -0.1953056794767786 0 0.08833530696517819 -0.21036332105093219 0 0.095454742848087734 -0.19451486061966669 0 0.08833530696517819 -0.21036332105093219 0 0.097404311116896569 -0.21585094626217091 0 0.095454742848087734 -0.19451486061966669 0 0.081291982893300085 -0.22046062379487821 0 0.073706539318973169 -0.21796036257100029 0 0.082946926161669862 -0.2149195339015407 0 0.082946926161669862 -0.2149195339015407 0 0.079094442607528917 -0.20913243433380641 0 0.08833530696517819 -0.21036332105093219 0 0.073706539318973169 -0.21796036257100029 0 0.082946926161669862 -0.2149195339015407 0 0.079094442607528917 -0.20913243433380641 0 0.081291982893300085 -0.22046062379487821 0 0.082946926161669862 -0.2149195339015407 0 0.086853981468707001 -0.2185547472363609 0 0.081482512553192915 -0.1953056794767786 0 0.079094442607528917 -0.20913243433380641 0 0.08833530696517819 -0.21036332105093219 0 0.082946926161669862 -0.2149195339015407 0 0.08833530696517819 -0.21036332105093219 0 0.086853981468707001 -0.2185547472363609 0 0.08833530696517819 -0.21036332105093219 0 0.086853981468707001 -0.2185547472363609 0 0.09077468002378962 -0.21857675351640271 0 0.08833530696517819 -0.21036332105093219 0 0.09077468002378962 -0.21857675351640271 0 0.092213447725184278 -0.21529843562297729 0 0.08833530696517819 -0.21036332105093219 0 0.092213447725184278 -0.21529843562297729 0 0.097404311116896569 -0.21585094626217091 0 0.09077468002378962 -0.21857675351640271 0 0.094501608789943028 -0.21679829355882299 0 0.094530837428433365 -0.22086489816084981 0 0.09077468002378962 -0.21857675351640271 0 0.092213447725184278 -0.21529843562297729 0 0.094501608789943028 -0.21679829355882299 0 0.094501608789943028 -0.21679829355882299 0 0.097404311116896569 -0.21585094626217091 0 0.094530837428433365 -0.22086489816084981 0 0.092213447725184278 -0.21529843562297729 0 0.094501608789943028 -0.21679829355882299 0 0.097404311116896569 -0.21585094626217091 0 0.097404311116896569 -0.21585094626217091 0 0.095454742848087734 -0.19451486061966669 0 0.097404311116896569 -0.21585094626217091 0 0.1059898830346106 -0.20430933332548051 0 0.095454742848087734 -0.19451486061966669 0 0.097404311116896569 -0.21585094626217091 0 0.1089347031997706 -0.21297733173581901 0 0.1146171121197104 -0.21980430615730401 0 0.097404311116896569 -0.21585094626217091 0 0.1059898830346106 -0.20430933332548051 0 0.1089347031997706 -0.21297733173581901 0 0.095454742848087734 -0.19451486061966669 0 0.1128143282819509 -0.19216489626002589 0 0.10772522460311169 -0.17968171223372481 0 0.1059898830346106 -0.20430933332548051 0 0.095454742848087734 -0.19451486061966669 0 0.1128143282819509 -0.19216489626002589 0 0.1128143282819509 -0.19216489626002589 0 0.1237689835273371 -0.19605207676116951 0 0.1178461100078927 -0.20838697738218431 0 0.1059898830346106 -0.20430933332548051 0 0.1128143282819509 -0.19216489626002589 0 0.1178461100078927 -0.20838697738218431 0 0.1128143282819509 -0.19216489626002589 0 0.1237689835273371 -0.19605207676116951 0 0.1232013989280239 -0.1819146573535104 0 0.1089347031997706 -0.21297733173581901 0 0.1178461100078927 -0.20838697738218431 0 0.1146171121197104 -0.21980430615730401 0 0.1059898830346106 -0.20430933332548051 0 0.1089347031997706 -0.21297733173581901 0 0.1178461100078927 -0.20838697738218431 0 0.1178461100078927 -0.20838697738218431 0 0.1146171121197104 -0.21980430615730401 0 0.12895394136930069 -0.22163642029703709 0 0.1146171121197104 -0.21980430615730401 0 0.12018370186474731 -0.23305432747703519 0 0.12895394136930069 -0.22163642029703709 0 0.097404311116896569 -0.21585094626217091 0 0.1146171121197104 -0.21980430615730401 0 0.12018370186474731 -0.23305432747703519 0 0.1212054647883809 -0.25073068226796852 0 0.12018370186474731 -0.23305432747703519 0 0.1059281586602189 -0.23527494890652931 0 0.13217397618885759 -0.25462043987800831 0 0.1212054647883809 -0.25073068226796852 0 0.12018370186474731 -0.23305432747703519 0 0.1212054647883809 -0.25073068226796852 0 0.1059281586602189 -0.23527494890652931 0 0.1078238037173969 -0.24832262031645649 0 0.1212054647883809 -0.25073068226796852 0 0.1059281586602189 -0.23527494890652931 0 0.099550463170151926 -0.25262580003909579 0 0.1078238037173969 -0.24832262031645649 0 0.10103467245524091 -0.24298905409433241 0 0.1059281586602189 -0.23527494890652931 0 0.1078238037173969 -0.24832262031645649 0 0.10103467245524091 -0.24298905409433241 0 0.099550463170151926 -0.25262580003909579 0 0.10103467245524091 -0.24298905409433241 0 0.094006026236525903 -0.2441335510050745 0 0.090706365013478091 -0.25245448435890872 0 0.099550463170151926 -0.25262580003909579 0 0.094006026236525903 -0.2441335510050745 0 0.1059281586602189 -0.23527494890652931 0 0.10103467245524091 -0.24298905409433241 0 0.096012267649498176 -0.23702186761809721 0 0.10103467245524091 -0.24298905409433241 0 0.094006026236525903 -0.2441335510050745 0 0.096012267649498176 -0.23702186761809721 0 0.1059281586602189 -0.23527494890652931 0 0.096012267649498176 -0.23702186761809721 0 0.098670227838192195 -0.22970514568366851 0 0.089763789457938253 -0.2306791647953326 0 0.096012267649498176 -0.23702186761809721 0 0.098670227838192195 -0.22970514568366851 0 0.097404311116896569 -0.21585094626217091 0 0.12018370186474731 -0.23305432747703519 0 0.097404311116896569 -0.21585094626217091 0 0.12018370186474731 -0.23305432747703519 0 0.1059281586602189 -0.23527494890652931 0 0.097404311116896569 -0.21585094626217091 0 0.1059281586602189 -0.23527494890652931 0 0.098670227838192195 -0.22970514568366851 0 0.091303359373345411 -0.22339335178318359 0 0.098670227838192195 -0.22970514568366851 0 0.094530837428433365 -0.22086489816084981 0 0.097404311116896569 -0.21585094626217091 0 0.098670227838192195 -0.22970514568366851 0 0.094530837428433365 -0.22086489816084981 0 0.097404311116896569 -0.21585094626217091 0 0.098670227838192195 -0.22970514568366851 0 0.1071373084330472 -0.14482826815459701 0 0.1035248479174861 -0.15311019857333261 0 0.098760878024456711 -0.14050656481393209 0 0.1071373084330472 -0.14482826815459701 0 0.1035248479174861 -0.15311019857333261 0 0.1121477659277255 -0.1503271840913511 0 0.1035248479174861 -0.15311019857333261 0 0.098760878024456711 -0.14050656481393209 0 0.091560400862706559 -0.15189516094014111 0 0.098760878024456711 -0.14050656481393209 0 0.099399694252258627 -0.1328638184600745 0 0.089615627146132512 -0.13061154690311971 0 0.099399694252258627 -0.1328638184600745 0 0.099525338641528904 -0.12611341339503321 0 0.089615627146132512 -0.13061154690311971 0 0.099525338641528904 -0.12611341339503321 0 0.1096969331969164 -0.13422374872821319 0 0.1121708616464093 -0.1216807098986791 0 0.099399694252258627 -0.1328638184600745 0 0.099525338641528904 -0.12611341339503321 0 0.1096969331969164 -0.13422374872821319 0 0.098760878024456711 -0.14050656481393209 0 0.099399694252258627 -0.1328638184600745 0 0.1096969331969164 -0.13422374872821319 0 0.1071373084330472 -0.14482826815459701 0 0.098760878024456711 -0.14050656481393209 0 0.1096969331969164 -0.13422374872821319 0 0.1096969331969164 -0.13422374872821319 0 0.1155243526086871 -0.14484298486410191 0 0.12532898621889721 -0.13663811256420449 0 0.1096969331969164 -0.13422374872821319 0 0.11997683785091839 -0.1276371159963853 0 0.12532898621889721 -0.13663811256420449 0 0.1096969331969164 -0.13422374872821319 0 0.11997683785091839 -0.1276371159963853 0 0.1121708616464093 -0.1216807098986791 0 0.1217036921304827 -0.1482443959076799 0 0.1155243526086871 -0.14484298486410191 0 0.12532898621889721 -0.13663811256420449 0 0.1217036921304827 -0.1482443959076799 0 0.1155243526086871 -0.14484298486410191 0 0.1179114041550178 -0.15136128022523329 0 0.1071373084330472 -0.14482826815459701 0 0.1155243526086871 -0.14484298486410191 0 0.1121477659277255 -0.1503271840913511 0 0.1071373084330472 -0.14482826815459701 0 0.1096969331969164 -0.13422374872821319 0 0.1155243526086871 -0.14484298486410191 0 0.1035248479174861 -0.15311019857333261 0 0.1121477659277255 -0.1503271840913511 0 0.1169082366172023 -0.15609331882735419 0 0.1155243526086871 -0.14484298486410191 0 0.1121477659277255 -0.1503271840913511 0 0.1179114041550178 -0.15136128022523329 0 0.1121477659277255 -0.1503271840913511 0 0.1169082366172023 -0.15609331882735419 0 0.1179114041550178 -0.15136128022523329 0 0.1169082366172023 -0.15609331882735419 0 0.1179114041550178 -0.15136128022523329 0 0.12324902196630889 -0.15465793599018671 0 0.1217036921304827 -0.1482443959076799 0 0.1179114041550178 -0.15136128022523329 0 0.12324902196630889 -0.15465793599018671 0 0.1217036921304827 -0.1482443959076799 0 0.12324902196630889 -0.15465793599018671 0 0.12831016946945831 -0.1492440347933528 0 0.1035248479174861 -0.15311019857333261 0 0.12443417021765769 -0.1709717485187108 0 0.1227471198665283 -0.15880086614903269 0 0.12098675462827781 -0.16200852072179159 0 0.1290045142054978 -0.1612372837293575 0 0.1035248479174861 -0.15311019857333261 0 0.12443417021765769 -0.1709717485187108 0 0.12083528946942131 -0.1711597280255607 0 0.1035248479174861 -0.15311019857333261 0 0.12098675462827781 -0.16200852072179159 0 0.12443417021765769 -0.1709717485187108 0 0.1035248479174861 -0.15311019857333261 0 0.1169082366172023 -0.15609331882735419 0 0.12098675462827781 -0.16200852072179159 0 0.1169082366172023 -0.15609331882735419 0 0.1227471198665283 -0.15880086614903269 0 0.12098675462827781 -0.16200852072179159 0 0.1169082366172023 -0.15609331882735419 0 0.12324902196630889 -0.15465793599018671 0 0.1227471198665283 -0.15880086614903269 0 0.12098675462827781 -0.16200852072179159 0 0.12443417021765769 -0.1709717485187108 0 0.12715697753007521 -0.16591248018761531 0 0.1128143282819509 -0.19216489626002589 0 0.1232013989280239 -0.1819146573535104 0 0.1157139550245927 -0.18029465614444529 0 0.12083528946942131 -0.1711597280255607 0 0.1232013989280239 -0.1819146573535104 0 0.1157139550245927 -0.18029465614444529 0 0.12443417021765769 -0.1709717485187108 0 0.12083528946942131 -0.1711597280255607 0 0.1232013989280239 -0.1819146573535104 0 0.12083528946942131 -0.1711597280255607 0 0.1157139550245927 -0.18029465614444529 0 0.10772522460311169 -0.17968171223372481 0 0.1128143282819509 -0.19216489626002589 0 0.1157139550245927 -0.18029465614444529 0 0.10772522460311169 -0.17968171223372481 0 0.095454742848087734 -0.19451486061966669 0 0.10772522460311169 -0.17968171223372481 0 0.093505174579280592 -0.1731787749771625 0 0.12083528946942131 -0.1711597280255607 0 0.093505174579280592 -0.1731787749771625 0 0.095454742848087734 -0.19451486061966669 0 0.093505174579280592 -0.1731787749771625 0 0.12083528946942131 -0.1711597280255607 0 0.10772522460311169 -0.17968171223372481 0 0.093505174579280592 -0.1731787749771625 0 0.1035248479174861 -0.15311019857333261 0 0.093505174579280592 -0.1731787749771625 0 0.091560400862706559 -0.15189516094014111 0 0.1035248479174861 -0.15311019857333261 0 0.12083528946942131 -0.1711597280255607 0 0.093505174579280592 -0.1731787749771625 0 0.078133883947979807 -0.15717501910519549 0 0.093505174579280592 -0.1731787749771625 0 0.091560400862706559 -0.15189516094014111 0 0.078133883947979807 -0.15717501910519549 0 0.093505174579280592 -0.1731787749771625 0 0.072477207369929117 -0.17473224276400179 0 0.093505174579280592 -0.1731787749771625 0 0.091560400862706559 -0.15189516094014111 0 0.081482512553192915 -0.1953056794767786 0 0.093505174579280592 -0.1731787749771625 0 0.072477207369929117 -0.17473224276400179 0 0.093505174579280592 -0.1731787749771625 0 0.072477207369929117 -0.17473224276400179 0 0.066040058368007956 -0.18964665730407451 0 0.072477207369929117 -0.17473224276400179 0 0.051449240160577621 -0.1762857105508405 0 0.066040058368007956 -0.18964665730407451 0 0.081482512553192915 -0.1953056794767786 0 0.072477207369929117 -0.17473224276400179 0 0.078133883947979807 -0.15717501910519549 0 0.072477207369929117 -0.17473224276400179 0 0.063878974636528515 -0.16401540189567099 0 0.072477207369929117 -0.17473224276400179 0 0.063878974636528515 -0.16401540189567099 0 0.051449240160577621 -0.1762857105508405 0 0.078133883947979807 -0.15717501910519549 0 0.063878974636528515 -0.16401540189567099 0 0.06522271263887458 -0.15305574504012881 0 0.06522271263887458 -0.15305574504012881 0 0.069316279952888193 -0.14186668388360371 0 0.075278834721760557 -0.14616760919767161 0 0.06522271263887458 -0.15305574504012881 0 0.069316279952888193 -0.14186668388360371 0 0.05757515479497001 -0.1486962131740798 0 0.069316279952888193 -0.14186668388360371 0 0.075278834721760557 -0.14616760919767161 0 0.079765110473415279 -0.13788087003968491 0 0.078133883947979807 -0.15717501910519549 0 0.06522271263887458 -0.15305574504012881 0 0.075278834721760557 -0.14616760919767161 0 0.098760878024456711 -0.14050656481393209 0 0.091560400862706559 -0.15189516094014111 0 0.089615627146132512 -0.13061154690311971 0 0.078133883947979807 -0.15717501910519549 0 0.083611330147541921 -0.14459745320402559 0 0.091560400862706559 -0.15189516094014111 0 0.091560400862706559 -0.15189516094014111 0 0.089615627146132512 -0.13061154690311971 0 0.078133883947979807 -0.15717501910519549 0 0.075278834721760557 -0.14616760919767161 0 0.083611330147541921 -0.14459745320402559 0 0.083611330147541921 -0.14459745320402559 0 0.091560400862706559 -0.15189516094014111 0 0.089615627146132512 -0.13061154690311971 0 0.075278834721760557 -0.14616760919767161 0 0.083611330147541921 -0.14459745320402559 0 0.079765110473415279 -0.13788087003968491 0 0.099525338641528904 -0.12611341339503321 0 0.089615627146132512 -0.13061154690311971 0 0.081894058627025895 -0.12584863130967919 0 0.083611330147541921 -0.14459745320402559 0 0.089615627146132512 -0.13061154690311971 0 0.079765110473415279 -0.13788087003968491 0 0.089615627146132512 -0.13061154690311971 0 0.079765110473415279 -0.13788087003968491 0 0.081894058627025895 -0.12584863130967919 0 0.081894058627025895 -0.12584863130967919 0 0.065576399090336079 -0.13067912082877309 0 0.057907204523981459 -0.13951585418161591 0 0.081894058627025895 -0.12584863130967919 0 0.057907204523981459 -0.13951585418161591 0 0.069316279952888193 -0.14186668388360371 0 0.081894058627025895 -0.12584863130967919 0 0.057907204523981459 -0.13951585418161591 0 0.081894058627025895 -0.12584863130967919 0 0.068207364780656948 -0.12563827965844471 0 0.065576399090336079 -0.13067912082877309 0 0.069316279952888193 -0.14186668388360371 0 0.079765110473415279 -0.13788087003968491 0 0.081894058627025895 -0.12584863130967919 0 0.068207364780656948 -0.12563827965844471 0 0.065576399090336079 -0.13067912082877309 0 0.054296968429680029 -0.13171371816535249 0 0.054296968429680029 -0.13171371816535249 0 0.057907204523981459 -0.13951585418161591 0 0.034849001543539322 -0.1503583031021323 0 0.054296968429680029 -0.13171371816535249 0 0.045553716665441668 -0.12681104972785159 0 0.052448498866582129 -0.1166826243517366 0 0.065576399090336079 -0.13067912082877309 0 0.054296968429680029 -0.13171371816535249 0 0.057907204523981459 -0.13951585418161591 0 0.069316279952888193 -0.14186668388360371 0 0.057907204523981459 -0.13951585418161591 0 0.05757515479497001 -0.1486962131740798 0 0.06522271263887458 -0.15305574504012881 0 0.05757515479497001 -0.1486962131740798 0 0.052111829065281459 -0.15882829201818821 0 0.046808539919221563 -0.15014413002933799 0 0.052111829065281459 -0.15882829201818821 0 0.043031393960321331 -0.1571354857308308 0 0.05757515479497001 -0.1486962131740798 0 0.046808539919221563 -0.15014413002933799 0 0.052111829065281459 -0.15882829201818821 0 0.057907204523981459 -0.13951585418161591 0 0.05757515479497001 -0.1486962131740798 0 0.046808539919221563 -0.15014413002933799 0 0.057907204523981459 -0.13951585418161591 0 0.046808539919221563 -0.15014413002933799 0 0.033920350420936912 -0.1531830770535528 0 0.057907204523981459 -0.13951585418161591 0 0.034849001543539322 -0.1503583031021323 0 0.033920350420936912 -0.1531830770535528 0 0.054296968429680029 -0.13171371816535249 0 0.034849001543539322 -0.1503583031021323 0 0.038558521200612962 -0.14006542407622449 0 0.054296968429680029 -0.13171371816535249 0 0.034849001543539322 -0.1503583031021323 0 0.057907204523981459 -0.13951585418161591 0 0.033920350420936912 -0.1531830770535528 0 0.046808539919221563 -0.15014413002933799 0 0.040219483271594643 -0.15466785876887121 0 0.033920350420936912 -0.1531830770535528 0 0.046808539919221563 -0.15014413002933799 0 0.040219483271594643 -0.15466785876887121 0 0.043031393960321331 -0.1571354857308308 0 0.040219483271594643 -0.15466785876887121 0 0.033920350420936912 -0.1531830770535528 0 0.037117648785898759 -0.15820874226176301 0 0.034849001543539322 -0.1503583031021323 0 0.031672068294339203 -0.14528428076340441 0 0.030051573782975471 -0.15027594372919439 0 0.034849001543539322 -0.1503583031021323 0 0.033920350420936912 -0.1531830770535528 0 0.030051573782975471 -0.15027594372919439 0 0.034849001543539322 -0.1503583031021323 0 0.031672068294339203 -0.14528428076340441 0 0.038558521200612962 -0.14006542407622449 0 0.031672068294339203 -0.14528428076340441 0 0.038558521200612962 -0.14006542407622449 0 0.030566093298411881 -0.13865773310914861 0 0.054296968429680029 -0.13171371816535249 0 0.038558521200612962 -0.14006542407622449 0 0.040644455285911409 -0.1338393175667463 0 0.038558521200612962 -0.14006542407622449 0 0.040644455285911409 -0.1338393175667463 0 0.030566093298411881 -0.13865773310914861 0 0.034824944079593127 -0.12500853882757099 0 0.040644455285911409 -0.1338393175667463 0 0.030566093298411881 -0.13865773310914861 0 0.034824944079593127 -0.12500853882757099 0 0.045553716665441668 -0.12681104972785159 0 0.040644455285911409 -0.1338393175667463 0 0.054296968429680029 -0.13171371816535249 0 0.045553716665441668 -0.12681104972785159 0 0.040644455285911409 -0.1338393175667463 0 0.072477207369929117 -0.17473224276400179 0 0.051449240160577621 -0.1762857105508405 0 0.056257937900538298 -0.19577788601322099 0 0.066040058368007956 -0.18964665730407451 0 0.051449240160577621 -0.1762857105508405 0 0.063878974636528515 -0.16401540189567099 0 0.051449240160577621 -0.1762857105508405 0 0.052111829065281459 -0.15882829201818821 0 0.051449240160577621 -0.1762857105508405 0 0.052111829065281459 -0.15882829201818821 0 0.040502396519655252 -0.1663673850483231 0 0.063878974636528515 -0.16401540189567099 0 0.06522271263887458 -0.15305574504012881 0 0.052111829065281459 -0.15882829201818821 0 0.043031393960321331 -0.1571354857308308 0 0.037117648785898759 -0.15820874226176301 0 0.040502396519655252 -0.1663673850483231 0 0.052111829065281459 -0.15882829201818821 0 0.043031393960321331 -0.1571354857308308 0 0.040502396519655252 -0.1663673850483231 0 0.040219483271594643 -0.15466785876887121 0 0.043031393960321331 -0.1571354857308308 0 0.037117648785898759 -0.15820874226176301 0 0.033920350420936912 -0.1531830770535528 0 0.033509818979212957 -0.15868168045615499 0 0.027465449436243041 -0.1628752445715565 0 0.037117648785898759 -0.15820874226176301 0 0.034071859908748191 -0.1623715567021686 0 0.040502396519655252 -0.1663673850483231 0 0.033920350420936912 -0.1531830770535528 0 0.037117648785898759 -0.15820874226176301 0 0.033509818979212957 -0.15868168045615499 0 0.037117648785898759 -0.15820874226176301 0 0.033509818979212957 -0.15868168045615499 0 0.034071859908748191 -0.1623715567021686 0 0.033509818979212957 -0.15868168045615499 0 0.034071859908748191 -0.1623715567021686 0 0.027465449436243041 -0.1628752445715565 0 0.031586668938662611 -0.1691709391612749 0 0.040502396519655252 -0.1663673850483231 0 0.030421272951226121 -0.1778391783376792 0 0.034071859908748191 -0.1623715567021686 0 0.031586668938662611 -0.1691709391612749 0 0.040502396519655252 -0.1663673850483231 0 0.051449240160577621 -0.1762857105508405 0 0.040502396519655252 -0.1663673850483231 0 0.030421272951226121 -0.1778391783376792 0 0.041440672425083092 -0.19607701236864419 0 0.051449240160577621 -0.1762857105508405 0 0.030421272951226121 -0.1778391783376792 0 0.051449240160577621 -0.1762857105508405 0 0.030421272951226121 -0.1778391783376792 0 0.02540307025583758 -0.19229280057405279 0 0.015764016274472759 -0.1812646672695073 0 0.030421272951226121 -0.1778391783376792 0 0.031586668938662611 -0.1691709391612749 0 0.030421272951226121 -0.1778391783376792 0 0.021575687727073561 -0.1734893605992324 0 0.015764016274472759 -0.1812646672695073 0 0.021575687727073561 -0.1734893605992324 0 0.012676990919703311 -0.16924925594887871 0 0.015764016274472759 -0.1812646672695073 0 0.030421272951226121 -0.1778391783376792 0 0.021575687727073561 -0.1734893605992324 0 0.033920350420936912 -0.1531830770535528 0 0.009933496317892726 -0.16685029992549011 0 0.02294500892830088 -0.1542832107784407 0 0.033920350420936912 -0.1531830770535528 0 0.027465449436243041 -0.1628752445715565 0 0.009933496317892726 -0.16685029992549011 0 0.019596439448784399 -0.16744493330375371 0 0.027465449436243041 -0.1628752445715565 0 0.009933496317892726 -0.16685029992549011 0 0.033920350420936912 -0.1531830770535528 0 0.009933496317892726 -0.16685029992549011 0 0.021575687727073561 -0.1734893605992324 0 0.019596439448784399 -0.16744493330375371 0 0.012676990919703311 -0.16924925594887871 0 0.021575687727073561 -0.1734893605992324 0 0.019596439448784399 -0.16744493330375371 0 0.025540403417393751 -0.1677775419388785 0 0.031586668938662611 -0.1691709391612749 0 0.021575687727073561 -0.1734893605992324 0 0.025540403417393751 -0.1677775419388785 0 0.019596439448784399 -0.16744493330375371 0 0.025540403417393751 -0.1677775419388785 0 0.027465449436243041 -0.1628752445715565 0 0.034071859908748191 -0.1623715567021686 0 0.031586668938662611 -0.1691709391612749 0 0.027465449436243041 -0.1628752445715565 0 0.031586668938662611 -0.1691709391612749 0 0.025540403417393751 -0.1677775419388785 0 0.027465449436243041 -0.1628752445715565 0 0.009933496317892726 -0.16685029992549011 0 0.01648447247354291 -0.15404273338364399 0 0.02294500892830088 -0.1542832107784407 0 0.009933496317892726 -0.16685029992549011 0 0.01648447247354291 -0.15404273338364399 0 0.0068311679390763679 -0.1533437069849535 0 0.019596439448784399 -0.16744493330375371 0 0.009933496317892726 -0.16685029992549011 0 0.012676990919703311 -0.16924925594887871 0 0.009933496317892726 -0.16685029992549011 0 0.012676990919703311 -0.16924925594887871 0 0.0034571977838801569 -0.17702496179755631 0 0.009933496317892726 -0.16685029992549011 0 0.012676990919703311 -0.16924925594887871 0 -0.0085976242789068957 -0.177408956520272 0 0.009933496317892726 -0.16685029992549011 0 -0.0085976242789068957 -0.177408956520272 0 0.009933496317892726 -0.16685029992549011 0 0.0034571977838801569 -0.17702496179755631 0 0.015764016274472759 -0.1812646672695073 0 0.012676990919703311 -0.16924925594887871 0 0.0034571977838801569 -0.17702496179755631 0 -0.003739977245034012 -0.19168309442994089 0 0.010514116253606281 -0.1925853606064957 0 0.0034571977838801569 -0.17702496179755631 0 0.010514116253606281 -0.1925853606064957 0 0.015764016274472759 -0.1812646672695073 0 0.0034571977838801569 -0.17702496179755631 0 0.02166725362828328 -0.1398342401410575 0 0.019282665512654749 -0.1297026577714144 0 0.01241268948209219 -0.14437852502616319 0 0.034824944079593127 -0.12500853882757099 0 0.019282665512654749 -0.1297026577714144 0 0.030566093298411881 -0.13865773310914861 0 0.02166725362828328 -0.1398342401410575 0 0.019282665512654749 -0.1297026577714144 0 0.030566093298411881 -0.13865773310914861 0 0.031672068294339203 -0.14528428076340441 0 0.030566093298411881 -0.13865773310914861 0 0.024335151646156381 -0.14706399980032239 0 0.02166725362828328 -0.1398342401410575 0 0.030566093298411881 -0.13865773310914861 0 0.024335151646156381 -0.14706399980032239 0 0.031672068294339203 -0.14528428076340441 0 0.024335151646156381 -0.14706399980032239 0 0.030051573782975471 -0.15027594372919439 0 0.033920350420936912 -0.1531830770535528 0 0.030051573782975471 -0.15027594372919439 0 0.02294500892830088 -0.1542832107784407 0 0.024335151646156381 -0.14706399980032239 0 0.030051573782975471 -0.15027594372919439 0 0.02294500892830088 -0.1542832107784407 0 0.024335151646156381 -0.14706399980032239 0 0.01648447247354291 -0.15404273338364399 0 0.01241268948209219 -0.14437852502616319 0 0.024335151646156381 -0.14706399980032239 0 0.01648447247354291 -0.15404273338364399 0 0.02294500892830088 -0.1542832107784407 0 0.02166725362828328 -0.1398342401410575 0 0.024335151646156381 -0.14706399980032239 0 0.01241268948209219 -0.14437852502616319 0 -0.011505986517222349 -0.14810326960451681 0 0.01241268948209219 -0.14437852502616319 0 0.0068311679390763679 -0.1533437069849535 0 -0.011505986517222349 -0.14810326960451681 0 0.009933496317892726 -0.16685029992549011 0 0.0068311679390763679 -0.1533437069849535 0 -0.011505986517222349 -0.14810326960451681 0 0.01241268948209219 -0.14437852502616319 0 0.0027021066240326768 -0.1317064378292063 0 0.01648447247354291 -0.15404273338364399 0 0.01241268948209219 -0.14437852502616319 0 0.0068311679390763679 -0.1533437069849535 0 0.019282665512654749 -0.1297026577714144 0 0.01241268948209219 -0.14437852502616319 0 0.0027021066240326768 -0.1317064378292063 0 0.019282665512654749 -0.1297026577714144 0 0.0027021066240326768 -0.1317064378292063 0 0.005085065621477718 -0.1151057880332567 0 0.019282665512654749 -0.1297026577714144 0 0.005085065621477718 -0.1151057880332567 0 0.024129304522527751 -0.1089818526354679 0 0.034824944079593127 -0.12500853882757099 0 0.019282665512654749 -0.1297026577714144 0 0.024129304522527751 -0.1089818526354679 0 0.024129304522527751 -0.1089818526354679 0 0.01380815825635252 -0.094132232187142617 0 0.031293966725895003 -0.08518965294817829 0 -0.00044729776891663488 -0.1011528385718463 0 0.005085065621477718 -0.1151057880332567 0 0.01380815825635252 -0.094132232187142617 0 0.005085065621477718 -0.1151057880332567 0 0.024129304522527751 -0.1089818526354679 0 0.01380815825635252 -0.094132232187142617 0 0.01380815825635252 -0.094132232187142617 0 0.0042106568376920582 -0.081118225430045127 0 0.020039989671696231 -0.071989185162356889 0 -0.00044729776891663488 -0.1011528385718463 0 0.01380815825635252 -0.094132232187142617 0 0.0042106568376920582 -0.081118225430045127 0 0.0042106568376920582 -0.081118225430045127 0 0.0052181775422467033 -0.064346337314722044 0 0.020039989671696231 -0.071989185162356889 0 -0.0043762627118289626 -0.071729097412358583 0 0.0042106568376920582 -0.081118225430045127 0 0.0052181775422467033 -0.064346337314722044 0 0.0052181775422467033 -0.064346337314722044 0 0.020039989671696231 -0.071989185162356889 0 0.0052181775422467033 -0.064346337314722044 0 0.020039989671696231 -0.071989185162356889 0 0.017880224012190679 -0.058506375123621113 0 0.020039989671696231 -0.071989185162356889 0 0.017880224012190679 -0.058506375123621113 0 0.035073137211611732 -0.060365082031122411 0 0.020039989671696231 -0.071989185162356889 0 0.031293966725895003 -0.08518965294817829 0 0.035073137211611732 -0.060365082031122411 0 0.01380815825635252 -0.094132232187142617 0 0.020039989671696231 -0.071989185162356889 0 0.031293966725895003 -0.08518965294817829 0 0.031293966725895003 -0.08518965294817829 0 0.050629459546369923 -0.074776417317023003 0 0.042727201812981508 -0.099892478072297022 0 0.050629459546369923 -0.074776417317023003 0 0.042727201812981508 -0.099892478072297022 0 0.031293966725895003 -0.08518965294817829 0 0.050629459546369923 -0.074776417317023003 0 0.035073137211611732 -0.060365082031122411 0 0.050629459546369923 -0.074776417317023003 0 0.058531717279758283 -0.049660356561749108 0 0.072219385832792832 -0.066659644627356851 0 0.050629459546369923 -0.074776417317023003 0 0.042727201812981508 -0.099892478072297022 0 0.069701838591585213 -0.089386546866783212 0 0.059655618646742382 -0.10475769562984739 0 0.052448498866582129 -0.1166826243517366 0 0.042727201812981508 -0.099892478072297022 0 0.059655618646742382 -0.10475769562984739 0 0.042727201812981508 -0.099892478072297022 0 0.069701838591585213 -0.089386546866783212 0 0.054296968429680029 -0.13171371816535249 0 0.052448498866582129 -0.1166826243517366 0 0.073744935315820714 -0.1130691332285727 0 0.059655618646742382 -0.10475769562984739 0 0.052448498866582129 -0.1166826243517366 0 0.073744935315820714 -0.1130691332285727 0 0.034824944079593127 -0.12500853882757099 0 0.045553716665441668 -0.12681104972785159 0 0.052448498866582129 -0.1166826243517366 0 0.034824944079593127 -0.12500853882757099 0 0.052448498866582129 -0.1166826243517366 0 0.042727201812981508 -0.099892478072297022 0 0.034824944079593127 -0.12500853882757099 0 0.024129304522527751 -0.1089818526354679 0 0.042727201812981508 -0.099892478072297022 0 0.034824944079593127 -0.12500853882757099 0 0.042727201812981508 -0.099892478072297022 0 0.024129304522527751 -0.1089818526354679 0 0.031293966725895003 -0.08518965294817829 0 0.042727201812981508 -0.099892478072297022 0 0.034885408484197772 0.0062912350017927032 0 0.01265631079038235 -0.01012693536007268 0 0.042517259973231587 -0.011683923625132649 0 -0.00118246574067416 -0.01324232368796026 0 0.0012074066645448821 -0.00065723147797176382 0 0.01265631079038235 -0.01012693536007268 0 0.01265631079038235 -0.01012693536007268 0 0.02406773205363014 -0.026959444655171291 0 0.0015263381015913891 -0.033415212413580753 0 0.01265631079038235 -0.01012693536007268 0 0.0015263381015913891 -0.033415212413580753 0 -0.00118246574067416 -0.01324232368796026 0 0.01265631079038235 -0.01012693536007268 0 0.0015263381015913891 -0.033415212413580753 0 0.01265631079038235 -0.01012693536007268 0 0.02406773205363014 -0.026959444655171291 0 0.042517259973231587 -0.011683923625132649 0 0.02406773205363014 -0.026959444655171291 0 0.021771409900077709 -0.044354063799483319 0 0.04186734150286768 -0.035217088077587062 0 0.02406773205363014 -0.026959444655171291 0 0.021771409900077709 -0.044354063799483319 0 0.0015263381015913891 -0.033415212413580753 0 0.021771409900077709 -0.044354063799483319 0 0.0015263381015913891 -0.033415212413580753 0 0.007298405735321048 -0.051477207310420908 0 -0.0096036345872028556 -0.056703489467087059 0 0.0052181775422467033 -0.064346337314722044 0 0.007298405735321048 -0.051477207310420908 0 0.0052181775422467033 -0.064346337314722044 0 0.007298405735321048 -0.051477207310420908 0 0.017880224012190679 -0.058506375123621113 0 0.021771409900077709 -0.044354063799483319 0 0.017880224012190679 -0.058506375123621113 0 0.035073137211611732 -0.060365082031122411 0 0.021771409900077709 -0.044354063799483319 0 0.007298405735321048 -0.051477207310420908 0 0.017880224012190679 -0.058506375123621113 0 0.035073137211611732 -0.060365082031122411 0 0.058531717279758283 -0.049660356561749108 0 0.04186734150286768 -0.035217088077587062 0 0.050629459546369923 -0.074776417317023003 0 0.058531717279758283 -0.049660356561749108 0 0.050629459546369923 -0.074776417317023003 0 0.035073137211611732 -0.060365082031122411 0 0.058531717279758283 -0.049660356561749108 0 0.058531717279758283 -0.049660356561749108 0 0.066433975013146629 -0.02454429580647528 0 0.058531717279758283 -0.049660356561749108 0 0.04186734150286768 -0.035217088077587062 0 0.066433975013146629 -0.02454429580647528 0 0.021771409900077709 -0.044354063799483319 0 0.035073137211611732 -0.060365082031122411 0 0.04186734150286768 -0.035217088077587062 0 0.02406773205363014 -0.026959444655171291 0 0.04186734150286768 -0.035217088077587062 0 0.042517259973231587 -0.011683923625132649 0 0.04186734150286768 -0.035217088077587062 0 0.042517259973231587 -0.011683923625132649 0 0.066433975013146629 -0.02454429580647528 0 0.052968053050369737 0.0090809173488315582 0 0.042517259973231587 -0.011683923625132649 0 0.067492943165135169 -0.0019794682467893379 0 0.042517259973231587 -0.011683923625132649 0 0.067492943165135169 -0.0019794682467893379 0 0.066433975013146629 -0.02454429580647528 0 0.087040675587819916 -0.0096101539263870796 0 0.066433975013146629 -0.02454429580647528 0 0.098032226742104309 -0.02831505409649597 0 0.083930998993742512 0.0059737405228527038 0 0.087040675587819916 -0.0096101539263870796 0 0.067492943165135169 -0.0019794682467893379 0 0.083930998993742512 0.0059737405228527038 0 0.098495163759696414 0.0029673617968291321 0 0.087040675587819916 -0.0096101539263870796 0 0.087040675587819916 -0.0096101539263870796 0 0.067492943165135169 -0.0019794682467893379 0 0.066433975013146629 -0.02454429580647528 0 0.066433975013146629 -0.02454429580647528 0 0.080663194565618018 -0.042742664855397232 0 0.098032226742104309 -0.02831505409649597 0 0.080663194565618018 -0.042742664855397232 0 0.099119978598511321 -0.045144617550746849 0 0.098032226742104309 -0.02831505409649597 0 0.058531717279758283 -0.049660356561749108 0 0.066433975013146629 -0.02454429580647528 0 0.080663194565618018 -0.042742664855397232 0 0.058531717279758283 -0.049660356561749108 0 0.080663194565618018 -0.042742664855397232 0 0.072219385832792832 -0.066659644627356851 0 0.080663194565618018 -0.042742664855397232 0 0.091985945990252393 -0.059557823171565508 0 0.072219385832792832 -0.066659644627356851 0 0.080663194565618018 -0.042742664855397232 0 0.091985945990252393 -0.059557823171565508 0 0.099119978598511321 -0.045144617550746849 0 0.091985945990252393 -0.059557823171565508 0 0.109385226414503 -0.056941989317685793 0 0.099119978598511321 -0.045144617550746849 0 0.109385226414503 -0.056941989317685793 0 0.1174221699598199 -0.069046986946925279 0 0.12664898879935529 -0.055605769639440771 0 0.109385226414503 -0.056941989317685793 0 0.1155332992800789 -0.038165556312589707 0 0.12664898879935529 -0.055605769639440771 0 0.1155332992800789 -0.038165556312589707 0 0.12954193793015309 -0.041748568408345607 0 0.12664898879935529 -0.055605769639440771 0 0.1155332992800789 -0.038165556312589707 0 0.1294320674019063 -0.023146095115484211 0 0.12954193793015309 -0.041748568408345607 0 0.109385226414503 -0.056941989317685793 0 0.1155332992800789 -0.038165556312589707 0 0.099119978598511321 -0.045144617550746849 0 0.1155332992800789 -0.038165556312589707 0 0.099119978598511321 -0.045144617550746849 0 0.098032226742104309 -0.02831505409649597 0 0.1155332992800789 -0.038165556312589707 0 0.098032226742104309 -0.02831505409649597 0 0.1112777463759113 -0.012222875866518469 0 0.087040675587819916 -0.0096101539263870796 0 0.098032226742104309 -0.02831505409649597 0 0.1112777463759113 -0.012222875866518469 0 0.1155332992800789 -0.038165556312589707 0 0.1112777463759113 -0.012222875866518469 0 0.1294320674019063 -0.023146095115484211 0 0.1158546052028349 0.0064685721448778594 0 0.13464870039648349 0.00080453217212592717 0 0.1112777463759113 -0.012222875866518469 0 0.098495163759696414 0.0029673617968291321 0 0.087040675587819916 -0.0096101539263870796 0 0.1112777463759113 -0.012222875866518469 0 0.1158546052028349 0.0064685721448778594 0 0.098495163759696414 0.0029673617968291321 0 0.1112777463759113 -0.012222875866518469 0 0.093192902201961414 -0.094424548291792879 0 0.088899626305776192 -0.1113374325741409 0 0.073744935315820714 -0.1130691332285727 0 0.093192902201961414 -0.094424548291792879 0 0.073744935315820714 -0.1130691332285727 0 0.069701838591585213 -0.089386546866783212 0 0.093192902201961414 -0.094424548291792879 0 0.073744935315820714 -0.1130691332285727 0 0.081894058627025895 -0.12584863130967919 0 0.088899626305776192 -0.1113374325741409 0 0.09397493983509804 -0.11322330148444169 0 0.081894058627025895 -0.12584863130967919 0 0.079920122843727764 -0.11786127252462281 0 0.075141871126288284 -0.1211898929860986 0 0.081894058627025895 -0.12584863130967919 0 0.088899626305776192 -0.1113374325741409 0 0.079920122843727764 -0.11786127252462281 0 0.088899626305776192 -0.1113374325741409 0 0.079920122843727764 -0.11786127252462281 0 0.073744935315820714 -0.1130691332285727 0 0.068207364780656948 -0.12563827965844471 0 0.054296968429680029 -0.13171371816535249 0 0.073744935315820714 -0.1130691332285727 0 0.054296968429680029 -0.13171371816535249 0 0.073744935315820714 -0.1130691332285727 0 0.068207364780656948 -0.12563827965844471 0 0.073744935315820714 -0.1130691332285727 0 0.075141871126288284 -0.1211898929860986 0 0.079920122843727764 -0.11786127252462281 0 0.073744935315820714 -0.1130691332285727 0 0.075141871126288284 -0.1211898929860986 0 0.081894058627025895 -0.12584863130967919 0 0.068207364780656948 -0.12563827965844471 0 0.075141871126288284 -0.1211898929860986 0 0.059655618646742382 -0.10475769562984739 0 0.073744935315820714 -0.1130691332285727 0 0.069701838591585213 -0.089386546866783212 0 0.050629459546369923 -0.074776417317023003 0 0.069701838591585213 -0.089386546866783212 0 0.072219385832792832 -0.066659644627356851 0 0.069701838591585213 -0.089386546866783212 0 0.072219385832792832 -0.066659644627356851 0 0.089711563165187497 -0.078251462936863553 0 0.091985945990252393 -0.059557823171565508 0 0.072219385832792832 -0.066659644627356851 0 0.089711563165187497 -0.078251462936863553 0 0.093192902201961414 -0.094424548291792879 0 0.069701838591585213 -0.089386546866783212 0 0.089711563165187497 -0.078251462936863553 0 0.093192902201961414 -0.094424548291792879 0 0.089711563165187497 -0.078251462936863553 0 0.1048667032735431 -0.089595599910983495 0 0.089711563165187497 -0.078251462936863553 0 0.1048667032735431 -0.089595599910983495 0 0.1056935618466131 -0.072691272791708894 0 0.1048667032735431 -0.089595599910983495 0 0.1056935618466131 -0.072691272791708894 0 0.11564058922802831 -0.08068930143821873 0 0.091985945990252393 -0.059557823171565508 0 0.089711563165187497 -0.078251462936863553 0 0.1056935618466131 -0.072691272791708894 0 0.091985945990252393 -0.059557823171565508 0 0.109385226414503 -0.056941989317685793 0 0.1056935618466131 -0.072691272791708894 0 0.1174221699598199 -0.069046986946925279 0 0.12840026197867099 -0.078951386265116219 0 0.12664898879935529 -0.055605769639440771 0 0.109385226414503 -0.056941989317685793 0 0.1056935618466131 -0.072691272791708894 0 0.1174221699598199 -0.069046986946925279 0 0.1056935618466131 -0.072691272791708894 0 0.1174221699598199 -0.069046986946925279 0 0.11564058922802831 -0.08068930143821873 0 0.1174221699598199 -0.069046986946925279 0 0.11564058922802831 -0.08068930143821873 0 0.12840026197867099 -0.078951386265116219 0 0.1048667032735431 -0.089595599910983495 0 0.11564058922802831 -0.08068930143821873 0 0.1191358060176364 -0.092450830711447801 0 0.1191358060176364 -0.092450830711447801 0 0.12840026197867099 -0.078951386265116219 0 0.11564058922802831 -0.08068930143821873 0 0.1191358060176364 -0.092450830711447801 0 0.12840026197867099 -0.078951386265116219 0 0.1058809127300703 -0.11218140843774239 0 0.12023297736745781 -0.1110263554770618 0 0.12986776683311119 -0.098514185565799078 0 0.1058809127300703 -0.11218140843774239 0 0.12986776683311119 -0.098514185565799078 0 0.1048667032735431 -0.089595599910983495 0 0.1191358060176364 -0.092450830711447801 0 0.10987135005660249 -0.1059502751577799 0 0.10987135005660249 -0.1059502751577799 0 0.1058809127300703 -0.11218140843774239 0 0.12986776683311119 -0.098514185565799078 0 0.1191358060176364 -0.092450830711447801 0 0.10987135005660249 -0.1059502751577799 0 0.12986776683311119 -0.098514185565799078 0 0.1191358060176364 -0.092450830711447801 0 0.10987135005660249 -0.1059502751577799 0 0.093192902201961414 -0.094424548291792879 0 0.088899626305776192 -0.1113374325741409 0 0.099225161677519755 -0.1035257336162041 0 0.1048667032735431 -0.089595599910983495 0 0.10987135005660249 -0.1059502751577799 0 0.099225161677519755 -0.1035257336162041 0 0.10987135005660249 -0.1059502751577799 0 0.099225161677519755 -0.1035257336162041 0 0.1058809127300703 -0.11218140843774239 0 0.088899626305776192 -0.1113374325741409 0 0.099225161677519755 -0.1035257336162041 0 0.09397493983509804 -0.11322330148444169 0 0.093192902201961414 -0.094424548291792879 0 0.1048667032735431 -0.089595599910983495 0 0.099225161677519755 -0.1035257336162041 0 0.081894058627025895 -0.12584863130967919 0 0.1058809127300703 -0.11218140843774239 0 0.099525338641528904 -0.12611341339503321 0 0.081894058627025895 -0.12584863130967919 0 0.1058809127300703 -0.11218140843774239 0 0.081894058627025895 -0.12584863130967919 0 0.09397493983509804 -0.11322330148444169 0 0.1058809127300703 -0.11218140843774239 0 0.099225161677519755 -0.1035257336162041 0 0.09397493983509804 -0.11322330148444169 0 0.1058809127300703 -0.11218140843774239 0 0.099525338641528904 -0.12611341339503321 0 0.1058809127300703 -0.11218140843774239 0 0.1121708616464093 -0.1216807098986791 0 0.1058809127300703 -0.11218140843774239 0 0.1121708616464093 -0.1216807098986791 0 0.12023297736745781 -0.1110263554770618 0 0.11997683785091839 -0.1276371159963853 0 0.121067612134044 -0.1214532534018402 0 0.13188977167139071 -0.12546883223523481 0 0.12023297736745781 -0.1110263554770618 0 0.121067612134044 -0.1214532534018402 0 0.13188977167139071 -0.12546883223523481 0 0.11997683785091839 -0.1276371159963853 0 0.1121708616464093 -0.1216807098986791 0 0.121067612134044 -0.1214532534018402 0 0.1121708616464093 -0.1216807098986791 0 0.12023297736745781 -0.1110263554770618 0 0.121067612134044 -0.1214532534018402 0 0.12023297736745781 -0.1110263554770618 0 0.12986776683311119 -0.098514185565799078 0 0.13188977167139071 -0.12546883223523481 0 0.12986776683311119 -0.098514185565799078 0 0.13188977167139071 -0.12546883223523481 0 0.14925441928633251 -0.10969288085116551 0 0.13995942417209239 -0.1034127274713456 0 0.13188977167139071 -0.12546883223523481 0 0.14724036225017881 -0.1245170930860646 0 0.14925441928633251 -0.10969288085116551 0 0.13188977167139071 -0.12546883223523481 0 0.14925441928633251 -0.10969288085116551 0 0.15485465026004211 -0.11932571079310079 0 0.15999890680388329 -0.1096406796162286 0 0.14724036225017881 -0.1245170930860646 0 0.15485465026004211 -0.11932571079310079 0 0.15557261582888751 -0.13003178131142151 0 0.14724036225017881 -0.1245170930860646 0 0.14925441928633251 -0.10969288085116551 0 0.15485465026004211 -0.11932571079310079 0 0.14925441928633251 -0.10969288085116551 0 0.14348993397904131 -0.092765062884646393 0 0.1620153957752187 -0.097165399419701551 0 0.14348993397904131 -0.092765062884646393 0 0.1620153957752187 -0.097165399419701551 0 0.14925441928633251 -0.10969288085116551 0 0.13995942417209239 -0.1034127274713456 0 0.14348993397904131 -0.092765062884646393 0 0.13995942417209239 -0.1034127274713456 0 0.12986776683311119 -0.098514185565799078 0 0.13188977167139071 -0.12546883223523481 0 0.13995942417209239 -0.1034127274713456 0 0.12986776683311119 -0.098514185565799078 0 0.14348993397904131 -0.092765062884646393 0 0.12986776683311119 -0.098514185565799078 0 0.12840026197867099 -0.078951386265116219 0 0.1428482005174804 -0.076716741777837147 0 0.1191358060176364 -0.092450830711447801 0 0.12986776683311119 -0.098514185565799078 0 0.12840026197867099 -0.078951386265116219 0 0.12986776683311119 -0.098514185565799078 0 0.12840026197867099 -0.078951386265116219 0 0.12840026197867099 -0.078951386265116219 0 0.12664898879935529 -0.055605769639440771 0 0.12840026197867099 -0.078951386265116219 0 0.12664898879935529 -0.055605769639440771 0 0.14464694777039611 -0.055277979731059648 0 0.12840026197867099 -0.078951386265116219 0 0.1428482005174804 -0.076716741777837147 0 0.14464694777039611 -0.055277979731059648 0 0.12840026197867099 -0.078951386265116219 0 0.14464694777039611 -0.055277979731059648 0 0.1428482005174804 -0.076716741777837147 0 0.15680899227989839 -0.06637062400294011 0 0.14464694777039611 -0.055277979731059648 0 0.1428482005174804 -0.076716741777837147 0 0.15451703372532541 -0.084469533324270707 0 0.15680899227989839 -0.06637062400294011 0 0.12986776683311119 -0.098514185565799078 0 0.15451703372532541 -0.084469533324270707 0 0.12986776683311119 -0.098514185565799078 0 0.14348993397904131 -0.092765062884646393 0 0.15451703372532541 -0.084469533324270707 0 0.14348993397904131 -0.092765062884646393 0 0.15451703372532541 -0.084469533324270707 0 0.1620153957752187 -0.097165399419701551 0 0.12986776683311119 -0.098514185565799078 0 0.1428482005174804 -0.076716741777837147 0 0.15451703372532541 -0.084469533324270707 0 0.15451703372532541 -0.084469533324270707 0 0.1674193516126988 -0.088794767656503876 0 0.1620153957752187 -0.097165399419701551 0 0.15451703372532541 -0.084469533324270707 0 0.1674193516126988 -0.088794767656503876 0 0.16389165652408541 -0.076485311925560115 0 0.1674193516126988 -0.088794767656503876 0 0.16389165652408541 -0.076485311925560115 0 0.17613181446746839 -0.084287857658230353 0 0.15451703372532541 -0.084469533324270707 0 0.15680899227989839 -0.06637062400294011 0 0.16389165652408541 -0.076485311925560115 0 0.16389165652408541 -0.076485311925560115 0 0.1717227713635387 -0.067009979361705274 0 0.17613181446746839 -0.084287857658230353 0 0.15680899227989839 -0.06637062400294011 0 0.16389165652408541 -0.076485311925560115 0 0.1717227713635387 -0.067009979361705274 0 0.15680899227989839 -0.06637062400294011 0 0.1717227713635387 -0.067009979361705274 0 0.1652446184022294 -0.054500080927008407 0 0.1717227713635387 -0.067009979361705274 0 0.17613181446746839 -0.084287857658230353 0 0.1717227713635387 -0.067009979361705274 0 0.18346211879182289 -0.064955309332027283 0 0.18137547142311691 -0.085525622921553163 0 0.18346211879182289 -0.064955309332027283 0 0.18137547142311691 -0.085525622921553163 0 0.1952329782378138 -0.068464889048657496 0 0.1717227713635387 -0.067009979361705274 0 0.18137547142311691 -0.085525622921553163 0 0.1717227713635387 -0.067009979361705274 0 0.18346211879182289 -0.064955309332027283 0 0.1746283364613696 -0.057560297553190053 0 0.18137547142311691 -0.085525622921553163 0 0.17613181446746839 -0.084287857658230353 0 0.18054085757139629 -0.1015657359547559 0 0.17613181446746839 -0.084287857658230353 0 0.18054085757139629 -0.1015657359547559 0 0.1674193516126988 -0.088794767656503876 0 0.17613181446746839 -0.084287857658230353 0 0.18054085757139629 -0.1015657359547559 0 0.1717227713635387 -0.067009979361705274 0 0.18137547142311691 -0.085525622921553163 0 0.17613181446746839 -0.084287857658230353 0 0.18137547142311691 -0.085525622921553163 0 0.19100769245097829 -0.1040519139747048 0 0.18137547142311691 -0.085525622921553163 0 0.18054085757139629 -0.1015657359547559 0 0.19100769245097829 -0.1040519139747048 0 0.18054085757139629 -0.1015657359547559 0 0.1749190978293893 -0.1165979942053425 0 0.16884250162088479 -0.1080310140379921 0 0.18054085757139629 -0.1015657359547559 0 0.19100769245097829 -0.1040519139747048 0 0.18054085757139629 -0.1015657359547559 0 0.1862357176231304 -0.1238823921021804 0 0.1749190978293893 -0.1165979942053425 0 0.18054085757139629 -0.1015657359547559 0 0.1862357176231304 -0.1238823921021804 0 0.19100769245097829 -0.1040519139747048 0 0.18054085757139629 -0.1015657359547559 0 0.1862357176231304 -0.1238823921021804 0 0.1862357176231304 -0.1238823921021804 0 0.1749190978293893 -0.1165979942053425 0 0.17324983187337631 -0.13165498831909611 0 0.1749190978293893 -0.1165979942053425 0 0.16471491079178111 -0.1205264202314431 0 0.16884250162088479 -0.1080310140379921 0 0.16471491079178111 -0.1205264202314431 0 0.15999890680388329 -0.1096406796162286 0 0.16884250162088479 -0.1080310140379921 0 0.1749190978293893 -0.1165979942053425 0 0.16471491079178111 -0.1205264202314431 0 0.17324983187337631 -0.13165498831909611 0 0.15485465026004211 -0.11932571079310079 0 0.16471491079178111 -0.1205264202314431 0 0.15557261582888751 -0.13003178131142151 0 0.15485465026004211 -0.11932571079310079 0 0.16471491079178111 -0.1205264202314431 0 0.15999890680388329 -0.1096406796162286 0 0.18054085757139629 -0.1015657359547559 0 0.1620153957752187 -0.097165399419701551 0 0.1674193516126988 -0.088794767656503876 0 0.18054085757139629 -0.1015657359547559 0 0.1620153957752187 -0.097165399419701551 0 0.14925441928633251 -0.10969288085116551 0 0.15999890680388329 -0.1096406796162286 0 0.1620153957752187 -0.097165399419701551 0 0.15999890680388329 -0.1096406796162286 0 0.1620153957752187 -0.097165399419701551 0 0.16884250162088479 -0.1080310140379921 0 0.18054085757139629 -0.1015657359547559 0 0.1620153957752187 -0.097165399419701551 0 0.16884250162088479 -0.1080310140379921 0 0.13464870039648349 0.00080453217212592717 0 0.15480995508657039 -0.001084596553268768 0 0.14892696920713289 -0.018041582065753459 0 0.13464870039648349 0.00080453217212592717 0 0.1294320674019063 -0.023146095115484211 0 0.14892696920713289 -0.018041582065753459 0 0.13464870039648349 0.00080453217212592717 0 0.1112777463759113 -0.012222875866518469 0 0.1294320674019063 -0.023146095115484211 0 0.1294320674019063 -0.023146095115484211 0 0.14892696920713289 -0.018041582065753459 0 0.14270131340979469 -0.036531096068384838 0 0.14892696920713289 -0.018041582065753459 0 0.14270131340979469 -0.036531096068384838 0 0.16089363356212191 -0.031604573197003549 0 0.14270131340979469 -0.036531096068384838 0 0.14464694777039611 -0.055277979731059648 0 0.16089363356212191 -0.031604573197003549 0 0.14464694777039611 -0.055277979731059648 0 0.15561449558007559 -0.051164132387281437 0 0.16089363356212191 -0.031604573197003549 0 0.14464694777039611 -0.055277979731059648 0 0.16089363356212191 -0.031604573197003549 0 0.14270131340979469 -0.036531096068384838 0 0.12954193793015309 -0.041748568408345607 0 0.14464694777039611 -0.055277979731059648 0 0.1294320674019063 -0.023146095115484211 0 0.14270131340979469 -0.036531096068384838 0 0.12954193793015309 -0.041748568408345607 0 0.12954193793015309 -0.041748568408345607 0 0.12664898879935529 -0.055605769639440771 0 0.14464694777039611 -0.055277979731059648 0 0.15680899227989839 -0.06637062400294011 0 0.14464694777039611 -0.055277979731059648 0 0.15561449558007559 -0.051164132387281437 0 0.15680899227989839 -0.06637062400294011 0 0.15561449558007559 -0.051164132387281437 0 0.1652446184022294 -0.054500080927008407 0 0.15561449558007559 -0.051164132387281437 0 0.1652446184022294 -0.054500080927008407 0 0.1617942405007988 -0.043199732881276223 0 0.1652446184022294 -0.054500080927008407 0 0.1746283364613696 -0.057560297553190053 0 0.1617942405007988 -0.043199732881276223 0 0.1717227713635387 -0.067009979361705274 0 0.1652446184022294 -0.054500080927008407 0 0.1717227713635387 -0.067009979361705274 0 0.1652446184022294 -0.054500080927008407 0 0.1746283364613696 -0.057560297553190053 0 0.1746283364613696 -0.057560297553190053 0 0.1828119860636557 -0.050363577362968731 0 0.1617942405007988 -0.043199732881276223 0 0.18346211879182289 -0.064955309332027283 0 0.1746283364613696 -0.057560297553190053 0 0.1828119860636557 -0.050363577362968731 0 0.18346211879182289 -0.064955309332027283 0 0.1828119860636557 -0.050363577362968731 0 0.19188844298534441 -0.056659859735039647 0 0.1617942405007988 -0.043199732881276223 0 0.18853740735089011 -0.033706188378118708 0 0.1828119860636557 -0.050363577362968731 0 0.1617942405007988 -0.043199732881276223 0 0.18853740735089011 -0.033706188378118708 0 0.15561449558007559 -0.051164132387281437 0 0.16089363356212191 -0.031604573197003549 0 0.1617942405007988 -0.043199732881276223 0 0.16089363356212191 -0.031604573197003549 0 0.1617942405007988 -0.043199732881276223 0 0.18853740735089011 -0.033706188378118708 0 0.16089363356212191 -0.031604573197003549 0 0.17714031935384769 -0.0079311666629475405 0 0.14892696920713289 -0.018041582065753459 0 0.16089363356212191 -0.031604573197003549 0 0.17714031935384769 -0.0079311666629475405 0 0.16089363356212191 -0.031604573197003549 0 0.17714031935384769 -0.0079311666629475405 0 0.18853740735089011 -0.033706188378118708 0 0.1657030786406338 0.0084270166623369204 0 0.15480995508657039 -0.001084596553268768 0 0.17714031935384769 -0.0079311666629475405 0 0.15480995508657039 -0.001084596553268768 0 0.14892696920713289 -0.018041582065753459 0 0.17714031935384769 -0.0079311666629475405 0 0.21351355446813719 -0.0021103410187178909 0 0.2110126965438916 -0.012672932103663791 0 0.2228246624943325 -0.0092295053444410857 0 0.2110126965438916 -0.012672932103663791 0 0.21911622703360889 -0.015650702578479541 0 0.2228246624943325 -0.0092295053444410857 0 0.21351355446813719 -0.0021103410187178909 0 0.2110126965438916 -0.012672932103663791 0 0.19836939172364151 -0.01016904411482358 0 0.1998105265397013 0.00335350757378736 0 0.21351355446813719 -0.0021103410187178909 0 0.19836939172364151 -0.01016904411482358 0 0.1998105265397013 0.00335350757378736 0 0.17714031935384769 -0.0079311666629475405 0 0.19836939172364151 -0.01016904411482358 0 0.17714031935384769 -0.0079311666629475405 0 0.19836939172364151 -0.01016904411482358 0 0.18853740735089011 -0.033706188378118708 0 0.2110126965438916 -0.012672932103663791 0 0.19836939172364151 -0.01016904411482358 0 0.18853740735089011 -0.033706188378118708 0 0.21528057420098159 -0.024212643874961401 0 0.18853740735089011 -0.033706188378118708 0 0.2110126965438916 -0.012672932103663791 0 0.21528057420098159 -0.024212643874961401 0 0.18853740735089011 -0.033706188378118708 0 0.21528057420098159 -0.024212643874961401 0 0.20886364623554921 -0.031523512657201581 0 0.18853740735089011 -0.033706188378118708 0 0.2110126965438916 -0.012672932103663791 0 0.21528057420098159 -0.024212643874961401 0 0.21911622703360889 -0.015650702578479541 0 0.21528057420098159 -0.024212643874961401 0 0.2158000993154765 -0.027276596113623111 0 0.21360323626451261 -0.02858374534336202 0 0.21528057420098159 -0.024212643874961401 0 0.2158000993154765 -0.027276596113623111 0 0.21995729679401421 -0.029331280632926501 0 0.2158000993154765 -0.027276596113623111 0 0.21503400689837671 -0.030930810510401429 0 0.21995729679401421 -0.029331280632926501 0 0.2158000993154765 -0.027276596113623111 0 0.21503400689837671 -0.030930810510401429 0 0.21360323626451261 -0.02858374534336202 0 0.21528057420098159 -0.024212643874961401 0 0.21360323626451261 -0.02858374534336202 0 0.20886364623554921 -0.031523512657201581 0 0.21503400689837671 -0.030930810510401429 0 0.21360323626451261 -0.02858374534336202 0 0.20886364623554921 -0.031523512657201581 0 0.2128060919330283 -0.035124071741943173 0 0.2180191377477218 -0.035203133534298187 0 0.2167024847658664 -0.043974661413588162 0 0.21503400689837671 -0.030930810510401429 0 0.2128060919330283 -0.035124071741943173 0 0.20886364623554921 -0.031523512657201581 0 0.21503400689837671 -0.030930810510401429 0 0.2128060919330283 -0.035124071741943173 0 0.2180191377477218 -0.035203133534298187 0 0.21503400689837671 -0.030930810510401429 0 0.2180191377477218 -0.035203133534298187 0 0.21995729679401421 -0.029331280632926501 0 0.2167024847658664 -0.043974661413588162 0 0.20890374551960481 -0.040729144831228678 0 0.20897987019450001 -0.050060865146210963 0 0.2128060919330283 -0.035124071741943173 0 0.2167024847658664 -0.043974661413588162 0 0.20890374551960481 -0.040729144831228678 0 0.20890374551960481 -0.040729144831228678 0 0.19655169947710091 -0.043788383486002072 0 0.20897987019450001 -0.050060865146210963 0 0.2128060919330283 -0.035124071741943173 0 0.20890374551960481 -0.040729144831228678 0 0.20886364623554921 -0.031523512657201581 0 0.20890374551960481 -0.040729144831228678 0 0.20886364623554921 -0.031523512657201581 0 0.19655169947710091 -0.043788383486002072 0 0.1828119860636557 -0.050363577362968731 0 0.18853740735089011 -0.033706188378118708 0 0.19655169947710091 -0.043788383486002072 0 0.20886364623554921 -0.031523512657201581 0 0.18853740735089011 -0.033706188378118708 0 0.19655169947710091 -0.043788383486002072 0 0.19655169947710091 -0.043788383486002072 0 0.20138343235632811 -0.055727139445542639 0 0.20897987019450001 -0.050060865146210963 0 0.19655169947710091 -0.043788383486002072 0 0.19188844298534441 -0.056659859735039647 0 0.20138343235632811 -0.055727139445542639 0 0.1828119860636557 -0.050363577362968731 0 0.19655169947710091 -0.043788383486002072 0 0.19188844298534441 -0.056659859735039647 0 0.19188844298534441 -0.056659859735039647 0 0.20138343235632811 -0.055727139445542639 0 0.1952329782378138 -0.068464889048657496 0 0.20138343235632811 -0.055727139445542639 0 0.22670270369963491 -0.067064047377793826 0 0.20138343235632811 -0.055727139445542639 0 0.21577564808412511 -0.056666161138016313 0 0.22670270369963491 -0.067064047377793826 0 0.20138343235632811 -0.055727139445542639 0 0.20897987019450001 -0.050060865146210963 0 0.21577564808412511 -0.056666161138016313 0 0.2167024847658664 -0.043974661413588162 0 0.20897987019450001 -0.050060865146210963 0 0.21577564808412511 -0.056666161138016313 0 0.21577564808412511 -0.056666161138016313 0 0.23694359709532001 -0.061394592404840097 0 0.22670270369963491 -0.067064047377793826 0 0.21577564808412511 -0.056666161138016313 0 0.22648325856373289 -0.049317463857355977 0 0.23694359709532001 -0.061394592404840097 0 0.21577564808412511 -0.056666161138016313 0 0.23694359709532001 -0.061394592404840097 0 0.2167024847658664 -0.043974661413588162 0 0.21577564808412511 -0.056666161138016313 0 0.22648325856373289 -0.049317463857355977 0 0.22648325856373289 -0.049317463857355977 0 0.23694359709532001 -0.061394592404840097 0 0.23716366819637241 -0.046229271507985323 0 0.25811154610651499 -0.066123023671663908 0 0.23694359709532001 -0.061394592404840097 0 0.24870160087168189 -0.052882304334001928 0 0.23694359709532001 -0.061394592404840097 0 0.24870160087168189 -0.052882304334001928 0 0.23716366819637241 -0.046229271507985323 0 0.24870160087168189 -0.052882304334001928 0 0.23716366819637241 -0.046229271507985323 0 0.24731406762381819 -0.035960341631652723 0 0.23716366819637241 -0.046229271507985323 0 0.24731406762381819 -0.035960341631652723 0 0.23342582712955959 -0.033308149953783547 0 0.23342582712955959 -0.033308149953783547 0 0.2258308946769807 -0.038322632822349968 0 0.22548915127375299 -0.027513718828695861 0 0.22648325856373289 -0.049317463857355977 0 0.23716366819637241 -0.046229271507985323 0 0.2258308946769807 -0.038322632822349968 0 0.23716366819637241 -0.046229271507985323 0 0.23342582712955959 -0.033308149953783547 0 0.2258308946769807 -0.038322632822349968 0 0.2180191377477218 -0.035203133534298187 0 0.2167024847658664 -0.043974661413588162 0 0.2258308946769807 -0.038322632822349968 0 0.2167024847658664 -0.043974661413588162 0 0.22648325856373289 -0.049317463857355977 0 0.2258308946769807 -0.038322632822349968 0 0.2180191377477218 -0.035203133534298187 0 0.2258308946769807 -0.038322632822349968 0 0.21995729679401421 -0.029331280632926501 0 0.2258308946769807 -0.038322632822349968 0 0.22548915127375299 -0.027513718828695861 0 0.21995729679401421 -0.029331280632926501 0 0.21528057420098159 -0.024212643874961401 0 0.2313313538768734 -0.018514784978234038 0 0.22829619310998309 -0.01520182636873813 0 0.21528057420098159 -0.024212643874961401 0 0.2313313538768734 -0.018514784978234038 0 0.21528057420098159 -0.024212643874961401 0 0.22548915127375299 -0.027513718828695861 0 0.2313313538768734 -0.018514784978234038 0 0.21528057420098159 -0.024212643874961401 0 0.22548915127375299 -0.027513718828695861 0 0.21995729679401421 -0.029331280632926501 0 0.21528057420098159 -0.024212643874961401 0 0.22829619310998309 -0.01520182636873813 0 0.21528057420098159 -0.024212643874961401 0 0.21911622703360889 -0.015650702578479541 0 0.22829619310998309 -0.01520182636873813 0 0.2313313538768734 -0.018514784978234038 0 0.22829619310998309 -0.01520182636873813 0 0.23342582712955959 -0.033308149953783547 0 0.22548915127375299 -0.027513718828695861 0 0.2313313538768734 -0.018514784978234038 0 0.25508119948702751 -0.010083838205662381 0 0.2313313538768734 -0.018514784978234038 0 0.2482857443068576 -0.021714794414400052 0 0.24731406762381819 -0.035960341631652723 0 0.2313313538768734 -0.018514784978234038 0 0.2482857443068576 -0.021714794414400052 0 0.24731406762381819 -0.035960341631652723 0 0.23342582712955959 -0.033308149953783547 0 0.2313313538768734 -0.018514784978234038 0 0.24731406762381819 -0.035960341631652723 0 0.2313313538768734 -0.018514784978234038 0 0.25508119948702751 -0.010083838205662381 0 0.2313313538768734 -0.018514784978234038 0 0.24138147174972829 -0.0061427828714447699 0 0.25508119948702751 -0.010083838205662381 0 0.2313313538768734 -0.018514784978234038 0 0.24138147174972829 -0.0061427828714447699 0 0.22829619310998309 -0.01520182636873813 0 0.25446675038947358 0.0029162606258486688 0 0.2541426920980116 -0.0036136263454906951 0 0.24138147174972829 -0.0061427828714447699 0 0.25446675038947358 0.0029162606258486688 0 0.24138147174972829 -0.0061427828714447699 0 0.22999165343287109 0.0038227322559807589 0 0.24138147174972829 -0.0061427828714447699 0 0.23189167676904729 -0.0064153040848911828 0 0.22999165343287109 0.0038227322559807589 0 0.23189167676904729 -0.0064153040848911828 0 0.2228246624943325 -0.0092295053444410857 0 0.22999165343287109 0.0038227322559807589 0 0.21351355446813719 -0.0021103410187178909 0 0.2228246624943325 -0.0092295053444410857 0 0.23189167676904729 -0.0064153040848911828 0 0.22829619310998309 -0.01520182636873813 0 0.2228246624943325 -0.0092295053444410857 0 0.2313313538768734 -0.018514784978234038 0 0.24138147174972829 -0.0061427828714447699 0 0.22829619310998309 -0.01520182636873813 0 0.24138147174972829 -0.0061427828714447699 0 0.23189167676904729 -0.0064153040848911828 0 0.22829619310998309 -0.01520182636873813 0 0.21911622703360889 -0.015650702578479541 0 0.22829619310998309 -0.01520182636873813 0 0.2228246624943325 -0.0092295053444410857 0 0.22829619310998309 -0.01520182636873813 0 0.2228246624943325 -0.0092295053444410857 0 0.2084634723971549 -0.097930235578601213 0 0.21737999015654699 -0.1103161024944793 0 0.2275791846540145 -0.10054182369239011 0 0.21737999015654699 -0.1103161024944793 0 0.19100769245097829 -0.1040519139747048 0 0.2084634723971549 -0.097930235578601213 0 0.21140608144591419 -0.084503356370523836 0 0.2275791846540145 -0.10054182369239011 0 0.2084634723971549 -0.097930235578601213 0 0.21737999015654699 -0.1103161024944793 0 0.19100769245097829 -0.1040519139747048 0 0.21737999015654699 -0.1103161024944793 0 0.21277072480774051 -0.1248863227998855 0 0.20025029595199689 -0.1218288277367077 0 0.21737999015654699 -0.1103161024944793 0 0.21277072480774051 -0.1248863227998855 0 0.2239597136694004 -0.1277946194696456 0 0.1862357176231304 -0.1238823921021804 0 0.20025029595199689 -0.1218288277367077 0 0.19100769245097829 -0.1040519139747048 0 0.21737999015654699 -0.1103161024944793 0 0.20025029595199689 -0.1218288277367077 0 0.19100769245097829 -0.1040519139747048 0 0.20025029595199689 -0.1218288277367077 0 0.19100769245097829 -0.1040519139747048 0 0.2084634723971549 -0.097930235578601213 0 0.19100769245097829 -0.1040519139747048 0 0.19624682445825681 -0.08914472739044943 0 0.18137547142311691 -0.085525622921553163 0 0.19100769245097829 -0.1040519139747048 0 0.19624682445825681 -0.08914472739044943 0 0.19624682445825681 -0.08914472739044943 0 0.1952329782378138 -0.068464889048657496 0 0.21140608144591419 -0.084503356370523836 0 0.18137547142311691 -0.085525622921553163 0 0.19624682445825681 -0.08914472739044943 0 0.1952329782378138 -0.068464889048657496 0 0.20138343235632811 -0.055727139445542639 0 0.1952329782378138 -0.068464889048657496 0 0.21149591893834541 -0.070957707586151192 0 0.18346211879182289 -0.064955309332027283 0 0.19188844298534441 -0.056659859735039647 0 0.1952329782378138 -0.068464889048657496 0 0.1952329782378138 -0.068464889048657496 0 0.21140608144591419 -0.084503356370523836 0 0.20138343235632811 -0.055727139445542639 0 0.21149591893834541 -0.070957707586151192 0 0.22670270369963491 -0.067064047377793826 0 0.1952329782378138 -0.068464889048657496 0 0.21149591893834541 -0.070957707586151192 0 0.21140608144591419 -0.084503356370523836 0 0.2084634723971549 -0.097930235578601213 0 0.19624682445825681 -0.08914472739044943 0 0.21140608144591419 -0.084503356370523836 0 0.21149591893834541 -0.070957707586151192 0 0.21140608144591419 -0.084503356370523836 0 0.2227543989520358 -0.079029105688238177 0 0.21140608144591419 -0.084503356370523836 0 0.2275791846540145 -0.10054182369239011 0 0.2227543989520358 -0.079029105688238177 0 0.23449163343577681 -0.083610487294907485 0 0.2275791846540145 -0.10054182369239011 0 0.21140608144591419 -0.084503356370523836 0 0.2227543989520358 -0.079029105688238177 0 0.2275791846540145 -0.10054182369239011 0 0.2227543989520358 -0.079029105688238177 0 0.22670270369963491 -0.067064047377793826 0 0.23449163343577681 -0.083610487294907485 0 0.21149591893834541 -0.070957707586151192 0 0.2227543989520358 -0.079029105688238177 0 0.22670270369963491 -0.067064047377793826 0 0.25202197504294188 -0.078400955310045109 0 0.25811154610651499 -0.066123023671663908 0 0.23694359709532001 -0.061394592404840097 0 0.25202197504294188 -0.078400955310045109 0 0.22670270369963491 -0.067064047377793826 0 0.25202197504294188 -0.078400955310045109 0 0.22670270369963491 -0.067064047377793826 0 0.23449163343577681 -0.083610487294907485 0 0.25202197504294188 -0.078400955310045109 0 0.23694359709532001 -0.061394592404840097 0 0.22670270369963491 -0.067064047377793826 0 0.25811154610651499 -0.066123023671663908 0 0.23694359709532001 -0.061394592404840097 0 0.25202197504294188 -0.078400955310045109 0 0.23449163343577681 -0.083610487294907485 0 0.24624903761231479 -0.086847438891893419 0 0.23449163343577681 -0.083610487294907485 0 0.24292322406264641 -0.096552741650977186 0 0.2275791846540145 -0.10054182369239011 0 0.23449163343577681 -0.083610487294907485 0 0.24624903761231479 -0.086847438891893419 0 0.24292322406264641 -0.096552741650977186 0 0.25304747237378489 -0.090741332181114118 0 0.24624903761231479 -0.086847438891893419 0 0.24292322406264641 -0.096552741650977186 0 0.2275791846540145 -0.10054182369239011 0 0.24375228786211539 -0.116580291014256 0 0.24292322406264641 -0.096552741650977186 0 0.2275791846540145 -0.10054182369239011 0 0.24375228786211539 -0.116580291014256 0 0.25771864553297669 -0.099620140202181948 0 0.24292322406264641 -0.096552741650977186 0 0.24375228786211539 -0.116580291014256 0 0.21737999015654699 -0.1103161024944793 0 0.2275791846540145 -0.10054182369239011 0 0.24375228786211539 -0.116580291014256 0 0.21737999015654699 -0.1103161024944793 0 0.24375228786211539 -0.116580291014256 0 0.2239597136694004 -0.1277946194696456 0 0.21737999015654699 -0.1103161024944793 0 0.24375228786211539 -0.116580291014256 0 0.24375228786211539 -0.116580291014256 0 0.235054631712311 -0.13955626642273861 0 0.24955680073527009 -0.143898101237383 0 0.235054631712311 -0.13955626642273861 0 0.24955680073527009 -0.143898101237383 0 0.23627457688356679 -0.15840319400941011 0 0.25449645062408999 -0.16331052089379791 0 0.24955680073527009 -0.143898101237383 0 0.23627457688356679 -0.15840319400941011 0 0.235054631712311 -0.13955626642273861 0 0.22199130801810529 -0.1478171468904442 0 0.23627457688356679 -0.15840319400941011 0 0.24375228786211539 -0.116580291014256 0 0.235054631712311 -0.13955626642273861 0 0.2239597136694004 -0.1277946194696456 0 0.235054631712311 -0.13955626642273861 0 0.22199130801810529 -0.1478171468904442 0 0.2239597136694004 -0.1277946194696456 0 0.20025029595199689 -0.1218288277367077 0 0.20949289945301761 -0.1396057414987095 0 0.22199130801810529 -0.1478171468904442 0 0.2239597136694004 -0.1277946194696456 0 0.20949289945301761 -0.1396057414987095 0 0.21277072480774051 -0.1248863227998855 0 0.20025029595199689 -0.1218288277367077 0 0.20949289945301761 -0.1396057414987095 0 0.21277072480774051 -0.1248863227998855 0 0.2239597136694004 -0.1277946194696456 0 0.20949289945301761 -0.1396057414987095 0 0.22199130801810529 -0.1478171468904442 0 0.20949289945301761 -0.1396057414987095 0 0.2069794531536403 -0.1537888919124783 0 0.20949289945301761 -0.1396057414987095 0 0.2069794531536403 -0.1537888919124783 0 0.1919305776748628 -0.1461990482496055 0 0.2069794531536403 -0.1537888919124783 0 0.1919305776748628 -0.1461990482496055 0 0.19225769977326759 -0.16432491474026781 0 0.1862357176231304 -0.1238823921021804 0 0.1919305776748628 -0.1461990482496055 0 0.19714487019074359 -0.1333469628700395 0 0.20025029595199689 -0.1218288277367077 0 0.20949289945301761 -0.1396057414987095 0 0.19714487019074359 -0.1333469628700395 0 0.20949289945301761 -0.1396057414987095 0 0.1919305776748628 -0.1461990482496055 0 0.19714487019074359 -0.1333469628700395 0 0.1862357176231304 -0.1238823921021804 0 0.1919305776748628 -0.1461990482496055 0 0.1862357176231304 -0.1238823921021804 0 0.20025029595199689 -0.1218288277367077 0 0.19714487019074359 -0.1333469628700395 0 0.19629081049063871 -0.1815365299480412 0 0.19225769977326759 -0.16432491474026781 0 0.17982600751226671 -0.1762593337595659 0 0.19629081049063871 -0.1815365299480412 0 0.19225769977326759 -0.16432491474026781 0 0.22018657323669569 -0.16775416802968299 0 0.2069794531536403 -0.1537888919124783 0 0.19225769977326759 -0.16432491474026781 0 0.22018657323669569 -0.16775416802968299 0 0.22199130801810529 -0.1478171468904442 0 0.2069794531536403 -0.1537888919124783 0 0.22018657323669569 -0.16775416802968299 0 0.19629081049063871 -0.1815365299480412 0 0.22018657323669569 -0.16775416802968299 0 0.21237941264848451 -0.18810475376770611 0 0.22018657323669569 -0.16775416802968299 0 0.23934418379307471 -0.18436482883247621 0 0.22018657323669569 -0.16775416802968299 0 0.23934418379307471 -0.18436482883247621 0 0.21237941264848451 -0.18810475376770611 0 0.22018657323669569 -0.16775416802968299 0 0.23627457688356679 -0.15840319400941011 0 0.23934418379307471 -0.18436482883247621 0 0.22199130801810529 -0.1478171468904442 0 0.22018657323669569 -0.16775416802968299 0 0.23627457688356679 -0.15840319400941011 0 0.25449645062408999 -0.16331052089379791 0 0.23627457688356679 -0.15840319400941011 0 0.23934418379307471 -0.18436482883247621 0 0.25850179434945381 -0.20097548963526929 0 0.23934418379307471 -0.18436482883247621 0 0.25850179434945381 -0.20097548963526929 0 0.23934418379307471 -0.18436482883247621 0 0.23907695871134879 -0.21289681242661959 0 0.23907695871134879 -0.21289681242661959 0 0.22308479462261119 -0.20217133576560289 0 0.21722062693650279 -0.2226466586169516 0 0.23934418379307471 -0.18436482883247621 0 0.22308479462261119 -0.20217133576560289 0 0.21237941264848451 -0.18810475376770611 0 0.23934418379307471 -0.18436482883247621 0 0.23907695871134879 -0.21289681242661959 0 0.22308479462261119 -0.20217133576560289 0 0.25037283077400019 -0.2416092145933311 0 0.23239962387573149 -0.2337287944253621 0 0.2339549802858914 -0.24933471903745599 0 0.25658827463044448 -0.2222138965281123 0 0.23907695871134879 -0.21289681242661959 0 0.2446094219978813 -0.2276121794933563 0 0.25037283077400019 -0.2416092145933311 0 0.2446094219978813 -0.2276121794933563 0 0.23239962387573149 -0.2337287944253621 0 0.23907695871134879 -0.21289681242661959 0 0.2446094219978813 -0.2276121794933563 0 0.23239962387573149 -0.2337287944253621 0 0.23907695871134879 -0.21289681242661959 0 0.23239962387573149 -0.2337287944253621 0 0.21722062693650279 -0.2226466586169516 0 0.23239962387573149 -0.2337287944253621 0 0.2194561222393229 -0.23682627783696539 0 0.21722062693650279 -0.2226466586169516 0 0.23239962387573149 -0.2337287944253621 0 0.22502312889380549 -0.2426362774769398 0 0.2339549802858914 -0.24933471903745599 0 0.2194561222393229 -0.23682627783696539 0 0.22502312889380549 -0.2426362774769398 0 0.21456577207223029 -0.24270171036535029 0 0.23239962387573149 -0.2337287944253621 0 0.2194561222393229 -0.23682627783696539 0 0.22502312889380549 -0.2426362774769398 0 0.22331750647786899 -0.25281133177650322 0 0.22502312889380549 -0.2426362774769398 0 0.21456577207223029 -0.24270171036535029 0 0.22331750647786899 -0.25281133177650322 0 0.22502312889380549 -0.2426362774769398 0 0.2339549802858914 -0.24933471903745599 0 0.2084475354763706 -0.25511513831035743 0 0.2080714594183444 -0.2424179483002232 0 0.21336353465090491 -0.24693864317134839 0 0.2080714594183444 -0.2424179483002232 0 0.21336353465090491 -0.24693864317134839 0 0.2080714594183444 -0.2424179483002232 0 0.21336353465090491 -0.24693864317134839 0 0.21456577207223029 -0.24270171036535029 0 0.2194561222393229 -0.23682627783696539 0 0.2080714594183444 -0.2424179483002232 0 0.21456577207223029 -0.24270171036535029 0 0.21722062693650279 -0.2226466586169516 0 0.20244123733496699 -0.2260211367091485 0 0.19848523837712481 -0.2136299623964425 0 0.2080714594183444 -0.2424179483002232 0 0.21722062693650279 -0.2226466586169516 0 0.2194561222393229 -0.23682627783696539 0 0.2080714594183444 -0.2424179483002232 0 0.21722062693650279 -0.2226466586169516 0 0.2080714594183444 -0.2424179483002232 0 0.21722062693650279 -0.2226466586169516 0 0.20244123733496699 -0.2260211367091485 0 0.2080714594183444 -0.2424179483002232 0 0.18716213711817259 -0.22455639835484539 0 0.2080714594183444 -0.2424179483002232 0 0.20244123733496699 -0.2260211367091485 0 0.18716213711817259 -0.22455639835484539 0 0.20244123733496699 -0.2260211367091485 0 0.19848523837712481 -0.2136299623964425 0 0.18716213711817259 -0.22455639835484539 0 0.2080714594183444 -0.2424179483002232 0 0.19254414318066221 -0.24961624770678509 0 0.1866817818972302 -0.23981118877977231 0 0.2080714594183444 -0.2424179483002232 0 0.1866817818972302 -0.23981118877977231 0 0.18716213711817259 -0.22455639835484539 0 0.19254414318066221 -0.24961624770678509 0 0.18399505531774341 -0.24981832115951039 0 0.1866817818972302 -0.23981118877977231 0 0.21237941264848451 -0.18810475376770611 0 0.20793523744788639 -0.20366419955677639 0 0.19447652973028121 -0.19759128756789451 0 0.22308479462261119 -0.20217133576560289 0 0.21237941264848451 -0.18810475376770611 0 0.20793523744788639 -0.20366419955677639 0 0.22308479462261119 -0.20217133576560289 0 0.21722062693650279 -0.2226466586169516 0 0.20793523744788639 -0.20366419955677639 0 0.21722062693650279 -0.2226466586169516 0 0.20793523744788639 -0.20366419955677639 0 0.19848523837712481 -0.2136299623964425 0 0.19848523837712481 -0.2136299623964425 0 0.19447652973028121 -0.19759128756789451 0 0.1831457957419608 -0.2071674304332729 0 0.20793523744788639 -0.20366419955677639 0 0.19848523837712481 -0.2136299623964425 0 0.19447652973028121 -0.19759128756789451 0 0.19848523837712481 -0.2136299623964425 0 0.1831457957419608 -0.2071674304332729 0 0.18716213711817259 -0.22455639835484539 0 0.19629081049063871 -0.1815365299480412 0 0.19447652973028121 -0.19759128756789451 0 0.1840061663436266 -0.1900566622106199 0 0.19629081049063871 -0.1815365299480412 0 0.21237941264848451 -0.18810475376770611 0 0.19447652973028121 -0.19759128756789451 0 0.19447652973028121 -0.19759128756789451 0 0.1840061663436266 -0.1900566622106199 0 0.1831457957419608 -0.2071674304332729 0 0.1840061663436266 -0.1900566622106199 0 0.1831457957419608 -0.2071674304332729 0 0.16486725365112659 -0.18785963188663279 0 0.1831457957419608 -0.2071674304332729 0 0.16486725365112659 -0.18785963188663279 0 0.1831457957419608 -0.2071674304332729 0 0.16625281481800089 -0.2066948484094672 0 0.18716213711817259 -0.22455639835484539 0 0.16625281481800089 -0.2066948484094672 0 0.18716213711817259 -0.22455639835484539 0 0.16625281481800089 -0.2066948484094672 0 0.18716213711817259 -0.22455639835484539 0 0.16937657335138201 -0.22198425569814831 0 0.16625281481800089 -0.2066948484094672 0 0.15661990237239229 -0.21733625041789439 0 0.14909823278687431 -0.20687378182447139 0 0.16625281481800089 -0.2066948484094672 0 0.15661990237239229 -0.21733625041789439 0 0.16937657335138201 -0.22198425569814831 0 0.1831457957419608 -0.2071674304332729 0 0.16625281481800089 -0.2066948484094672 0 0.16486725365112659 -0.18785963188663279 0 0.16625281481800089 -0.2066948484094672 0 0.16486725365112659 -0.18785963188663279 0 0.14534349251782941 -0.188833298464089 0 0.17619278994504239 -0.24587918172992959 0 0.18399505531774341 -0.24981832115951039 0 0.1866817818972302 -0.23981118877977231 0 0.17619278994504239 -0.24587918172992959 0 0.17450151464944069 -0.23276490516368609 0 0.16609645978724119 -0.24143951784646769 0 0.17619278994504239 -0.24587918172992959 0 0.1866817818972302 -0.23981118877977231 0 0.17450151464944069 -0.23276490516368609 0 0.17450151464944069 -0.23276490516368609 0 0.18716213711817259 -0.22455639835484539 0 0.16937657335138201 -0.22198425569814831 0 0.1866817818972302 -0.23981118877977231 0 0.17450151464944069 -0.23276490516368609 0 0.18716213711817259 -0.22455639835484539 0 0.15661990237239229 -0.21733625041789439 0 0.1623464977989032 -0.22856887614484861 0 0.15090654410468329 -0.22688320449844629 0 0.15661990237239229 -0.21733625041789439 0 0.16937657335138201 -0.22198425569814831 0 0.1623464977989032 -0.22856887614484861 0 0.17450151464944069 -0.23276490516368609 0 0.1623464977989032 -0.22856887614484861 0 0.16609645978724119 -0.24143951784646769 0 0.17450151464944069 -0.23276490516368609 0 0.16937657335138201 -0.22198425569814831 0 0.1623464977989032 -0.22856887614484861 0 0.1623464977989032 -0.22856887614484861 0 0.16609645978724119 -0.24143951784646769 0 0.1528270009437688 -0.23836283418195289 0 0.16001236861667459 -0.2513654190734112 0 0.16609645978724119 -0.24143951784646769 0 0.1528270009437688 -0.23836283418195289 0 0.16978669848249819 -0.25098739912941831 0 0.17619278994504239 -0.24587918172992959 0 0.16609645978724119 -0.24143951784646769 0 0.16001236861667459 -0.2513654190734112 0 0.16978669848249819 -0.25098739912941831 0 0.16609645978724119 -0.24143951784646769 0 0.1429630926125974 -0.2502577086919005 0 0.16001236861667459 -0.2513654190734112 0 0.1528270009437688 -0.23836283418195289 0 0.1429630926125974 -0.2502577086919005 0 0.1528270009437688 -0.23836283418195289 0 0.13988621804673579 -0.23152362256679451 0 0.1528270009437688 -0.23836283418195289 0 0.15090654410468329 -0.22688320449844629 0 0.13988621804673579 -0.23152362256679451 0 0.1623464977989032 -0.22856887614484861 0 0.1528270009437688 -0.23836283418195289 0 0.15090654410468329 -0.22688320449844629 0 0.15661990237239229 -0.21733625041789439 0 0.15090654410468329 -0.22688320449844629 0 0.1428531013616163 -0.21862443918074129 0 0.15090654410468329 -0.22688320449844629 0 0.13988621804673579 -0.23152362256679451 0 0.1428531013616163 -0.21862443918074129 0 0.12018370186474731 -0.23305432747703519 0 0.12895394136930069 -0.22163642029703709 0 0.13988621804673579 -0.23152362256679451 0 0.12895394136930069 -0.22163642029703709 0 0.13988621804673579 -0.23152362256679451 0 0.1428531013616163 -0.21862443918074129 0 0.1429630926125974 -0.2502577086919005 0 0.12018370186474731 -0.23305432747703519 0 0.1429630926125974 -0.2502577086919005 0 0.12018370186474731 -0.23305432747703519 0 0.13988621804673579 -0.23152362256679451 0 0.13217397618885759 -0.25462043987800831 0 0.1429630926125974 -0.2502577086919005 0 0.12018370186474731 -0.23305432747703519 0 0.16625281481800089 -0.2066948484094672 0 0.14534349251782941 -0.188833298464089 0 0.16625281481800089 -0.2066948484094672 0 0.14534349251782941 -0.188833298464089 0 0.14909823278687431 -0.20687378182447139 0 0.14534349251782941 -0.188833298464089 0 0.14909823278687431 -0.20687378182447139 0 0.1346280568372662 -0.20359450925845249 0 0.15661990237239229 -0.21733625041789439 0 0.14909823278687431 -0.20687378182447139 0 0.1428531013616163 -0.21862443918074129 0 0.14909823278687431 -0.20687378182447139 0 0.1428531013616163 -0.21862443918074129 0 0.1346280568372662 -0.20359450925845249 0 0.1178461100078927 -0.20838697738218431 0 0.12895394136930069 -0.22163642029703709 0 0.1346280568372662 -0.20359450925845249 0 0.12895394136930069 -0.22163642029703709 0 0.1428531013616163 -0.21862443918074129 0 0.1346280568372662 -0.20359450925845249 0 0.14534349251782941 -0.188833298464089 0 0.1346280568372662 -0.20359450925845249 0 0.13128332926409281 -0.18787359724935929 0 0.1237689835273371 -0.19605207676116951 0 0.1178461100078927 -0.20838697738218431 0 0.1346280568372662 -0.20359450925845249 0 0.1237689835273371 -0.19605207676116951 0 0.1346280568372662 -0.20359450925845249 0 0.13128332926409281 -0.18787359724935929 0 0.1237689835273371 -0.19605207676116951 0 0.1232013989280239 -0.1819146573535104 0 0.13128332926409281 -0.18787359724935929 0 0.12443417021765769 -0.1709717485187108 0 0.14534349251782941 -0.188833298464089 0 0.12443417021765769 -0.1709717485187108 0 0.1232013989280239 -0.1819146573535104 0 0.13128332926409281 -0.18787359724935929 0 0.12443417021765769 -0.1709717485187108 0 0.14534349251782941 -0.188833298464089 0 0.13128332926409281 -0.18787359724935929 0 0.12443417021765769 -0.1709717485187108 0 0.14534349251782941 -0.188833298464089 0 0.13540865390058859 -0.1688207667960602 0 0.14534349251782941 -0.188833298464089 0 0.14658871156029241 -0.16855183333999291 0 0.13540865390058859 -0.1688207667960602 0 0.16486725365112659 -0.18785963188663279 0 0.14658871156029241 -0.16855183333999291 0 0.16486725365112659 -0.18785963188663279 0 0.14534349251782941 -0.188833298464089 0 0.14658871156029241 -0.16855183333999291 0 0.14658871156029241 -0.16855183333999291 0 0.13391177650968769 -0.15242347890466901 0 0.14971917460686079 -0.1530450482394467 0 0.14658871156029241 -0.16855183333999291 0 0.14971917460686079 -0.1530450482394467 0 0.16192904395431579 -0.15800089119817939 0 0.14658871156029241 -0.16855183333999291 0 0.13391177650968769 -0.15242347890466901 0 0.12831016946945831 -0.1492440347933528 0 0.14658871156029241 -0.16855183333999291 0 0.12831016946945831 -0.1492440347933528 0 0.14658871156029241 -0.16855183333999291 0 0.13540865390058859 -0.1688207667960602 0 0.1290045142054978 -0.1612372837293575 0 0.14658871156029241 -0.16855183333999291 0 0.1290045142054978 -0.1612372837293575 0 0.12831016946945831 -0.1492440347933528 0 0.13540865390058859 -0.1688207667960602 0 0.12715697753007521 -0.16591248018761531 0 0.1290045142054978 -0.1612372837293575 0 0.12443417021765769 -0.1709717485187108 0 0.13540865390058859 -0.1688207667960602 0 0.12715697753007521 -0.16591248018761531 0 0.12098675462827781 -0.16200852072179159 0 0.12715697753007521 -0.16591248018761531 0 0.1290045142054978 -0.1612372837293575 0 0.12324902196630889 -0.15465793599018671 0 0.1227471198665283 -0.15880086614903269 0 0.1290045142054978 -0.1612372837293575 0 0.13391177650968769 -0.15242347890466901 0 0.12831016946945831 -0.1492440347933528 0 0.12532898621889721 -0.13663811256420449 0 0.12324902196630889 -0.15465793599018671 0 0.1290045142054978 -0.1612372837293575 0 0.12831016946945831 -0.1492440347933528 0 0.1217036921304827 -0.1482443959076799 0 0.12831016946945831 -0.1492440347933528 0 0.12532898621889721 -0.13663811256420449 0 0.13391177650968769 -0.15242347890466901 0 0.13188977167139071 -0.12546883223523481 0 0.13391177650968769 -0.15242347890466901 0 0.13188977167139071 -0.12546883223523481 0 0.1446303542042412 -0.1380662602394005 0 0.13391177650968769 -0.15242347890466901 0 0.13188977167139071 -0.12546883223523481 0 0.12532898621889721 -0.13663811256420449 0 0.11997683785091839 -0.1276371159963853 0 0.13188977167139071 -0.12546883223523481 0 0.12532898621889721 -0.13663811256420449 0 0.1446303542042412 -0.1380662602394005 0 0.15557261582888751 -0.13003178131142151 0 0.1621281360659286 -0.14191921566573409 0 0.14724036225017881 -0.1245170930860646 0 0.13188977167139071 -0.12546883223523481 0 0.1446303542042412 -0.1380662602394005 0 0.14724036225017881 -0.1245170930860646 0 0.1446303542042412 -0.1380662602394005 0 0.15557261582888751 -0.13003178131142151 0 0.13391177650968769 -0.15242347890466901 0 0.1446303542042412 -0.1380662602394005 0 0.14971917460686079 -0.1530450482394467 0 0.1446303542042412 -0.1380662602394005 0 0.14971917460686079 -0.1530450482394467 0 0.1621281360659286 -0.14191921566573409 0 0.1621281360659286 -0.14191921566573409 0 0.17324983187337631 -0.13165498831909611 0 0.17651024624945799 -0.1485415537171802 0 0.14971917460686079 -0.1530450482394467 0 0.1621281360659286 -0.14191921566573409 0 0.16192904395431579 -0.15800089119817939 0 0.1621281360659286 -0.14191921566573409 0 0.17651024624945799 -0.1485415537171802 0 0.16192904395431579 -0.15800089119817939 0 0.16471491079178111 -0.1205264202314431 0 0.15557261582888751 -0.13003178131142151 0 0.1639163736399934 -0.1310331013819237 0 0.15557261582888751 -0.13003178131142151 0 0.1621281360659286 -0.14191921566573409 0 0.1639163736399934 -0.1310331013819237 0 0.1621281360659286 -0.14191921566573409 0 0.1639163736399934 -0.1310331013819237 0 0.17324983187337631 -0.13165498831909611 0 0.16471491079178111 -0.1205264202314431 0 0.1639163736399934 -0.1310331013819237 0 0.17324983187337631 -0.13165498831909611 0 0.1862357176231304 -0.1238823921021804 0 0.1919305776748628 -0.1461990482496055 0 0.17324983187337631 -0.13165498831909611 0 0.1919305776748628 -0.1461990482496055 0 0.17324983187337631 -0.13165498831909611 0 0.17651024624945799 -0.1485415537171802 0 0.1919305776748628 -0.1461990482496055 0 0.19225769977326759 -0.16432491474026781 0 0.17651024624945799 -0.1485415537171802 0 0.19225769977326759 -0.16432491474026781 0 0.17526083145963689 -0.16308053239281189 0 0.17982600751226671 -0.1762593337595659 0 0.19225769977326759 -0.16432491474026781 0 0.17651024624945799 -0.1485415537171802 0 0.17526083145963689 -0.16308053239281189 0 0.17526083145963689 -0.16308053239281189 0 0.17982600751226671 -0.1762593337595659 0 0.16627328335530381 -0.17069773137902189 0 0.1840061663436266 -0.1900566622106199 0 0.16486725365112659 -0.18785963188663279 0 0.17982600751226671 -0.1762593337595659 0 0.19629081049063871 -0.1815365299480412 0 0.1840061663436266 -0.1900566622106199 0 0.17982600751226671 -0.1762593337595659 0 0.16486725365112659 -0.18785963188663279 0 0.14658871156029241 -0.16855183333999291 0 0.16627328335530381 -0.17069773137902189 0 0.16486725365112659 -0.18785963188663279 0 0.17982600751226671 -0.1762593337595659 0 0.16627328335530381 -0.17069773137902189 0 0.14658871156029241 -0.16855183333999291 0 0.16192904395431579 -0.15800089119817939 0 0.16627328335530381 -0.17069773137902189 0 0.17526083145963689 -0.16308053239281189 0 0.16192904395431579 -0.15800089119817939 0 0.16627328335530381 -0.17069773137902189 0 0.17651024624945799 -0.1485415537171802 0 0.17526083145963689 -0.16308053239281189 0 0.16192904395431579 -0.15800089119817939 0 
</DataArray>
</Points>
<Cells>
<DataArray type="UInt32" Name="connectivity" format="ascii">
0 1 2 3 4 5 6 7 8 9 10 11 12 13 14 15 16 17 18 19 20 21 22 23 24 25 26 27 28 29 30 31 32 33 34 35 36 37 38 39 40 41 42 43 44 45 46 47 48 49 50 51 52 53 54 55 56 57 58 59 60 61 62 63 64 65 66 67 68 69 70 71 72 73 74 75 76 77 78 79 80 81 82 83 84 85 86 87 88 89 90 91 92 93 94 95 96 97 98 99 100 101 102 103 104 105 106 107 108 109 110 111 112 113 114 115 116 117 118 119 120 121 122 123 124 125 126 127 128 129 130 131 132 133 134 135 136 137 138 139 140 141 142 143 144 145 146 147 148 149 150 151 152 153 154 155 156 157 158 159 160 161 162 163 164 165 166 167 168 169 170 171 172 173 174 175 176 177 178 179 180 181 182 183 184 185 186 187 188 189 190 191 192 193 194 195 196 197 198 199 200 201 202 203 204 205 206 207 208 209 210 211 212 213 214 215 216 217 218 219 220 221 222 223 224 225 226 227 228 229 230 231 232 233 234 235 236 237 238 239 240 241 242 243 244 245 246 247 248 249 250 251 252 253 254 255 256 257 258 259 260 261 262 263 264 265 266 267 268 269 270 271 272 273 274 275 276 277 278 279 280 281 282 283 284 285 286 287 288 289 290 291 292 293 294 295 296 297 298 299 300 301 302 303 304 305 306 307 308 309 310 311 312 313 314 315 316 317 318 319 320 321 322 323 324 325 326 327 328 329 330 331 332 333 334 335 336 337 338 339 340 341 342 343 344 345 346 347 348 349 350 351 352 353 354 355 356 357 358 359 360 361 362 363 364 365 366 367 368 369 370 371 372 373 374 375 376 377 378 379 380 381 382 383 384 385 386 387 388 389 390 391 392 393 394 395 396 397 398 399 400 401 402 403 404 405 406 407 408 409 410 411 412 413 414 415 416 417 418 419 420 421 422 423 424 425 426 427 428 429 430 431 432 433 434 435 436 437 438 439 440 441 442 443 444 445 446 447 448 449 450 451 452 453 454 455 456 457 458 459 460 461 462 463 464 465 466 467 468 469 470 471 472 473 474 475 476 477 478 479 480 481 482 483 484 485 486 487 488 489 490 491 492 493 494 495 496 497 498 499 500 501 502 503 504 505 506 507 508 509 510 511 512 513 514 515 516 517 518 519 520 521 522 523 524 525 526 527 528 529 530 531 532 533 534 535 536 537 538 539 540 541 542 543 544 545 546 547 548 549 550 551 552 553 554 555 556 557 558 559 560 561 562 563 564 565 566 567 568 569 570 571 572 573 574 575 576 577 578 579 580 581 582 583 584 585 586 587 588 589 590 591 592 593 594 595 596 597 598 599 600 601 602 603 604 605 606 607 608 609 610 611 612 613 614 615 616 617 618 619 620 621 622 623 624 625 626 627 628 629 630 631 632 633 634 635 636 637 638 639 640 641 642 643 644 645 646 647 648 649 650 651 652 653 654 655 656 657 658 659 660 661 662 663 664 665 666 667 668 669 670 671 672 673 674 675 676 677 678 679 680 681 682 683 684 685 686 687 688 689 690 691 692 693 694 695 696 697 698 699 700 701 702 703 704 705 706 707 708 709 710 711 712 713 714 715 716 717 718 719 720 721 722 723 724 725 726 727 728 729 730 731 732 733 734 735 736 737 738 739 740 741 742 743 744 745 746 747 748 749 750 751 752 753 754 755 756 757 758 759 760 761 762 763 764 765 766 767 768 769 770 771 772 773 774 775 776 777 778 779 780 781 782 783 784 785 786 787 788 789 790 791 792 793 794 795 796 797 798 799 800 801 802 803 804 805 806 807 808 809 810 811 812 813 814 815 816 817 818 819 820 821 822 823 824 825 826 827 828 829 830 831 832 833 834 835 836 837 838 839 840 841 842 843 844 845 846 847 848 849 850 851 852 853 854 855 856 857 858 859 860 861 862 863 864 865 866 867 868 869 870 871 872 873 874 875 876 877 878 879 880 881 882 883 884 885 886 887 888 889 890 891 892 893 894 895 896 897 898 899 900 901 902 903 904 905 906 907 908 909 910 911 912 913 914 915 916 917 918 919 920 921 922 923 924 925 926 927 928 929 930 931 932 933 934 935 936 937 938 939 940 941 942 943 944 945 946 947 948 949 950 951 952 953 954 955 956 957 958 959 960 961 962 963 964 965 966 967 968 969 970 971 972 973 974 975 976 977 978 979 980 981 982 983 984 985 986 987 988 989 990 991 992 993 994 995 996 997 998 999 1000 1001 1002 1003 1004 1005 1006 1007 1008 1009 1010 1011 1012 1013 1014 1015 1016 1017 1018 1019 1020 1021 1022 1023 1024 1025 1026 1027 1028 1029 1030 1031 1032 1033 1034 1035 1036 1037 1038 1039 1040 1041 1042 1043 1044 1045 1046 1047 1048 1049 1050 1051 1052 1053 1054 1055 1056 1057 1058 1059 1060 1061 1062 1063 1064 1065 1066 1067 1068 1069 1070 1071 1072 1073 1074 1075 1076 1077 1078 1079 1080 1081 1082 1083 1084 1085 1086 1087 1088 1089 1090 1091 1092 1093 1094 1095 1096 1097 1098 1099 1100 1101 1102 1103 1104 1105 1106 1107 1108 1109 1110 1111 1112 1113 1114 1115 1116 1117 1118 1119 1120 1121 1122 1123 1124 1125 1126 1127 1128 1129 1130 1131 1132 1133 1134 1135 1136 1137 1138 1139 1140 1141 1142 1143 1144 1145 1146 1147 1148 1149 1150 1151 1152 1153 1154 1155 1156 1157 1158 1159 1160 1161 1162 1163 1164 1165 1166 1167 1168 1169 1170 1171 1172 1173 1174 1175 1176 1177 1178 1179 1180 1181 1182 1183 1184 1185 1186 1187 1188 1189 1190 1191 1192 1193 1194 1195 1196 1197 1198 1199 1200 1201 1202 1203 1204 1205 1206 1207 1208 1209 1210 1211 1212 1213 1214 1215 1216 1217 1218 1219 1220 1221 1222 1223 1224 1225 1226 1227 1228 1229 1230 1231 1232 1233 1234 1235 1236 1237 1238 1239 1240 1241 1242 1243 1244 1245 1246 1247 1248 1249 1250 1251 1252 1253 1254 1255 1256 1257 1258 1259 1260 1261 1262 1263 1264 1265 1266 1267 1268 1269 1270 1271 1272 1273 1274 1275 1276 1277 1278 1279 1280 1281 1282 1283 1284 1285 1286 1287 1288 1289 1290 1291 1292 1293 1294 1295 1296 1297 1298 1299 1300 1301 1302 1303 1304 1305 1306 1307 1308 1309 1310 1311 1312 1313 1314 1315 1316 1317 1318 1319 1320 1321 1322 1323 1324 1325 1326 1327 1328 1329 1330 1331 1332 1333 1334 1335 1336 1337 1338 1339 1340 1341 1342 1343 1344 1345 1346 1347 1348 1349 1350 1351 1352 1353 1354 1355 1356 1357 1358 1359 1360 1361 1362 1363 1364 1365 1366 1367 1368 1369 1370 1371 1372 1373 1374 1375 1376 1377 1378 1379 1380 1381 1382 1383 1384 1385 1386 1387 1388 1389 1390 1391 1392 1393 1394 1395 1396 1397 1398 1399 1400 1401 1402 1403 1404 1405 1406 1407 1408 1409 1410 1411 1412 1413 1414 1415 1416 1417 1418 1419 1420 1421 1422 1423 1424 1425 1426 1427 1428 1429 1430 1431 1432 1433 1434 1435 1436 1437 1438 1439 1440 1441 1442 1443 1444 1445 1446 1447 1448 1449 1450 1451 1452 1453 1454 1455 1456 1457 1458 1459 1460 1461 1462 1463 1464 1465 1466 1467 1468 1469 1470 1471 1472 1473 1474 1475 1476 1477 1478 1479 1480 1481 1482 1483 1484 1485 1486 1487 1488 1489 1490 1491 1492 1493 1494 1495 1496 1497 1498 1499 1500 1501 1502 1503 1504 1505 1506 1507 1508 1509 1510 1511 1512 1513 1514 1515 1516 1517 1518 1519 1520 1521 1522 1523 1524 1525 1526 1527 1528 1529 1530 1531 1532 1533 1534 1535 1536 1537 1538 1539 1540 1541 1542 1543 1544 1545 1546 1547 1548 1549 1550 1551 1552 1553 1554 1555 1556 1557 1558 1559 1560 1561 1562 1563 1564 1565 1566 1567 1568 1569 1570 1571 1572 1573 1574 1575 1576 1577 1578 1579 1580 1581 1582 1583 1584 1585 1586 1587 1588 1589 1590 1591 1592 1593 1594 1595 1596 1597 1598 1599 1600 1601 1602 1603 1604 1605 1606 1607 1608 1609 1610 1611 1612 1613 1614 1615 1616 1617 1618 1619 1620 1621 1622 1623 1624 1625 1626 1627 1628 1629 1630 1631 1632 1633 1634 1635 1636 1637 1638 1639 1640 1641 1642 1643 1644 1645 1646 1647 1648 1649 1650 1651 1652 1653 1654 1655 1656 1657 1658 1659 1660 1661 1662 1663 1664 1665 1666 1667 1668 1669 1670 1671 1672 1673 1674 1675 1676 1677 1678 1679 1680 1681 1682 1683 1684 1685 1686 1687 1688 1689 1690 1691 1692 1693 1694 1695 1696 1697 1698 1699 1700 1701 1702 1703 1704 1705 1706 1707 1708 1709 1710 1711 1712 1713 1714 1715 1716 1717 1718 1719 1720 1721 1722 1723 1724 1725 1726 1727 1728 1729 1730 1731 1732 1733 1734 1735 1736 1737 1738 1739 1740 1741 1742 1743 1744 1745 1746 1747 1748 1749 1750 1751 1752 1753 1754 1755 1756 1757 1758 1759 1760 1761 1762 1763 1764 1765 1766 1767 1768 1769 1770 1771 1772 1773 1774 1775 1776 1777 1778 1779 1780 1781 1782 1783 1784 1785 1786 1787 1788 1789 1790 1791 1792 1793 1794 1795 1796 1797 1798 1799 1800 1801 1802 1803 1804 1805 1806 1807 1808 1809 1810 1811 1812 1813 1814 1815 1816 1817 1818 1819 1820 1821 1822 1823 1824 1825 1826 1827 1828 1829 1830 1831 1832 1833 1834 1835 1836 1837 1838 1839 1840 1841 1842 1843 1844 1845 1846 1847 1848 1849 1850 1851 1852 1853 1854 1855 1856 1857 1858 1859 1860 1861 1862 1863 1864 1865 1866 1867 1868 1869 1870 1871 1872 1873 1874 1875 1876 1877 1878 1879 1880 1881 1882 1883 1884 1885 1886 1887 1888 1889 1890 1891 1892 1893 1894 1895 1896 1897 1898 1899 1900 1901 1902 1903 1904 1905 1906 1907 1908 1909 1910 1911 1912 1913 1914 1915 1916 1917 1918 1919 1920 1921 1922 1923 1924 1925 1926 1927 1928 1929 1930 1931 1932 1933 1934 1935 1936 1937 1938 1939 1940 1941 1942 1943 1944 1945 1946 1947 1948 1949 1950 1951 1952 1953 1954 1955 1956 1957 1958 1959 1960 1961 1962 1963 1964 1965 1966 1967 1968 1969 1970 1971 1972 1973 1974 1975 1976 1977 1978 1979 1980 1981 1982 1983 1984 1985 1986 1987 1988 1989 1990 1991 1992 1993 1994 1995 1996 1997 1998 1999 2000 2001 2002 2003 2004 2005 2006 2007 2008 2009 2010 2011 2012 2013 2014 2015 2016 2017 2018 2019 2020 2021 2022 2023 2024 2025 2026 2027 2028 2029 2030 2031 2032 2033 2034 2035 2036 2037 2038 2039 2040 2041 2042 2043 2044 2045 2046 2047 2048 2049 2050 2051 2052 2053 2054 2055 2056 2057 2058 2059 2060 2061 2062 2063 2064 2065 2066 2067 2068 2069 2070 2071 2072 2073 2074 2075 2076 2077 2078 2079 2080 2081 2082 2083 2084 2085 2086 2087 2088 2089 2090 2091 2092 2093 2094 2095 2096 2097 2098 2099 2100 2101 2102 2103 2104 2105 2106 2107 2108 2109 2110 2111 2112 2113 2114 2115 2116 2117 2118 2119 2120 2121 2122 2123 2124 2125 2126 2127 2128 2129 2130 2131 2132 2133 2134 2135 2136 2137 2138 2139 2140 2141 2142 2143 2144 2145 2146 2147 2148 2149 2150 2151 2152 2153 2154 2155 2156 2157 2158 2159 2160 2161 2162 2163 2164 2165 2166 2167 2168 2169 2170 2171 2172 2173 2174 2175 2176 2177 2178 2179 2180 2181 2182 2183 2184 2185 2186 2187 2188 2189 2190 2191 2192 2193 2194 2195 2196 2197 2198 2199 2200 2201 2202 2203 2204 2205 2206 2207 2208 2209 2210 2211 2212 2213 2214 2215 2216 2217 2218 2219 2220 2221 2222 2223 2224 2225 2226 2227 2228 2229 2230 2231 2232 2233 2234 2235 2236 2237 2238 2239 2240 2241 2242 2243 2244 2245 2246 2247 2248 2249 2250 2251 2252 2253 2254 2255 2256 2257 2258 2259 2260 2261 2262 2263 2264 2265 2266 2267 2268 2269 2270 2271 2272 2273 2274 2275 2276 2277 2278 2279 2280 2281 2282 2283 2284 2285 2286 2287 2288 2289 2290 2291 2292 2293 2294 2295 2296 2297 2298 2299 2300 2301 2302 2303 2304 2305 2306 2307 2308 2309 2310 2311 2312 2313 2314 2315 2316 2317 2318 2319 2320 2321 2322 2323 2324 2325 2326 2327 2328 2329 2330 2331 2332 2333 2334 2335 2336 2337 2338 2339 2340 2341 2342 2343 2344 2345 2346 2347 2348 2349 2350 2351 2352 2353 2354 2355 2356 2357 2358 2359 2360 2361 2362 2363 2364 2365 2366 2367 2368 2369 2370 2371 2372 2373 2374 2375 2376 2377 2378 2379 2380 2381 2382 2383 2384 2385 2386 2387 2388 2389 2390 2391 2392 2393 2394 2395 2396 2397 2398 2399 2400 2401 2402 2403 2404 2405 2406 2407 2408 2409 2410 2411 2412 2413 2414 2415 2416 2417 2418 2419 2420 2421 2422 2423 2424 2425 2426 2427 2428 2429 2430 2431 2432 2433 2434 2435 2436 2437 2438 2439 2440 2441 2442 2443 2444 2445 2446 2447 2448 2449 2450 2451 2452 2453 2454 2455 2456 2457 2458 2459 2460 2461 2462 2463 2464 2465 2466 2467 2468 2469 2470 2471 2472 2473 2474 2475 2476 2477 2478 2479 2480 2481 2482 2483 2484 2485 2486 2487 2488 2489 2490 2491 2492 2493 2494 2495 2496 2497 2498 2499 2500 2501 2502 2503 2504 2505 2506 2507 2508 2509 2510 2511 2512 2513 2514 2515 2516 2517 2518 2519 2520 2521 2522 2523 2524 2525 2526 2527 2528 2529 2530 2531 2532 2533 2534 2535 2536 2537 2538 2539 2540 2541 2542 2543 2544 2545 2546 2547 2548 2549 2550 2551 2552 2553 2554 2555 2556 2557 2558 2559 2560 2561 2562 2563 2564 2565 2566 2567 2568 2569 2570 2571 2572 2573 2574 2575 2576 2577 2578 2579 2580 2581 2582 2583 2584 2585 2586 2587 2588 2589 2590 2591 2592 2593 2594 2595 2596 2597 2598 2599 2600 2601 2602 2603 2604 2605 2606 2607 2608 2609 2610 2611 2612 2613 2614 2615 2616 2617 2618 2619 2620 2621 2622 2623 2624 2625 2626 2627 2628 2629 2630 2631 2632 2633 2634 2635 2636 2637 2638 2639 2640 2641 2642 2643 2644 2645 2646 2647 2648 2649 2650 2651 2652 2653 2654 2655 2656 2657 2658 2659 2660 2661 2662 2663 2664 2665 2666 2667 2668 2669 2670 2671 2672 2673 2674 2675 2676 2677 2678 2679 2680 2681 2682 2683 2684 2685 2686 2687 2688 2689 2690 2691 2692 2693 2694 2695 2696 2697 2698 2699 2700 2701 2702 2703 2704 2705 2706 2707 2708 2709 2710 2711 2712 2713 2714 2715 2716 2717 2718 2719 2720 2721 2722 2723 2724 2725 2726 2727 2728 2729 2730 2731 2732 2733 2734 2735 2736 2737 2738 2739 2740 2741 2742 2743 2744 2745 2746 2747 2748 2749 2750 2751 2752 2753 2754 2755 2756 2757 2758 2759 2760 2761 2762 2763 2764 2765 2766 2767 2768 2769 2770 2771 2772 2773 2774 2775 2776 2777 2778 2779 2780 2781 2782 2783 2784 2785 2786 2787 2788 2789 2790 2791 2792 2793 2794 2795 2796 2797 2798 2799 2800 2801 2802 2803 2804 2805 2806 2807 2808 2809 2810 2811 2812 2813 2814 2815 2816 2817 2818 2819 2820 2821 2822 2823 2824 2825 2826 2827 2828 2829 2830 2831 2832 2833 2834 2835 2836 2837 2838 2839 2840 2841 2842 2843 2844 2845 2846 2847 2848 2849 2850 2851 2852 2853 2854 2855 2856 2857 2858 2859 2860 2861 2862 2863 2864 2865 2866 2867 2868 2869 2870 2871 2872 2873 2874 2875 2876 2877 2878 2879 2880 2881 2882 2883 2884 2885 2886 2887 2888 2889 2890 2891 2892 2893 2894 2895 2896 2897 2898 2899 2900 2901 2902 2903 2904 2905 2906 2907 2908 2909 2910 2911 2912 2913 2914 2915 2916 2917 2918 2919 2920 2921 2922 2923 2924 2925 2926 2927 2928 2929 2930 2931 2932 2933 2934 2935 2936 2937 2938 2939 2940 2941 2942 2943 2944 2945 2946 2947 2948 2949 2950 2951 2952 2953 2954 2955 2956 2957 2958 2959 2960 2961 2962 2963 2964 2965 2966 2967 2968 2969 2970 2971 2972 2973 2974 2975 2976 2977 2978 2979 2980 2981 2982 2983 2984 2985 2986 2987 2988 2989 2990 2991 2992 2993 2994 2995 2996 2997 2998 2999 3000 3001 3002 3003 3004 3005 3006 3007 3008 3009 3010 3011 3012 3013 3014 3015 3016 3017 3018 3019 3020 3021 3022 3023 3024 3025 3026 3027 3028 3029 3030 3031 3032 3033 3034 3035 3036 3037 3038 3039 3040 3041 3042 3043 3044 3045 3046 3047 3048 3049 3050 3051 3052 3053 3054 3055 3056 3057 3058 3059 3060 3061 3062 3063 3064 3065 3066 3067 3068 3069 3070 3071 3072 3073 3074 3075 3076 3077 3078 3079 3080 3081 3082 3083 3084 3085 3086 3087 3088 3089 3090 3091 3092 3093 3094 3095 3096 3097 3098 3099 3100 3101 3102 3103 3104 3105 3106 3107 3108 3109 3110 3111 3112 3113 3114 3115 3116 3117 3118 3119 3120 3121 3122 3123 3124 3125 3126 3127 3128 3129 3130 3131 3132 3133 3134 3135 3136 3137 3138 3139 3140 3141 3142 3143 3144 3145 3146 3147 3148 3149 3150 3151 3152 3153 3154 3155 3156 3157 3158 3159 3160 3161 3162 3163 3164 3165 3166 3167 3168 3169 3170 3171 3172 3173 3174 3175 3176 3177 3178 3179 3180 3181 3182 3183 3184 3185 3186 3187 3188 3189 3190 3191 3192 3193 3194 3195 3196 3197 3198 3199 3200 3201 3202 3203 3204 3205 3206 3207 3208 3209 3210 3211 3212 3213 3214 3215 3216 3217 3218 3219 3220 3221 3222 3223 3224 3225 3226 3227 3228 3229 3230 3231 3232 3233 3234 3235 3236 3237 3238 3239 3240 3241 3242 3243 3244 3245 3246 3247 3248 3249 3250 3251 3252 3253 3254 3255 3256 3257 3258 3259 3260 3261 3262 3263 3264 3265 3266 3267 3268 3269 3270 3271 3272 3273 3274 3275 3276 3277 3278 3279 3280 3281 3282 3283 3284 3285 3286 3287 3288 3289 3290 3291 3292 3293 3294 3295 3296 3297 3298 3299 3300 3301 3302 3303 3304 3305 3306 3307 3308 3309 3310 3311 3312 3313 3314 3315 3316 3317 3318 3319 3320 3321 3322 3323 3324 3325 3326 3327 3328 3329 3330 3331 3332 3333 3334 3335 3336 3337 3338 3339 3340 3341 3342 3343 3344 3345 3346 3347 3348 3349 3350 3351 3352 3353 3354 3355 3356 3357 3358 3359 3360 3361 3362 3363 3364 3365 3366 3367 3368 3369 3370 3371 3372 3373 3374 3375 3376 3377 3378 3379 3380 3381 3382 3383 3384 3385 3386 3387 3388 3389 3390 3391 3392 3393 3394 3395 3396 3397 3398 3399 3400 3401 3402 3403 3404 3405 3406 3407 3408 3409 3410 3411 3412 3413 3414 3415 3416 3417 3418 3419 3420 3421 3422 3423 3424 3425 3426 3427 3428 3429 3430 3431 3432 3433 3434 3435 3436 3437 3438 3439 3440 3441 3442 3443 3444 3445 3446 3447 3448 3449 3450 3451 3452 3453 3454 3455 3456 3457 3458 3459 3460 3461 3462 3463 3464 3465 3466 3467 3468 3469 3470 3471 3472 3473 3474 3475 3476 3477 3478 3479 3480 3481 3482 3483 3484 3485 3486 3487 3488 3489 3490 3491 3492 3493 3494 3495 3496 3497 3498 3499 3500 3501 3502 3503 3504 3505 3506 3507 3508 3509 3510 3511 3512 3513 3514 3515 3516 3517 3518 3519 3520 3521 3522 3523 3524 3525 3526 3527 3528 3529 3530 3531 3532 3533 3534 3535 3536 3537 3538 3539 3540 3541 3542 3543 3544 3545 3546 3547 3548 3549 3550 3551 3552 3553 3554 3555 3556 3557 3558 3559 3560 3561 3562 3563 3564 3565 3566 3567 3568 3569 3570 3571 3572 3573 3574 3575 3576 3577 3578 3579 3580 3581 3582 3583 3584 3585 3586 3587 3588 3589 3590 3591 3592 3593 3594 3595 3596 3597 3598 3599 3600 3601 3602 3603 3604 3605 3606 3607 3608 3609 3610 3611 3612 3613 3614 3615 3616 3617 3618 3619 3620 3621 3622 3623 3624 3625 3626 3627 3628 3629 3630 3631 3632 3633 3634 3635 3636 3637 3638 3639 3640 3641 3642 3643 3644 3645 3646 3647 3648 3649 3650 3651 3652 3653 3654 3655 3656 3657 3658 3659 3660 3661 3662 3663 3664 3665 3666 3667 3668 3669 3670 3671 3672 3673 3674 3675 3676 3677 3678 3679 3680 3681 3682 3683 3684 3685 3686 3687 3688 3689 3690 3691 3692 3693 3694 3695 3696 3697 3698 3699 3700 3701 3702 3703 3704 3705 3706 3707 3708 3709 3710 3711 3712 3713 3714 3715 3716 3717 3718 3719 3720 3721 3722 3723 3724 3725 3726 3727 3728 3729 3730 3731 3732 3733 3734 3735 3736 3737 3738 3739 3740 3741 3742 3743 3744 3745 3746 3747 3748 3749 3750 3751 3752 3753 3754 3755 3756 3757 3758 3759 3760 3761 3762 3763 3764 3765 3766 3767 3768 3769 3770 3771 3772 3773 3774 3775 3776 3777 3778 3779 3780 3781 3782 3783 3784 3785 3786 3787 3788 3789 3790 3791 3792 3793 3794 3795 3796 3797 3798 3799 3800 3801 3802 3803 3804 3805 3806 3807 3808 3809 3810 3811 3812 3813 3814 3815 3816 3817 3818 3819 3820 3821 3822 3823 3824 3825 3826 3827 3828 3829 3830 3831 3832 3833 3834 3835 3836 3837 3838 3839 3840 3841 3842 3843 3844 3845 3846 3847 3848 3849 3850 3851 3852 3853 3854 3855 3856 3857 3858 3859 3860 3861 3862 3863 3864 3865 3866 3867 3868 3869 3870 3871 3872 3873 3874 3875 3876 3877 3878 3879 3880 3881 3882 3883 3884 3885 3886 3887 3888 3889 3890 3891 3892 3893 3894 3895 3896 3897 3898 3899 3900 3901 3902 3903 3904 3905 3906 3907 3908 3909 3910 3911 3912 3913 3914 3915 3916 3917 3918 3919 3920 3921 3922 3923 3924 3925 3926 3927 3928 3929 3930 3931 3932 3933 3934 3935 3936 3937 3938 3939 3940 3941 3942 3943 3944 3945 3946 3947 3948 3949 3950 3951 3952 3953 3954 3955 3956 3957 3958 3959 3960 3961 3962 3963 3964 3965 3966 3967 3968 3969 3970 3971 3972 3973 3974 3975 3976 3977 3978 3979 3980 3981 3982 3983 3984 3985 3986 3987 3988 3989 3990 3991 3992 3993 3994 3995 3996 3997 3998 3999 4000 4001 4002 4003 4004 4005 4006 4007 4008 4009 4010 4011 4012 4013 4014 4015 4016 4017 4018 4019 4020 4021 4022 4023 4024 4025 4026 4027 4028 4029 4030 4031 4032 4033 4034 4035 4036 4037 4038 4039 4040 4041 4042 4043 4044 4045 4046 4047 4048 4049 4050 4051 4052 4053 4054 4055 4056 4057 4058 4059 4060 4061 4062 4063 4064 4065 4066 4067 4068 4069 4070 4071 4072 4073 4074 4075 4076 4077 4078 4079 4080 4081 4082 4083 4084 4085 4086 4087 4088 4089 4090 4091 4092 4093 4094 4095 4096 4097 4098 4099 4100 4101 4102 4103 4104 4105 4106 4107 4108 4109 4110 4111 4112 4113 4114 4115 4116 4117 4118 4119 4120 4121 4122 4123 4124 4125 4126 4127 4128 4129 4130 4131 4132 4133 4134 4135 4136 4137 4138 4139 4140 4141 4142 4143 4144 4145 4146 4147 4148 4149 4150 4151 4152 4153 4154 4155 4156 4157 4158 4159 4160 4161 4162 4163 4164 4165 4166 4167 4168 4169 4170 4171 4172 4173 4174 4175 4176 4177 4178 4179 4180 4181 4182 4183 4184 4185 4186 4187 4188 4189 4190 4191 4192 4193 4194 4195 4196 4197 4198 4199 4200 4201 4202 4203 4204 4205 4206 4207 4208 4209 4210 4211 4212 4213 4214 4215 4216 4217 4218 4219 4220 4221 4222 4223 4224 4225 4226 4227 4228 4229 4230 4231 4232 4233 4234 4235 4236 4237 4238 4239 4240 4241 4242 4243 4244 4245 4246 4247 4248 4249 4250 4251 4252 4253 4254 4255 4256 4257 4258 4259 4260 4261 4262 4263 4264 4265 4266 4267 4268 4269 4270 4271 4272 4273 4274 4275 4276 4277 4278 4279 4280 4281 4282 4283 4284 4285 4286 4287 4288 4289 4290 4291 4292 4293 4294 4295 4296 4297 4298 4299 4300 4301 4302 4303 4304 4305 4306 4307 4308 4309 4310 4311 4312 4313 4314 4315 4316 4317 4318 4319 4320 4321 4322 4323 4324 4325 4326 4327 4328 4329 4330 4331 4332 4333 4334 4335 4336 4337 4338 4339 4340 4341 4342 4343 4344 4345 4346 4347 4348 4349 4350 4351 4352 4353 4354 4355 4356 4357 4358 4359 4360 4361 4362 4363 4364 4365 4366 4367 4368 4369 4370 4371 4372 4373 4374 4375 4376 4377 4378 4379 4380 4381 4382 4383 4384 4385 4386 4387 4388 4389 4390 4391 4392 4393 4394 4395 4396 4397 4398 4399 4400 4401 4402 4403 4404 4405 4406 4407 4408 4409 4410 4411 4412 4413 4414 4415 4416 4417 4418 4419 4420 4421 4422 4423 4424 4425 4426 4427 4428 4429 4430 4431 4432 4433 4434 4435 4436 4437 4438 4439 4440 4441 4442 4443 4444 4445 4446 4447 4448 4449 4450 4451 4452 4453 4454 4455 4456 4457 4458 4459 4460 4461 4462 4463 4464 4465 4466 4467 4468 4469 4470 4471 4472 4473 4474 4475 4476 4477 4478 4479 4480 4481 4482 4483 4484 4485 4486 4487 4488 4489 4490 4491 4492 4493 4494 4495 4496 4497 4498 4499 4500 4501 4502 4503 4504 4505 4506 4507 4508 4509 4510 4511 4512 4513 4514 4515 4516 4517 4518 4519 4520 4521 4522 4523 4524 4525 4526 4527 4528 4529 4530 4531 4532 4533 4534 4535 4536 4537 4538 4539 4540 4541 4542 4543 4544 4545 4546 4547 4548 4549 4550 4551 4552 4553 4554 4555 4556 4557 4558 4559 4560 4561 4562 4563 4564 4565 4566 4567 4568 4569 4570 4571 4572 4573 4574 4575 4576 4577 4578 4579 4580 4581 4582 4583 4584 4585 4586 4587 4588 4589 4590 4591 4592 4593 4594 4595 4596 4597 4598 4599 4600 4601 4602 4603 4604 4605 4606 4607 4608 4609 4610 4611 4612 4613 4614 4615 4616 4617 4618 4619 4620 4621 4622 4623 4624 4625 4626 4627 4628 4629 4630 4631 4632 4633 4634 4635 4636 4637 4638 4639 4640 4641 4642 4643 4644 4645 4646 4647 4648 4649 4650 4651 4652 4653 4654 4655 4656 4657 4658 4659 4660 4661 4662 4663 4664 4665 4666 4667 4668 4669 4670 4671 4672 4673 4674 4675 4676 4677 4678 4679 4680 4681 4682 4683 4684 4685 4686 4687 4688 4689 4690 4691 4692 4693 4694 4695 4696 4697 4698 4699 4700 4701 4702 4703 4704 4705 4706 4707 4708 4709 4710 4711 4712 4713 4714 4715 4716 4717 4718 4719 4720 4721 4722 4723 4724 4725 4726 4727 4728 4729 4730 4731 4732 4733 4734 4735 4736 4737 4738 4739 4740 4741 4742 4743 4744 4745 4746 4747 4748 4749 4750 4751 4752 4753 4754 4755 4756 4757 4758 4759 4760 4761 4762 4763 4764 4765 4766 4767 4768 4769 4770 4771 4772 4773 4774 4775 4776 4777 4778 4779 4780 4781 4782 4783 4784 4785 4786 4787 4788 4789 4790 4791 4792 4793 4794 4795 4796 4797 4798 4799 4800 4801 4802 4803 4804 4805 4806 4807 4808 4809 4810 4811 4812 4813 4814 4815 4816 4817 4818 4819 4820 4821 4822 4823 4824 4825 4826 4827 4828 4829 4830 4831 4832 4833 4834 4835 4836 4837 4838 4839 4840 4841 4842 4843 4844 4845 4846 4847 4848 4849 4850 4851 4852 4853 4854 4855 4856 4857 4858 4859 4860 4861 4862 4863 4864 4865 4866 4867 4868 4869 4870 4871 4872 4873 4874 4875 4876 4877 4878 4879 4880 4881 4882 4883 4884 4885 4886 4887 4888 4889 4890 4891 4892 4893 4894 4895 4896 4897 4898 4899 4900 4901 4902 4903 4904 4905 4906 4907 4908 4909 4910 4911 4912 4913 4914 4915 4916 4917 4918 4919 4920 4921 4922 4923 4924 4925 4926 4927 4928 4929 4930 4931 4932 4933 4934 4935 4936 4937 4938 4939 4940 4941 4942 4943 4944 4945 4946 4947 4948 4949 4950 4951 4952 4953 4954 4955 4956 4957 4958 4959 4960 4961 4962 4963 4964 4965 4966 4967 4968 4969 4970 4971 4972 4973 4974 4975 4976 4977 4978 4979 4980 4981 4982 4983 4984 4985 4986 4987 4988 4989 4990 4991 4992 4993 4994 4995 4996 4997 4998 4999 5000 5001 5002 5003 5004 5005 5006 5007 5008 5009 5010 5011 5012 5013 5014 5015 5016 5017 5018 5019 5020 5021 5022 5023 5024 5025 5026 5027 5028 5029 5030 5031 5032 5033 5034 5035 5036 5037 5038 5039 5040 5041 5042 5043 5044 5045 5046 5047 5048 5049 5050 5051 5052 5053 5054 5055 5056 5057 5058 5059 5060 5061 5062 5063 5064 5065 5066 5067 5068 5069 5070 5071 5072 5073 5074 5075 5076 5077 5078 5079 5080 5081 5082 5083 5084 5085 5086 5087 5088 5089 5090 5091 5092 5093 5094 5095 5096 5097 5098 5099 5100 5101 5102 5103 5104 5105 5106 5107 5108 5109 5110 5111 5112 5113 5114 5115 5116 5117 5118 5119 5120 5121 5122 5123 5124 5125 5126 5127 5128 5129 5130 5131 5132 5133 5134 5135 5136 5137 5138 5139 5140 5141 5142 5143 5144 5145 5146 5147 5148 5149 5150 5151 5152 5153 5154 5155 5156 5157 5158 5159 5160 5161 5162 5163 5164 5165 5166 5167 5168 5169 5170 5171 5172 5173 5174 5175 5176 5177 5178 5179 5180 5181 5182 5183 5184 5185 5186 5187 5188 5189 5190 5191 5192 5193 5194 5195 5196 5197 5198 5199 5200 5201 5202 5203 5204 5205 5206 5207 5208 5209 5210 5211 5212 5213 5214 5215 5216 5217 5218 5219 5220 5221 5222 5223 5224 5225 5226 5227 5228 5229 5230 5231 5232 5233 5234 5235 5236 5237 5238 5239 5240 5241 5242 5243 5244 5245 5246 5247 5248 5249 5250 5251 5252 5253 5254 5255 5256 5257 5258 5259 5260 5261 5262 5263 5264 5265 5266 5267 5268 5269 5270 5271 5272 5273 5274 5275 5276 5277 5278 5279 5280 5281 5282 5283 5284 5285 5286 5287 5288 5289 5290 5291 5292 5293 5294 5295 5296 5297 5298 5299 5300 5301 5302 5303 5304 5305 5306 5307 5308 5309 5310 5311 5312 5313 5314 5315 5316 5317 5318 5319 5320 5321 5322 5323 5324 5325 5326 5327 5328 5329 5330 5331 5332 5333 5334 5335 5336 5337 5338 5339 5340 5341 5342 5343 5344 5345 5346 5347 5348 5349 5350 5351 5352 5353 5354 5355 5356 5357 5358 5359 5360 5361 5362 5363 5364 5365 5366 5367 5368 5369 5370 5371 5372 5373 5374 5375 5376 5377 5378 5379 5380 5381 5382 5383 5384 5385 5386 5387 5388 5389 5390 5391 5392 5393 5394 5395 5396 5397 5398 5399 5400 5401 5402 5403 5404 5405 5406 5407 5408 5409 5410 5411 5412 5413 5414 5415 5416 5417 5418 5419 5420 5421 5422 5423 5424 5425 5426 5427 5428 5429 5430 5431 5432 5433 5434 5435 5436 5437 5438 5439 5440 5441 5442 5443 5444 5445 5446 5447 5448 5449 5450 5451 5452 5453 5454 5455 5456 5457 5458 5459 5460 5461 5462 5463 5464 5465 5466 5467 5468 5469 5470 5471 5472 5473 5474 5475 5476 5477 5478 5479 5480 5481 5482 5483 5484 5485 5486 5487 5488 5489 5490 5491 5492 5493 5494 5495 5496 5497 5498 5499 5500 5501 5502 5503 5504 5505 5506 5507 5508 5509 5510 5511 5512 5513 5514 5515 5516 5517 5518 5519 5520 5521 5522 5523 5524 5525 5526 5527 5528 5529 5530 5531 5532 5533 5534 5535 5536 5537 5538 5539 5540 5541 5542 5543 5544 5545 5546 5547 5548 5549 5550 5551 5552 5553 5554 5555 5556 5557 5558 5559 5560 5561 5562 5563 5564 5565 5566 5567 5568 5569 5570 5571 5572 5573 5574 5575 5576 5577 5578 5579 5580 5581 5582 5583 5584 5585 5586 5587 5588 5589 5590 5591 5592 5593 5594 5595 5596 5597 5598 5599 5600 5601 5602 5603 5604 5605 5606 5607 5608 5609 5610 5611 5612 5613 5614 5615 5616 5617 5618 5619 5620 5621 5622 5623 5624 5625 5626 5627 5628 5629 5630 5631 5632 5633 5634 5635 5636 5637 5638 5639 5640 5641 5642 5643 5644 5645 5646 5647 5648 5649 5650 5651 5652 5653 5654 5655 5656 5657 5658 5659 5660 5661 5662 5663 5664 5665 5666 5667 5668 5669 5670 5671 5672 5673 5674 5675 5676 5677 5678 5679 5680 5681 5682 5683 5684 5685 5686 5687 5688 5689 5690 5691 5692 5693 5694 5695 5696 5697 5698 5699 5700 5701 5702 5703 5704 5705 5706 5707 5708 5709 5710 5711 5712 5713 5714 5715 5716 5717 5718 5719 5720 5721 5722 5723 5724 5725 5726 5727 5728 5729 5730 5731 5732 5733 5734 5735 5736 5737 5738 5739 5740 5741 5742 5743 5744 5745 5746 5747 5748 5749 5750 5751 5752 5753 5754 5755 5756 5757 5758 5759 5760 5761 5762 5763 5764 5765 5766 5767 5768 5769 5770 5771 5772 5773 5774 5775 5776 5777 5778 5779 5780 5781 5782 5783 5784 5785 5786 5787 5788 5789 5790 5791 5792 5793 5794 5795 5796 5797 5798 5799 5800 5801 5802 5803 5804 5805 5806 5807 5808 5809 5810 5811 5812 5813 5814 5815 5816 5817 5818 5819 5820 5821 5822 5823 5824 5825 5826 5827 5828 5829 5830 5831 5832 5833 5834 5835 5836 5837 5838 5839 5840 5841 5842 5843 5844 5845 5846 5847 5848 5849 5850 5851 5852 5853 5854 5855 5856 5857 5858 5859 5860 5861 5862 5863 5864 5865 5866 5867 5868 5869 5870 5871 5872 5873 5874 5875 5876 5877 5878 5879 5880 5881 5882 5883 5884 5885 5886 5887 5888 5889 5890 5891 5892 5893 5894 5895 5896 5897 5898 5899 5900 5901 5902 5903 5904 5905 5906 5907 5908 5909 5910 5911 5912 5913 5914 5915 5916 5917 5918 5919 5920 5921 5922 5923 5924 5925 5926 5927 5928 5929 5930 5931 5932 5933 5934 5935 5936 5937 5938 5939 5940 5941 5942 5943 5944 5945 5946 5947 5948 5949 5950 5951 5952 5953 5954 5955 5956 5957 5958 5959 5960 5961 5962 5963 5964 5965 5966 5967 5968 5969 5970 5971 5972 5973 5974 5975 5976 5977 5978 5979 5980 5981 5982 5983 5984 5985 5986 5987 5988 5989 5990 5991 5992 5993 5994 5995 5996 5997 5998 5999 6000 6001 6002 6003 6004 6005 6006 6007 6008 6009 6010 6011 6012 6013 6014 6015 6016 6017 6018 6019 6020 6021 6022 6023 6024 6025 6026 6027 6028 6029 6030 6031 6032 6033 6034 6035 6036 6037 6038 6039 6040 6041 6042 6043 6044 6045 6046 6047 6048 6049 6050 6051 6052 6053 6054 6055 6056 6057 6058 6059 6060 6061 6062 6063 6064 6065 6066 6067 6068 6069 6070 6071 6072 6073 6074 6075 6076 6077 6078 6079 6080 6081 6082 6083 6084 6085 6086 6087 6088 6089 6090 6091 6092 6093 6094 6095 6096 6097 6098 6099 6100 6101 6102 6103 6104 6105 6106 6107 6108 6109 6110 6111 6112 6113 6114 6115 6116 6117 6118 6119 6120 6121 6122 6123 6124 6125 6126 6127 6128 6129 6130 6131 6132 6133 6134 6135 6136 6137 6138 6139 6140 6141 6142 6143 6144 6145 6146 6147 6148 6149 6150 6151 6152 6153 6154 6155 6156 6157 6158 6159 6160 6161 6162 6163 6164 6165 6166 6167 6168 6169 6170 6171 6172 6173 6174 6175 6176 6177 6178 6179 6180 6181 6182 6183 6184 6185 6186 6187 6188 6189 6190 6191 6192 6193 6194 6195 6196 6197 6198 6199 6200 6201 6202 6203 6204 6205 6206 6207 6208 6209 6210 6211 6212 6213 6214 6215 6216 6217 6218 6219 6220 6221 6222 6223 6224 6225 6226 6227 6228 6229 6230 6231 6232 6233 6234 6235 6236 6237 6238 6239 6240 6241 6242 6243 6244 6245 6246 6247 6248 6249 6250 6251 6252 6253 6254 6255 6256 6257 6258 6259 6260 6261 6262 6263 6264 6265 6266 6267 6268 6269 6270 6271 6272 6273 6274 6275 6276 6277 6278 6279 6280 6281 6282 6283 6284 6285 6286 6287 6288 6289 6290 6291 6292 6293 6294 6295 6296 6297 6298 6299 6300 6301 6302 6303 6304 6305 6306 6307 6308 6309 6310 6311 6312 6313 6314 6315 6316 6317 6318 6319 6320 6321 6322 6323 6324 6325 6326 6327 6328 6329 6330 6331 6332 6333 6334 6335 6336 6337 6338 6339 6340 6341 6342 6343 6344 6345 6346 6347 6348 6349 6350 6351 6352 6353 6354 6355 6356 6357 6358 6359 6360 6361 6362 6363 6364 6365 6366 6367 6368 6369 6370 6371 6372 6373 6374 6375 6376 6377 6378 6379 6380 6381 6382 6383 6384 6385 6386 6387 6388 6389 6390 6391 6392 6393 6394 6395 6396 6397 6398 6399 6400 6401 6402 6403 6404 6405 6406 6407 6408 6409 6410 6411 6412 6413 6414 6415 6416 6417 6418 6419 6420 6421 6422 6423 6424 6425 6426 6427 6428 6429 6430 6431 6432 6433 6434 6435 6436 6437 6438 6439 6440 6441 6442 6443 6444 6445 6446 6447 6448 6449 6450 6451 6452 6453 6454 6455 6456 6457 6458 6459 6460 6461 6462 6463 6464 6465 6466 6467 6468 6469 6470 6471 6472 6473 6474 6475 6476 6477 6478 6479 6480 6481 6482 6483 6484 6485 6486 6487 6488 6489 6490 6491 6492 6493 6494 6495 6496 6497 6498 6499 6500 6501 6502 6503 6504 6505 6506 6507 6508 6509 6510 6511 6512 6513 6514 6515 6516 6517 6518 6519 6520 6521 6522 6523 6524 6525 6526 6527 6528 6529 6530 6531 6532 6533 6534 6535 6536 6537 6538 6539 6540 6541 6542 6543 6544 6545 6546 6547 6548 6549 6550 6551 6552 6553 6554 6555 6556 6557 6558 6559 6560 6561 6562 6563 6564 6565 6566 6567 6568 6569 6570 6571 6572 6573 6574 6575 6576 6577 6578 6579 6580 6581 6582 6583 6584 6585 6586 6587 6588 6589 6590 6591 6592 6593 6594 6595 6596 6597 6598 6599 6600 6601 6602 6603 6604 6605 6606 6607 6608 6609 6610 6611 6612 6613 6614 6615 6616 6617 6618 6619 6620 6621 6622 6623 6624 6625 6626 6627 6628 6629 6630 6631 6632 6633 6634 6635 6636 6637 6638 6639 6640 6641 6642 6643 6644 6645 6646 6647 6648 6649 6650 6651 6652 6653 6654 6655 6656 6657 6658 6659 6660 6661 6662 6663 6664 6665 6666 6667 6668 6669 6670 6671 6672 6673 6674 6675 6676 6677 6678 6679 6680 6681 6682 6683 6684 6685 6686 6687 6688 6689 6690 6691 6692 6693 6694 6695 6696 6697 6698 6699 6700 6701 6702 6703 6704 6705 6706 6707 6708 6709 6710 6711 6712 6713 6714 6715 6716 6717 6718 6719 6720 6721 6722 6723 6724 6725 6726 6727 6728 6729 6730 6731 6732 6733 6734 6735 6736 6737 6738 6739 6740 6741 6742 6743 6744 6745 6746 6747 6748 6749 6750 6751 6752 6753 6754 6755 6756 6757 6758 6759 6760 6761 6762 6763 6764 6765 6766 6767 6768 6769 6770 6771 6772 6773 6774 6775 6776 6777 6778 6779 6780 6781 6782 6783 6784 6785 6786 6787 6788 6789 6790 6791 6792 6793 6794 6795 6796 6797 6798 6799 6800 6801 6802 6803 6804 6805 6806 6807 6808 6809 6810 6811 6812 6813 6814 6815 6816 6817 6818 6819 6820 6821 6822 6823 6824 6825 6826 6827 6828 6829 6830 6831 6832 6833 6834 6835 6836 6837 6838 6839 6840 6841 6842 6843 6844 6845 6846 6847 6848 6849 6850 6851 6852 6853 6854 6855 6856 6857 6858 6859 6860 6861 6862 6863 6864 6865 6866 6867 6868 6869 6870 6871 6872 6873 6874 6875 6876 6877 6878 6879 6880 6881 6882 6883 6884 6885 6886 6887 6888 6889 6890 6891 6892 6893 6894 6895 6896 6897 6898 6899 6900 6901 6902 6903 6904 6905 6906 6907 6908 6909 6910 6911 6912 6913 6914 6915 6916 6917 6918 6919 6920 6921 6922 6923 6924 6925 6926 6927 6928 6929 6930 6931 6932 6933 6934 6935 6936 6937 6938 6939 6940 6941 6942 6943 6944 6945 6946 6947 6948 6949 6950 6951 6952 6953 6954 6955 6956 6957 6958 6959 6960 6961 6962 6963 6964 6965 6966 6967 6968 6969 6970 6971 6972 6973 6974 6975 6976 6977 6978 6979 6980 6981 6982 6983 6984 6985 6986 6987 6988 6989 6990 6991 6992 6993 6994 6995 6996 6997 6998 6999 7000 7001 7002 7003 7004 7005 7006 7007 7008 7009 7010 7011 7012 7013 7014 7015 7016 7017 7018 7019 7020 7021 7022 7023 7024 7025 7026 7027 7028 7029 7030 7031 7032 7033 7034 7035 7036 7037 7038 7039 7040 7041 7042 7043 7044 7045 7046 7047 7048 7049 7050 7051 7052 7053 7054 7055 7056 7057 7058 7059 7060 7061 7062 7063 7064 7065 7066 7067 7068 7069 7070 7071 7072 7073 7074 7075 7076 7077 7078 7079 7080 7081 7082 7083 7084 7085 7086 7087 7088 7089 7090 7091 7092 7093 7094 7095 7096 7097 7098 7099 7100 7101 7102 7103 7104 7105 7106 7107 7108 7109 7110 7111 7112 7113 7114 7115 7116 7117 7118 7119 7120 7121 7122 7123 7124 7125 7126 7127 7128 7129 7130 7131 7132 7133 7134 7135 7136 7137 7138 7139 7140 7141 7142 7143 7144 7145 7146 7147 7148 7149 7150 7151 7152 7153 7154 7155 7156 7157 7158 7159 7160 7161 7162 7163 7164 7165 7166 7167 7168 7169 7170 7171 7172 7173 7174 7175 7176 7177 7178 7179 7180 7181 7182 7183 7184 7185 7186 7187 7188 7189 7190 7191 7192 7193 7194 7195 7196 7197 7198 7199 7200 7201 7202 7203 7204 7205 7206 7207 7208 7209 7210 7211 7212 7213 7214 7215 7216 7217 7218 7219 7220 7221 7222 7223 7224 7225 7226 7227 7228 7229 7230 7231 7232 7233 7234 7235 7236 7237 7238 7239 7240 7241 7242 7243 7244 7245 7246 7247 7248 7249 7250 7251 7252 7253 7254 7255 7256 7257 7258 7259 7260 7261 7262 7263 7264 7265 7266 7267 7268 7269 7270 7271 7272 7273 7274 7275 7276 7277 7278 7279 7280 7281 7282 7283 7284 7285 7286 7287 7288 7289 7290 7291 7292 7293 7294 7295 7296 7297 7298 7299 7300 7301 7302 7303 7304 7305 7306 7307 7308 7309 7310 7311 7312 7313 7314 7315 7316 7317 7318 7319 7320 7321 7322 7323 7324 7325 7326 7327 7328 7329 7330 7331 7332 7333 7334 7335 7336 7337 7338 7339 7340 7341 7342 7343 7344 7345 7346 7347 7348 7349 7350 7351 7352 7353 7354 7355 7356 7357 7358 7359 7360 7361 7362 7363 7364 7365 7366 7367 7368 7369 7370 7371 7372 7373 7374 7375 7376 7377 7378 7379 7380 7381 7382 7383 7384 7385 7386 7387 7388 7389 7390 7391 7392 7393 7394 7395 7396 7397 7398 7399 7400 7401 7402 7403 7404 7405 7406 7407 7408 7409 7410 7411 7412 7413 7414 7415 7416 7417 7418 7419 7420 7421 7422 7423 7424 7425 7426 7427 7428 7429 7430 7431 7432 7433 7434 7435 7436 7437 7438 7439 7440 7441 7442 7443 7444 7445 7446 7447 7448 7449 7450 7451 7452 7453 7454 7455 7456 7457 7458 7459 7460 7461 7462 7463 7464 7465 7466 7467 7468 7469 7470 7471 7472 7473 7474 7475 7476 7477 7478 7479 7480 7481 7482 7483 7484 7485 7486 7487 7488 7489 7490 7491 7492 7493 7494 7495 7496 7497 7498 7499 7500 7501 7502 7503 7504 7505 7506 7507 7508 7509 7510 7511 7512 7513 7514 7515 7516 7517 7518 7519 7520 7521 7522 7523 7524 7525 7526 7527 7528 7529 7530 7531 7532 7533 7534 7535 7536 7537 7538 7539 7540 7541 7542 7543 7544 7545 7546 7547 7548 7549 7550 7551 7552 7553 7554 7555 7556 7557 7558 7559 7560 7561 7562 7563 7564 7565 7566 7567 7568 7569 7570 7571 7572 7573 7574 7575 7576 7577 7578 7579 7580 7581 7582 7583 7584 7585 7586 7587 7588 7589 7590 7591 7592 7593 7594 7595 7596 7597 7598 7599 7600 7601 7602 7603 7604 7605 7606 7607 7608 7609 7610 7611 7612 7613 7614 7615 7616 7617 7618 7619 7620 7621 7622 7623 7624 7625 7626 7627 7628 7629 7630 7631 7632 7633 7634 7635 7636 7637 7638 7639 7640 7641 7642 7643 7644 7645 7646 7647 7648 7649 7650 7651 7652 7653 7654 7655 7656 7657 7658 7659 7660 7661 7662 7663 7664 7665 7666 7667 7668 7669 7670 7671 7672 7673 7674 7675 7676 7677 7678 7679 7680 7681 7682 7683 7684 7685 7686 7687 7688 7689 7690 7691 7692 7693 7694 7695 7696 7697 7698 7699 7700 7701 7702 7703 7704 7705 7706 7707 7708 7709 7710 7711 7712 7713 7714 7715 7716 7717 7718 7719 7720 7721 7722 7723 7724 7725 7726 7727 7728 7729 7730 7731 7732 7733 7734 7735 7736 7737 7738 7739 7740 7741 7742 7743 7744 7745 7746 7747 7748 7749 7750 7751 7752 7753 7754 7755 7756 7757 7758 7759 7760 7761 7762 7763 7764 7765 7766 7767 7768 7769 7770 7771 7772 7773 7774 7775 7776 7777 7778 7779 7780 7781 7782 7783 7784 7785 7786 7787 7788 7789 7790 7791 7792 7793 7794 7795 7796 7797 7798 7799 7800 7801 7802 7803 7804 7805 7806 7807 7808 7809 7810 7811 7812 7813 7814 7815 7816 7817 7818 7819 7820 7821 7822 7823 7824 7825 7826 7827 7828 7829 7830 7831 7832 7833 7834 7835 7836 7837 7838 7839 7840 7841 7842 7843 7844 7845 7846 7847 7848 7849 7850 7851 7852 7853 7854 7855 7856 7857 7858 7859 7860 7861 7862 7863 7864 7865 7866 7867 7868 7869 7870 7871 7872 7873 7874 7875 7876 7877 7878 7879 7880 7881 7882 7883 7884 7885 7886 7887 7888 7889 7890 7891 7892 7893 7894 7895 7896 7897 7898 7899 7900 7901 7902 7903 7904 7905 7906 7907 7908 7909 7910 7911 7912 7913 7914 7915 7916 7917 7918 7919 7920 7921 7922 7923 7924 7925 7926 7927 7928 7929 7930 7931 7932 7933 7934 7935 7936 7937 7938 7939 7940 7941 7942 7943 7944 7945 7946 7947 7948 7949 7950 7951 7952 7953 7954 7955 7956 7957 7958 7959 7960 7961 7962 7963 7964 7965 7966 7967 7968 7969 7970 7971 7972 7973 7974 7975 7976 7977 7978 7979 7980 7981 7982 7983 7984 7985 7986 7987 7988 7989 7990 7991 7992 7993 7994 7995 7996 7997 7998 7999 8000 8001 8002 8003 8004 8005 8006 8007 8008 8009 8010 8011 8012 8013 8014 8015 8016 8017 8018 8019 8020 8021 8022 8023 8024 8025 8026 8027 8028 8029 8030 8031 8032 8033 8034 8035 8036 8037 8038 8039 8040 8041 8042 8043 8044 8045 8046 8047 8048 8049 8050 8051 8052 8053 8054 8055 8056 8057 8058 8059 8060 8061 8062 8063 8064 8065 8066 8067 8068 8069 8070 8071 8072 8073 8074 8075 8076 8077 8078 8079 8080 8081 8082 8083 8084 8085 8086 8087 8088 8089 8090 8091 8092 8093 8094 8095 8096 8097 8098 8099 8100 8101 8102 8103 8104 8105 8106 8107 8108 8109 8110 8111 8112 8113 8114 8115 8116 8117 8118 8119 8120 8121 8122 8123 8124 8125 8126 8127 8128 8129 8130 8131 8132 8133 8134 8135 8136 8137 8138 8139 8140 8141 8142 8143 8144 8145 8146 8147 8148 8149 8150 8151 8152 8153 8154 8155 8156 8157 8158 8159 8160 8161 8162 8163 8164 8165 8166 8167 8168 8169 8170 8171 8172 8173 8174 8175 8176 8177 8178 8179 8180 8181 8182 8183 8184 8185 8186 8187 8188 8189 8190 8191 8192 8193 8194 8195 8196 8197 8198 8199 8200 8201 8202 8203 8204 8205 8206 8207 8208 8209 8210 8211 8212 8213 8214 8215 8216 8217 8218 8219 8220 8221 8222 8223 8224 8225 8226 8227 8228 8229 8230 8231 8232 8233 8234 8235 8236 8237 8238 8239 8240 8241 8242 8243 8244 8245 8246 8247 8248 8249 8250 8251 8252 8253 8254 8255 8256 8257 8258 8259 8260 8261 8262 8263 8264 8265 8266 8267 8268 8269 8270 8271 8272 8273 8274 8275 8276 8277 8278 8279 8280 8281 8282 8283 8284 8285 8286 8287 8288 8289 8290 8291 8292 8293 8294 8295 8296 8297 8298 8299 8300 8301 8302 8303 8304 8305 8306 8307 8308 8309 8310 8311 8312 8313 8314 8315 8316 8317 8318 8319 8320 8321 8322 8323 8324 8325 8326 8327 8328 8329 8330 8331 8332 8333 8334 8335 8336 8337 8338 8339 8340 8341 8342 8343 8344 8345 8346 8347 8348 8349 8350 8351 8352 8353 8354 8355 8356 8357 8358 8359 8360 8361 8362 8363 8364 8365 8366 8367 8368 8369 8370 8371 8372 8373 8374 8375 8376 8377 8378 8379 8380 8381 8382 8383 8384 8385 8386 8387 8388 8389 8390 8391 8392 8393 8394 8395 8396 8397 8398 8399 8400 8401 8402 8403 8404 8405 8406 8407 8408 8409 8410 8411 8412 8413 8414 8415 8416 8417 8418 8419 8420 8421 8422 8423 8424 8425 8426 8427 8428 8429 8430 8431 8432 8433 8434 8435 8436 8437 8438 8439 8440 8441 8442 8443 8444 8445 8446 8447 8448 8449 8450 8451 8452 8453 8454 8455 8456 8457 8458 8459 8460 8461 8462 8463 8464 8465 8466 8467 8468 8469 8470 8471 8472 8473 8474 8475 8476 8477 8478 8479 8480 8481 8482 8483 8484 8485 8486 8487 8488 8489 8490 8491 8492 8493 8494 8495 8496 8497 8498 8499 8500 8501 8502 8503 8504 8505 8506 8507 8508 8509 8510 8511 8512 8513 8514 8515 8516 8517 8518 8519 8520 8521 8522 8523 8524 8525 8526 8527 8528 8529 8530 8531 8532 8533 8534 8535 8536 8537 8538 8539 8540 8541 8542 8543 8544 8545 8546 8547 8548 8549 8550 8551 8552 8553 8554 8555 8556 8557 8558 8559 8560 8561 8562 8563 8564 8565 8566 8567 8568 8569 8570 8571 8572 8573 8574 8575 8576 8577 8578 8579 8580 8581 8582 8583 8584 8585 8586 8587 8588 8589 8590 8591 8592 8593 8594 8595 8596 8597 8598 8599 8600 8601 8602 8603 8604 8605 8606 8607 8608 8609 8610 8611 8612 8613 8614 8615 8616 8617 8618 8619 8620 8621 8622 8623 8624 8625 8626 8627 8628 8629 8630 8631 8632 8633 8634 8635 8636 8637 8638 8639 8640 8641 8642 8643 8644 8645 8646 8647 8648 8649 8650 8651 8652 8653 8654 8655 8656 8657 8658 8659 8660 8661 8662 8663 8664 8665 8666 8667 8668 8669 8670 8671 8672 8673 8674 8675 8676 8677 8678 8679 8680 8681 8682 8683 8684 8685 8686 8687 8688 8689 8690 8691 8692 8693 8694 8695 8696 8697 8698 8699 8700 8701 8702 8703 8704 8705 8706 8707 8708 8709 8710 8711 8712 8713 8714 8715 8716 8717 8718 8719 8720 8721 8722 8723 8724 8725 8726 8727 8728 8729 8730 8731 8732 8733 8734 8735 8736 8737 8738 8739 8740 8741 8742 8743 8744 8745 8746 8747 8748 8749 8750 8751 8752 8753 8754 8755 8756 8757 8758 8759 8760 8761 8762 8763 8764 8765 8766 8767 8768 8769 8770 8771 8772 8773 8774 8775 8776 8777 8778 8779 8780 8781 8782 8783 8784 8785 8786 8787 8788 8789 8790 8791 8792 8793 8794 8795 8796 8797 8798 8799 8800 8801 8802 8803 8804 8805 8806 8807 8808 8809 8810 8811 8812 8813 8814 8815 8816 8817 8818 8819 8820 8821 8822 8823 8824 8825 8826 8827 8828 8829 8830 8831 8832 8833 8834 8835 8836 8837 8838 8839 8840 8841 8842 8843 8844 8845 8846 8847 8848 8849 8850 8851 8852 8853 8854 8855 8856 8857 8858 8859 8860 8861 8862 8863 8864 8865 8866 8867 8868 8869 8870 8871 8872 8873 8874 8875 8876 8877 8878 8879 8880 8881 8882 8883 8884 8885 8886 8887 8888 8889 8890 8891 8892 8893 8894 8895 8896 8897 8898 8899 8900 8901 8902 8903 8904 8905 8906 8907 8908 8909 8910 8911 8912 8913 8914 8915 8916 8917 8918 8919 8920 8921 8922 8923 8924 8925 8926 8927 8928 8929 8930 8931 8932 8933 8934 8935 8936 8937 8938 8939 8940 8941 8942 8943 8944 8945 8946 8947 8948 8949 8950 8951 8952 8953 8954 8955 8956 8957 8958 8959 8960 8961 8962 8963 8964 8965 8966 8967 8968 8969 8970 8971 8972 8973 8974 8975 8976 8977 8978 8979 8980 8981 8982 8983 8984 8985 8986 8987 8988 8989 8990 8991 8992 8993 8994 8995 8996 8997 8998 8999 9000 9001 9002 9003 9004 9005 9006 9007 9008 9009 9010 9011 9012 9013 9014 9015 9016 9017 9018 9019 9020 9021 9022 9023 9024 9025 9026 9027 9028 9029 9030 9031 9032 9033 9034 9035 9036 9037 9038 9039 9040 9041 9042 9043 9044 9045 9046 9047 9048 9049 9050 9051 9052 9053 9054 9055 9056 9057 9058 9059 9060 9061 9062 9063 9064 9065 9066 9067 9068 9069 9070 9071 9072 9073 9074 9075 9076 9077 9078 9079 9080 9081 9082 9083 9084 9085 9086 9087 9088 9089 9090 9091 9092 9093 9094 9095 9096 9097 9098 9099 9100 9101 9102 9103 9104 9105 9106 9107 9108 9109 9110 9111 9112 9113 9114 9115 9116 9117 9118 9119 9120 9121 9122 9123 9124 9125 9126 9127 9128 9129 9130 9131 9132 9133 9134 9135 9136 9137 9138 9139 9140 9141 9142 9143 9144 9145 9146 9147 9148 9149 9150 9151 9152 9153 9154 9155 9156 9157 9158 9159 9160 9161 9162 9163 9164 9165 9166 9167 9168 9169 9170 9171 9172 9173 9174 9175 9176 9177 9178 9179 9180 9181 9182 9183 9184 9185 9186 9187 9188 9189 9190 9191 9192 9193 9194 9195 9196 9197 9198 9199 9200 9201 9202 9203 9204 9205 9206 9207 9208 9209 9210 9211 9212 9213 9214 9215 9216 9217 9218 9219 9220 9221 9222 9223 9224 9225 9226 9227 9228 9229 9230 9231 9232 9233 9234 9235 9236 9237 9238 9239 9240 9241 9242 9243 9244 9245 9246 9247 9248 9249 9250 9251 9252 9253 9254 9255 9256 9257 9258 9259 9260 9261 9262 9263 9264 9265 9266 9267 9268 9269 9270 9271 9272 9273 9274 9275 9276 9277 9278 9279 9280 9281 9282 9283 9284 9285 9286 9287 9288 9289 9290 9291 9292 9293 9294 9295 9296 9297 9298 9299 9300 9301 9302 9303 9304 9305 9306 9307 9308 9309 9310 9311 9312 9313 9314 9315 9316 9317 9318 9319 9320 9321 9322 9323 9324 9325 9326 9327 9328 9329 9330 9331 9332 9333 9334 9335 9336 9337 9338 9339 9340 9341 9342 9343 9344 9345 9346 9347 9348 9349 9350 9351 9352 9353 9354 9355 9356 9357 9358 9359 9360 9361 9362 9363 9364 9365 9366 9367 9368 9369 9370 9371 9372 9373 9374 9375 9376 9377 9378 9379 9380 9381 9382 9383 9384 9385 9386 9387 9388 9389 9390 9391 9392 9393 9394 9395 9396 9397 9398 9399 9400 9401 9402 9403 9404 9405 9406 9407 9408 9409 9410 9411 9412 9413 9414 9415 9416 9417 9418 9419 9420 9421 9422 9423 9424 9425 9426 9427 9428 9429 9430 9431 9432 9433 9434 9435 9436 9437 9438 9439 9440 9441 9442 9443 9444 9445 9446 9447 9448 9449 9450 9451 9452 9453 9454 9455 9456 9457 9458 9459 9460 9461 9462 9463 9464 9465 9466 9467 9468 9469 9470 9471 9472 9473 9474 9475 9476 9477 9478 9479 9480 9481 9482 9483 9484 9485 9486 9487 9488 9489 9490 9491 9492 9493 9494 9495 9496 9497 9498 9499 9500 9501 9502 9503 9504 9505 9506 9507 9508 9509 9510 9511 9512 9513 9514 9515 9516 9517 9518 9519 9520 9521 9522 9523 9524 9525 9526 9527 9528 9529 9530 9531 9532 9533 9534 9535 9536 9537 9538 9539 9540 9541 9542 9543 9544 9545 9546 9547 9548 9549 9550 9551 9552 9553 9554 9555 9556 9557 9558 9559 9560 9561 9562 9563 9564 9565 9566 9567 9568 9569 9570 9571 9572 9573 9574 9575 9576 9577 9578 9579 9580 9581 9582 9583 9584 9585 9586 9587 9588 9589 9590 9591 9592 9593 9594 9595 9596 9597 9598 9599 9600 9601 9602 9603 9604 9605 9606 9607 9608 9609 9610 9611 9612 9613 9614 9615 9616 9617 9618 9619 9620 9621 9622 9623 9624 9625 9626 9627 9628 9629 9630 9631 9632 9633 9634 9635 9636 9637 9638 9639 9640 9641 9642 9643 9644 9645 9646 9647 9648 9649 9650 9651 9652 9653 9654 9655 9656 9657 9658 9659 9660 9661 9662 9663 9664 9665 9666 9667 9668 9669 9670 9671 9672 9673 9674 9675 9676 9677 9678 9679 9680 9681 9682 9683 9684 9685 9686 9687 9688 9689 9690 9691 9692 9693 9694 9695 9696 9697 9698 9699 9700 9701 9702 9703 9704 9705 9706 9707 9708 9709 9710 9711 9712 9713 9714 9715 9716 9717 9718 9719 9720 9721 9722 9723 9724 9725 9726 9727 9728 9729 9730 9731 9732 9733 9734 9735 9736 9737 9738 9739 9740 9741 9742 9743 9744 9745 9746 9747 9748 9749 9750 9751 9752 9753 9754 9755 9756 9757 9758 9759 9760 9761 9762 9763 9764 9765 9766 9767 9768 9769 9770 9771 9772 9773 9774 9775 9776 9777 9778 9779 9780 9781 9782 9783 9784 9785 9786 9787 9788 9789 9790 9791 9792 9793 9794 9795 9796 9797 9798 9799 9800 9801 9802 9803 9804 9805 9806 9807 9808 9809 9810 9811 9812 9813 9814 9815 9816 9817 9818 9819 9820 9821 9822 9823 9824 9825 9826 9827 9828 9829 9830 9831 9832 9833 9834 9835 9836 9837 9838 9839 9840 9841 9842 9843 9844 9845 9846 9847 9848 9849 9850 9851 9852 9853 9854 9855 9856 9857 9858 9859 9860 9861 9862 9863 9864 9865 9866 9867 9868 9869 9870 9871 9872 9873 9874 9875 9876 9877 9878 9879 9880 9881 9882 9883 9884 9885 9886 9887 9888 9889 9890 9891 9892 9893 9894 9895 9896 9897 9898 9899 9900 9901 9902 9903 9904 9905 9906 9907 9908 9909 9910 9911 9912 9913 9914 9915 9916 9917 9918 9919 9920 9921 9922 9923 9924 9925 9926 9927 9928 9929 9930 9931 9932 9933 9934 9935 9936 9937 9938 9939 9940 9941 9942 9943 9944 9945 9946 9947 9948 9949 9950 9951 9952 9953 9954 9955 9956 9957 9958 9959 9960 9961 9962 9963 9964 9965 9966 9967 9968 9969 9970 9971 9972 9973 9974 9975 9976 9977 9978 9979 9980 9981 9982 9983 9984 9985 9986 9987 9988 9989 9990 9991 9992 9993 9994 9995 9996 9997 9998 9999 10000 10001 10002 10003 10004 10005 10006 10007 10008 10009 10010 10011 10012 10013 10014 10015 10016 10017 10018 10019 10020 10021 10022 10023 10024 10025 10026 10027 10028 10029 10030 10031 10032 10033 10034 10035 10036 10037 10038 10039 10040 10041 10042 10043 10044 10045 10046 10047 10048 10049 10050 10051 10052 10053 10054 10055 10056 10057 10058 10059 10060 10061 10062 10063 10064 10065 10066 10067 10068 10069 10070 10071 10072 10073 10074 10075 10076 10077 10078 10079 10080 10081 10082 10083 10084 10085 10086 10087 10088 10089 10090 10091 10092 10093 10094 10095 10096 10097 10098 10099 10100 10101 10102 10103 10104 10105 10106 10107 10108 10109 10110 10111 10112 10113 10114 10115 10116 10117 10118 10119 10120 10121 10122 10123 10124 10125 10126 10127 10128 10129 10130 10131 10132 10133 10134 10135 10136 10137 10138 10139 10140 10141 10142 10143 10144 10145 10146 10147 10148 10149 10150 10151 10152 10153 10154 10155 10156 10157 10158 10159 10160 10161 10162 10163 10164 10165 10166 10167 10168 10169 10170 10171 10172 10173 10174 10175 10176 10177 10178 10179 10180 10181 10182 10183 10184 10185 10186 10187 10188 10189 10190 10191 10192 10193 10194 10195 10196 10197 10198 10199 10200 10201 10202 10203 10204 10205 10206 10207 10208 10209 10210 10211 10212 10213 10214 10215 10216 10217 10218 10219 10220 10221 10222 10223 10224 10225 10226 10227 10228 10229 10230 10231 10232 10233 10234 10235 10236 10237 10238 10239 10240 10241 10242 10243 10244 10245 10246 10247 10248 10249 10250 10251 10252 10253 10254 10255 10256 10257 10258 10259 10260 10261 10262 10263 10264 10265 10266 10267 10268 10269 10270 10271 10272 10273 10274 10275 10276 10277 10278 10279 10280 10281 10282 10283 10284 10285 10286 10287 10288 10289 10290 10291 10292 10293 10294 10295 10296 10297 10298 10299 10300 10301 10302 10303 10304 10305 10306 10307 10308 10309 10310 10311 10312 10313 10314 10315 10316 10317 10318 10319 10320 10321 10322 10323 10324 10325 10326 10327 10328 10329 10330 10331 10332 10333 10334 10335 10336 10337 10338 10339 10340 10341 10342 10343 10344 10345 10346 10347 10348 10349 10350 10351 10352 10353 10354 10355 10356 10357 10358 10359 10360 10361 10362 10363 10364 10365 10366 10367 10368 10369 10370 10371 10372 10373 10374 10375 10376 10377 10378 10379 10380 10381 10382 10383 10384 10385 10386 10387 10388 10389 10390 10391 10392 10393 10394 10395 10396 10397 10398 10399 10400 10401 10402 10403 10404 10405 10406 10407 10408 10409 10410 10411 10412 10413 10414 10415 10416 10417 10418 10419 10420 10421 10422 10423 10424 10425 10426 10427 10428 10429 10430 10431 10432 10433 10434 10435 10436 10437 10438 10439 10440 10441 10442 10443 10444 10445 10446 10447 10448 10449 10450 10451 10452 10453 10454 10455 10456 10457 10458 10459 10460 10461 10462 10463 10464 10465 10466 10467 10468 10469 10470 10471 10472 10473 10474 10475 10476 10477 10478 10479 10480 10481 10482 10483 10484 10485 10486 10487 10488 10489 10490 10491 10492 10493 10494 10495 10496 10497 10498 10499 10500 10501 10502 10503 10504 10505 10506 10507 10508 10509 10510 10511 10512 10513 10514 10515 10516 10517 10518 10519 10520 10521 10522 10523 10524 10525 10526 10527 10528 10529 10530 10531 10532 10533 10534 10535 10536 10537 10538 10539 10540 10541 10542 10543 10544 10545 10546 10547 10548 10549 10550 10551 10552 10553 10554 10555 10556 10557 10558 10559 10560 10561 10562 10563 10564 10565 10566 10567 10568 10569 10570 10571 10572 10573 10574 10575 10576 10577 10578 10579 10580 10581 10582 10583 10584 10585 10586 10587 10588 10589 10590 10591 10592 10593 10594 10595 10596 10597 10598 10599 10600 10601 10602 10603 10604 10605 10606 10607 10608 10609 10610 10611 10612 10613 10614 10615 10616 10617 10618 10619 10620 10621 10622 10623 10624 10625 10626 10627 10628 10629 10630 10631 10632 10633 10634 10635 10636 10637 10638 10639 10640 10641 10642 10643 10644 10645 10646 10647 10648 10649 10650 10651 10652 10653 10654 10655 10656 10657 10658 10659 10660 10661 10662 10663 10664 10665 10666 10667 10668 10669 10670 10671 10672 10673 10674 10675 10676 10677 10678 10679 10680 10681 10682 10683 10684 10685 10686 10687 10688 10689 10690 10691 10692 10693 10694 10695 10696 10697 10698 10699 10700 10701 10702 10703 10704 10705 10706 10707 10708 10709 10710 10711 10712 10713 10714 10715 10716 10717 10718 10719 10720 10721 10722 10723 10724 10725 10726 10727 10728 10729 10730 10731 10732 10733 10734 10735 10736 10737 10738 10739 10740 10741 10742 10743 10744 10745 10746 10747 10748 10749 10750 10751 10752 10753 10754 10755 10756 10757 10758 10759 10760 10761 10762 10763 10764 10765 10766 10767 10768 10769 10770 10771 10772 10773 10774 10775 10776 10777 10778 10779 10780 10781 10782 10783 10784 10785 10786 10787 10788 10789 10790 10791 10792 10793 10794 10795 10796 10797 10798 10799 10800 10801 10802 10803 10804 10805 10806 10807 10808 10809 10810 10811 10812 10813 10814 10815 10816 10817 10818 10819 10820 10821 10822 10823 10824 10825 10826 10827 10828 10829 10830 10831 10832 10833 10834 10835 10836 10837 10838 10839 10840 10841 10842 10843 10844 10845 10846 10847 10848 10849 10850 10851 10852 10853 10854 10855 10856 10857 10858 10859 10860 10861 10862 10863 10864 10865 10866 10867 10868 10869 10870 10871 10872 10873 10874 10875 10876 10877 10878 10879 10880 10881 10882 10883 10884 10885 10886 10887 10888 10889 10890 10891 10892 10893 10894 10895 10896 10897 10898 10899 10900 10901 10902 10903 10904 10905 10906 10907 10908 10909 10910 10911 10912 10913 10914 10915 10916 10917 10918 10919 10920 10921 10922 10923 10924 10925 10926 10927 10928 10929 10930 10931 10932 10933 10934 10935 10936 10937 10938 10939 10940 10941 10942 10943 10944 10945 10946 10947 10948 10949 10950 10951 10952 10953 10954 10955 10956 10957 10958 10959 10960 10961 10962 10963 10964 10965 10966 10967 10968 10969 10970 10971 10972 10973 10974 10975 10976 10977 10978 10979 10980 10981 10982 10983 10984 10985 10986 10987 10988 10989 10990 10991 10992 10993 10994 10995 10996 10997 10998 10999 11000 11001 11002 11003 11004 11005 11006 11007 11008 11009 11010 11011 11012 11013 11014 11015 11016 11017 11018 11019 11020 11021 11022 11023 11024 11025 11026 11027 11028 11029 11030 11031 11032 11033 11034 11035 11036 11037 11038 11039 11040 11041 11042 11043 11044 11045 11046 11047 11048 11049 11050 11051 11052 11053 11054 11055 11056 11057 11058 11059 11060 11061 11062 11063 11064 11065 11066 11067 11068 11069 11070 11071 11072 11073 11074 11075 11076 11077 11078 11079 11080 11081 11082 11083 11084 11085 11086 11087 11088 11089 11090 11091 11092 11093 11094 11095 11096 11097 11098 11099 11100 11101 11102 11103 11104 11105 11106 11107 11108 11109 11110 11111 11112 11113 11114 11115 11116 11117 11118 11119 11120 11121 11122 11123 11124 11125 11126 11127 11128 11129 11130 11131 11132 11133 11134 11135 11136 11137 11138 11139 11140 11141 11142 11143 11144 11145 11146 11147 11148 11149 11150 11151 11152 11153 11154 11155 11156 11157 11158 11159 11160 11161 11162 11163 11164 11165 11166 11167 11168 11169 11170 11171 11172 11173 11174 11175 11176 11177 11178 11179 11180 11181 11182 11183 11184 11185 11186 11187 11188 11189 11190 11191 11192 11193 11194 11195 11196 11197 11198 11199 11200 11201 11202 11203 11204 11205 11206 11207 11208 11209 11210 11211 11212 11213 11214 11215 11216 11217 11218 11219 11220 11221 11222 11223 11224 11225 11226 11227 11228 11229 11230 11231 11232 11233 11234 11235 11236 11237 11238 11239 11240 11241 11242 11243 11244 11245 11246 11247 11248 11249 11250 11251 11252 11253 11254 11255 11256 11257 11258 11259 11260 11261 11262 11263 11264 11265 11266 11267 11268 11269 11270 11271 11272 11273 11274 11275 11276 11277 11278 11279 11280 11281 11282 11283 11284 11285 11286 11287 11288 11289 11290 11291 11292 11293 11294 11295 11296 11297 11298 11299 11300 11301 11302 11303 11304 11305 11306 11307 11308 11309 11310 11311 11312 11313 11314 11315 11316 11317 11318 11319 11320 11321 11322 11323 11324 11325 11326 11327 11328 11329 11330 11331 11332 11333 11334 11335 11336 11337 11338 11339 11340 11341 11342 11343 11344 11345 11346 11347 11348 11349 11350 11351 11352 11353 11354 11355 11356 11357 11358 11359 11360 11361 11362 11363 11364 11365 11366 11367 11368 11369 11370 11371 11372 11373 11374 11375 11376 11377 11378 11379 11380 11381 11382 11383 11384 11385 11386 11387 11388 11389 11390 11391 11392 11393 11394 11395 11396 11397 11398 11399 11400 11401 11402 11403 11404 11405 11406 11407 11408 11409 11410 11411 11412 11413 11414 11415 11416 11417 11418 11419 11420 11421 11422 11423 11424 11425 11426 11427 11428 11429 11430 11431 11432 11433 11434 11435 11436 11437 11438 11439 11440 11441 11442 11443 11444 11445 11446 11447 11448 11449 11450 11451 11452 11453 11454 11455 11456 11457 11458 11459 11460 11461 11462 11463 11464 11465 11466 11467 11468 11469 11470 11471 11472 11473 11474 11475 11476 11477 11478 11479 11480 11481 11482 11483 11484 11485 11486 11487 11488 11489 11490 11491 11492 11493 11494 11495 11496 11497 11498 11499 11500 11501 11502 11503 11504 11505 11506 11507 11508 11509 11510 11511 11512 11513 11514 11515 11516 11517 11518 11519 11520 11521 11522 11523 11524 11525 11526 11527 11528 11529 11530 11531 11532 11533 11534 11535 11536 11537 11538 11539 11540 11541 11542 11543 11544 11545 11546 11547 11548 11549 11550 11551 11552 11553 11554 11555 11556 11557 11558 11559 11560 11561 11562 11563 11564 11565 11566 11567 11568 11569 11570 11571 11572 11573 11574 11575 11576 11577 11578 11579 11580 11581 11582 11583 11584 11585 11586 11587 11588 11589 11590 11591 11592 11593 11594 11595 11596 11597 11598 11599 11600 11601 11602 11603 11604 11605 11606 11607 11608 11609 11610 11611 11612 11613 11614 11615 11616 11617 11618 11619 11620 11621 11622 11623 11624 11625 11626 11627 11628 11629 11630 11631 11632 11633 11634 11635 11636 11637 11638 11639 11640 11641 11642 11643 11644 11645 11646 11647 11648 11649 11650 11651 11652 11653 11654 11655 11656 11657 11658 11659 11660 11661 11662 11663 11664 11665 11666 11667 11668 11669 11670 11671 11672 11673 11674 11675 11676 11677 11678 11679 11680 11681 11682 11683 11684 11685 11686 11687 11688 11689 11690 11691 11692 11693 11694 11695 11696 11697 11698 11699 11700 11701 11702 11703 11704 11705 11706 11707 11708 11709 11710 11711 11712 11713 11714 11715 11716 11717 11718 11719 11720 11721 11722 11723 11724 11725 11726 11727 11728 11729 11730 11731 11732 11733 11734 11735 11736 11737 11738 11739 11740 11741 11742 11743 11744 11745 11746 11747 11748 11749 11750 11751 11752 11753 11754 11755 11756 11757 11758 11759 11760 11761 11762 11763 11764 11765 11766 11767 11768 11769 11770 11771 11772 11773 11774 11775 11776 11777 11778 11779 11780 11781 11782 11783 11784 11785 11786 11787 11788 11789 11790 11791 11792 11793 11794 11795 11796 11797 11798 11799 11800 11801 11802 11803 11804 11805 11806 11807 11808 11809 11810 11811 11812 11813 11814 11815 11816 11817 11818 11819 11820 11821 11822 11823 11824 11825 11826 11827 11828 11829 11830 11831 11832 11833 11834 11835 11836 11837 11838 11839 11840 11841 11842 11843 11844 11845 11846 11847 11848 11849 11850 11851 11852 11853 11854 11855 11856 11857 11858 11859 11860 11861 11862 11863 11864 11865 11866 11867 11868 11869 11870 11871 11872 11873 11874 11875 11876 11877 11878 11879 11880 11881 11882 11883 11884 11885 11886 11887 11888 11889 11890 11891 11892 11893 11894 11895 11896 11897 11898 11899 11900 11901 11902 11903 11904 11905 11906 11907 11908 11909 11910 11911 11912 11913 11914 11915 11916 11917 11918 11919 11920 11921 11922 11923 11924 11925 11926 11927 11928 11929 11930 11931 11932 11933 11934 11935 11936 11937 11938 11939 11940 11941 11942 11943 11944 11945 11946 11947 11948 11949 11950 11951 11952 11953 11954 11955 11956 11957 11958 11959 11960 11961 11962 11963 11964 11965 11966 11967 11968 11969 11970 11971 11972 11973 11974 11975 11976 11977 11978 11979 11980 11981 11982 11983 11984 11985 11986 11987 11988 11989 11990 11991 11992 11993 11994 11995 11996 11997 11998 11999 12000 12001 12002 12003 12004 12005 12006 12007 12008 12009 12010 12011 12012 12013 12014 12015 12016 12017 12018 12019 12020 12021 12022 12023 12024 12025 12026 12027 12028 12029 12030 12031 12032 12033 12034 12035 12036 12037 12038 12039 12040 12041 12042 12043 12044 12045 12046 12047 12048 12049 12050 12051 12052 12053 12054 12055 12056 12057 12058 12059 12060 12061 12062 12063 12064 12065 12066 12067 12068 12069 12070 12071 12072 12073 12074 12075 12076 12077 12078 12079 12080 12081 12082 12083 12084 12085 12086 12087 12088 12089 12090 12091 12092 12093 12094 12095 12096 12097 12098 12099 12100 12101 12102 12103 12104 12105 12106 12107 12108 12109 12110 12111 12112 12113 12114 12115 12116 12117 12118 12119 12120 12121 12122 12123 12124 12125 12126 12127 12128 12129 12130 12131 12132 12133 12134 12135 12136 12137 12138 12139 12140 12141 12142 12143 12144 12145 12146 12147 12148 12149 12150 12151 12152 12153 12154 12155 12156 12157 12158 12159 12160 12161 12162 12163 12164 12165 12166 12167 12168 12169 12170 12171 12172 12173 12174 12175 12176 12177 12178 12179 12180 12181 12182 12183 12184 12185 12186 12187 12188 12189 12190 12191 12192 12193 12194 12195 12196 12197 12198 12199 12200 12201 12202 12203 12204 12205 12206 12207 12208 12209 12210 12211 12212 12213 12214 12215 12216 12217 12218 12219 12220 12221 12222 12223 12224 12225 12226 12227 12228 12229 12230 12231 12232 12233 12234 12235 12236 12237 12238 12239 12240 12241 12242 12243 12244 12245 12246 12247 12248 12249 12250 12251 12252 12253 12254 12255 12256 12257 12258 12259 12260 12261 12262 12263 12264 12265 12266 12267 12268 12269 12270 12271 12272 12273 12274 12275 12276 12277 12278 12279 12280 12281 12282 12283 12284 12285 12286 12287 12288 12289 12290 12291 12292 12293 12294 12295 12296 12297 12298 12299 12300 12301 12302 12303 12304 12305 12306 12307 12308 12309 12310 12311 12312 12313 12314 12315 12316 12317 12318 12319 12320 12321 12322 12323 12324 12325 12326 12327 12328 12329 12330 12331 12332 12333 12334 12335 12336 12337 12338 12339 12340 12341 12342 12343 12344 12345 12346 12347 12348 12349 12350 12351 12352 12353 12354 12355 12356 12357 12358 12359 12360 12361 12362 12363 12364 12365 12366 12367 12368 12369 12370 12371 12372 12373 12374 12375 12376 12377 12378 12379 12380 12381 12382 12383 12384 12385 12386 12387 12388 12389 12390 12391 12392 12393 12394 12395 12396 12397 12398 12399 12400 12401 12402 12403 12404 12405 12406 12407 12408 12409 12410 12411 12412 12413 12414 12415 12416 12417 12418 12419 12420 12421 12422 12423 12424 12425 12426 12427 12428 12429 12430 12431 12432 12433 12434 12435 12436 12437 12438 12439 12440 12441 12442 12443 12444 12445 12446 12447 12448 12449 12450 12451 12452 12453 12454 12455 12456 12457 12458 12459 12460 12461 12462 12463 12464 12465 12466 12467 12468 12469 12470 12471 12472 12473 12474 12475 12476 12477 12478 12479 12480 12481 12482 12483 12484 12485 12486 12487 12488 12489 12490 12491 12492 12493 12494 12495 12496 12497 12498 12499 12500 12501 12502 12503 12504 12505 12506 12507 12508 12509 12510 12511 12512 12513 12514 12515 12516 12517 12518 12519 12520 12521 12522 12523 12524 12525 12526 12527 12528 12529 12530 12531 12532 12533 12534 12535 12536 12537 12538 12539 12540 12541 12542 12543 12544 12545 12546 12547 12548 12549 12550 12551 12552 12553 12554 12555 12556 12557 12558 12559 12560 12561 12562 12563 12564 12565 12566 12567 12568 12569 12570 12571 12572 12573 12574 12575 12576 12577 12578 12579 12580 12581 12582 12583 12584 12585 12586 12587 12588 12589 12590 12591 12592 12593 12594 12595 12596 12597 12598 12599 12600 12601 12602 12603 12604 12605 12606 12607 12608 12609 12610 12611 12612 12613 12614 12615 12616 12617 12618 12619 12620 12621 12622 12623 12624 12625 12626 12627 12628 12629 12630 12631 12632 12633 12634 12635 12636 12637 12638 12639 12640 12641 12642 12643 12644 12645 12646 12647 12648 12649 12650 12651 12652 12653 12654 12655 12656 12657 12658 12659 12660 12661 12662 12663 12664 12665 12666 12667 12668 12669 12670 12671 12672 12673 12674 12675 12676 12677 12678 12679 12680 12681 12682 12683 12684 12685 12686 12687 12688 12689 12690 12691 12692 12693 12694 12695 12696 12697 12698 12699 12700 12701 12702 12703 12704 12705 12706 12707 12708 12709 12710 12711 12712 12713 12714 12715 12716 12717 12718 12719 12720 12721 12722 12723 12724 12725 12726 12727 12728 12729 12730 12731 12732 12733 12734 12735 12736 12737 12738 12739 12740 12741 12742 12743 12744 12745 12746 12747 12748 12749 12750 12751 12752 12753 12754 12755 12756 12757 12758 12759 12760 12761 12762 12763 12764 12765 12766 12767 12768 12769 12770 12771 12772 12773 12774 12775 12776 12777 12778 12779 12780 12781 12782 12783 12784 12785 12786 12787 12788 12789 12790 12791 12792 12793 12794 12795 12796 12797 12798 12799 12800 12801 12802 12803 12804 12805 12806 12807 12808 12809 12810 12811 12812 12813 12814 12815 12816 12817 12818 12819 12820 12821 12822 12823 12824 12825 12826 12827 12828 12829 12830 12831 12832 12833 12834 12835 12836 12837 12838 12839 12840 12841 12842 12843 12844 12845 12846 12847 12848 12849 12850 12851 12852 12853 12854 12855 12856 12857 12858 12859 12860 12861 12862 12863 12864 12865 12866 12867 12868 12869 12870 12871 12872 12873 12874 12875 12876 12877 12878 12879 12880 12881 12882 12883 12884 12885 12886 12887 12888 12889 12890 12891 12892 12893 12894 12895 12896 12897 12898 12899 12900 12901 12902 12903 12904 12905 12906 12907 12908 12909 12910 12911 12912 12913 12914 12915 12916 12917 12918 12919 12920 12921 12922 12923 12924 12925 12926 12927 12928 12929 12930 12931 12932 12933 12934 12935 12936 12937 12938 12939 12940 12941 12942 12943 12944 12945 12946 12947 12948 12949 12950 12951 12952 12953 12954 12955 12956 12957 12958 12959 12960 12961 12962 12963 12964 12965 12966 12967 12968 12969 12970 12971 12972 12973 12974 12975 12976 12977 12978 12979 12980 12981 12982 12983 12984 12985 12986 12987 12988 12989 12990 12991 12992 12993 12994 12995 12996 12997 12998 12999 13000 13001 13002 13003 13004 13005 13006 13007 13008 13009 13010 13011 13012 13013 13014 13015 13016 13017 13018 13019 13020 13021 13022 13023 13024 13025 13026 13027 13028 13029 13030 13031 13032 13033 13034 13035 13036 13037 13038 13039 13040 13041 13042 13043 13044 13045 13046 13047 13048 13049 13050 13051 13052 13053 13054 13055 13056 13057 13058 13059 13060 13061 13062 13063 13064 13065 13066 13067 13068 13069 13070 13071 13072 13073 13074 13075 13076 13077 13078 13079 13080 13081 13082 13083 13084 13085 13086 13087 13088 13089 13090 13091 13092 13093 13094 13095 13096 13097 13098 13099 13100 13101 13102 13103 13104 13105 13106 13107 13108 13109 13110 13111 13112 13113 13114 13115 13116 13117 13118 13119 13120 13121 13122 13123 13124 13125 13126 13127 13128 13129 13130 13131 13132 13133 13134 13135 13136 13137 13138 13139 13140 13141 13142 13143 13144 13145 13146 13147 13148 13149 13150 13151 13152 13153 13154 13155 13156 13157 13158 13159 13160 13161 13162 13163 13164 13165 13166 13167 13168 13169 13170 13171 13172 13173 13174 13175 13176 13177 13178 13179 13180 13181 13182 13183 13184 13185 13186 13187 13188 13189 13190 13191 13192 13193 13194 13195 13196 13197 13198 13199 13200 13201 13202 13203 13204 13205 13206 13207 13208 13209 13210 13211 13212 13213 13214 13215 13216 13217 13218 13219 13220 13221 13222 13223 13224 13225 13226 13227 13228 13229 13230 13231 13232 13233 13234 13235 13236 13237 13238 13239 13240 13241 13242 13243 13244 13245 13246 13247 13248 13249 13250 13251 13252 13253 13254 13255 13256 13257 13258 13259 13260 13261 13262 13263 13264 13265 13266 13267 13268 13269 13270 13271 13272 13273 13274 13275 13276 13277 13278 13279 13280 13281 13282 13283 13284 13285 13286 13287 13288 13289 13290 13291 13292 13293 13294 13295 13296 13297 13298 13299 13300 13301 13302 13303 13304 13305 13306 13307 13308 13309 13310 13311 13312 13313 13314 13315 13316 13317 13318 13319 13320 13321 13322 13323 13324 13325 13326 13327 13328 13329 13330 13331 13332 13333 13334 13335 13336 13337 13338 13339 13340 13341 13342 13343 13344 13345 13346 13347 13348 13349 13350 13351 13352 13353 13354 13355 13356 13357 13358 13359 13360 13361 13362 13363 13364 13365 13366 13367 13368 13369 13370 13371 13372 13373 13374 13375 13376 13377 13378 13379 13380 13381 13382 13383 13384 13385 13386 13387 13388 13389 13390 13391 13392 13393 13394 13395 13396 13397 13398 13399 13400 13401 13402 13403 13404 13405 13406 13407 13408 13409 13410 13411 13412 13413 13414 13415 13416 13417 13418 13419 13420 13421 13422 13423 13424 13425 13426 13427 13428 13429 13430 13431 13432 13433 13434 13435 13436 13437 13438 13439 13440 13441 13442 13443 13444 13445 13446 13447 13448 13449 13450 13451 13452 13453 13454 13455 13456 13457 13458 13459 13460 13461 13462 13463 13464 13465 13466 13467 13468 13469 13470 13471 13472 13473 13474 13475 13476 13477 13478 13479 13480 13481 13482 13483 13484 13485 13486 13487 13488 13489 13490 13491 13492 13493 13494 13495 13496 13497 13498 13499 13500 13501 13502 13503 13504 13505 13506 13507 13508 13509 13510 13511 13512 13513 13514 13515 13516 13517 13518 13519 13520 13521 13522 13523 13524 13525 13526 13527 13528 13529 13530 13531 13532 13533 13534 13535 13536 13537 13538 13539 13540 13541 13542 13543 13544 13545 13546 13547 13548 13549 13550 13551 13552 13553 13554 13555 13556 13557 13558 13559 13560 13561 13562 13563 13564 13565 13566 13567 13568 13569 13570 13571 13572 13573 13574 13575 13576 13577 13578 13579 13580 13581 13582 13583 13584 13585 13586 13587 13588 13589 13590 13591 13592 13593 13594 13595 13596 13597 13598 13599 13600 13601 13602 13603 13604 13605 13606 13607 13608 13609 13610 13611 13612 13613 13614 13615 13616 13617 13618 13619 13620 13621 13622 13623 13624 13625 13626 13627 13628 13629 13630 13631 13632 13633 13634 13635 13636 13637 13638 13639 13640 13641 13642 13643 13644 13645 13646 13647 13648 13649 13650 13651 13652 13653 13654 13655 13656 13657 13658 13659 13660 13661 13662 13663 13664 13665 13666 13667 13668 13669 13670 13671 13672 13673 13674 13675 13676 13677 13678 13679 13680 13681 13682 13683 13684 13685 13686 13687 13688 13689 13690 13691 13692 13693 13694 13695 13696 13697 13698 13699 13700 13701 13702 13703 13704 13705 13706 13707 13708 13709 13710 13711 13712 13713 13714 13715 13716 13717 13718 13719 13720 13721 13722 13723 13724 13725 13726 13727 13728 13729 13730 13731 13732 13733 13734 13735 13736 13737 13738 13739 13740 13741 13742 13743 13744 13745 13746 13747 13748 13749 13750 13751 13752 13753 13754 13755 13756 13757 13758 13759 13760 13761 13762 13763 13764 13765 13766 13767 13768 13769 13770 13771 13772 13773 13774 13775 13776 13777 13778 13779 13780 13781 13782 13783 13784 13785 13786 13787 13788 13789 13790 13791 13792 13793 13794 13795 13796 13797 13798 13799 13800 13801 13802 13803 13804 13805 13806 13807 13808 13809 13810 13811 13812 13813 13814 13815 13816 13817 13818 13819 13820 13821 13822 13823 13824 13825 13826 13827 13828 13829 13830 13831 13832 13833 13834 13835 13836 13837 13838 13839 13840 13841 13842 13843 13844 13845 13846 13847 13848 13849 13850 13851 13852 13853 13854 13855 13856 13857 13858 13859 13860 13861 13862 13863 13864 13865 13866 13867 13868 13869 13870 13871 13872 13873 13874 13875 13876 13877 13878 13879 13880 13881 13882 13883 13884 13885 13886 13887 13888 13889 13890 13891 13892 13893 13894 13895 13896 13897 13898 13899 13900 13901 13902 13903 13904 13905 13906 13907 13908 13909 13910 13911 13912 13913 13914 13915 13916 13917 13918 13919 13920 13921 13922 13923 13924 13925 13926 13927 13928 13929 13930 13931 13932 13933 13934 13935 13936 13937 13938 13939 13940 13941 13942 13943 13944 13945 13946 13947 13948 13949 13950 13951 13952 13953 13954 13955 13956 13957 13958 13959 13960 13961 13962 13963 13964 13965 13966 13967 13968 13969 13970 13971 13972 13973 13974 13975 13976 13977 13978 13979 13980 13981 13982 13983 13984 13985 13986 13987 13988 13989 13990 13991 13992 13993 13994 13995 13996 13997 13998 13999 14000 14001 14002 14003 14004 14005 14006 14007 14008 14009 14010 14011 14012 14013 14014 14015 14016 14017 14018 14019 14020 14021 14022 14023 14024 14025 14026 14027 14028 14029 14030 14031 14032 14033 14034 14035 14036 14037 14038 14039 14040 14041 14042 14043 14044 14045 14046 14047 14048 14049 14050 14051 14052 14053 14054 14055 14056 14057 14058 14059 14060 14061 14062 14063 14064 14065 14066 14067 14068 14069 14070 14071 14072 14073 14074 14075 14076 14077 14078 14079 14080 14081 14082 14083 14084 14085 14086 14087 14088 14089 14090 14091 14092 14093 14094 14095 14096 14097 14098 14099 14100 14101 14102 14103 14104 14105 14106 14107 14108 14109 14110 14111 14112 14113 14114 14115 14116 14117 14118 14119 14120 14121 14122 14123 14124 14125 14126 14127 14128 14129 14130 14131 14132 14133 14134 14135 14136 14137 14138 14139 14140 14141 14142 14143 14144 14145 14146 14147 14148 14149 14150 14151 14152 14153 14154 14155 14156 14157 14158 14159 14160 14161 14162 14163 14164 14165 14166 14167 14168 14169 14170 14171 14172 14173 14174 14175 14176 14177 14178 14179 14180 14181 14182 14183 14184 14185 14186 14187 14188 14189 14190 14191 14192 14193 14194 14195 14196 14197 14198 14199 14200 14201 14202 14203 14204 14205 14206 14207 14208 14209 14210 14211 14212 14213 14214 14215 14216 14217 14218 14219 14220 14221 14222 14223 14224 14225 14226 14227 14228 14229 14230 14231 14232 14233 14234 14235 14236 14237 14238 14239 14240 14241 14242 14243 14244 14245 14246 14247 14248 14249 14250 14251 14252 14253 14254 14255 14256 14257 14258 14259 14260 14261 14262 14263 14264 14265 14266 14267 14268 14269 14270 14271 14272 14273 14274 14275 14276 14277 14278 14279 14280 14281 14282 14283 14284 14285 14286 14287 14288 14289 14290 14291 14292 14293 14294 14295 14296 14297 14298 14299 14300 14301 14302 14303 14304 14305 14306 14307 14308 14309 14310 14311 14312 14313 14314 14315 14316 14317 14318 14319 14320 14321 14322 14323 14324 14325 14326 14327 14328 14329 14330 14331 14332 14333 14334 14335 14336 14337 14338 14339 14340 14341 14342 14343 14344 14345 14346 14347 14348 14349 14350 14351 14352 14353 14354 14355 14356 14357 14358 14359 14360 14361 14362 14363 14364 14365 14366 14367 14368 14369 14370 14371 14372 14373 14374 14375 14376 14377 14378 14379 14380 14381 14382 14383 14384 14385 14386 14387 14388 14389 14390 14391 14392 14393 14394 14395 14396 14397 14398 14399 14400 14401 14402 14403 14404 14405 14406 14407 14408 14409 14410 14411 14412 14413 14414 14415 14416 14417 14418 14419 14420 14421 14422 14423 14424 14425 14426 14427 14428 14429 14430 14431 14432 14433 14434 14435 14436 14437 14438 14439 14440 14441 14442 14443 14444 14445 14446 14447 14448 14449 14450 14451 14452 14453 14454 14455 14456 14457 14458 14459 14460 14461 14462 14463 14464 14465 14466 14467 14468 14469 14470 14471 14472 14473 14474 14475 14476 14477 14478 14479 14480 14481 14482 14483 14484 14485 14486 14487 14488 14489 14490 14491 14492 14493 14494 14495 14496 14497 14498 14499 14500 14501 14502 14503 14504 14505 14506 14507 14508 14509 14510 14511 14512 14513 14514 14515 14516 14517 14518 14519 14520 14521 14522 14523 14524 14525 14526 14527 14528 14529 14530 14531 14532 14533 14534 14535 14536 14537 14538 14539 14540 14541 14542 14543 14544 14545 14546 14547 14548 14549 14550 14551 14552 14553 14554 14555 14556 14557 14558 14559 14560 14561 14562 14563 14564 14565 14566 14567 14568 14569 14570 14571 14572 14573 14574 14575 14576 14577 14578 14579 14580 14581 14582 14583 14584 14585 14586 14587 14588 14589 14590 14591 14592 14593 14594 14595 14596 14597 14598 14599 14600 14601 14602 14603 14604 14605 14606 14607 14608 14609 14610 14611 14612 14613 14614 14615 14616 14617 14618 14619 14620 14621 14622 14623 14624 14625 14626 14627 14628 14629 14630 14631 14632 14633 14634 14635 14636 14637 14638 14639 14640 14641 14642 14643 14644 14645 14646 14647 14648 14649 14650 14651 14652 14653 14654 14655 14656 14657 14658 14659 14660 14661 14662 14663 14664 14665 14666 14667 14668 14669 14670 14671 14672 14673 14674 14675 14676 14677 14678 14679 14680 14681 14682 14683 14684 14685 14686 14687 14688 14689 14690 14691 14692 14693 14694 14695 14696 14697 14698 14699 14700 14701 14702 14703 14704 14705 14706 14707 14708 14709 14710 14711 14712 14713 14714 14715 14716 14717 14718 14719 14720 14721 14722 14723 14724 14725 14726 14727 14728 14729 14730 14731 14732 14733 14734 14735 14736 14737 14738 14739 14740 14741 14742 14743 14744 14745 14746 14747 14748 14749 14750 14751 14752 14753 14754 14755 14756 14757 14758 14759 14760 14761 14762 14763 14764 14765 14766 14767 14768 14769 14770 14771 14772 14773 14774 14775 14776 14777 14778 14779 14780 14781 14782 14783 14784 14785 14786 14787 14788 14789 14790 14791 14792 14793 14794 14795 14796 14797 14798 14799 14800 14801 14802 14803 14804 14805 14806 14807 14808 14809 14810 14811 14812 14813 14814 14815 14816 14817 14818 14819 14820 14821 14822 14823 14824 14825 14826 14827 14828 14829 14830 14831 14832 14833 14834 14835 14836 14837 14838 14839 14840 14841 14842 14843 14844 14845 14846 14847 14848 14849 14850 14851 14852 14853 14854 14855 14856 14857 14858 14859 14860 14861 14862 14863 14864 14865 14866 14867 14868 14869 14870 14871 14872 14873 14874 14875 14876 14877 14878 14879 14880 14881 14882 14883 14884 14885 14886 14887 14888 14889 14890 14891 14892 14893 14894 14895 14896 14897 14898 14899 14900 14901 14902 14903 14904 14905 14906 14907 14908 14909 14910 14911 14912 14913 14914 14915 14916 14917 14918 14919 14920 14921 14922 14923 14924 14925 14926 14927 14928 14929 14930 14931 14932 14933 14934 14935 14936 14937 14938 14939 14940 14941 14942 14943 14944 14945 14946 14947 14948 14949 14950 14951 14952 14953 14954 14955 14956 14957 14958 14959 14960 14961 14962 14963 14964 14965 14966 14967 14968 14969 14970 14971 14972 14973 14974 14975 14976 14977 14978 14979 14980 14981 14982 14983 14984 14985 14986 14987 14988 14989 14990 14991 14992 14993 14994 14995 14996 14997 14998 14999 15000 15001 15002 15003 15004 15005 15006 15007 15008 15009 15010 15011 15012 15013 15014 15015 15016 15017 15018 15019 15020 15021 15022 15023 15024 15025 15026 15027 15028 15029 15030 15031 15032 15033 15034 15035 15036 15037 15038 15039 15040 15041 15042 15043 15044 15045 15046 15047 15048 15049 15050 15051 15052 15053 15054 15055 15056 15057 15058 15059 15060 15061 15062 15063 15064 15065 15066 15067 15068 15069 15070 15071 15072 15073 15074 15075 15076 15077 15078 15079 15080 15081 15082 15083 15084 15085 15086 15087 15088 15089 15090 15091 15092 15093 15094 15095 15096 15097 15098 15099 15100 15101 15102 15103 15104 15105 15106 15107 15108 15109 15110 15111 15112 15113 15114 15115 15116 15117 15118 15119 15120 15121 15122 15123 15124 15125 15126 15127 15128 15129 15130 15131 15132 15133 15134 15135 15136 15137 15138 15139 15140 15141 15142 15143 15144 15145 15146 15147 15148 15149 15150 15151 15152 15153 15154 15155 15156 15157 15158 15159 15160 15161 15162 15163 15164 15165 15166 15167 15168 15169 15170 15171 15172 15173 15174 15175 15176 15177 15178 15179 15180 15181 15182 15183 15184 15185 15186 15187 15188 15189 15190 15191 15192 15193 15194 15195 15196 15197 15198 15199 15200 15201 15202 15203 15204 15205 15206 15207 15208 15209 15210 15211 15212 15213 15214 15215 15216 15217 15218 15219 15220 15221 15222 15223 15224 15225 15226 15227 15228 15229 15230 15231 15232 15233 15234 15235 15236 15237 15238 15239 15240 15241 15242 15243 15244 15245 15246 15247 15248 15249 15250 15251 15252 15253 15254 15255 15256 15257 15258 15259 15260 15261 15262 15263 15264 15265 15266 15267 15268 15269 15270 15271 15272 15273 15274 15275 15276 15277 15278 15279 15280 15281 15282 15283 15284 15285 15286 15287 15288 15289 15290 15291 15292 15293 15294 15295 15296 15297 15298 15299 15300 15301 15302 15303 15304 15305 15306 15307 15308 15309 15310 15311 15312 15313 15314 15315 15316 15317 15318 15319 15320 15321 15322 15323 15324 15325 15326 15327 15328 15329 15330 15331 15332 15333 15334 15335 15336 15337 15338 15339 15340 15341 15342 15343 15344 15345 15346 15347 15348 15349 15350 15351 15352 15353 15354 15355 15356 15357 15358 15359 15360 15361 15362 15363 15364 15365 15366 15367 15368 15369 15370 15371 15372 15373 15374 15375 15376 15377 15378 15379 15380 15381 15382 15383 15384 15385 15386 15387 15388 15389 15390 15391 15392 15393 15394 15395 15396 15397 15398 15399 15400 15401 15402 15403 15404 15405 15406 15407 15408 15409 15410 15411 15412 15413 15414 15415 15416 15417 15418 15419 15420 15421 15422 15423 15424 15425 15426 15427 15428 15429 15430 15431 15432 15433 15434 15435 15436 15437 15438 15439 15440 15441 15442 15443 15444 15445 15446 15447 15448 15449 15450 15451 15452 15453 15454 15455 15456 15457 15458 15459 15460 15461 15462 15463 15464 15465 15466 15467 15468 15469 15470 15471 15472 15473 15474 15475 15476 15477 15478 15479 15480 15481 15482 15483 15484 15485 15486 15487 15488 15489 15490 15491 15492 15493 15494 15495 15496 15497 15498 15499 15500 15501 15502 15503 15504 15505 15506 15507 15508 15509 15510 15511 15512 15513 15514 15515 15516 15517 15518 15519 15520 15521 15522 15523 15524 15525 15526 15527 15528 15529 15530 15531 15532 15533 15534 15535 15536 15537 15538 15539 15540 15541 15542 15543 15544 15545 15546 15547 15548 15549 15550 15551 15552 15553 15554 15555 15556 15557 15558 15559 15560 15561 15562 15563 15564 15565 15566 15567 15568 15569 15570 15571 15572 15573 15574 15575 15576 15577 15578 15579 15580 15581 15582 15583 15584 15585 15586 15587 15588 15589 15590 15591 15592 15593 15594 15595 15596 15597 15598 15599 15600 15601 15602 15603 15604 15605 15606 15607 15608 15609 15610 15611 15612 15613 15614 15615 15616 15617 15618 15619 15620 15621 15622 15623 15624 15625 15626 15627 15628 15629 15630 15631 15632 15633 15634 15635 15636 15637 15638 15639 15640 15641 15642 15643 15644 15645 15646 15647 15648 15649 15650 15651 15652 15653 15654 15655 15656 15657 15658 15659 15660 15661 15662 15663 15664 15665 15666 15667 15668 15669 15670 15671 15672 15673 15674 15675 15676 15677 15678 15679 15680 15681 15682 15683 15684 15685 15686 15687 15688 15689 15690 15691 15692 15693 15694 15695 15696 15697 15698 15699 15700 15701 15702 15703 15704 15705 15706 15707 15708 15709 15710 15711 15712 15713 15714 15715 15716 15717 15718 15719 15720 15721 15722 15723 15724 15725 15726 15727 15728 15729 15730 15731 15732 15733 15734 15735 15736 15737 15738 15739 15740 15741 15742 15743 15744 15745 15746 15747 15748 15749 15750 15751 15752 15753 15754 15755 15756 15757 15758 15759 15760 15761 15762 15763 15764 15765 15766 15767 15768 15769 15770 15771 15772 15773 15774 15775 15776 15777 15778 15779 15780 15781 15782 15783 15784 15785 15786 15787 15788 15789 15790 15791 15792 15793 15794 15795 15796 15797 15798 15799 15800 15801 15802 15803 15804 15805 15806 15807 15808 15809 15810 15811 15812 15813 15814 15815 15816 15817 15818 15819 15820 15821 15822 15823 15824 15825 15826 15827 15828 15829 15830 15831 15832 15833 15834 15835 15836 15837 15838 15839 15840 15841 15842 15843 15844 15845 15846 15847 15848 15849 15850 15851 15852 15853 15854 15855 15856 15857 15858 15859 15860 15861 15862 15863 15864 15865 15866 15867 15868 15869 15870 15871 15872 15873 15874 15875 15876 15877 15878 15879 15880 15881 15882 15883 15884 15885 15886 15887 15888 15889 15890 15891 15892 15893 15894 15895 15896 15897 15898 15899 15900 15901 15902 15903 15904 15905 15906 15907 15908 15909 15910 15911 15912 15913 15914 15915 15916 15917 15918 15919 15920 15921 15922 15923 15924 15925 15926 15927 15928 15929 15930 15931 15932 15933 15934 15935 15936 15937 15938 15939 15940 15941 15942 15943 15944 15945 15946 15947 15948 15949 15950 15951 15952 15953 15954 15955 15956 15957 15958 15959 15960 15961 15962 15963 15964 15965 15966 15967 15968 15969 15970 15971 15972 15973 15974 15975 15976 15977 15978 15979 15980 15981 15982 15983 15984 15985 15986 15987 15988 15989 15990 15991 15992 15993 15994 15995 15996 15997 15998 15999 16000 16001 16002 16003 16004 16005 16006 16007 16008 16009 16010 16011 16012 16013 16014 16015 16016 16017 16018 16019 16020 16021 16022 16023 16024 16025 16026 16027 16028 16029 16030 16031 16032 16033 16034 16035 16036 16037 16038 16039 16040 16041 16042 16043 16044 16045 16046 16047 16048 16049 16050 16051 16052 16053 16054 16055 16056 16057 16058 16059 16060 16061 16062 16063 16064 16065 16066 16067 16068 16069 16070 16071 16072 16073 16074 16075 16076 16077 16078 16079 16080 16081 16082 16083 16084 16085 16086 16087 16088 16089 16090 16091 16092 16093 16094 16095 16096 16097 16098 16099 16100 16101 16102 16103 16104 16105 16106 16107 16108 16109 16110 16111 16112 16113 16114 16115 16116 16117 16118 16119 16120 16121 16122 16123 16124 16125 16126 16127 16128 16129 16130 16131 16132 16133 16134 16135 16136 16137 16138 16139 16140 16141 16142 16143 16144 16145 16146 16147 16148 16149 16150 16151 16152 16153 16154 16155 16156 16157 16158 16159 16160 16161 16162 16163 16164 16165 16166 16167 16168 16169 16170 16171 16172 16173 16174 16175 16176 16177 16178 16179 16180 16181 16182 16183 16184 16185 16186 16187 16188 16189 16190 16191 16192 16193 16194 16195 16196 16197 16198 16199 16200 16201 16202 16203 16204 16205 16206 16207 16208 16209 16210 16211 16212 16213 16214 16215 16216 16217 16218 16219 16220 16221 16222 16223 16224 16225 16226 16227 16228 16229 16230 16231 16232 16233 16234 16235 16236 16237 16238 16239 16240 16241 16242 16243 16244 16245 16246 16247 16248 16249 16250 16251 16252 16253 16254 16255 16256 16257 16258 16259 16260 16261 16262 16263 16264 16265 16266 16267 16268 16269 16270 16271 16272 16273 16274 16275 16276 16277 16278 16279 16280 16281 16282 16283 16284 16285 16286 16287 16288 16289 16290 16291 16292 16293 16294 16295 16296 16297 16298 16299 16300 16301 16302 16303 16304 16305 16306 16307 16308 16309 16310 16311 16312 16313 16314 16315 16316 16317 16318 16319 16320 16321 16322 16323 16324 16325 16326 16327 16328 16329 16330 16331 16332 16333 16334 16335 16336 16337 16338 16339 16340 16341 16342 16343 16344 16345 16346 16347 16348 16349 16350 16351 16352 16353 16354 16355 16356 16357 16358 16359 16360 16361 16362 16363 16364 16365 16366 16367 16368 16369 16370 16371 16372 16373 16374 16375 16376 16377 16378 16379 16380 16381 16382 16383 16384 16385 16386 16387 16388 16389 16390 16391 16392 16393 16394 16395 16396 16397 16398 16399 16400 16401 16402 16403 16404 16405 16406 16407 16408 16409 16410 16411 16412 16413 16414 16415 16416 16417 16418 16419 16420 16421 16422 16423 16424 16425 16426 16427 16428 16429 16430 16431 16432 16433 16434 16435 16436 16437 16438 16439 16440 16441 16442 16443 16444 16445 16446 16447 16448 16449 16450 16451 16452 16453 16454 16455 16456 16457 16458 16459 16460 16461 16462 16463 16464 16465 16466 16467 16468 16469 16470 16471 16472 16473 16474 16475 16476 16477 16478 16479 16480 16481 16482 16483 16484 16485 16486 16487 16488 16489 16490 16491 16492 16493 16494 16495 16496 16497 16498 16499 16500 16501 16502 16503 16504 16505 16506 16507 16508 16509 16510 16511 16512 16513 16514 16515 16516 16517 16518 16519 16520 16521 16522 16523 16524 16525 16526 16527 16528 16529 16530 16531 16532 16533 16534 16535 16536 16537 16538 16539 16540 16541 16542 16543 16544 16545 16546 16547 16548 16549 16550 16551 16552 16553 16554 16555 16556 16557 16558 16559 16560 16561 16562 16563 16564 16565 16566 16567 16568 16569 16570 16571 16572 16573 16574 16575 16576 16577 16578 16579 16580 16581 16582 16583 16584 16585 16586 16587 16588 16589 16590 16591 16592 16593 16594 16595 16596 16597 16598 16599 16600 16601 16602 16603 16604 16605 16606 16607 16608 16609 16610 16611 16612 16613 16614 16615 16616 16617 16618 16619 16620 16621 16622 16623 16624 16625 16626 16627 16628 16629 16630 16631 16632 16633 16634 16635 16636 16637 16638 16639 16640 16641 16642 16643 16644 16645 16646 16647 16648 16649 16650 16651 16652 16653 16654 16655 16656 16657 16658 16659 16660 16661 16662 16663 16664 16665 16666 16667 16668 16669 16670 16671 16672 16673 16674 16675 16676 16677 16678 16679 16680 16681 16682 16683 16684 16685 16686 16687 16688 16689 16690 16691 16692 16693 16694 16695 16696 16697 16698 16699 16700 16701 16702 16703 16704 16705 16706 16707 16708 16709 16710 16711 16712 16713 16714 16715 16716 16717 16718 16719 16720 16721 16722 16723 16724 16725 16726 16727 16728 16729 16730 16731 16732 16733 16734 16735 16736 16737 16738 16739 16740 16741 16742 16743 16744 16745 16746 16747 16748 16749 16750 16751 16752 16753 16754 16755 16756 16757 16758 16759 16760 16761 16762 16763 16764 16765 16766 16767 16768 16769 16770 16771 16772 16773 16774 16775 16776 16777 16778 16779 16780 16781 16782 16783 16784 16785 16786 16787 16788 16789 16790 16791 16792 16793 16794 16795 16796 16797 16798 16799 16800 16801 16802 16803 16804 16805 16806 16807 16808 16809 16810 16811 16812 16813 16814 16815 16816 16817 16818 16819 16820 16821 16822 16823 16824 16825 16826 16827 16828 16829 16830 16831 16832 16833 16834 16835 16836 16837 16838 16839 16840 16841 16842 16843 16844 16845 16846 16847 16848 16849 16850 16851 16852 16853 16854 16855 16856 16857 16858 16859 16860 16861 16862 16863 16864 16865 16866 16867 16868 16869 16870 16871 16872 16873 16874 16875 16876 16877 16878 16879 16880 16881 16882 16883 16884 16885 16886 16887 16888 16889 16890 16891 16892 16893 16894 16895 16896 16897 16898 16899 16900 16901 16902 16903 16904 16905 16906 16907 16908 16909 16910 16911 16912 16913 16914 16915 16916 16917 16918 16919 16920 16921 16922 16923 16924 16925 16926 16927 16928 16929 16930 16931 16932 16933 16934 16935 16936 16937 16938 16939 16940 16941 16942 16943 16944 16945 16946 16947 16948 16949 16950 16951 16952 16953 16954 16955 16956 16957 16958 16959 16960 16961 16962 16963 16964 16965 16966 16967 16968 16969 16970 16971 16972 16973 16974 16975 16976 16977 16978 16979 16980 16981 16982 16983 16984 16985 16986 16987 16988 16989 16990 16991 16992 16993 16994 16995 16996 16997 16998 16999 17000 17001 17002 17003 17004 17005 17006 17007 17008 17009 17010 17011 17012 17013 17014 17015 17016 17017 17018 17019 17020 17021 17022 17023 17024 17025 17026 17027 17028 17029 17030 17031 17032 17033 17034 17035 17036 17037 17038 17039 17040 17041 17042 17043 17044 17045 17046 17047 17048 17049 17050 17051 17052 17053 17054 17055 17056 17057 17058 17059 17060 17061 17062 17063 17064 17065 17066 17067 17068 17069 17070 17071 17072 17073 17074 17075 17076 17077 17078 17079 17080 17081 17082 17083 17084 17085 17086 17087 17088 17089 17090 17091 17092 17093 17094 17095 17096 17097 17098 17099 17100 17101 17102 17103 17104 17105 17106 17107 17108 17109 17110 17111 17112 17113 17114 17115 17116 17117 17118 17119 17120 17121 17122 17123 17124 17125 17126 17127 17128 17129 17130 17131 17132 17133 17134 17135 17136 17137 17138 17139 17140 17141 17142 17143 17144 17145 17146 17147 17148 17149 17150 17151 17152 17153 17154 17155 17156 17157 17158 17159 17160 17161 17162 17163 17164 17165 17166 17167 17168 17169 17170 17171 17172 17173 17174 17175 17176 17177 17178 17179 17180 17181 17182 17183 17184 17185 17186 17187 17188 17189 17190 17191 17192 17193 17194 17195 17196 17197 17198 17199 17200 17201 17202 17203 17204 17205 17206 17207 17208 17209 17210 17211 17212 17213 17214 17215 17216 17217 17218 17219 17220 17221 17222 17223 17224 17225 17226 17227 17228 17229 17230 17231 17232 17233 17234 17235 17236 17237 17238 17239 17240 17241 17242 17243 17244 17245 17246 17247 17248 17249 17250 17251 17252 17253 17254 17255 17256 17257 17258 17259 17260 17261 17262 17263 17264 17265 17266 17267 17268 17269 17270 17271 17272 17273 17274 17275 17276 17277 17278 17279 17280 17281 17282 17283 17284 17285 17286 17287 17288 17289 17290 17291 17292 17293 17294 17295 17296 17297 17298 17299 17300 17301 17302 17303 17304 17305 17306 17307 17308 17309 17310 17311 17312 17313 17314 17315 17316 17317 17318 17319 17320 17321 17322 17323 17324 17325 17326 17327 17328 17329 17330 17331 17332 17333 17334 17335 17336 17337 17338 17339 17340 17341 17342 17343 17344 17345 17346 17347 17348 17349 17350 17351 17352 17353 17354 17355 17356 17357 17358 17359 17360 17361 17362 17363 17364 17365 17366 17367 17368 17369 17370 17371 17372 17373 17374 17375 17376 17377 17378 17379 17380 17381 17382 17383 17384 17385 17386 17387 17388 17389 17390 17391 17392 17393 17394 17395 17396 17397 17398 17399 17400 17401 17402 17403 17404 17405 17406 17407 17408 17409 17410 17411 17412 17413 17414 17415 17416 17417 17418 17419 17420 17421 17422 17423 17424 17425 17426 17427 17428 17429 17430 17431 17432 17433 17434 17435 17436 17437 17438 17439 17440 17441 17442 17443 17444 17445 17446 17447 17448 17449 17450 17451 17452 17453 17454 17455 17456 17457 17458 17459 17460 17461 17462 17463 17464 17465 17466 17467 17468 17469 17470 17471 17472 17473 17474 17475 17476 17477 17478 17479 17480 17481 17482 17483 17484 17485 17486 17487 17488 17489 17490 17491 17492 17493 17494 17495 17496 17497 17498 17499 17500 17501 17502 17503 17504 17505 17506 17507 17508 17509 17510 17511 17512 17513 17514 17515 17516 17517 17518 17519 17520 17521 17522 17523 17524 17525 17526 17527 17528 17529 17530 17531 17532 17533 17534 17535 17536 17537 17538 17539 17540 17541 17542 17543 17544 17545 17546 17547 17548 17549 17550 17551 17552 17553 17554 17555 17556 17557 17558 17559 17560 17561 17562 17563 17564 17565 17566 17567 17568 17569 17570 17571 17572 17573 17574 17575 17576 17577 17578 17579 17580 17581 17582 17583 17584 17585 17586 17587 17588 17589 17590 17591 17592 17593 17594 17595 17596 17597 17598 17599 17600 17601 17602 17603 17604 17605 17606 17607 17608 17609 17610 17611 17612 17613 17614 17615 17616 17617 17618 17619 17620 17621 17622 17623 17624 17625 17626 17627 17628 17629 17630 17631 17632 17633 17634 17635 17636 17637 17638 17639 17640 17641 17642 17643 17644 17645 17646 17647 17648 17649 17650 17651 17652 17653 17654 17655 17656 17657 17658 17659 17660 17661 17662 17663 17664 17665 17666 17667 17668 17669 17670 17671 17672 17673 17674 17675 17676 17677 17678 17679 17680 17681 17682 17683 17684 17685 17686 17687 17688 17689 17690 17691 17692 17693 17694 17695 17696 17697 17698 17699 17700 17701 17702 17703 17704 17705 17706 17707 17708 17709 17710 17711 17712 17713 17714 17715 17716 17717 17718 17719 17720 17721 17722 17723 17724 17725 17726 17727 17728 17729 17730 17731 17732 17733 17734 17735 17736 17737 17738 17739 17740 17741 17742 17743 17744 17745 17746 17747 17748 17749 17750 17751 17752 17753 17754 17755 17756 17757 17758 17759 17760 17761 17762 17763 17764 17765 17766 17767 17768 17769 17770 17771 17772 17773 17774 17775 17776 17777 17778 17779 17780 17781 17782 17783 17784 17785 17786 17787 17788 17789 17790 17791 17792 17793 17794 17795 17796 17797 17798 17799 17800 17801 17802 17803 17804 17805 17806 17807 17808 17809 17810 17811 17812 17813 17814 17815 17816 17817 17818 17819 17820 17821 17822 17823 17824 17825 17826 17827 17828 17829 17830 17831 17832 17833 17834 17835 17836 17837 17838 17839 17840 17841 17842 17843 17844 17845 17846 17847 17848 17849 17850 17851 17852 17853 17854 17855 17856 17857 17858 17859 17860 17861 17862 17863 17864 17865 17866 17867 17868 17869 17870 17871 17872 17873 17874 17875 17876 17877 17878 17879 17880 17881 17882 17883 17884 17885 17886 17887 17888 17889 17890 17891 17892 17893 17894 17895 17896 17897 17898 17899 17900 17901 17902 17903 17904 17905 17906 17907 17908 17909 17910 17911 17912 17913 17914 17915 17916 17917 17918 17919 17920 17921 17922 17923 17924 17925 17926 17927 17928 17929 17930 17931 17932 17933 17934 17935 17936 17937 17938 17939 17940 17941 17942 17943 17944 17945 17946 17947 17948 17949 17950 17951 17952 17953 17954 17955 17956 17957 17958 17959 17960 17961 17962 17963 17964 17965 17966 17967 17968 17969 17970 17971 17972 17973 17974 17975 17976 17977 17978 17979 17980 17981 17982 17983 17984 17985 17986 17987 17988 17989 17990 17991 17992 17993 17994 17995 17996 17997 17998 17999 18000 18001 18002 18003 18004 18005 18006 18007 18008 18009 18010 18011 18012 18013 18014 18015 18016 18017 18018 18019 18020 18021 18022 18023 18024 18025 18026 18027 18028 18029 18030 18031 18032 18033 18034 18035 18036 18037 18038 18039 18040 18041 18042 18043 18044 18045 18046 18047 18048 18049 18050 18051 18052 18053 18054 18055 18056 18057 18058 18059 18060 18061 18062 18063 18064 18065 18066 18067 18068 18069 18070 18071 18072 18073 18074 18075 18076 18077 18078 18079 18080 18081 18082 18083 18084 18085 18086 18087 18088 18089 18090 18091 18092 18093 18094 18095 18096 18097 18098 18099 18100 18101 18102 18103 18104 18105 18106 18107 18108 18109 18110 18111 18112 18113 18114 18115 18116 18117 18118 18119 18120 18121 18122 18123 18124 18125 18126 18127 18128 18129 18130 18131 18132 18133 18134 18135 18136 18137 18138 18139 18140 18141 18142 18143 18144 18145 18146 18147 18148 18149 18150 18151 18152 18153 18154 18155 18156 18157 18158 18159 18160 18161 18162 18163 18164 18165 18166 18167 18168 18169 18170 18171 18172 18173 18174 18175 18176 18177 18178 18179 18180 18181 18182 18183 18184 18185 18186 18187 18188 18189 18190 18191 18192 18193 18194 18195 18196 18197 18198 18199 18200 18201 18202 18203 18204 18205 18206 18207 18208 18209 18210 18211 18212 18213 18214 18215 18216 18217 18218 18219 18220 18221 18222 18223 18224 18225 18226 18227 18228 18229 18230 18231 18232 18233 18234 18235 18236 18237 18238 18239 18240 18241 18242 18243 18244 18245 18246 18247 18248 18249 18250 18251 18252 18253 18254 18255 18256 18257 18258 18259 18260 18261 18262 18263 18264 18265 18266 18267 18268 18269 18270 18271 18272 18273 18274 18275 18276 18277 18278 18279 18280 18281 18282 18283 18284 18285 18286 18287 18288 18289 18290 18291 18292 18293 18294 18295 18296 18297 18298 18299 18300 18301 18302 18303 18304 18305 18306 18307 18308 18309 18310 18311 18312 18313 18314 18315 18316 18317 18318 18319 18320 18321 18322 18323 18324 18325 18326 18327 18328 18329 18330 18331 18332 18333 18334 18335 18336 18337 18338 18339 18340 18341 18342 18343 18344 18345 18346 18347 18348 18349 18350 18351 18352 18353 18354 18355 18356 18357 18358 18359 18360 18361 18362 18363 18364 18365 18366 18367 18368 18369 18370 18371 18372 18373 18374 18375 18376 18377 18378 18379 18380 18381 18382 18383 18384 18385 18386 18387 18388 18389 18390 18391 18392 18393 18394 18395 18396 18397 18398 18399 18400 18401 18402 18403 18404 18405 18406 18407 18408 18409 18410 18411 18412 18413 18414 18415 18416 18417 18418 18419 18420 18421 18422 18423 18424 18425 18426 18427 18428 18429 18430 18431 18432 18433 18434 18435 18436 18437 18438 18439 18440 18441 18442 18443 18444 18445 18446 18447 18448 18449 18450 18451 18452 18453 18454 18455 18456 18457 18458 18459 18460 18461 18462 18463 18464 18465 18466 18467 18468 18469 18470 18471 18472 18473 18474 18475 18476 18477 18478 18479 18480 18481 18482 18483 18484 18485 18486 18487 18488 18489 18490 18491 18492 18493 18494 18495 18496 18497 18498 18499 18500 18501 18502 18503 18504 18505 18506 18507 18508 18509 18510 18511 18512 18513 18514 18515 18516 18517 18518 18519 18520 18521 18522 18523 18524 18525 18526 18527 18528 18529 18530 18531 18532 18533 18534 18535 18536 18537 18538 18539 18540 18541 18542 18543 18544 18545 18546 18547 18548 18549 18550 18551 18552 18553 18554 18555 18556 18557 18558 18559 18560 18561 18562 18563 18564 18565 18566 18567 18568 18569 18570 18571 18572 18573 18574 18575 18576 18577 18578 18579 18580 18581 18582 18583 18584 18585 18586 18587 18588 18589 18590 18591 18592 18593 18594 18595 18596 18597 18598 18599 18600 18601 18602 18603 18604 18605 18606 18607 18608 18609 18610 18611 18612 18613 18614 18615 18616 18617 18618 18619 18620 18621 18622 18623 18624 18625 18626 18627 18628 18629 18630 18631 18632 18633 18634 18635 18636 18637 18638 18639 18640 18641 18642 18643 18644 18645 18646 18647 18648 18649 18650 18651 18652 18653 18654 18655 18656 18657 18658 18659 18660 18661 18662 18663 18664 18665 18666 18667 18668 18669 18670 18671 18672 18673 18674 18675 18676 18677 18678 18679 18680 18681 18682 18683 18684 18685 18686 18687 18688 18689 18690 18691 18692 18693 18694 18695 18696 18697 18698 18699 18700 18701 18702 18703 18704 18705 18706 18707 18708 18709 18710 18711 18712 18713 18714 18715 18716 18717 18718 18719 18720 18721 18722 18723 18724 18725 18726 18727 18728 18729 18730 18731 18732 18733 18734 18735 18736 18737 18738 18739 18740 18741 18742 18743 18744 18745 18746 18747 18748 18749 18750 18751 18752 18753 18754 18755 18756 18757 18758 18759 18760 18761 18762 18763 18764 18765 18766 18767 18768 18769 18770 18771 18772 18773 18774 18775 18776 18777 18778 18779 18780 18781 18782 18783 18784 18785 18786 18787 18788 18789 18790 18791 18792 18793 18794 18795 18796 18797 18798 18799 18800 18801 18802 18803 18804 18805 18806 18807 18808 18809 18810 18811 18812 18813 18814 18815 18816 18817 18818 18819 18820 18821 18822 18823 18824 18825 18826 18827 18828 18829 18830 18831 18832 18833 18834 18835 18836 18837 18838 18839 18840 18841 18842 18843 18844 18845 18846 18847 18848 18849 18850 18851 18852 18853 18854 18855 18856 18857 18858 18859 18860 18861 18862 18863 18864 18865 18866 18867 18868 18869 18870 18871 18872 18873 18874 18875 18876 18877 18878 18879 18880 18881 18882 18883 18884 18885 18886 18887 18888 18889 18890 18891 18892 18893 18894 18895 18896 18897 18898 18899 18900 18901 18902 18903 18904 18905 18906 18907 18908 18909 18910 18911 18912 18913 18914 18915 18916 18917 18918 18919 18920 18921 18922 18923 18924 18925 18926 18927 18928 18929 18930 18931 18932 18933 18934 18935 18936 18937 18938 18939 18940 18941 18942 18943 18944 18945 18946 18947 18948 18949 18950 18951 18952 18953 18954 18955 18956 18957 18958 18959 18960 18961 18962 18963 18964 18965 18966 18967 18968 18969 18970 18971 18972 18973 18974 18975 18976 18977 18978 18979 18980 18981 18982 18983 18984 18985 18986 18987 18988 18989 18990 18991 18992 18993 18994 18995 18996 18997 18998 18999 19000 19001 19002 19003 19004 19005 19006 19007 19008 19009 19010 19011 19012 19013 19014 19015 19016 19017 19018 19019 19020 19021 19022 19023 19024 19025 19026 19027 19028 19029 19030 19031 19032 19033 19034 19035 19036 19037 19038 19039 19040 19041 19042 19043 19044 19045 19046 19047 19048 19049 19050 19051 19052 19053 19054 19055 19056 19057 19058 19059 19060 19061 19062 19063 19064 19065 19066 19067 19068 19069 19070 19071 19072 19073 19074 19075 19076 19077 19078 19079 19080 19081 19082 19083 19084 19085 19086 19087 19088 19089 19090 19091 19092 19093 19094 19095 19096 19097 19098 19099 19100 19101 19102 19103 19104 19105 19106 19107 19108 19109 19110 19111 19112 19113 19114 19115 19116 19117 19118 19119 19120 19121 19122 19123 19124 19125 19126 19127 19128 19129 19130 19131 19132 19133 19134 19135 19136 19137 19138 19139 19140 19141 19142 19143 19144 19145 19146 19147 19148 19149 19150 19151 19152 19153 19154 19155 19156 19157 19158 19159 19160 19161 19162 19163 19164 19165 19166 19167 19168 19169 19170 19171 19172 19173 19174 19175 19176 19177 19178 19179 19180 19181 19182 19183 19184 19185 19186 19187 19188 19189 19190 19191 19192 19193 19194 19195 19196 19197 19198 19199 19200 19201 19202 19203 19204 19205 19206 19207 19208 19209 19210 19211 19212 19213 19214 19215 19216 19217 19218 19219 19220 19221 19222 19223 19224 19225 19226 19227 19228 19229 19230 19231 19232 19233 19234 19235 19236 19237 19238 19239 19240 19241 19242 19243 19244 19245 19246 19247 19248 19249 19250 19251 19252 19253 19254 19255 19256 19257 19258 19259 19260 19261 19262 19263 19264 19265 19266 19267 19268 19269 19270 19271 19272 19273 19274 19275 19276 19277 19278 19279 19280 19281 19282 19283 19284 19285 19286 19287 19288 19289 19290 19291 19292 19293 19294 19295 19296 19297 19298 19299 19300 19301 19302 19303 19304 19305 19306 19307 19308 19309 19310 19311 19312 19313 19314 19315 19316 19317 19318 19319 19320 19321 19322 19323 19324 19325 19326 19327 19328 19329 19330 19331 19332 19333 19334 19335 19336 19337 19338 19339 19340 19341 19342 19343 19344 19345 19346 19347 19348 19349 19350 19351 19352 19353 19354 19355 19356 19357 19358 19359 19360 19361 19362 19363 19364 19365 19366 19367 19368 19369 19370 19371 19372 19373 19374 19375 19376 19377 19378 19379 19380 19381 19382 19383 19384 19385 19386 19387 19388 19389 19390 19391 19392 19393 19394 19395 19396 19397 19398 19399 19400 19401 19402 19403 19404 19405 19406 19407 19408 19409 19410 19411 19412 19413 19414 19415 19416 19417 19418 19419 19420 19421 19422 19423 19424 19425 19426 19427 19428 19429 19430 19431 19432 19433 19434 19435 19436 19437 19438 19439 19440 19441 19442 19443 19444 19445 19446 19447 19448 19449 19450 19451 19452 19453 19454 19455 19456 19457 19458 19459 19460 19461 19462 19463 19464 19465 19466 19467 19468 19469 19470 19471 19472 19473 19474 19475 19476 19477 19478 19479 19480 19481 19482 19483 19484 19485 19486 19487 19488 19489 19490 19491 19492 19493 19494 19495 19496 19497 19498 19499 19500 19501 19502 19503 19504 19505 19506 19507 19508 19509 19510 19511 19512 19513 19514 19515 19516 19517 19518 19519 19520 19521 19522 19523 19524 19525 19526 19527 19528 19529 19530 19531 19532 19533 19534 19535 19536 19537 19538 19539 19540 19541 19542 19543 19544 19545 19546 19547 19548 19549 19550 19551 19552 19553 19554 19555 19556 19557 19558 19559 19560 19561 19562 19563 19564 19565 19566 19567 19568 19569 19570 19571 19572 19573 19574 19575 19576 19577 19578 19579 19580 19581 19582 19583 19584 19585 19586 19587 19588 19589 19590 19591 19592 19593 19594 19595 19596 19597 19598 19599 19600 19601 19602 19603 19604 19605 19606 19607 19608 19609 19610 19611 19612 19613 19614 19615 19616 19617 19618 19619 19620 19621 19622 19623 19624 19625 19626 19627 19628 19629 19630 19631 19632 19633 19634 19635 19636 19637 19638 19639 19640 19641 19642 19643 19644 19645 19646 19647 19648 19649 19650 19651 19652 19653 19654 19655 19656 19657 19658 19659 19660 19661 19662 19663 19664 19665 19666 19667 19668 19669 19670 19671 19672 19673 19674 19675 19676 19677 19678 19679 19680 19681 19682 19683 19684 19685 19686 19687 19688 19689 19690 19691 19692 19693 19694 19695 19696 19697 19698 19699 19700 19701 19702 19703 19704 19705 19706 19707 19708 19709 19710 19711 19712 19713 19714 19715 19716 19717 19718 19719 19720 19721 19722 19723 19724 19725 19726 19727 19728 19729 19730 19731 19732 19733 19734 19735 19736 19737 19738 19739 19740 19741 19742 19743 19744 19745 19746 19747 19748 19749 19750 19751 19752 19753 19754 19755 19756 19757 19758 19759 19760 19761 19762 19763 19764 19765 19766 19767 19768 19769 19770 19771 19772 19773 19774 19775 19776 19777 19778 19779 19780 19781 19782 19783 19784 19785 19786 19787 19788 19789 19790 19791 19792 19793 19794 19795 19796 19797 19798 19799 19800 19801 19802 19803 19804 19805 19806 19807 19808 19809 19810 19811 19812 19813 19814 19815 19816 19817 19818 19819 19820 19821 19822 19823 19824 19825 19826 19827 19828 19829 19830 19831 19832 19833 19834 19835 19836 19837 19838 19839 19840 19841 19842 19843 19844 19845 19846 19847 19848 19849 19850 19851 19852 19853 19854 19855 19856 19857 19858 19859 19860 19861 19862 19863 19864 19865 19866 19867 19868 19869 19870 19871 19872 19873 19874 19875 19876 19877 19878 19879 19880 19881 19882 19883 19884 19885 19886 19887 19888 19889 19890 19891 19892 19893 19894 19895 19896 19897 19898 19899 19900 19901 19902 19903 19904 19905 19906 19907 19908 19909 19910 19911 19912 19913 19914 19915 19916 19917 19918 19919 19920 19921 19922 19923 19924 19925 19926 19927 19928 19929 19930 19931 19932 19933 19934 19935 19936 19937 19938 19939 19940 19941 19942 19943 19944 19945 19946 19947 19948 19949 19950 19951 19952 19953 19954 19955 19956 19957 19958 19959 19960 19961 19962 19963 19964 19965 19966 19967 19968 19969 19970 19971 19972 19973 19974 19975 19976 19977 19978 19979 19980 19981 19982 19983 19984 19985 19986 19987 19988 19989 19990 19991 19992 19993 19994 19995 19996 19997 19998 19999 20000 20001 20002 20003 20004 20005 20006 20007 20008 20009 20010 20011 20012 20013 20014 20015 20016 20017 20018 20019 20020 20021 20022 20023 20024 20025 20026 20027 20028 20029 20030 20031 20032 20033 20034 20035 20036 20037 20038 20039 20040 20041 20042 20043 20044 20045 20046 20047 20048 20049 20050 20051 20052 20053 20054 20055 20056 20057 20058 20059 20060 20061 20062 20063 20064 20065 20066 20067 20068 20069 20070 20071 20072 20073 20074 20075 20076 20077 20078 20079 20080 20081 20082 20083 20084 20085 20086 20087 20088 20089 20090 20091 20092 20093 20094 20095 20096 20097 20098 20099 20100 20101 20102 20103 20104 20105 20106 20107 20108 20109 20110 20111 20112 20113 20114 20115 20116 20117 20118 20119 20120 20121 20122 20123 20124 20125 20126 20127 20128 20129 20130 20131 20132 20133 20134 20135 20136 20137 20138 20139 20140 20141 20142 20143 20144 20145 20146 20147 20148 20149 20150 20151 20152 20153 20154 20155 20156 20157 20158 20159 20160 20161 20162 20163 20164 20165 20166 20167 20168 20169 20170 20171 20172 20173 20174 20175 20176 20177 20178 20179 20180 20181 20182 20183 20184 20185 20186 20187 20188 20189 20190 20191 20192 20193 20194 20195 20196 20197 20198 20199 20200 20201 20202 20203 20204 20205 20206 20207 20208 20209 20210 20211 20212 20213 20214 20215 20216 20217 20218 20219 20220 20221 20222 20223 20224 20225 20226 20227 20228 20229 20230 20231 20232 20233 20234 20235 20236 20237 20238 20239 20240 20241 20242 20243 20244 20245 20246 20247 20248 20249 20250 20251 20252 20253 20254 20255 20256 20257 20258 20259 20260 20261 20262 20263 20264 20265 20266 20267 20268 20269 20270 20271 20272 20273 20274 20275 20276 20277 20278 20279 20280 20281 20282 20283 20284 20285 20286 20287 20288 20289 20290 20291 20292 20293 20294 20295 20296 20297 20298 20299 20300 20301 20302 20303 20304 20305 20306 20307 20308 20309 20310 20311 20312 20313 20314 20315 20316 20317 20318 20319 20320 20321 20322 20323 20324 20325 20326 20327 20328 20329 20330 20331 20332 20333 20334 20335 20336 20337 20338 20339 20340 20341 20342 20343 20344 20345 20346 20347 20348 20349 20350 20351 20352 20353 20354 20355 20356 20357 20358 20359 20360 20361 20362 20363 20364 20365 20366 20367 20368 20369 20370 20371 20372 20373 20374 20375 20376 20377 20378 20379 20380 20381 20382 20383 20384 20385 20386 20387 20388 20389 20390 20391 20392 20393 20394 20395 20396 20397 20398 20399 20400 20401 20402 20403 20404 20405 20406 20407 20408 20409 20410 20411 20412 20413 20414 20415 20416 20417 20418 20419 20420 20421 20422 20423 20424 20425 20426 20427 20428 20429 20430 20431 20432 20433 20434 20435 20436 20437 20438 20439 20440 20441 20442 20443 20444 20445 20446 20447 20448 20449 20450 20451 20452 20453 20454 20455 20456 20457 20458 20459 20460 20461 20462 20463 20464 20465 20466 20467 20468 20469 20470 20471 20472 20473 20474 20475 20476 20477 20478 20479 20480 20481 20482 20483 20484 20485 20486 20487 20488 20489 20490 20491 20492 20493 20494 20495 20496 20497 20498 20499 20500 20501 20502 20503 20504 20505 20506 20507 20508 20509 20510 20511 20512 20513 20514 20515 20516 20517 20518 20519 20520 20521 20522 20523 20524 20525 20526 20527 20528 20529 20530 20531 20532 20533 20534 20535 20536 20537 20538 20539 20540 20541 20542 20543 20544 20545 20546 20547 20548 20549 20550 20551 20552 20553 20554 20555 20556 20557 20558 20559 20560 20561 20562 20563 20564 20565 20566 20567 20568 20569 20570 20571 20572 20573 20574 20575 20576 20577 20578 20579 20580 20581 20582 20583 20584 20585 20586 20587 20588 20589 20590 20591 20592 20593 20594 20595 20596 20597 20598 20599 20600 20601 20602 20603 20604 20605 20606 20607 20608 20609 20610 20611 20612 20613 20614 20615 20616 20617 20618 20619 20620 20621 20622 20623 20624 20625 20626 20627 20628 20629 20630 20631 20632 20633 20634 20635 20636 20637 20638 20639 20640 20641 20642 20643 20644 20645 20646 20647 20648 20649 20650 20651 20652 20653 20654 20655 20656 20657 20658 20659 20660 20661 20662 20663 20664 20665 20666 20667 20668 20669 20670 20671 20672 20673 20674 20675 20676 20677 20678 20679 20680 20681 20682 20683 20684 20685 20686 20687 20688 20689 20690 20691 20692 20693 20694 20695 20696 20697 20698 20699 20700 20701 20702 20703 20704 20705 20706 20707 20708 20709 20710 20711 20712 20713 20714 20715 20716 20717 20718 20719 20720 20721 20722 20723 20724 20725 20726 20727 20728 20729 20730 20731 20732 20733 20734 20735 20736 20737 20738 20739 20740 20741 20742 20743 20744 20745 20746 20747 20748 20749 20750 20751 20752 20753 20754 20755 20756 20757 20758 20759 20760 20761 20762 20763 20764 20765 20766 20767 20768 20769 20770 20771 20772 20773 20774 20775 20776 20777 20778 20779 20780 20781 20782 20783 20784 20785 20786 20787 20788 20789 20790 20791 20792 20793 20794 20795 20796 20797 20798 20799 20800 20801 20802 20803 20804 20805 20806 20807 20808 20809 20810 20811 20812 20813 20814 20815 20816 20817 20818 20819 20820 20821 20822 20823 20824 20825 20826 20827 20828 20829 20830 20831 20832 20833 20834 20835 20836 20837 20838 20839 20840 20841 20842 20843 20844 20845 20846 20847 20848 20849 20850 20851 20852 20853 20854 20855 20856 20857 20858 20859 20860 20861 20862 20863 20864 20865 20866 20867 20868 20869 20870 20871 20872 20873 20874 20875 20876 20877 20878 20879 20880 20881 20882 20883 20884 20885 20886 20887 20888 20889 20890 20891 20892 20893 20894 20895 20896 20897 20898 20899 20900 20901 20902 20903 20904 20905 20906 20907 20908 20909 20910 20911 20912 20913 20914 20915 20916 20917 20918 20919 20920 20921 20922 20923 20924 20925 20926 20927 20928 20929 20930 20931 20932 20933 20934 20935 20936 20937 20938 20939 20940 20941 20942 20943 20944 20945 20946 20947 20948 20949 20950 20951 20952 20953 20954 20955 20956 20957 20958 20959 20960 20961 20962 20963 20964 20965 20966 20967 20968 20969 20970 20971 20972 20973 20974 20975 20976 20977 20978 20979 20980 20981 20982 20983 20984 20985 20986 20987 20988 20989 20990 20991 20992 20993 20994 20995 20996 20997 20998 20999 21000 21001 21002 21003 21004 21005 21006 21007 21008 21009 21010 21011 21012 21013 21014 21015 21016 21017 21018 21019 21020 21021 21022 21023 21024 21025 21026 21027 21028 21029 21030 21031 21032 21033 21034 21035 21036 21037 21038 21039 21040 21041 21042 21043 21044 21045 21046 21047 21048 21049 21050 21051 21052 21053 21054 21055 21056 21057 21058 21059 21060 21061 21062 21063 21064 21065 21066 21067 21068 21069 21070 21071 21072 21073 21074 21075 21076 21077 21078 21079 21080 21081 21082 21083 21084 21085 21086 21087 21088 21089 21090 21091 21092 21093 21094 21095 21096 21097 21098 21099 21100 21101 21102 21103 21104 21105 21106 21107 21108 21109 21110 21111 21112 21113 21114 21115 21116 21117 21118 21119 21120 21121 21122 21123 21124 21125 21126 21127 21128 21129 21130 21131 21132 21133 21134 21135 21136 21137 21138 21139 21140 21141 21142 21143 21144 21145 21146 21147 21148 21149 21150 21151 21152 21153 21154 21155 21156 21157 21158 21159 21160 21161 21162 21163 21164 21165 21166 21167 21168 21169 21170 21171 21172 21173 21174 21175 21176 21177 21178 21179 21180 21181 21182 21183 21184 21185 21186 21187 21188 21189 21190 21191 21192 21193 21194 21195 21196 21197 21198 21199 21200 21201 21202 21203 21204 21205 21206 21207 21208 21209 21210 21211 21212 21213 21214 21215 21216 21217 21218 21219 21220 21221 21222 21223 21224 21225 21226 21227 21228 21229 21230 21231 21232 21233 21234 21235 21236 21237 21238 21239 21240 21241 21242 21243 21244 21245 21246 21247 21248 21249 21250 21251 21252 21253 21254 21255 21256 21257 21258 21259 21260 21261 21262 21263 21264 21265 21266 21267 21268 21269 21270 21271 21272 21273 21274 21275 21276 21277 21278 21279 21280 21281 21282 21283 21284 21285 21286 21287 21288 21289 21290 21291 21292 21293 21294 21295 21296 21297 21298 21299 21300 21301 21302 21303 21304 21305 21306 21307 21308 21309 21310 21311 21312 21313 21314 21315 21316 21317 21318 21319 21320 21321 21322 21323 21324 21325 21326 21327 21328 21329 21330 21331 21332 21333 21334 21335 21336 21337 21338 21339 21340 21341 21342 21343 21344 21345 21346 21347 21348 21349 21350 21351 21352 21353 21354 21355 21356 21357 21358 21359 21360 21361 21362 21363 21364 21365 21366 21367 21368 21369 21370 21371 21372 21373 21374 21375 21376 21377 21378 21379 21380 21381 21382 21383 21384 21385 21386 21387 21388 21389 21390 21391 21392 21393 21394 21395 21396 21397 21398 21399 21400 21401 21402 21403 21404 21405 21406 21407 21408 21409 21410 21411 21412 21413 21414 21415 21416 21417 21418 21419 21420 21421 21422 21423 21424 21425 21426 21427 21428 21429 21430 21431 21432 21433 21434 21435 21436 21437 21438 21439 21440 21441 21442 21443 21444 21445 21446 21447 21448 21449 21450 21451 21452 21453 21454 21455 21456 21457 21458 21459 21460 21461 21462 21463 21464 21465 21466 21467 21468 21469 21470 21471 21472 21473 21474 21475 21476 21477 21478 21479 21480 21481 21482 21483 21484 21485 21486 21487 21488 21489 21490 21491 21492 21493 21494 21495 21496 21497 21498 21499 21500 21501 21502 21503 21504 21505 21506 21507 21508 21509 21510 21511 21512 21513 21514 21515 21516 21517 21518 21519 21520 21521 21522 21523 21524 21525 21526 21527 21528 21529 21530 21531 21532 21533 21534 21535 21536 21537 21538 21539 21540 21541 21542 21543 21544 21545 21546 21547 21548 21549 21550 21551 21552 21553 21554 21555 21556 21557 21558 21559 21560 21561 21562 21563 21564 21565 21566 21567 21568 21569 21570 21571 21572 21573 21574 21575 21576 21577 21578 21579 21580 21581 21582 21583 21584 21585 21586 21587 21588 21589 21590 21591 21592 21593 21594 21595 21596 21597 21598 21599 21600 21601 21602 21603 21604 21605 21606 21607 21608 21609 21610 21611 21612 21613 21614 21615 21616 21617 21618 21619 21620 21621 21622 21623 21624 21625 21626 21627 21628 21629 21630 21631 21632 21633 21634 21635 21636 21637 21638 21639 21640 21641 21642 21643 21644 21645 21646 21647 21648 21649 21650 21651 21652 21653 21654 21655 21656 21657 21658 21659 21660 21661 21662 21663 21664 21665 21666 21667 21668 21669 21670 21671 21672 21673 21674 21675 21676 21677 21678 21679 21680 21681 21682 21683 21684 21685 21686 21687 21688 21689 21690 21691 21692 21693 21694 21695 21696 21697 21698 21699 21700 21701 21702 21703 21704 21705 21706 21707 21708 21709 21710 21711 21712 21713 21714 21715 21716 21717 21718 21719 21720 21721 21722 21723 21724 21725 21726 21727 21728 21729 21730 21731 21732 21733 21734 21735 21736 21737 21738 21739 21740 21741 21742 21743 21744 21745 21746 21747 21748 21749 21750 21751 21752 21753 21754 21755 21756 21757 21758 21759 21760 21761 21762 21763 21764 21765 21766 21767 21768 21769 21770 21771 21772 21773 21774 21775 21776 21777 21778 21779 21780 21781 21782 21783 21784 21785 21786 21787 21788 21789 21790 21791 21792 21793 21794 21795 21796 21797 21798 21799 21800 21801 21802 21803 21804 21805 21806 21807 21808 21809 21810 21811 21812 21813 21814 21815 21816 21817 21818 21819 21820 21821 21822 21823 21824 21825 21826 21827 21828 21829 21830 21831 21832 21833 21834 21835 21836 21837 21838 21839 21840 21841 21842 21843 21844 21845 21846 21847 21848 21849 21850 21851 21852 21853 21854 21855 21856 21857 21858 21859 21860 21861 21862 21863 21864 21865 21866 21867 21868 21869 21870 21871 21872 21873 21874 21875 21876 21877 21878 21879 21880 21881 21882 21883 21884 21885 21886 21887 21888 21889 21890 21891 21892 21893 21894 21895 21896 21897 21898 21899 21900 21901 21902 21903 21904 21905 21906 21907 21908 21909 21910 21911 21912 21913 21914 21915 21916 21917 21918 21919 21920 21921 21922 21923 21924 21925 21926 21927 21928 21929 21930 21931 21932 21933 21934 21935 21936 21937 21938 21939 21940 21941 21942 21943 21944 21945 21946 21947 21948 21949 21950 21951 21952 21953 21954 21955 21956 21957 21958 21959 21960 21961 21962 21963 21964 21965 21966 21967 21968 21969 21970 21971 21972 21973 21974 21975 21976 21977 21978 21979 21980 21981 21982 21983 21984 21985 21986 21987 21988 21989 21990 21991 21992 21993 21994 21995 21996 21997 21998 21999 22000 22001 22002 22003 22004 22005 22006 22007 22008 22009 22010 22011 22012 22013 22014 22015 22016 22017 22018 22019 22020 22021 22022 22023 22024 22025 22026 22027 22028 22029 22030 22031 22032 22033 22034 22035 22036 22037 22038 22039 22040 22041 22042 22043 22044 22045 22046 22047 22048 22049 22050 22051 22052 22053 22054 22055 22056 22057 22058 22059 22060 22061 22062 22063 22064 22065 22066 22067 22068 22069 22070 22071 22072 22073 22074 22075 22076 22077 22078 22079 22080 22081 22082 22083 22084 22085 22086 22087 22088 22089 22090 22091 22092 22093 22094 22095 22096 22097 22098 22099 22100 22101 22102 22103 22104 22105 22106 22107 22108 22109 22110 22111 22112 22113 22114 22115 22116 22117 22118 22119 22120 22121 22122 22123 22124 22125 22126 22127 22128 22129 22130 22131 22132 22133 22134 22135 22136 22137 22138 22139 22140 22141 22142 22143 22144 22145 22146 22147 22148 22149 22150 22151 22152 22153 22154 22155 22156 22157 22158 22159 22160 22161 22162 22163 22164 22165 22166 22167 22168 22169 22170 22171 22172 22173 22174 22175 22176 22177 22178 22179 22180 22181 22182 22183 22184 22185 22186 22187 22188 22189 22190 22191 22192 22193 22194 22195 22196 22197 22198 22199 22200 22201 22202 22203 22204 22205 22206 22207 22208 22209 22210 22211 22212 22213 22214 22215 22216 22217 22218 22219 22220 22221 22222 22223 22224 22225 22226 22227 22228 22229 22230 22231 22232 22233 22234 22235 22236 22237 22238 22239 22240 22241 22242 22243 22244 22245 22246 22247 22248 22249 22250 22251 22252 22253 22254 22255 22256 22257 22258 22259 22260 22261 22262 22263 22264 22265 22266 22267 22268 22269 22270 22271 22272 22273 22274 22275 22276 22277 22278 22279 22280 22281 22282 22283 22284 22285 22286 22287 22288 22289 22290 22291 22292 22293 22294 22295 22296 22297 22298 22299 22300 22301 22302 22303 22304 22305 22306 22307 22308 22309 22310 22311 22312 22313 22314 22315 22316 22317 22318 22319 22320 22321 22322 22323 22324 22325 22326 22327 22328 22329 22330 22331 22332 22333 22334 22335 22336 22337 22338 22339 22340 22341 22342 22343 22344 22345 22346 22347 22348 22349 22350 22351 22352 22353 22354 22355 22356 22357 22358 22359 22360 22361 22362 22363 22364 22365 22366 22367 22368 22369 22370 22371 22372 22373 22374 22375 22376 22377 22378 22379 22380 22381 22382 22383 22384 22385 22386 22387 22388 22389 22390 22391 22392 22393 22394 22395 22396 22397 22398 22399 22400 22401 22402 22403 22404 22405 22406 22407 22408 22409 22410 22411 22412 22413 22414 22415 22416 22417 22418 22419 22420 22421 22422 22423 22424 22425 22426 22427 22428 22429 22430 22431 22432 22433 22434 22435 22436 22437 22438 22439 22440 22441 22442 22443 22444 22445 22446 22447 22448 22449 22450 22451 22452 22453 22454 22455 22456 22457 22458 22459 22460 22461 22462 22463 22464 22465 22466 22467 22468 22469 22470 22471 22472 22473 22474 22475 22476 22477 22478 22479 22480 22481 22482 22483 22484 22485 22486 22487 22488 22489 22490 22491 22492 22493 22494 22495 22496 22497 22498 22499 22500 22501 22502 22503 22504 22505 22506 22507 22508 22509 22510 22511 22512 22513 22514 22515 22516 22517 22518 22519 22520 22521 22522 22523 22524 22525 22526 22527 22528 22529 22530 22531 22532 22533 22534 22535 22536 22537 22538 22539 22540 22541 22542 22543 22544 22545 22546 22547 22548 22549 22550 22551 22552 22553 22554 22555 22556 22557 22558 22559 22560 22561 22562 22563 22564 22565 22566 22567 22568 22569 22570 22571 22572 22573 22574 22575 22576 22577 22578 22579 22580 22581 22582 22583 22584 22585 22586 22587 22588 22589 22590 22591 22592 22593 22594 22595 22596 22597 22598 22599 22600 22601 22602 22603 22604 22605 22606 22607 22608 22609 22610 22611 22612 22613 22614 22615 22616 22617 22618 22619 22620 22621 22622 22623 22624 22625 22626 22627 22628 22629 22630 22631 22632 22633 22634 22635 22636 22637 22638 22639 22640 22641 22642 22643 22644 22645 22646 22647 22648 22649 22650 22651 22652 22653 22654 22655 22656 22657 22658 22659 22660 22661 22662 22663 22664 22665 22666 22667 22668 22669 22670 22671 22672 22673 22674 22675 22676 22677 22678 22679 22680 22681 22682 22683 22684 22685 22686 22687 22688 22689 22690 22691 22692 22693 22694 22695 22696 22697 22698 22699 22700 22701 22702 22703 22704 22705 22706 22707 22708 22709 22710 22711 22712 22713 22714 22715 22716 22717 22718 22719 22720 22721 22722 22723 22724 22725 22726 22727 22728 22729 22730 22731 22732 22733 22734 22735 22736 22737 22738 22739 22740 22741 22742 22743 22744 22745 22746 22747 22748 22749 22750 22751 22752 22753 22754 22755 22756 22757 22758 22759 22760 22761 22762 22763 22764 22765 22766 22767 22768 22769 22770 22771 22772 22773 22774 22775 22776 22777 22778 22779 22780 22781 22782 22783 22784 22785 22786 22787 22788 22789 22790 22791 22792 22793 22794 22795 22796 22797 22798 22799 22800 22801 22802 22803 22804 22805 22806 22807 22808 22809 22810 22811 22812 22813 22814 22815 22816 22817 22818 22819 22820 22821 22822 22823 22824 22825 22826 22827 22828 22829 22830 22831 22832 22833 22834 22835 22836 22837 22838 22839 22840 22841 22842 22843 22844 22845 22846 22847 22848 22849 22850 22851 22852 22853 22854 22855 22856 22857 22858 22859 22860 22861 22862 22863 22864 22865 22866 22867 22868 22869 22870 22871 22872 22873 22874 22875 22876 22877 22878 22879 22880 22881 22882 22883 22884 22885 22886 22887 22888 22889 22890 22891 22892 22893 22894 22895 22896 22897 22898 22899 22900 22901 22902 22903 22904 22905 22906 22907 22908 22909 22910 22911 22912 22913 22914 22915 22916 22917 22918 22919 22920 22921 22922 22923 22924 22925 22926 22927 22928 22929 22930 22931 22932 22933 22934 22935 22936 22937 22938 22939 22940 22941 22942 22943 22944 22945 22946 22947 22948 22949 22950 22951 22952 22953 22954 22955 22956 22957 22958 22959 22960 22961 22962 22963 22964 22965 22966 22967 22968 22969 22970 22971 22972 22973 22974 22975 22976 22977 22978 22979 22980 22981 22982 22983 22984 22985 22986 22987 22988 22989 22990 22991 22992 22993 22994 22995 22996 22997 22998 22999 23000 23001 23002 23003 23004 23005 23006 23007 23008 23009 23010 23011 23012 23013 23014 23015 23016 23017 23018 23019 23020 23021 23022 23023 23024 23025 23026 23027 23028 23029 23030 23031 23032 23033 23034 23035 23036 23037 23038 23039 23040 23041 23042 23043 23044 23045 23046 23047 23048 23049 23050 23051 23052 23053 23054 23055 23056 23057 23058 23059 23060 23061 23062 23063 23064 23065 23066 23067 23068 23069 23070 23071 23072 23073 23074 23075 23076 23077 23078 23079 23080 23081 23082 23083 23084 23085 23086 23087 23088 23089 23090 23091 23092 23093 23094 23095 23096 23097 23098 23099 23100 23101 23102 23103 23104 23105 23106 23107 23108 23109 23110 23111 23112 23113 23114 23115 23116 23117 23118 23119 23120 23121 23122 23123 23124 23125 23126 23127 23128 23129 23130 23131 23132 23133 23134 23135 23136 23137 23138 23139 23140 23141 23142 23143 23144 23145 23146 23147 23148 23149 23150 23151 23152 23153 23154 23155 23156 23157 23158 23159 23160 23161 23162 23163 23164 23165 23166 23167 23168 23169 23170 23171 23172 23173 23174 23175 23176 23177 23178 23179 23180 23181 23182 23183 23184 23185 23186 23187 23188 23189 23190 23191 23192 23193 23194 23195 23196 23197 23198 23199 23200 23201 23202 23203 23204 23205 23206 23207 23208 23209 23210 23211 23212 23213 23214 23215 23216 23217 23218 23219 23220 23221 23222 23223 23224 23225 23226 23227 23228 23229 23230 23231 23232 23233 23234 23235 23236 23237 23238 23239 23240 23241 23242 23243 23244 23245 23246 23247 23248 23249 23250 23251 23252 23253 23254 23255 23256 23257 23258 23259 23260 23261 23262 23263 23264 23265 23266 23267 23268 23269 23270 23271 23272 23273 23274 23275 23276 23277 23278 23279 23280 23281 23282 23283 23284 23285 23286 23287 23288 23289 23290 23291 23292 23293 23294 23295 23296 23297 23298 23299 23300 23301 23302 23303 23304 23305 23306 23307 23308 23309 23310 23311 23312 23313 23314 23315 23316 23317 23318 23319 23320 23321 23322 23323 23324 23325 23326 23327 23328 23329 23330 23331 23332 23333 23334 23335 23336 23337 23338 23339 23340 23341 23342 23343 23344 23345 23346 23347 23348 23349 23350 23351 23352 23353 23354 23355 23356 23357 23358 23359 23360 23361 23362 23363 23364 23365 23366 23367 23368 23369 23370 23371 23372 23373 23374 23375 23376 23377 23378 23379 23380 23381 23382 23383 23384 23385 23386 23387 23388 23389 23390 23391 23392 23393 23394 23395 23396 23397 23398 23399 23400 23401 23402 23403 23404 23405 23406 23407 23408 23409 23410 23411 23412 23413 23414 23415 23416 23417 23418 23419 23420 23421 23422 23423 23424 23425 23426 23427 23428 23429 23430 23431 23432 23433 23434 23435 23436 23437 23438 23439 23440 23441 23442 23443 23444 23445 23446 23447 23448 23449 23450 23451 23452 23453 23454 23455 23456 23457 23458 23459 23460 23461 23462 23463 23464 23465 23466 23467 23468 23469 23470 23471 23472 23473 23474 23475 23476 23477 23478 23479 23480 23481 23482 23483 23484 23485 23486 23487 23488 23489 23490 23491 23492 23493 23494 23495 23496 23497 23498 23499 23500 23501 23502 23503 23504 23505 23506 23507 23508 23509 23510 23511 23512 23513 23514 23515 23516 23517 23518 23519 23520 23521 23522 23523 23524 23525 23526 23527 23528 23529 23530 23531 23532 23533 23534 23535 23536 23537 23538 23539 23540 23541 23542 23543 23544 23545 23546 23547 23548 23549 23550 23551 23552 23553 23554 23555 23556 23557 23558 23559 23560 23561 23562 23563 23564 23565 23566 23567 23568 23569 23570 23571 23572 23573 23574 23575 23576 23577 23578 23579 23580 23581 23582 23583 23584 23585 23586 23587 23588 23589 23590 23591 23592 23593 23594 23595 23596 23597 23598 23599 23600 23601 23602 23603 23604 23605 23606 23607 23608 23609 23610 23611 23612 23613 23614 23615 23616 23617 23618 23619 23620 23621 23622 23623 23624 23625 23626 23627 23628 23629 23630 23631 23632 23633 23634 23635 23636 23637 23638 23639 23640 23641 23642 23643 23644 23645 23646 23647 23648 23649 23650 23651 23652 23653 23654 23655 23656 23657 23658 23659 23660 23661 23662 23663 23664 23665 23666 23667 23668 23669 23670 23671 23672 23673 23674 23675 23676 23677 23678 23679 23680 23681 23682 23683 23684 23685 23686 23687 23688 23689 23690 23691 23692 23693 23694 23695 23696 23697 23698 23699 23700 23701 23702 23703 23704 23705 23706 23707 23708 23709 23710 23711 23712 23713 23714 23715 23716 23717 23718 23719 23720 23721 23722 23723 23724 23725 23726 23727 23728 23729 23730 23731 23732 23733 23734 23735 23736 23737 23738 23739 23740 23741 23742 23743 23744 23745 23746 23747 23748 23749 23750 23751 23752 23753 23754 23755 23756 23757 23758 23759 23760 23761 23762 23763 23764 23765 23766 23767 23768 23769 23770 23771 23772 23773 23774 23775 23776 23777 23778 23779 23780 23781 23782 23783 23784 23785 23786 23787 23788 23789 23790 23791 23792 23793 23794 23795 23796 23797 23798 23799 23800 23801 23802 23803 23804 23805 23806 23807 23808 23809 23810 23811 23812 23813 23814 23815 23816 23817 23818 23819 23820 23821 23822 23823 23824 23825 23826 23827 23828 23829 23830 23831 23832 23833 23834 23835 23836 23837 23838 23839 23840 23841 23842 23843 23844 23845 23846 23847 23848 23849 23850 23851 23852 23853 23854 23855 23856 23857 23858 23859 23860 23861 23862 23863 23864 23865 23866 23867 23868 23869 23870 23871 23872 23873 23874 23875 23876 23877 23878 23879 23880 23881 23882 23883 23884 23885 23886 23887 23888 23889 23890 23891 23892 23893 23894 23895 23896 23897 23898 23899 23900 23901 23902 23903 23904 23905 23906 23907 23908 23909 23910 23911 23912 23913 23914 23915 23916 23917 23918 23919 23920 23921 23922 23923 23924 23925 23926 23927 23928 23929 23930 23931 23932 23933 23934 23935 23936 23937 23938 23939 23940 23941 23942 23943 23944 23945 23946 23947 23948 23949 23950 23951 23952 23953 23954 23955 23956 23957 23958 23959 23960 23961 23962 23963 23964 23965 23966 23967 23968 23969 23970 23971 23972 23973 23974 23975 23976 23977 23978 23979 23980 23981 23982 23983 23984 23985 23986 23987 23988 23989 23990 23991 23992 23993 23994 23995 23996 23997 23998 23999 24000 24001 24002 24003 24004 24005 24006 24007 24008 24009 24010 24011 24012 24013 24014 24015 24016 24017 24018 24019 24020 24021 24022 24023 24024 24025 24026 24027 24028 24029 24030 24031 24032 24033 24034 24035 24036 24037 24038 24039 24040 24041 24042 24043 24044 24045 24046 24047 24048 24049 24050 24051 24052 24053 24054 24055 24056 24057 24058 24059 24060 24061 24062 24063 24064 24065 24066 24067 24068 24069 24070 24071 24072 24073 24074 24075 24076 24077 24078 24079 24080 24081 24082 24083 24084 24085 24086 24087 24088 24089 24090 24091 24092 24093 24094 24095 24096 24097 24098 24099 24100 24101 24102 24103 24104 24105 24106 24107 24108 24109 24110 24111 24112 24113 24114 24115 24116 24117 24118 24119 24120 24121 24122 24123 24124 24125 24126 24127 24128 24129 24130 24131 24132 24133 24134 24135 24136 24137 24138 24139 24140 24141 24142 24143 24144 24145 24146 24147 24148 24149 24150 24151 24152 24153 24154 24155 24156 24157 24158 24159 24160 24161 24162 24163 24164 24165 24166 24167 24168 24169 24170 24171 24172 24173 24174 24175 24176 24177 24178 24179 24180 24181 24182 24183 24184 24185 24186 24187 24188 24189 24190 24191 24192 24193 24194 24195 24196 24197 24198 24199 24200 24201 24202 24203 24204 24205 24206 24207 24208 24209 24210 24211 24212 24213 24214 24215 24216 24217 24218 24219 24220 24221 24222 24223 24224 24225 24226 24227 24228 24229 24230 24231 24232 24233 24234 24235 24236 24237 24238 24239 24240 24241 24242 24243 24244 24245 24246 24247 24248 24249 24250 24251 24252 24253 24254 24255 24256 24257 24258 24259 24260 24261 24262 24263 24264 24265 24266 24267 24268 24269 24270 24271 24272 24273 24274 24275 24276 24277 24278 24279 24280 24281 24282 24283 24284 24285 24286 24287 24288 24289 24290 24291 24292 24293 24294 24295 24296 24297 24298 24299 24300 24301 24302 24303 24304 24305 24306 24307 24308 24309 24310 24311 24312 24313 24314 24315 24316 24317 24318 24319 24320 24321 24322 24323 24324 24325 24326 24327 24328 24329 24330 24331 24332 24333 24334 24335 24336 24337 24338 24339 24340 24341 24342 24343 24344 24345 24346 24347 24348 24349 24350 24351 24352 24353 24354 24355 24356 24357 24358 24359 24360 24361 24362 24363 24364 24365 24366 24367 24368 24369 24370 24371 24372 24373 24374 24375 24376 24377 24378 24379 24380 24381 24382 24383 24384 24385 24386 24387 24388 24389 24390 24391 24392 24393 24394 24395 24396 24397 24398 24399 24400 24401 24402 24403 24404 24405 24406 24407 24408 24409 24410 24411 24412 24413 24414 24415 24416 24417 24418 24419 24420 24421 24422 24423 24424 24425 24426 24427 24428 24429 24430 24431 24432 24433 24434 24435 24436 24437 24438 24439 24440 24441 24442 24443 24444 24445 24446 24447 24448 24449 24450 24451 24452 24453 24454 24455 24456 24457 24458 24459 24460 24461 24462 24463 24464 24465 24466 24467 24468 24469 24470 24471 24472 24473 24474 24475 24476 24477 24478 24479 24480 24481 24482 24483 24484 24485 24486 24487 24488 24489 24490 24491 24492 24493 24494 24495 24496 24497 24498 24499 24500 24501 24502 24503 24504 24505 24506 24507 24508 24509 24510 24511 24512 24513 24514 24515 24516 24517 24518 24519 24520 24521 24522 24523 24524 24525 24526 24527 24528 24529 24530 24531 24532 24533 24534 24535 24536 24537 24538 24539 24540 24541 24542 24543 24544 24545 24546 24547 24548 24549 24550 24551 24552 24553 24554 24555 24556 24557 24558 24559 24560 24561 24562 24563 24564 24565 24566 24567 24568 24569 24570 24571 24572 24573 24574 24575 24576 24577 24578 24579 24580 24581 24582 24583 24584 24585 24586 24587 24588 24589 24590 24591 24592 24593 24594 24595 24596 24597 24598 24599 24600 24601 24602 24603 24604 24605 24606 24607 24608 24609 24610 24611 24612 24613 24614 24615 24616 24617 24618 24619 24620 24621 24622 24623 24624 24625 24626 24627 24628 24629 24630 24631 24632 24633 24634 24635 24636 24637 24638 24639 24640 24641 24642 24643 24644 24645 24646 24647 24648 24649 24650 24651 24652 24653 24654 24655 24656 24657 24658 24659 24660 24661 24662 24663 24664 24665 24666 24667 24668 24669 24670 24671 24672 24673 24674 24675 24676 24677 24678 24679 24680 24681 24682 24683 24684 24685 24686 24687 24688 24689 24690 24691 24692 24693 24694 24695 24696 24697 24698 24699 24700 24701 24702 24703 24704 24705 24706 24707 24708 24709 24710 24711 24712 24713 24714 24715 24716 24717 24718 24719 24720 24721 24722 24723 24724 24725 24726 24727 24728 24729 24730 24731 24732 24733 24734 24735 24736 24737 24738 24739 24740 24741 24742 24743 24744 24745 24746 24747 24748 24749 24750 24751 24752 24753 24754 24755 24756 24757 24758 24759 24760 24761 24762 24763 24764 24765 24766 24767 24768 24769 24770 24771 24772 24773 24774 24775 24776 24777 24778 24779 24780 24781 24782 24783 24784 24785 24786 24787 24788 24789 24790 24791 24792 24793 24794 24795 24796 24797 24798 24799 24800 24801 24802 24803 24804 24805 24806 24807 24808 24809 24810 24811 24812 24813 24814 24815 24816 24817 24818 24819 24820 24821 24822 24823 24824 24825 24826 24827 24828 24829 24830 24831 24832 24833 24834 24835 24836 24837 24838 24839 24840 24841 24842 24843 24844 24845 24846 24847 24848 24849 24850 24851 24852 24853 24854 24855 24856 24857 24858 24859 24860 24861 24862 24863 24864 24865 24866 24867 24868 24869 24870 24871 24872 24873 24874 24875 24876 24877 24878 24879 24880 24881 24882 24883 24884 24885 24886 24887 24888 24889 24890 24891 24892 24893 24894 24895 24896 24897 24898 24899 24900 24901 24902 24903 24904 24905 24906 24907 24908 24909 24910 24911 24912 24913 24914 24915 24916 24917 24918 24919 24920 24921 24922 24923 24924 24925 24926 24927 24928 24929 24930 24931 24932 24933 24934 24935 24936 24937 24938 24939 24940 24941 24942 24943 24944 24945 24946 24947 24948 24949 24950 24951 24952 24953 24954 24955 24956 24957 24958 24959 24960 24961 24962 24963 24964 24965 24966 24967 24968 24969 24970 24971 24972 24973 24974 24975 24976 24977 24978 24979 24980 24981 24982 24983 24984 24985 24986 24987 24988 24989 24990 24991 24992 24993 24994 24995 24996 24997 24998 24999 25000 25001 25002 25003 25004 25005 25006 25007 25008 25009 25010 25011 25012 25013 25014 25015 25016 25017 25018 25019 25020 25021 25022 25023 25024 25025 25026 25027 25028 25029 25030 25031 25032 25033 25034 25035 25036 25037 25038 25039 25040 25041 25042 25043 25044 25045 25046 25047 25048 25049 25050 25051 25052 25053 25054 25055 25056 25057 25058 25059 25060 25061 25062 25063 25064 25065 25066 25067 25068 25069 25070 25071 25072 25073 25074 25075 25076 25077 25078 25079 25080 25081 25082 25083 25084 25085 25086 25087 25088 25089 25090 25091 25092 25093 25094 25095 25096 25097 25098 25099 25100 25101 25102 25103 25104 25105 25106 25107 25108 25109 25110 25111 25112 25113 25114 25115 25116 25117 25118 25119 25120 25121 25122 25123 25124 25125 25126 25127 25128 25129 25130 25131 25132 25133 25134 25135 25136 25137 25138 25139 25140 25141 25142 25143 25144 25145 25146 25147 25148 25149 25150 25151 25152 25153 25154 25155 25156 25157 25158 25159 25160 25161 25162 25163 25164 25165 25166 25167 25168 25169 25170 25171 25172 25173 25174 25175 25176 25177 25178 25179 25180 25181 25182 25183 25184 25185 25186 25187 25188 25189 25190 25191 25192 25193 25194 25195 25196 25197 25198 25199 25200 25201 25202 25203 25204 25205 25206 25207 25208 25209 25210 25211 25212 25213 25214 25215 25216 25217 25218 25219 25220 25221 25222 25223 25224 25225 25226 25227 25228 25229 25230 25231 25232 25233 25234 25235 25236 25237 25238 25239 25240 25241 25242 25243 25244 25245 25246 25247 25248 25249 25250 25251 25252 25253 25254 25255 25256 25257 25258 25259 25260 25261 25262 25263 25264 25265 25266 25267 25268 25269 25270 25271 25272 25273 25274 25275 25276 25277 25278 25279 25280 25281 25282 25283 25284 25285 25286 25287 25288 25289 25290 25291 25292 25293 25294 25295 25296 25297 25298 25299 25300 25301 25302 25303 25304 25305 25306 25307 25308 25309 25310 25311 25312 25313 25314 25315 25316 25317 25318 25319 25320 25321 25322 25323 25324 25325 25326 25327 25328 25329 25330 25331 25332 25333 25334 25335 25336 25337 25338 25339 25340 25341 25342 25343 25344 25345 25346 25347 25348 25349 25350 25351 25352 25353 25354 25355 25356 25357 25358 25359 25360 25361 25362 25363 25364 25365 25366 25367 25368 25369 25370 25371 25372 25373 25374 25375 25376 25377 25378 25379 25380 25381 25382 25383 25384 25385 25386 25387 25388 25389 25390 25391 25392 25393 25394 25395 25396 25397 25398 25399 25400 25401 25402 25403 25404 25405 25406 25407 25408 25409 25410 25411 25412 25413 25414 25415 25416 25417 25418 25419 25420 25421 25422 25423 25424 25425 25426 25427 25428 25429 25430 25431 25432 25433 25434 25435 25436 25437 25438 25439 25440 25441 25442 25443 25444 25445 25446 25447 25448 25449 25450 25451 25452 25453 25454 25455 25456 25457 25458 25459 25460 25461 25462 25463 25464 25465 25466 25467 25468 25469 25470 25471 25472 25473 25474 25475 25476 25477 25478 25479 25480 25481 25482 25483 25484 25485 25486 25487 25488 25489 25490 25491 25492 25493 25494 25495 25496 25497 25498 25499 25500 25501 25502 25503 25504 25505 25506 25507 25508 25509 25510 25511 25512 25513 25514 25515 25516 25517 25518 25519 25520 25521 25522 25523 25524 25525 25526 25527 25528 25529 25530 25531 25532 25533 25534 25535 25536 25537 25538 25539 25540 25541 25542 25543 25544 25545 25546 25547 25548 25549 25550 25551 25552 25553 25554 25555 25556 25557 25558 25559 25560 25561 25562 25563 25564 25565 25566 25567 25568 25569 25570 25571 25572 25573 25574 25575 25576 25577 25578 25579 25580 25581 25582 25583 25584 25585 25586 25587 25588 25589 25590 25591 25592 25593 25594 25595 25596 25597 25598 25599 25600 25601 25602 25603 25604 25605 25606 25607 25608 25609 25610 25611 25612 25613 25614 25615 25616 25617 25618 25619 25620 25621 25622 25623 25624 25625 25626 25627 25628 25629 25630 25631 25632 25633 25634 25635 25636 25637 25638 25639 25640 25641 25642 25643 25644 25645 25646 25647 25648 25649 25650 25651 25652 25653 25654 25655 25656 25657 25658 25659 25660 25661 25662 25663 25664 25665 25666 25667 25668 25669 25670 25671 25672 25673 25674 25675 25676 25677 25678 25679 25680 25681 25682 25683 25684 25685 25686 25687 25688 25689 25690 25691 25692 25693 25694 25695 25696 25697 25698 25699 25700 25701 25702 25703 25704 25705 25706 25707 25708 25709 25710 25711 25712 25713 25714 25715 25716 25717 25718 25719 25720 25721 25722 25723 25724 25725 25726 25727 25728 25729 25730 25731 25732 25733 25734 25735 25736 25737 25738 25739 25740 25741 25742 25743 25744 25745 25746 25747 25748 25749 25750 25751 25752 25753 25754 25755 25756 25757 25758 25759 25760 25761 25762 25763 25764 25765 25766 25767 25768 25769 25770 25771 25772 25773 25774 25775 25776 25777 25778 25779 25780 25781 25782 25783 25784 25785 25786 25787 25788 25789 25790 25791 25792 25793 25794 25795 25796 25797 25798 25799 25800 25801 25802 25803 25804 25805 25806 25807 25808 25809 25810 25811 25812 25813 25814 25815 25816 25817 25818 25819 25820 25821 25822 25823 25824 25825 25826 25827 25828 25829 25830 25831 25832 25833 25834 25835 25836 25837 25838 25839 25840 25841 25842 25843 25844 25845 25846 25847 25848 25849 25850 25851 25852 25853 25854 25855 25856 25857 25858 25859 25860 25861 25862 25863 25864 25865 25866 25867 25868 25869 25870 25871 25872 25873 25874 25875 25876 25877 25878 25879 25880 25881 25882 25883 25884 25885 25886 25887 25888 25889 25890 25891 25892 25893 25894 25895 25896 25897 25898 25899 25900 25901 25902 25903 25904 25905 25906 25907 25908 25909 25910 25911 25912 25913 25914 25915 25916 25917 25918 25919 25920 25921 25922 25923 25924 25925 25926 25927 25928 25929 25930 25931 25932 25933 25934 25935 25936 25937 25938 25939 25940 25941 25942 25943 25944 25945 25946 25947 25948 25949 25950 25951 25952 25953 25954 25955 25956 25957 25958 25959 25960 25961 25962 25963 25964 25965 25966 25967 25968 25969 25970 25971 25972 25973 25974 25975 25976 25977 25978 25979 25980 25981 25982 25983 25984 25985 25986 25987 25988 25989 25990 25991 25992 25993 25994 25995 25996 25997 25998 25999 26000 26001 26002 26003 26004 26005 26006 26007 26008 26009 26010 26011 26012 26013 26014 26015 26016 26017 26018 26019 26020 26021 26022 26023 26024 26025 26026 26027 26028 26029 26030 26031 26032 26033 26034 26035 26036 26037 26038 26039 26040 26041 26042 26043 26044 26045 26046 26047 26048 26049 26050 26051 26052 26053 26054 26055 26056 26057 26058 26059 26060 26061 26062 26063 26064 26065 26066 26067 26068 26069 26070 26071 26072 26073 26074 26075 26076 26077 26078 26079 26080 26081 26082 26083 26084 26085 26086 26087 26088 26089 26090 26091 26092 26093 26094 26095 26096 26097 26098 26099 26100 26101 26102 26103 26104 26105 26106 26107 26108 26109 26110 26111 26112 26113 26114 26115 26116 26117 26118 26119 26120 26121 26122 26123 26124 26125 26126 26127 26128 26129 26130 26131 26132 26133 26134 26135 26136 26137 26138 26139 26140 26141 26142 26143 26144 26145 26146 26147 26148 26149 26150 26151 26152 26153 26154 26155 26156 26157 26158 26159 26160 26161 26162 26163 26164 26165 26166 26167 26168 26169 26170 26171 26172 26173 26174 26175 26176 26177 26178 26179 26180 26181 26182 26183 26184 26185 26186 26187 26188 26189 26190 26191 26192 26193 26194 26195 26196 26197 26198 26199 26200 26201 26202 26203 26204 26205 26206 26207 26208 26209 26210 26211 26212 26213 26214 26215 26216 26217 26218 26219 26220 26221 26222 26223 26224 26225 26226 26227 26228 26229 26230 26231 26232 26233 26234 26235 26236 26237 26238 26239 26240 26241 26242 26243 26244 26245 26246 26247 26248 26249 26250 26251 26252 26253 26254 26255 26256 26257 26258 26259 26260 26261 26262 26263 26264 26265 26266 26267 26268 26269 26270 26271 26272 26273 26274 26275 26276 26277 26278 26279 26280 26281 26282 26283 26284 26285 26286 26287 26288 26289 26290 26291 26292 26293 26294 26295 26296 26297 26298 26299 26300 26301 26302 26303 26304 26305 26306 26307 26308 26309 26310 26311 26312 26313 26314 26315 26316 26317 26318 26319 26320 26321 26322 26323 26324 26325 26326 26327 26328 26329 26330 26331 26332 26333 26334 26335 26336 26337 26338 26339 26340 26341 26342 26343 26344 26345 26346 26347 26348 26349 26350 26351 26352 26353 26354 26355 26356 26357 26358 26359 26360 26361 26362 26363 26364 26365 26366 26367 26368 26369 26370 26371 26372 26373 26374 26375 26376 26377 26378 26379 26380 26381 26382 26383 26384 26385 26386 26387 26388 26389 26390 26391 26392 26393 26394 26395 26396 26397 26398 26399 26400 26401 26402 26403 26404 26405 26406 26407 26408 26409 26410 26411 26412 26413 26414 26415 26416 26417 26418 26419 26420 26421 26422 26423 26424 26425 26426 26427 26428 26429 26430 26431 26432 26433 26434 26435 26436 26437 26438 26439 26440 26441 26442 26443 26444 26445 26446 26447 26448 26449 26450 26451 26452 26453 26454 26455 26456 26457 26458 26459 26460 26461 26462 26463 26464 26465 26466 26467 26468 26469 26470 26471 26472 26473 26474 26475 26476 26477 26478 26479 26480 26481 26482 26483 26484 26485 26486 26487 26488 26489 26490 26491 26492 26493 26494 26495 26496 26497 26498 26499 26500 26501 26502 26503 26504 26505 26506 26507 26508 26509 26510 26511 26512 26513 26514 26515 26516 26517 26518 26519 26520 26521 26522 26523 26524 26525 26526 26527 26528 26529 26530 26531 26532 26533 26534 26535 26536 26537 26538 26539 26540 26541 26542 26543 26544 26545 26546 26547 26548 26549 26550 26551 26552 26553 26554 26555 26556 26557 26558 26559 26560 26561 26562 26563 26564 26565 26566 26567 26568 26569 26570 26571 26572 26573 26574 26575 26576 26577 26578 26579 26580 26581 26582 26583 26584 26585 26586 26587 26588 26589 26590 26591 26592 26593 26594 26595 26596 26597 26598 26599 26600 26601 26602 26603 26604 26605 26606 26607 26608 26609 26610 26611 26612 26613 26614 26615 26616 26617 26618 26619 26620 26621 26622 26623 26624 26625 26626 26627 26628 26629 26630 26631 26632 26633 26634 26635 26636 26637 26638 26639 26640 26641 26642 26643 26644 26645 26646 26647 26648 26649 26650 26651 26652 26653 26654 26655 26656 26657 26658 26659 26660 26661 26662 26663 26664 26665 26666 26667 26668 26669 26670 26671 26672 26673 26674 26675 26676 26677 26678 26679 26680 26681 26682 26683 26684 26685 26686 26687 26688 26689 26690 26691 26692 26693 26694 26695 26696 26697 26698 26699 26700 26701 26702 26703 26704 26705 26706 26707 26708 26709 26710 26711 26712 26713 26714 26715 26716 26717 26718 26719 26720 26721 26722 26723 26724 26725 26726 26727 26728 26729 26730 26731 26732 26733 26734 26735 26736 26737 26738 26739 26740 26741 26742 26743 26744 26745 26746 26747 26748 26749 26750 26751 26752 26753 26754 26755 26756 26757 26758 26759 26760 26761 26762 26763 26764 26765 26766 26767 26768 26769 26770 26771 26772 26773 26774 26775 26776 26777 26778 26779 26780 26781 26782 26783 26784 26785 26786 26787 26788 26789 26790 26791 26792 26793 26794 26795 26796 26797 26798 26799 26800 26801 26802 26803 26804 26805 26806 26807 26808 26809 26810 26811 26812 26813 26814 26815 26816 26817 26818 26819 26820 26821 26822 26823 26824 26825 26826 26827 26828 26829 26830 26831 26832 26833 26834 26835 26836 26837 26838 26839 26840 26841 26842 26843 26844 26845 26846 26847 26848 26849 26850 26851 26852 26853 26854 26855 26856 26857 26858 26859 26860 26861 26862 26863 26864 26865 26866 26867 26868 26869 26870 26871 26872 26873 26874 26875 26876 26877 26878 26879 26880 26881 26882 26883 26884 26885 26886 26887 26888 26889 26890 26891 26892 26893 26894 26895 26896 26897 26898 26899 26900 26901 26902 26903 26904 26905 26906 26907 26908 26909 26910 26911 26912 26913 26914 26915 26916 26917 26918 26919 26920 26921 26922 26923 26924 26925 26926 26927 26928 26929 26930 26931 26932 26933 26934 26935 26936 26937 26938 26939 26940 26941 26942 26943 26944 26945 26946 26947 26948 26949 26950 26951 26952 26953 26954 26955 26956 26957 26958 26959 26960 26961 26962 26963 26964 26965 26966 26967 26968 26969 26970 26971 26972 26973 26974 26975 26976 26977 26978 26979 26980 26981 26982 26983 26984 26985 26986 26987 26988 26989 26990 26991 26992 26993 26994 26995 26996 26997 26998 26999 27000 27001 27002 27003 27004 27005 27006 27007 27008 27009 27010 27011 27012 27013 27014 27015 27016 27017 27018 27019 27020 27021 27022 27023 27024 27025 27026 27027 27028 27029 27030 27031 27032 27033 27034 27035 27036 27037 27038 27039 27040 27041 27042 27043 27044 27045 27046 27047 27048 27049 27050 27051 27052 27053 27054 27055 27056 27057 27058 27059 27060 27061 27062 27063 27064 27065 27066 27067 27068 27069 27070 27071 27072 27073 27074 27075 27076 27077 27078 27079 27080 27081 27082 27083 27084 27085 27086 27087 27088 27089 27090 27091 27092 27093 27094 27095 27096 27097 27098 27099 27100 27101 27102 27103 27104 27105 27106 27107 27108 27109 27110 27111 27112 27113 27114 27115 27116 27117 27118 27119 27120 27121 27122 27123 27124 27125 27126 27127 27128 27129 27130 27131 27132 27133 27134 27135 27136 27137 27138 27139 27140 27141 27142 27143 27144 27145 27146 27147 27148 27149 27150 27151 27152 27153 27154 27155 27156 27157 27158 27159 27160 27161 27162 27163 27164 27165 27166 27167 27168 27169 27170 27171 27172 27173 27174 27175 27176 27177 27178 27179 27180 27181 27182 27183 27184 27185 27186 27187 27188 27189 27190 27191 27192 27193 27194 27195 27196 27197 27198 27199 27200 27201 27202 27203 27204 27205 27206 27207 27208 27209 27210 27211 27212 27213 27214 27215 27216 27217 27218 27219 27220 27221 27222 27223 27224 27225 27226 27227 27228 27229 27230 27231 27232 27233 27234 27235 27236 27237 27238 27239 27240 27241 27242 27243 27244 27245 27246 27247 27248 27249 27250 27251 27252 27253 27254 27255 27256 27257 27258 27259 27260 27261 27262 27263 27264 27265 27266 27267 27268 27269 27270 27271 27272 27273 27274 27275 27276 27277 27278 27279 27280 27281 27282 27283 27284 27285 27286 27287 27288 27289 27290 27291 27292 27293 27294 27295 27296 27297 27298 27299 27300 27301 27302 27303 27304 27305 27306 27307 27308 27309 27310 27311 27312 27313 27314 27315 27316 27317 27318 27319 27320 27321 27322 27323 27324 27325 27326 27327 27328 27329 27330 27331 27332 27333 27334 27335 27336 27337 27338 27339 27340 27341 27342 27343 27344 27345 27346 27347 27348 27349 27350 27351 27352 27353 27354 27355 27356 27357 27358 27359 27360 27361 27362 27363 27364 27365 27366 27367 27368 27369 27370 27371 27372 27373 27374 27375 27376 27377 27378 27379 27380 27381 27382 27383 27384 27385 27386 27387 27388 27389 27390 27391 27392 27393 27394 27395 27396 27397 27398 27399 27400 27401 27402 27403 27404 27405 27406 27407 27408 27409 27410 27411 27412 27413 27414 27415 27416 27417 27418 27419 27420 27421 27422 27423 27424 27425 27426 27427 27428 27429 27430 27431 27432 27433 27434 27435 27436 27437 27438 27439 27440 27441 27442 27443 27444 27445 27446 27447 27448 27449 27450 27451 27452 27453 27454 27455 27456 27457 27458 27459 27460 27461 27462 27463 27464 27465 27466 27467 27468 27469 27470 27471 27472 27473 27474 27475 27476 27477 27478 27479 27480 27481 27482 27483 27484 27485 27486 27487 27488 27489 27490 27491 27492 27493 27494 27495 27496 27497 27498 27499 27500 27501 27502 27503 27504 27505 27506 27507 27508 27509 27510 27511 27512 27513 27514 27515 27516 27517 27518 27519 27520 27521 27522 27523 27524 27525 27526 27527 27528 27529 27530 27531 27532 27533 27534 27535 27536 27537 27538 27539 27540 27541 27542 27543 27544 27545 27546 27547 27548 27549 27550 27551 27552 27553 27554 27555 27556 27557 27558 27559 27560 27561 27562 27563 27564 27565 27566 27567 27568 27569 27570 27571 27572 27573 27574 27575 27576 27577 27578 27579 27580 27581 27582 27583 27584 27585 27586 27587 27588 27589 27590 27591 27592 27593 27594 27595 27596 27597 27598 27599 27600 27601 27602 27603 27604 27605 27606 27607 27608 27609 27610 27611 27612 27613 27614 27615 27616 27617 27618 27619 27620 27621 27622 27623 27624 27625 27626 27627 27628 27629 27630 27631 27632 27633 27634 27635 27636 27637 27638 27639 27640 27641 27642 27643 27644 27645 27646 27647 27648 27649 27650 27651 27652 27653 27654 27655 27656 27657 27658 27659 27660 27661 27662 27663 27664 27665 27666 27667 27668 27669 27670 27671 27672 27673 27674 27675 27676 27677 27678 27679 27680 27681 27682 27683 27684 27685 27686 27687 27688 27689 27690 27691 27692 27693 27694 27695 27696 27697 27698 27699 27700 27701 27702 27703 27704 27705 27706 27707 27708 27709 27710 27711 27712 27713 27714 27715 27716 27717 27718 27719 27720 27721 27722 27723 27724 27725 27726 27727 27728 27729 27730 27731 27732 27733 27734 27735 27736 27737 27738 27739 27740 27741 27742 27743 27744 27745 27746 27747 27748 27749 27750 27751 27752 27753 27754 27755 27756 27757 27758 27759 27760 27761 27762 27763 27764 27765 27766 27767 27768 27769 27770 27771 27772 27773 27774 27775 27776 27777 27778 27779 27780 27781 27782 27783 27784 27785 27786 27787 27788 27789 27790 27791 27792 27793 27794 27795 27796 27797 27798 27799 27800 27801 27802 27803 27804 27805 27806 27807 27808 27809 27810 27811 27812 27813 27814 27815 27816 27817 27818 27819 27820 27821 27822 27823 27824 27825 27826 27827 27828 27829 27830 27831 27832 27833 27834 27835 27836 27837 27838 27839 27840 27841 27842 27843 27844 27845 27846 27847 27848 27849 27850 27851 27852 27853 27854 27855 27856 27857 27858 27859 27860 27861 27862 27863 27864 27865 27866 27867 27868 27869 27870 27871 27872 27873 27874 27875 27876 27877 27878 27879 27880 27881 27882 27883 27884 27885 27886 27887 27888 27889 27890 27891 27892 27893 27894 27895 27896 27897 27898 27899 27900 27901 27902 27903 27904 27905 27906 27907 27908 27909 27910 27911 27912 27913 27914 27915 27916 27917 27918 27919 27920 27921 27922 27923 27924 27925 27926 27927 27928 27929 27930 27931 27932 27933 27934 27935 27936 27937 27938 27939 27940 27941 27942 27943 27944 27945 27946 27947 27948 27949 27950 27951 27952 27953 27954 27955 27956 27957 27958 27959 27960 27961 27962 27963 27964 27965 27966 27967 27968 27969 27970 27971 27972 27973 27974 27975 27976 27977 27978 27979 27980 27981 27982 27983 27984 27985 27986 27987 27988 27989 27990 27991 27992 27993 27994 27995 27996 27997 27998 27999 28000 28001 28002 28003 28004 28005 28006 28007 28008 28009 28010 28011 28012 28013 28014 28015 28016 28017 28018 28019 28020 28021 28022 28023 28024 28025 28026 28027 28028 28029 28030 28031 28032 28033 28034 28035 28036 28037 28038 28039 28040 28041 28042 28043 28044 28045 28046 28047 28048 28049 28050 28051 28052 28053 28054 28055 28056 28057 28058 28059 28060 28061 28062 28063 28064 28065 28066 28067 28068 28069 28070 28071 28072 28073 28074 28075 28076 28077 28078 28079 28080 28081 28082 28083 28084 28085 28086 28087 28088 28089 28090 28091 28092 28093 28094 28095 28096 28097 28098 28099 28100 28101 28102 28103 28104 28105 28106 28107 28108 28109 28110 28111 28112 28113 28114 28115 28116 28117 28118 28119 28120 28121 28122 28123 28124 28125 28126 28127 28128 28129 28130 28131 28132 28133 28134 28135 28136 28137 28138 28139 28140 28141 28142 28143 28144 28145 28146 28147 28148 28149 28150 28151 28152 28153 28154 28155 28156 28157 28158 28159 28160 28161 28162 28163 28164 28165 28166 28167 28168 28169 28170 28171 28172 28173 28174 28175 28176 28177 28178 28179 28180 28181 28182 28183 28184 28185 28186 28187 28188 28189 28190 28191 28192 28193 28194 28195 28196 28197 28198 28199 28200 28201 28202 28203 28204 28205 28206 28207 28208 28209 28210 28211 28212 28213 28214 28215 28216 28217 28218 28219 28220 28221 28222 28223 28224 28225 28226 28227 28228 28229 28230 28231 28232 28233 28234 28235 28236 28237 28238 28239 28240 28241 28242 28243 28244 28245 28246 28247 28248 28249 28250 28251 28252 28253 28254 28255 28256 28257 28258 28259 28260 28261 28262 28263 28264 28265 28266 28267 28268 28269 28270 28271 28272 28273 28274 28275 28276 28277 28278 28279 28280 28281 28282 28283 28284 28285 28286 28287 28288 28289 28290 28291 28292 28293 28294 28295 28296 28297 28298 28299 28300 28301 28302 28303 28304 28305 28306 28307 28308 28309 28310 28311 28312 28313 28314 28315 28316 28317 28318 28319 28320 28321 28322 28323 28324 28325 28326 28327 28328 28329 28330 28331 28332 28333 28334 28335 28336 28337 28338 28339 28340 28341 28342 28343 28344 28345 28346 28347 28348 28349 28350 28351 28352 28353 28354 28355 28356 28357 28358 28359 28360 28361 28362 28363 28364 28365 28366 28367 28368 28369 28370 28371 28372 28373 28374 28375 28376 28377 28378 28379 28380 28381 28382 28383 28384 28385 28386 28387 28388 28389 28390 28391 28392 28393 28394 28395 28396 28397 28398 28399 28400 28401 28402 28403 28404 28405 28406 28407 28408 28409 28410 28411 28412 28413 28414 28415 28416 28417 28418 28419 28420 28421 28422 28423 28424 28425 28426 28427 28428 28429 28430 28431 28432 28433 28434 28435 28436 28437 28438 28439 28440 28441 28442 28443 28444 28445 28446 28447 28448 28449 28450 28451 28452 28453 28454 28455 28456 28457 28458 28459 28460 28461 28462 28463 28464 28465 28466 28467 28468 28469 28470 28471 28472 28473 28474 28475 28476 28477 28478 28479 28480 28481 28482 28483 28484 28485 28486 28487 28488 28489 28490 28491 28492 28493 28494 28495 28496 28497 28498 28499 28500 28501 28502 28503 28504 28505 28506 28507 28508 28509 28510 28511 28512 28513 28514 28515 28516 28517 28518 28519 28520 28521 28522 28523 28524 28525 28526 28527 28528 28529 28530 28531 28532 28533 28534 28535 28536 28537 28538 28539 28540 28541 28542 28543 28544 28545 28546 28547 28548 28549 28550 28551 28552 28553 28554 28555 28556 28557 28558 28559 28560 28561 28562 28563 28564 28565 28566 28567 28568 28569 28570 28571 28572 28573 28574 28575 28576 28577 28578 28579 28580 28581 28582 28583 28584 28585 28586 28587 28588 28589 28590 28591 28592 28593 28594 28595 28596 28597 28598 28599 28600 28601 28602 28603 28604 28605 28606 28607 28608 28609 28610 28611 28612 28613 28614 28615 28616 28617 28618 28619 28620 28621 28622 28623 28624 28625 28626 28627 28628 28629 28630 28631 28632 28633 28634 28635 28636 28637 28638 28639 28640 28641 28642 28643 28644 28645 28646 28647 28648 28649 28650 28651 28652 28653 28654 28655 28656 28657 28658 28659 28660 28661 28662 28663 28664 28665 28666 28667 28668 28669 28670 28671 28672 28673 28674 28675 28676 28677 28678 28679 28680 28681 28682 28683 28684 28685 28686 28687 28688 28689 28690 28691 28692 28693 28694 28695 28696 28697 28698 28699 28700 28701 28702 28703 28704 28705 28706 28707 28708 28709 28710 28711 28712 28713 28714 28715 28716 28717 28718 28719 28720 28721 28722 28723 28724 28725 28726 28727 28728 28729 28730 28731 28732 28733 28734 28735 28736 28737 28738 28739 28740 28741 28742 28743 28744 28745 28746 28747 28748 28749 28750 28751 28752 28753 28754 28755 28756 28757 28758 28759 28760 28761 28762 28763 28764 28765 28766 28767 28768 28769 28770 28771 28772 28773 28774 28775 28776 28777 28778 28779 28780 28781 28782 28783 28784 28785 28786 28787 28788 28789 28790 28791 28792 28793 28794 28795 28796 28797 28798 28799 28800 28801 28802 28803 28804 28805 28806 28807 28808 28809 28810 28811 28812 28813 28814 28815 28816 28817 28818 28819 28820 28821 28822 28823 28824 28825 28826 28827 28828 28829 28830 28831 28832 28833 28834 28835 28836 28837 28838 28839 28840 28841 28842 28843 28844 28845 28846 28847 28848 28849 28850 28851 28852 28853 28854 28855 28856 28857 28858 28859 28860 28861 28862 28863 28864 28865 28866 28867 28868 28869 28870 28871 28872 28873 28874 28875 28876 28877 28878 28879 28880 28881 28882 28883 28884 28885 28886 28887 28888 28889 28890 28891 28892 28893 28894 28895 28896 28897 28898 28899 28900 28901 28902 28903 28904 28905 28906 28907 28908 28909 28910 28911 28912 28913 28914 28915 28916 28917 28918 28919 28920 28921 28922 28923 28924 28925 28926 28927 28928 28929 28930 28931 28932 28933 28934 28935 28936 28937 28938 28939 28940 28941 28942 28943 28944 28945 28946 28947 28948 28949 28950 28951 28952 28953 28954 28955 28956 28957 28958 28959 28960 28961 28962 28963 28964 28965 28966 28967 28968 28969 28970 28971 28972 28973 28974 28975 28976 28977 28978 28979 28980 28981 28982 28983 28984 28985 28986 28987 28988 28989 28990 28991 28992 28993 28994 28995 28996 28997 28998 28999 29000 29001 29002 29003 29004 29005 29006 29007 29008 29009 29010 29011 29012 29013 29014 29015 29016 29017 29018 29019 29020 29021 29022 29023 29024 29025 29026 29027 29028 29029 29030 29031 29032 29033 29034 29035 29036 29037 29038 29039 29040 29041 29042 29043 29044 29045 29046 29047 29048 29049 29050 29051 29052 29053 29054 29055 29056 29057 29058 29059 29060 29061 29062 29063 29064 29065 29066 29067 29068 29069 29070 29071 29072 29073 29074 29075 29076 29077 29078 29079 29080 29081 29082 29083 29084 29085 29086 29087 29088 29089 29090 29091 29092 29093 29094 29095 29096 29097 29098 29099 29100 29101 29102 29103 29104 29105 29106 29107 29108 29109 29110 29111 29112 29113 29114 29115 29116 29117 29118 29119 29120 29121 29122 29123 29124 29125 29126 29127 29128 29129 29130 29131 29132 29133 29134 29135 29136 29137 29138 29139 29140 29141 29142 29143 29144 29145 29146 29147 29148 29149 29150 29151 29152 29153 29154 29155 29156 29157 29158 29159 29160 29161 29162 29163 29164 29165 29166 29167 29168 29169 29170 29171 29172 29173 29174 29175 29176 29177 29178 29179 29180 29181 29182 29183 29184 29185 29186 29187 29188 29189 29190 29191 29192 29193 29194 29195 29196 29197 29198 29199 29200 29201 29202 29203 29204 29205 29206 29207 29208 29209 29210 29211 29212 29213 29214 29215 29216 29217 29218 29219 29220 29221 29222 29223 29224 29225 29226 29227 29228 29229 29230 29231 29232 29233 29234 29235 29236 29237 29238 29239 29240 29241 29242 29243 29244 29245 29246 29247 29248 29249 29250 29251 29252 29253 29254 29255 29256 29257 29258 29259 29260 29261 29262 29263 29264 29265 29266 29267 29268 29269 29270 29271 29272 29273 29274 29275 29276 29277 29278 29279 29280 29281 29282 29283 29284 29285 29286 29287 29288 29289 29290 29291 29292 29293 29294 29295 29296 29297 29298 29299 29300 29301 29302 29303 29304 29305 29306 29307 29308 29309 29310 29311 29312 29313 29314 29315 29316 29317 29318 29319 29320 29321 29322 29323 29324 29325 29326 29327 29328 29329 29330 29331 29332 29333 29334 29335 29336 29337 29338 29339 29340 29341 29342 29343 29344 29345 29346 29347 29348 29349 29350 29351 29352 29353 29354 29355 29356 29357 29358 29359 29360 29361 29362 29363 29364 29365 29366 29367 29368 29369 29370 29371 29372 29373 29374 29375 29376 29377 29378 29379 29380 29381 29382 29383 29384 29385 29386 29387 29388 29389 29390 29391 29392 29393 29394 29395 29396 29397 29398 29399 29400 29401 29402 29403 29404 29405 29406 29407 29408 29409 29410 29411 29412 29413 29414 29415 29416 29417 29418 29419 29420 29421 29422 29423 29424 29425 29426 29427 29428 29429 29430 29431 29432 29433 29434 29435 29436 29437 29438 29439 29440 29441 29442 29443 29444 29445 29446 29447 29448 29449 29450 29451 29452 29453 29454 29455 29456 29457 29458 29459 29460 29461 29462 29463 29464 29465 29466 29467 29468 29469 29470 29471 29472 29473 29474 29475 29476 29477 29478 29479 29480 29481 29482 29483 29484 29485 29486 29487 29488 29489 29490 29491 29492 29493 29494 29495 29496 29497 29498 29499 29500 29501 29502 29503 29504 29505 29506 29507 29508 29509 29510 29511 29512 29513 29514 29515 29516 29517 29518 29519 29520 29521 29522 29523 29524 29525 29526 29527 29528 29529 29530 29531 29532 29533 29534 29535 29536 29537 29538 29539 29540 29541 29542 29543 29544 29545 29546 29547 29548 29549 29550 29551 29552 29553 29554 29555 29556 29557 29558 29559 29560 29561 29562 29563 29564 29565 29566 29567 29568 29569 29570 29571 29572 29573 29574 29575 29576 29577 29578 29579 29580 29581 29582 29583 29584 29585 29586 29587 29588 29589 29590 29591 29592 29593 29594 29595 29596 29597 29598 29599 29600 29601 29602 29603 29604 29605 29606 29607 29608 29609 29610 29611 29612 29613 29614 29615 29616 29617 29618 29619 29620 29621 29622 29623 29624 29625 29626 29627 29628 29629 29630 29631 29632 29633 29634 29635 29636 29637 29638 29639 29640 29641 29642 29643 29644 29645 29646 29647 29648 29649 29650 29651 29652 29653 29654 29655 29656 29657 29658 29659 29660 29661 29662 29663 29664 29665 29666 29667 29668 29669 29670 29671 29672 29673 29674 29675 29676 29677 29678 29679 29680 29681 29682 29683 29684 29685 29686 29687 29688 29689 29690 29691 29692 29693 29694 29695 29696 29697 29698 29699 29700 29701 29702 29703 29704 29705 29706 29707 29708 29709 29710 29711 29712 29713 29714 29715 29716 29717 29718 29719 29720 29721 29722 29723 29724 29725 29726 29727 29728 29729 29730 29731 29732 29733 29734 29735 29736 29737 29738 29739 29740 29741 29742 29743 29744 29745 29746 29747 29748 29749 29750 29751 29752 29753 29754 29755 29756 29757 29758 29759 29760 29761 29762 29763 29764 29765 29766 29767 29768 29769 29770 29771 29772 29773 29774 29775 29776 29777 29778 29779 29780 29781 29782 29783 29784 29785 29786 29787 29788 29789 29790 29791 29792 29793 29794 29795 29796 29797 29798 29799 29800 29801 29802 29803 29804 29805 29806 29807 29808 29809 29810 29811 29812 29813 29814 29815 29816 29817 29818 29819 29820 29821 29822 29823 29824 29825 29826 29827 29828 29829 29830 29831 29832 29833 29834 29835 29836 29837 29838 29839 29840 29841 29842 29843 29844 29845 29846 29847 29848 29849 29850 29851 29852 29853 29854 29855 29856 29857 29858 29859 29860 29861 29862 29863 29864 29865 29866 29867 29868 29869 29870 29871 29872 29873 29874 29875 29876 29877 29878 29879 29880 29881 29882 29883 29884 29885 29886 29887 29888 29889 29890 29891 29892 29893 29894 29895 29896 29897 29898 29899 29900 29901 29902 29903 29904 29905 29906 29907 29908 29909 29910 29911 29912 29913 29914 29915 29916 29917 29918 29919 29920 29921 29922 29923 29924 29925 29926 29927 29928 29929 29930 29931 29932 29933 29934 29935 29936 29937 29938 29939 29940 29941 29942 29943 29944 29945 29946 29947 29948 29949 29950 29951 29952 29953 29954 29955 29956 29957 29958 29959 29960 29961 29962 29963 29964 29965 29966 29967 29968 29969 29970 29971 29972 29973 29974 29975 29976 29977 29978 29979 29980 29981 29982 29983 29984 29985 29986 29987 29988 29989 29990 29991 29992 29993 29994 29995 29996 29997 29998 29999 30000 30001 30002 30003 30004 30005 30006 30007 30008 30009 30010 30011 30012 30013 30014 30015 30016 30017 30018 30019 30020 30021 30022 30023 30024 30025 30026 30027 30028 30029 30030 30031 30032 30033 30034 30035 30036 30037 30038 30039 30040 30041 30042 30043 30044 30045 30046 30047 30048 30049 30050 30051 30052 30053 30054 30055 30056 30057 30058 30059 30060 30061 30062 30063 30064 30065 30066 30067 30068 30069 30070 30071 30072 30073 30074 30075 30076 30077 30078 30079 30080 30081 30082 30083 30084 30085 30086 30087 30088 30089 30090 30091 30092 30093 30094 30095 30096 30097 30098 30099 30100 30101 30102 30103 30104 30105 30106 30107 30108 30109 30110 30111 30112 30113 30114 30115 30116 30117 30118 30119 30120 30121 30122 30123 30124 30125 30126 30127 30128 30129 30130 30131 30132 30133 30134 30135 30136 30137 30138 30139 30140 30141 30142 30143 30144 30145 30146 30147 30148 30149 30150 30151 30152 30153 30154 30155 30156 30157 30158 30159 30160 30161 30162 30163 30164 30165 30166 30167 30168 30169 30170 30171 30172 30173 30174 30175 30176 30177 30178 30179 30180 30181 30182 30183 30184 30185 30186 30187 30188 30189 30190 30191 30192 30193 30194 30195 30196 30197 30198 30199 30200 30201 30202 30203 30204 30205 30206 30207 30208 30209 30210 30211 30212 30213 30214 30215 30216 30217 30218 30219 30220 30221 30222 30223 30224 30225 30226 30227 30228 30229 30230 30231 30232 30233 30234 30235 30236 30237 30238 30239 30240 30241 30242 30243 30244 30245 30246 30247 30248 30249 30250 30251 30252 30253 30254 30255 30256 30257 30258 30259 30260 30261 30262 30263 30264 30265 30266 30267 30268 30269 30270 30271 30272 30273 30274 30275 30276 30277 30278 30279 30280 30281 30282 30283 30284 30285 30286 30287 30288 30289 30290 30291 30292 30293 30294 30295 30296 30297 30298 30299 30300 30301 30302 30303 30304 30305 30306 30307 30308 30309 30310 30311 30312 30313 30314 30315 30316 30317 30318 30319 30320 30321 30322 30323 30324 30325 30326 30327 30328 30329 30330 30331 30332 30333 30334 30335 30336 30337 30338 30339 30340 30341 30342 30343 30344 30345 30346 30347 30348 30349 30350 30351 30352 30353 30354 30355 30356 30357 30358 30359 30360 30361 30362 30363 30364 30365 30366 30367 30368 30369 30370 30371 30372 30373 30374 30375 30376 30377 30378 30379 30380 30381 30382 30383 30384 30385 30386 30387 30388 30389 30390 30391 30392 30393 30394 30395 30396 30397 30398 30399 30400 30401 30402 30403 30404 30405 30406 30407 30408 30409 30410 30411 30412 30413 30414 30415 30416 30417 30418 30419 30420 30421 30422 30423 30424 30425 30426 30427 30428 30429 30430 30431 30432 30433 30434 30435 30436 30437 30438 30439 30440 30441 30442 30443 30444 30445 30446 30447 30448 30449 30450 30451 30452 30453 30454 30455 30456 30457 30458 30459 30460 30461 30462 30463 30464 30465 30466 30467 30468 30469 30470 30471 30472 30473 30474 30475 30476 30477 30478 30479 30480 30481 30482 30483 30484 30485 30486 30487 30488 30489 30490 30491 30492 30493 30494 30495 30496 30497 30498 30499 30500 30501 30502 30503 30504 30505 30506 30507 30508 30509 30510 30511 30512 30513 30514 30515 30516 30517 30518 30519 30520 30521 30522 30523 30524 30525 30526 30527 30528 30529 30530 30531 30532 30533 30534 30535 30536 30537 30538 30539 30540 30541 30542 30543 30544 30545 30546 30547 30548 30549 30550 30551 30552 30553 30554 30555 30556 30557 30558 30559 30560 30561 30562 30563 30564 30565 30566 30567 30568 30569 30570 30571 30572 30573 30574 30575 30576 30577 30578 30579 30580 30581 30582 30583 30584 30585 30586 30587 30588 30589 30590 30591 30592 30593 30594 30595 30596 30597 30598 30599 30600 30601 30602 30603 30604 30605 30606 30607 30608 30609 30610 30611 30612 30613 30614 30615 30616 30617 30618 30619 30620 30621 30622 30623 30624 30625 30626 30627 30628 30629 30630 30631 30632 30633 30634 30635 30636 30637 30638 30639 30640 30641 30642 30643 30644 30645 30646 30647 30648 30649 30650 30651 30652 30653 30654 30655 30656 30657 30658 30659 30660 30661 30662 30663 30664 30665 30666 30667 30668 30669 30670 30671 30672 30673 30674 30675 30676 30677 30678 30679 30680 30681 30682 30683 30684 30685 30686 30687 30688 30689 30690 30691 30692 30693 30694 30695 30696 30697 30698 30699 30700 30701 30702 30703 30704 30705 30706 30707 30708 30709 30710 30711 30712 30713 30714 30715 30716 30717 30718 30719 30720 30721 30722 30723 30724 30725 30726 30727 30728 30729 30730 30731 30732 30733 30734 30735 30736 30737 30738 30739 30740 30741 30742 30743 30744 30745 30746 30747 30748 30749 30750 30751 30752 30753 30754 30755 30756 30757 30758 30759 30760 30761 30762 30763 30764 30765 30766 30767 30768 30769 30770 30771 30772 30773 30774 30775 30776 30777 30778 30779 30780 30781 30782 30783 30784 30785 30786 30787 30788 30789 30790 30791 30792 30793 30794 30795 30796 30797 30798 30799 30800 30801 30802 30803 30804 30805 30806 30807 30808 30809 30810 30811 30812 30813 30814 30815 30816 30817 30818 30819 30820 30821 30822 30823 30824 30825 30826 30827 30828 30829 30830 30831 30832 30833 30834 30835 30836 30837 30838 30839 30840 30841 30842 30843 30844 30845 30846 30847 30848 30849 30850 30851 30852 30853 30854 30855 30856 30857 30858 30859 30860 30861 30862 30863 30864 30865 30866 30867 30868 30869 30870 30871 30872 30873 30874 30875 30876 30877 30878 30879 30880 30881 30882 30883 30884 30885 30886 30887 30888 30889 30890 30891 30892 30893 30894 30895 30896 30897 30898 30899 30900 30901 30902 30903 30904 30905 30906 30907 30908 30909 30910 30911 30912 30913 30914 30915 30916 30917 30918 30919 30920 30921 30922 30923 30924 30925 30926 30927 30928 30929 30930 30931 30932 30933 30934 30935 30936 30937 30938 30939 30940 30941 30942 30943 30944 30945 30946 30947 30948 30949 30950 30951 30952 30953 30954 30955 30956 30957 30958 30959 30960 30961 30962 30963 30964 30965 30966 30967 30968 30969 30970 30971 30972 30973 30974 30975 30976 30977 30978 30979 30980 30981 30982 30983 30984 30985 30986 30987 30988 30989 30990 30991 30992 30993 30994 30995 30996 30997 30998 30999 31000 31001 31002 31003 31004 31005 31006 31007 31008 31009 31010 31011 31012 31013 31014 31015 31016 31017 31018 31019 31020 31021 31022 31023 31024 31025 31026 31027 31028 31029 31030 31031 31032 31033 31034 31035 31036 31037 31038 31039 31040 31041 31042 31043 31044 31045 31046 31047 31048 31049 31050 31051 31052 31053 31054 31055 31056 31057 31058 31059 31060 31061 31062 31063 31064 31065 31066 31067 31068 31069 31070 31071 31072 31073 31074 31075 31076 31077 31078 31079 31080 31081 31082 31083 31084 31085 31086 31087 31088 31089 31090 31091 31092 31093 31094 31095 31096 31097 31098 31099 31100 31101 31102 31103 31104 31105 31106 31107 31108 31109 31110 31111 31112 31113 31114 31115 31116 31117 31118 31119 31120 31121 31122 31123 31124 31125 31126 31127 31128 31129 31130 31131 31132 31133 31134 31135 31136 31137 31138 31139 31140 31141 31142 31143 31144 31145 31146 31147 31148 31149 31150 31151 31152 31153 31154 31155 31156 31157 31158 31159 31160 31161 31162 31163 31164 31165 31166 31167 31168 31169 31170 31171 31172 31173 31174 31175 31176 31177 31178 31179 31180 31181 31182 31183 31184 31185 31186 31187 31188 31189 31190 31191 31192 31193 31194 31195 31196 31197 31198 31199 31200 31201 31202 31203 31204 31205 31206 31207 31208 31209 31210 31211 31212 31213 31214 31215 31216 31217 31218 31219 31220 31221 31222 31223 31224 31225 31226 31227 31228 31229 31230 31231 31232 31233 31234 31235 31236 31237 31238 31239 31240 31241 31242 31243 31244 31245 31246 31247 31248 31249 31250 31251 31252 31253 31254 31255 31256 31257 31258 31259 31260 31261 31262 31263 31264 31265 31266 31267 31268 31269 31270 31271 31272 31273 31274 31275 31276 31277 31278 31279 31280 31281 31282 31283 31284 31285 31286 31287 31288 31289 31290 31291 31292 31293 31294 31295 31296 31297 31298 31299 31300 31301 31302 31303 31304 31305 31306 31307 31308 31309 31310 31311 31312 31313 31314 31315 31316 31317 31318 31319 31320 31321 31322 31323 31324 31325 31326 31327 31328 31329 31330 31331 31332 31333 31334 31335 31336 31337 31338 31339 31340 31341 31342 31343 31344 31345 31346 31347 31348 31349 31350 31351 31352 31353 31354 31355 31356 31357 31358 31359 31360 31361 31362 31363 31364 31365 31366 31367 31368 31369 31370 31371 31372 31373 31374 31375 31376 31377 31378 31379 31380 31381 31382 31383 31384 31385 31386 31387 31388 31389 31390 31391 31392 31393 31394 31395 31396 31397 31398 31399 31400 31401 31402 31403 31404 31405 31406 31407 31408 31409 31410 31411 31412 31413 31414 31415 31416 31417 31418 31419 31420 31421 31422 31423 31424 31425 31426 31427 31428 31429 31430 31431 31432 31433 31434 31435 31436 31437 31438 31439 31440 31441 31442 31443 31444 31445 31446 31447 31448 31449 31450 31451 31452 31453 31454 31455 31456 31457 31458 31459 31460 31461 31462 31463 31464 31465 31466 31467 31468 31469 31470 31471 31472 31473 31474 31475 31476 31477 31478 31479 31480 31481 31482 31483 31484 31485 31486 31487 31488 31489 31490 31491 31492 31493 31494 31495 31496 31497 31498 31499 31500 31501 31502 31503 31504 31505 31506 31507 31508 31509 31510 31511 31512 31513 31514 31515 31516 31517 31518 31519 31520 31521 31522 31523 31524 31525 31526 31527 31528 31529 31530 31531 31532 31533 31534 31535 31536 31537 31538 31539 31540 31541 31542 31543 31544 31545 31546 31547 31548 31549 31550 31551 31552 31553 31554 31555 31556 31557 31558 31559 31560 31561 31562 31563 31564 31565 31566 31567 31568 31569 31570 31571 31572 31573 31574 31575 31576 31577 31578 31579 31580 31581 31582 31583 31584 31585 31586 31587 31588 31589 31590 31591 31592 31593 31594 31595 31596 31597 31598 31599 31600 31601 31602 31603 31604 31605 31606 31607 31608 31609 31610 31611 31612 31613 31614 31615 31616 31617 31618 31619 31620 31621 31622 31623 31624 31625 31626 31627 31628 31629 31630 31631 31632 31633 31634 31635 31636 31637 31638 31639 31640 31641 31642 31643 31644 31645 31646 31647 31648 31649 31650 31651 31652 31653 31654 31655 31656 31657 31658 31659 31660 31661 31662 31663 31664 31665 31666 31667 31668 31669 31670 31671 31672 31673 31674 31675 31676 31677 31678 31679 31680 31681 31682 31683 31684 31685 31686 31687 31688 31689 31690 31691 31692 31693 31694 31695 31696 31697 31698 31699 31700 31701 31702 31703 31704 31705 31706 31707 31708 31709 31710 31711 31712 31713 31714 31715 31716 31717 31718 31719 31720 31721 31722 31723 31724 31725 31726 31727 31728 31729 31730 31731 31732 31733 31734 31735 31736 31737 31738 31739 31740 31741 31742 31743 31744 31745 31746 31747 31748 31749 31750 31751 31752 31753 31754 31755 31756 31757 31758 31759 31760 31761 31762 31763 31764 31765 31766 31767 31768 31769 31770 31771 31772 31773 31774 31775 31776 31777 31778 31779 31780 31781 31782 31783 31784 31785 31786 31787 31788 31789 31790 31791 31792 31793 31794 31795 31796 31797 31798 31799 31800 31801 31802 31803 31804 31805 31806 31807 31808 31809 31810 31811 31812 31813 31814 31815 31816 31817 31818 31819 31820 31821 31822 31823 31824 31825 31826 31827 31828 31829 31830 31831 31832 31833 31834 31835 31836 31837 31838 31839 31840 31841 31842 31843 31844 31845 31846 31847 31848 31849 31850 31851 31852 31853 31854 31855 31856 31857 31858 31859 31860 31861 31862 31863 31864 31865 31866 31867 31868 31869 31870 31871 31872 31873 31874 31875 31876 31877 31878 31879 31880 31881 31882 31883 31884 31885 31886 31887 31888 31889 31890 31891 31892 31893 31894 31895 31896 31897 
</DataArray>
<DataArray type="UInt32" Name="offsets" format="ascii">
3 6 9 12 15 17 20 23 26 29 32 35 38 40 43 46 49 52 54 57 60 62 65 68 71 74 76 79 82 85 88 90 93 96 99 102 105 108 111 114 117 120 123 126 129 131 134 137 139 142 145 148 151 154 156 159 162 165 168 171 174 177 179 182 185 188 191 193 196 199 202 205 208 211 214 217 220 222 225 228 230 233 236 238 241 244 247 250 252 255 258 261 264 267 270 273 275 277 279 282 285 287 290 293 296 299 302 304 307 310 313 316 319 322 325 328 331 334 337 340 343 345 348 351 354 356 359 362 365 368 371 374 376 379 382 385 388 391 394 397 400 403 406 409 412 415 418 421 424 427 430 433 436 439 442 445 448 451 453 456 459 462 464 467 470 472 475 478 481 484 487 490 493 496 499 502 505 507 510 513 516 519 522 525 528 531 533 536 539 542 545 548 551 554 557 559 562 565 568 571 574 577 580 583 586 588 591 594 597 600 603 606 609 612 615 618 621 624 627 630 633 636 639 642 645 648 651 654 657 659 662 665 668 670 673 675 678 680 683 686 688 691 694 697 699 702 704 707 709 712 714 716 719 721 724 727 729 732 734 737 740 743 745 748 750 752 755 758 760 763 766 769 771 774 776 778 780 783 785 788 791 794 796 799 801 803 805 808 811 813 815 818 821 824 827 829 832 834 837 840 842 845 848 851 853 856 858 860 862 865 868 871 873 876 878 880 882 884 887 890 893 895 897 900 903 905 907 909 912 914 917 920 923 926 928 931 934 937 940 943 946 949 951 954 957 960 963 966 969 971 973 976 979 982 984 987 990 993 995 998 1000 1003 1005 1007 1010 1013 1016 1019 1021 1024 1027 1029 1032 1035 1038 1041 1043 1046 1048 1051 1054 1057 1060 1063 1065 1067 1070 1073 1076 1079 1082 1085 1088 1091 1093 1096 1099 1102 1104 1107 1110 1112 1115 1117 1120 1123 1126 1129 1132 1135 1138 1141 1144 1147 1150 1152 1155 1157 1160 1162 1165 1168 1171 1173 1176 1178 1181 1183 1186 1189 1192 1195 1198 1201 1203 1206 1208 1211 1214 1217 1219 1222 1225 1228 1230 1233 1235 1237 1240 1243 1246 1249 1251 1254 1257 1260 1263 1265 1267 1270 1273 1275 1278 1280 1283 1285 1287 1290 1293 1296 1298 1301 1304 1307 1310 1312 1315 1318 1321 1324 1327 1330 1333 1336 1339 1342 1345 1347 1350 1353 1356 1359 1361 1364 1367 1370 1372 1375 1377 1379 1381 1384 1387 1390 1392 1394 1397 1399 1402 1405 1407 1410 1413 1416 1419 1421 1424 1427 1430 1433 1436 1439 1442 1445 1448 1451 1454 1456 1458 1461 1464 1466 1469 1472 1475 1477 1480 1483 1486 1489 1492 1495 1497 1500 1503 1506 1508 1511 1514 1517 1519 1522 1525 1528 1531 1534 1537 1540 1543 1546 1549 1552 1554 1557 1560 1563 1565 1568 1571 1574 1577 1580 1583 1586 1588 1591 1594 1597 1600 1603 1605 1608 1611 1614 1617 1620 1623 1626 1629 1632 1635 1638 1641 1644 1647 1650 1653 1656 1659 1662 1664 1667 1670 1673 1676 1678 1681 1684 1686 1689 1692 1695 1698 1701 1704 1707 1709 1712 1715 1718 1721 1724 1727 1730 1733 1735 1738 1740 1743 1746 1748 1751 1754 1757 1759 1762 1765 1767 1770 1773 1776 1778 1781 1783 1786 1789 1791 1794 1796 1799 1802 1805 1808 1811 1814 1817 1820 1823 1826 1829 1832 1835 1838 1841 1844 1847 1850 1853 1856 1859 1862 1864 1867 1869 1872 1874 1877 1880 1883 1886 1889 1892 1895 1898 1901 1904 1907 1910 1913 1916 1919 1921 1924 1927 1930 1933 1936 1939 1942 1945 1948 1950 1953 1956 1959 1962 1965 1968 1971 1974 1977 1980 1983 1986 1989 1992 1995 1998 2001 2004 2007 2010 2013 2016 2019 2022 2025 2028 2031 2034 2037 2039 2042 2045 2047 2050 2053 2056 2058 2060 2063 2065 2068 2071 2074 2077 2080 2082 2085 2088 2091 2094 2097 2099 2102 2105 2108 2111 2114 2117 2120 2123 2126 2129 2132 2135 2138 2141 2144 2147 2150 2153 2156 2159 2162 2165 2168 2171 2174 2177 2180 2183 2186 2189 2192 2195 2198 2201 2204 2207 2210 2213 2216 2219 2222 2225 2228 2231 2234 2237 2240 2243 2246 2248 2251 2254 2257 2260 2263 2266 2269 2272 2275 2278 2281 2284 2287 2290 2293 2295 2298 2301 2304 2307 2309 2312 2315 2318 2321 2324 2327 2330 2333 2336 2339 2342 2345 2348 2351 2354 2357 2360 2363 2366 2369 2372 2375 2378 2381 2384 2387 2390 2392 2395 2398 2400 2403 2405 2407 2409 2411 2414 2417 2419 2422 2425 2428 2431 2434 2437 2440 2443 2446 2449 2452 2455 2458 2461 2464 2467 2470 2472 2475 2478 2480 2483 2485 2488 2491 2494 2497 2499 2502 2504 2507 2510 2513 2516 2518 2521 2524 2527 2529 2532 2535 2538 2541 2544 2546 2549 2551 2554 2557 2559 2561 2564 2566 2569 2572 2575 2578 2581 2584 2587 2590 2593 2596 2599 2601 2604 2607 2610 2612 2615 2618 2621 2623 2626 2629 2631 2633 2635 2638 2641 2644 2647 2650 2653 2656 2659 2662 2665 2668 2670 2673 2676 2679 2682 2685 2688 2691 2694 2696 2698 2700 2703 2706 2709 2712 2715 2718 2721 2724 2726 2728 2731 2734 2737 2739 2742 2745 2747 2750 2753 2756 2759 2762 2765 2768 2771 2774 2777 2780 2782 2785 2788 2791 2794 2797 2800 2803 2806 2808 2811 2814 2817 2820 2823 2826 2829 2832 2835 2838 2840 2843 2845 2847 2849 2852 2855 2858 2861 2864 2867 2870 2872 2874 2877 2879 2882 2885 2888 2891 2894 2896 2899 2901 2903 2906 2909 2912 2914 2917 2919 2922 2925 2928 2931 2933 2936 2939 2942 2945 2948 2951 2954 2957 2960 2963 2966 2969 2972 2975 2978 2981 2984 2986 2989 2992 2995 2997 3000 3003 3006 3009 3012 3014 3017 3020 3023 3026 3029 3032 3034 3037 3039 3042 3045 3048 3051 3054 3057 3060 3063 3065 3068 3071 3074 3076 3079 3082 3085 3088 3091 3094 3097 3100 3103 3106 3109 3112 3115 3118 3121 3124 3127 3130 3133 3136 3139 3142 3145 3148 3151 3153 3155 3157 3160 3163 3166 3169 3171 3174 3177 3180 3183 3185 3188 3191 3194 3197 3200 3203 3206 3208 3211 3214 3217 3220 3223 3226 3229 3232 3234 3237 3240 3243 3246 3249 3252 3255 3258 3261 3264 3267 3270 3272 3275 3278 3281 3284 3287 3290 3292 3295 3298 3301 3304 3307 3310 3313 3316 3318 3321 3324 3327 3329 3332 3335 3338 3341 3344 3347 3350 3353 3356 3359 3362 3365 3367 3370 3373 3376 3379 3382 3385 3388 3391 3394 3397 3400 3403 3406 3409 3412 3415 3418 3421 3424 3427 3430 3433 3436 3439 3442 3445 3448 3451 3454 3457 3460 3463 3466 3469 3472 3475 3478 3481 3484 3487 3490 3493 3496 3499 3502 3505 3508 3510 3513 3516 3519 3522 3525 3528 3531 3534 3537 3540 3543 3546 3549 3552 3555 3558 3561 3564 3567 3570 3573 3576 3579 3582 3584 3587 3590 3593 3596 3599 3602 3605 3608 3611 3614 3616 3619 3622 3624 3627 3630 3633 3636 3639 3642 3645 3648 3651 3653 3656 3658 3661 3664 3667 3670 3672 3675 3678 3680 3683 3685 3688 3691 3694 3697 3700 3702 3705 3708 3711 3714 3717 3720 3723 3726 3728 3731 3734 3737 3740 3743 3746 3749 3752 3755 3758 3761 3764 3767 3770 3772 3775 3777 3779 3782 3785 3788 3791 3794 3796 3799 3802 3805 3808 3811 3814 3817 3820 3823 3826 3829 3832 3835 3838 3841 3843 3846 3849 3852 3855 3858 3861 3864 3867 3870 3873 3876 3879 3882 3885 3888 3891 3893 3896 3899 3902 3905 3908 3910 3912 3915 3918 3920 3923 3926 3929 3932 3935 3938 3941 3944 3947 3950 3952 3955 3958 3961 3964 3967 3970 3973 3976 3979 3981 3984 3986 3989 3992 3995 3998 4001 4003 4006 4009 4012 4015 4017 4020 4023 4026 4028 4031 4034 4037 4039 4042 4045 4047 4050 4053 4056 4059 4062 4065 4068 4071 4074 4077 4080 4083 4086 4089 4092 4095 4097 4100 4103 4106 4109 4112 4115 4118 4120 4123 4126 4129 4132 4135 4138 4141 4144 4147 4150 4153 4156 4159 4162 4165 4168 4171 4174 4177 4180 4183 4186 4189 4192 4195 4198 4201 4203 4206 4209 4212 4215 4217 4220 4223 4226 4228 4231 4234 4237 4240 4243 4246 4249 4252 4255 4257 4260 4262 4265 4268 4271 4274 4277 4280 4283 4286 4289 4292 4295 4298 4301 4304 4307 4310 4313 4316 4318 4320 4323 4326 4329 4331 4334 4337 4339 4342 4345 4347 4350 4353 4356 4358 4361 4364 4366 4369 4372 4375 4378 4381 4384 4387 4390 4393 4396 4399 4402 4405 4408 4411 4414 4417 4420 4423 4426 4428 4431 4433 4436 4439 4442 4445 4448 4451 4454 4457 4460 4463 4466 4468 4471 4473 4476 4479 4482 4484 4487 4490 4493 4496 4499 4501 4504 4507 4510 4513 4516 4519 4521 4524 4527 4530 4533 4536 4539 4542 4545 4548 4551 4554 4556 4559 4562 4565 4568 4571 4574 4577 4580 4582 4585 4588 4591 4593 4596 4599 4601 4604 4607 4610 4613 4616 4618 4621 4624 4627 4630 4633 4636 4639 4642 4645 4647 4650 4653 4655 4658 4660 4663 4665 4667 4669 4672 4674 4677 4680 4683 4686 4689 4692 4694 4697 4700 4703 4706 4709 4712 4714 4717 4720 4723 4726 4729 4732 4735 4737 4740 4743 4746 4749 4751 4754 4757 4760 4763 4766 4768 4771 4773 4776 4779 4782 4785 4788 4791 4794 4797 4800 4803 4805 4808 4811 4814 4817 4820 4823 4826 4828 4831 4834 4837 4840 4843 4846 4849 4851 4854 4856 4859 4862 4865 4868 4871 4874 4877 4880 4882 4885 4888 4891 4893 4895 4898 4901 4904 4907 4910 4912 4914 4917 4919 4922 4925 4927 4930 4933 4935 4938 4941 4944 4947 4950 4953 4956 4959 4961 4964 4967 4970 4973 4976 4978 4981 4984 4987 4990 4992 4995 4998 5000 5003 5006 5009 5012 5015 5018 5021 5024 5027 5030 5033 5036 5039 5042 5045 5048 5051 5054 5057 5060 5063 5066 5069 5072 5075 5078 5081 5084 5087 5090 5093 5096 5099 5102 5105 5108 5111 5114 5117 5120 5123 5125 5128 5131 5133 5136 5139 5142 5145 5148 5150 5153 5156 5159 5162 5164 5167 5170 5173 5176 5179 5182 5185 5188 5191 5194 5197 5200 5203 5206 5209 5212 5215 5218 5221 5224 5227 5230 5233 5236 5238 5241 5244 5247 5249 5252 5255 5258 5261 5264 5267 5269 5272 5275 5278 5281 5284 5287 5290 5293 5296 5299 5302 5304 5307 5309 5311 5314 5317 5319 5322 5325 5328 5331 5334 5337 5340 5343 5346 5349 5352 5354 5357 5360 5362 5365 5368 5371 5374 5377 5380 5383 5386 5389 5392 5395 5398 5401 5404 5407 5409 5412 5415 5418 5421 5424 5427 5430 5432 5435 5437 5440 5443 5446 5449 5451 5454 5456 5459 5462 5465 5468 5471 5474 5477 5480 5483 5485 5488 5491 5494 5497 5500 5503 5506 5509 5512 5515 5518 5521 5524 5527 5530 5533 5536 5538 5541 5544 5547 5550 5553 5556 5559 5562 5565 5568 5571 5574 5577 5580 5583 5586 5589 5592 5595 5598 5601 5604 5607 5610 5613 5615 5617 5620 5623 5626 5629 5632 5635 5638 5641 5644 5647 5650 5652 5655 5658 5661 5664 5666 5669 5672 5675 5678 5680 5683 5686 5689 5692 5695 5698 5701 5704 5706 5709 5712 5715 5718 5721 5724 5727 5730 5733 5735 5738 5741 5744 5747 5750 5753 5756 5759 5762 5765 5768 5771 5774 5777 5780 5783 5786 5789 5792 5795 5797 5800 5803 5806 5809 5812 5815 5818 5821 5824 5827 5830 5833 5836 5839 5841 5844 5846 5849 5852 5855 5858 5861 5864 5867 5870 5872 5875 5878 5880 5883 5886 5889 5892 5895 5898 5901 5904 5907 5910 5913 5916 5919 5922 5925 5928 5931 5934 5937 5940 5943 5946 5949 5952 5955 5958 5961 5964 5967 5970 5973 5976 5979 5982 5985 5988 5990 5993 5996 5998 6001 6004 6007 6010 6012 6015 6017 6020 6023 6025 6028 6030 6033 6036 6039 6042 6045 6047 6050 6053 6056 6059 6062 6065 6068 6071 6074 6077 6080 6083 6085 6088 6091 6094 6096 6099 6102 6105 6108 6111 6114 6117 6120 6123 6125 6128 6131 6134 6137 6139 6141 6144 6147 6150 6153 6156 6159 6162 6165 6167 6170 6173 6176 6179 6182 6184 6187 6190 6193 6195 6198 6201 6204 6206 6209 6212 6215 6218 6220 6223 6226 6229 6232 6235 6238 6241 6244 6247 6250 6253 6256 6259 6262 6264 6267 6270 6273 6276 6279 6282 6284 6287 6289 6291 6294 6296 6299 6301 6304 6307 6310 6313 6315 6318 6321 6324 6327 6329 6332 6335 6338 6341 6344 6347 6350 6353 6356 6358 6361 6364 6367 6370 6373 6376 6379 6382 6385 6388 6391 6394 6397 6400 6402 6405 6408 6411 6413 6416 6419 6422 6424 6427 6429 6432 6435 6438 6441 6444 6447 6450 6453 6456 6459 6462 6465 6468 6471 6474 6477 6479 6482 6485 6488 6491 6494 6497 6499 6502 6505 6508 6511 6514 6517 6520 6523 6526 6529 6532 6535 6538 6541 6544 6547 6550 6553 6555 6558 6561 6564 6567 6570 6573 6576 6579 6582 6585 6588 6591 6594 6597 6600 6603 6606 6609 6612 6615 6618 6621 6624 6627 6630 6633 6636 6639 6642 6645 6648 6651 6654 6657 6659 6662 6665 6668 6671 6673 6676 6679 6682 6685 6688 6691 6694 6696 6699 6702 6705 6708 6711 6714 6717 6720 6723 6725 6728 6731 6733 6736 6739 6742 6745 6748 6750 6753 6756 6759 6761 6764 6767 6769 6772 6775 6778 6781 6784 6787 6790 6793 6796 6799 6802 6805 6808 6811 6814 6817 6820 6823 6826 6829 6831 6834 6837 6840 6843 6846 6849 6852 6855 6858 6861 6863 6865 6868 6870 6873 6876 6879 6882 6885 6887 6890 6893 6896 6899 6901 6904 6907 6910 6913 6916 6918 6921 6923 6926 6929 6931 6934 6937 6940 6943 6946 6949 6952 6955 6957 6960 6963 6966 6969 6972 6975 6977 6980 6983 6986 6989 6992 6995 6997 7000 7003 7006 7009 7011 7014 7017 7019 7022 7024 7027 7030 7032 7035 7038 7041 7044 7047 7050 7052 7055 7058 7061 7064 7066 7069 7072 7075 7078 7081 7084 7087 7090 7092 7094 7097 7100 7103 7106 7109 7112 7115 7118 7120 7123 7126 7129 7132 7135 7138 7140 7143 7146 7149 7152 7155 7158 7161 7163 7166 7169 7172 7174 7177 7180 7183 7186 7189 7192 7195 7198 7201 7204 7207 7210 7212 7215 7218 7221 7224 7226 7229 7232 7234 7237 7240 7243 7246 7248 7251 7254 7257 7259 7261 7264 7267 7270 7272 7275 7278 7281 7283 7286 7289 7292 7295 7298 7301 7304 7307 7310 7312 7315 7318 7321 7323 7326 7329 7332 7335 7338 7341 7344 7347 7350 7353 7356 7359 7361 7364 7366 7369 7372 7374 7377 7380 7382 7385 7388 7391 7394 7397 7400 7403 7405 7408 7411 7414 7417 7420 7422 7425 7427 7430 7433 7436 7438 7440 7443 7445 7447 7450 7452 7455 7458 7461 7464 7467 7470 7472 7475 7477 7480 7483 7486 7489 7492 7495 7498 7501 7504 7507 7510 7513 7516 7518 7521 7524 7526 7529 7531 7534 7537 7539 7542 7545 7548 7550 7552 7555 7558 7560 7563 7566 7569 7572 7575 7578 7581 7584 7587 7590 7593 7596 7599 7602 7605 7608 7611 7614 7617 7620 7623 7626 7629 7631 7633 7636 7638 7641 7643 7646 7649 7651 7653 7656 7659 7661 7664 7667 7669 7672 7675 7677 7680 7682 7685 7688 7691 7694 7696 7699 7702 7705 7708 7710 7713 7715 7717 7720 7722 7725 7728 7730 7732 7735 7738 7741 7743 7746 7749 7752 7755 7757 7759 7762 7765 7768 7771 7774 7776 7779 7782 7785 7788 7791 7794 7797 7800 7803 7806 7809 7811 7814 7816 7819 7821 7824 7827 7829 7832 7834 7837 7840 7843 7846 7849 7852 7855 7858 7860 7863 7866 7868 7871 7874 7877 7880 7882 7885 7888 7891 7894 7897 7900 7903 7906 7909 7912 7915 7918 7920 7923 7926 7929 7932 7935 7938 7941 7944 7947 7950 7953 7955 7958 7961 7964 7967 7970 7973 7975 7978 7980 7983 7986 7988 7991 7994 7997 8000 8003 8006 8009 8012 8015 8018 8021 8024 8027 8030 8033 8036 8039 8041 8043 8046 8049 8052 8054 8057 8060 8062 8065 8068 8071 8074 8077 8080 8083 8086 8089 8092 8095 8098 8101 8104 8107 8110 8113 8116 8119 8122 8125 8128 8131 8134 8137 8139 8141 8144 8147 8150 8153 8156 8159 8162 8165 8168 8171 8174 8176 8179 8182 8185 8188 8191 8194 8197 8200 8203 8206 8209 8212 8215 8218 8221 8224 8227 8230 8233 8236 8239 8242 8245 8248 8251 8254 8257 8260 8263 8266 8269 8272 8275 8277 8280 8283 8286 8289 8292 8294 8297 8300 8302 8305 8308 8310 8312 8315 8318 8321 8324 8327 8330 8333 8336 8339 8342 8345 8348 8351 8353 8356 8359 8361 8364 8367 8370 8373 8376 8379 8381 8384 8387 8389 8392 8395 8398 8401 8404 8407 8410 8413 8416 8419 8422 8425 8428 8430 8433 8436 8439 8442 8445 8448 8451 8453 8456 8459 8462 8465 8468 8471 8474 8477 8480 8483 8486 8489 8491 8494 8497 8499 8502 8505 8508 8511 8514 8517 8520 8523 8526 8529 8532 8535 8538 8541 8544 8547 8550 8553 8556 8559 8561 8564 8567 8569 8572 8574 8577 8580 8583 8585 8588 8591 8593 8596 8598 8601 8604 8607 8609 8612 8615 8618 8621 8623 8626 8629 8632 8635 8638 8641 8644 8646 8649 8652 8655 8657 8660 8663 8666 8669 8672 8675 8678 8681 8684 8687 8690 8693 8695 8698 8701 8704 8707 8710 8713 8716 8719 8721 8724 8727 8730 8733 8736 8739 8742 8745 8748 8751 8754 8756 8759 8762 8765 8768 8771 8774 8777 8780 8783 8786 8789 8792 8795 8798 8801 8804 8807 8810 8813 8815 8817 8820 8823 8826 8828 8831 8834 8837 8840 8843 8846 8849 8852 8855 8858 8861 8864 8866 8869 8872 8875 8878 8881 8884 8887 8890 8893 8895 8898 8901 8904 8907 8910 8913 8916 8919 8922 8925 8928 8931 8934 8937 8940 8943 8945 8948 8950 8953 8956 8959 8962 8965 8967 8970 8973 8976 8979 8981 8984 8987 8990 8992 8995 8998 9001 9003 9006 9009 9012 9015 9018 9021 9024 9027 9030 9032 9035 9038 9041 9043 9046 9049 9051 9054 9057 9060 9063 9066 9069 9071 9074 9077 9080 9083 9086 9089 9092 9095 9097 9100 9103 9106 9108 9111 9114 9117 9120 9123 9126 9129 9132 9135 9138 9141 9144 9147 9150 9153 9156 9159 9162 9165 9168 9171 9174 9177 9180 9183 9186 9189 9191 9194 9197 9200 9203 9206 9209 9212 9214 9217 9220 9223 9226 9229 9232 9235 9238 9241 9244 9247 9250 9253 9256 9259 9262 9265 9268 9271 9274 9277 9280 9283 9286 9289 9291 9294 9296 9299 9302 9305 9308 9311 9314 9316 9319 9322 9325 9327 9330 9333 9335 9338 9341 9344 9347 9350 9353 9356 9359 9362 9365 9368 9371 9373 9376 9379 9382 9385 9388 9390 9393 9396 9399 9402 9405 9408 9411 9414 9417 9420 9423 9426 9429 9431 9434 9437 9440 9442 9445 9448 9451 9454 9457 9460 9463 9466 9469 9472 9475 9478 9480 9482 9485 9488 9491 9494 9496 9499 9502 9505 9508 9511 9514 9517 9520 9523 9525 9527 9530 9533 9536 9539 9542 9544 9547 9550 9553 9556 9559 9561 9564 9567 9570 9573 9576 9578 9581 9583 9586 9589 9592 9595 9597 9600 9602 9605 9607 9609 9612 9615 9618 9621 9624 9627 9630 9632 9634 9637 9640 9643 9646 9649 9652 9654 9656 9658 9661 9663 9665 9668 9671 9674 9676 9679 9682 9685 9688 9691 9693 9695 9697 9700 9702 9705 9708 9711 9713 9716 9718 9720 9723 9726 9729 9732 9735 9738 9741 9743 9745 9748 9751 9753 9755 9757 9760 9763 9766 9769 9772 9775 9778 9781 9784 9787 9790 9793 9796 9799 9802 9805 9808 9811 9814 9817 9820 9823 9826 9829 9832 9835 9838 9841 9844 9847 9850 9853 9856 9859 9862 9865 9868 9871 9874 9877 9879 9882 9885 9888 9891 9894 9897 9900 9903 9906 9909 9911 9914 9917 9920 9923 9926 9929 9931 9934 9937 9939 9942 9945 9948 9951 9954 9957 9960 9963 9966 9969 9972 9975 9978 9980 9983 9985 9988 9991 9994 9997 9999 10002 10005 10008 10010 10013 10016 10018 10021 10024 10027 10029 10032 10035 10037 10040 10043 10046 10049 10052 10054 10057 10060 10063 10066 10069 10072 10075 10077 10080 10083 10086 10089 10092 10095 10098 10100 10103 10106 10108 10111 10114 10117 10120 10122 10125 10127 10130 10133 10136 10139 10142 10144 10147 10150 10153 10156 10158 10161 10164 10167 10170 10173 10176 10178 10180 10183 10186 10189 10192 10195 10197 10200 10203 10205 10208 10211 10214 10217 10220 10223 10226 10229 10232 10235 10237 10240 10243 10246 10249 10252 10255 10258 10261 10264 10267 10270 10273 10276 10279 10282 10285 10288 10291 10293 10296 10299 10302 10305 10308 10311 10313 10316 10319 10322 10325 10328 10331 10334 10336 10338 10341 10344 10347 10350 10352 10355 10358 10361 10364 10367 10370 10373 10375 10378 10381 10383 10386 10388 10390 10392 10395 10398 10401 10404 10407 10410 10412 10415 10418 10421 10424 10427 10429 10432 10435 10438 10441 10443 10446 10449 10452 10454 10457 10460 10463 10465 10468 10471 10474 10477 10480 10483 10486 10489 10492 10495 10498 10501 10504 10507 10510 10513 10516 10519 10522 10525 10528 10531 10534 10537 10540 10542 10545 10548 10551 10554 10557 10560 10563 10565 10568 10570 10573 10576 10579 10582 10585 10588 10590 10593 10596 10598 10601 10604 10607 10609 10612 10615 10617 10620 10623 10626 10629 10632 10634 10637 10640 10643 10645 10647 10650 10653 10656 10659 10662 10665 10668 10671 10674 10677 10680 10683 10685 10688 10691 10694 10697 10700 10703 10706 10709 10712 10714 10717 10720 10723 10726 10729 10731 10733 10736 10739 10742 10745 10748 10751 10754 10757 10760 10762 10765 10768 10771 10774 10777 10780 10783 10786 10788 10791 10794 10797 10800 10803 10806 10809 10812 10815 10818 10821 10824 10827 10830 10833 10836 10839 10842 10844 10847 10850 10853 10856 10858 10861 10863 10866 10868 10871 10874 10877 10880 10883 10886 10889 10892 10895 10898 10901 10904 10907 10910 10913 10916 10919 10921 10924 10927 10930 10933 10936 10938 10941 10944 10947 10949 10951 10954 10957 10960 10963 10966 10968 10971 10974 10977 10980 10982 10985 10988 10991 10994 10997 11000 11003 11006 11008 11011 11014 11017 11020 11023 11026 11029 11031 11034 11037 11040 11043 11046 11049 11052 11055 11058 11060 11063 11066 11069 11072 11075 11078 11081 11084 11087 11090 11093 11096 11099 11102 11105 11108 11111 11114 11116 11119 11122 11125 11128 11131 11134 11137 11140 11143 11146 11149 11152 11155 11157 11160 11163 11166 11169 11172 11175 11177 11180 11183 11185 11188 11191 11193 11196 11199 11202 11205 11208 11211 11214 11217 11220 11223 11226 11229 11232 11235 11238 11241 11244 11247 11250 11253 11256 11259 11262 11265 11268 11271 11273 11276 11278 11281 11283 11285 11288 11291 11294 11296 11299 11302 11305 11308 11311 11314 11317 11320 11323 11325 11327 11330 11332 11335 11338 11341 11344 11347 11350 11353 11356 11359 11362 11365 11368 11371 11374 11376 11379 11381 11383 11386 11388 11391 11394 11397 11400 11403 11406 11409 11412 11415 11417 11419 11422 11425 11428 11431 11434 11437 11440 11443 11446 11449 11452 11455 11458 11461 11464 11467 11470 11473 11476 11479 11482 11485 11487 11490 11493 11496 11499 11502 11504 11507 11510 11513 11516 11519 11521 11524 11527 11530 11532 11535 11538 11541 11544 11547 11550 11553 11556 11559 11561 11564 11567 11570 11573 11575 11578 11581 11584 11587 11590 11593 11595 11598 11601 11604 11607 11610 11613 11616 11618 11621 11624 11627 11630 11632 11635 11638 11641 11644 11647 11650 11653 11656 11659 11662 11664 11667 11670 11673 11676 11678 11681 11684 11687 11689 11692 11695 11698 11701 11704 11706 11709 11712 11715 11718 11721 11724 11727 11730 11733 11736 11739 11742 11745 11748 11750 11752 11755 11758 11760 11763 11766 11769 11772 11775 11778 11781 11783 11786 11789 11792 11795 11798 11801 11803 11806 11809 11812 11815 11818 11821 11824 11827 11830 11833 11836 11839 11842 11845 11848 11851 11854 11857 11860 11863 11866 11869 11872 11874 11877 11880 11883 11886 11889 11892 11895 11898 11900 11903 11906 11909 11912 11914 11917 11920 11923 11926 11929 11931 11934 11936 11939 11941 11944 11947 11950 11953 11956 11959 11962 11964 11967 11970 11973 11975 11978 11981 11984 11987 11990 11992 11995 11998 12001 12004 12007 12009 12012 12014 12017 12020 12022 12025 12027 12030 12033 12036 12039 12042 12044 12047 12050 12053 12055 12058 12061 12064 12067 12070 12073 12076 12079 12082 12085 12087 12090 12093 12096 12099 12102 12105 12108 12111 12114 12117 12120 12123 12126 12129 12132 12135 12138 12141 12144 12147 12150 12153 12155 12158 12161 12164 12167 12170 12173 12176 12179 12182 12185 12188 12191 12194 12197 12200 12203 12206 12209 12211 12214 12217 12220 12222 12225 12228 12231 12234 12237 12240 12242 12245 12248 12251 12253 12255 12258 12260 12263 12265 12267 12270 12272 12275 12278 12280 12283 12286 12288 12290 12293 12296 12299 12302 12305 12308 12311 12314 12316 12319 12321 12324 12327 12330 12333 12336 12339 12342 12345 12348 12351 12354 12357 12360 12363 12366 12369 12372 12375 12378 12381 12384 12387 12389 12392 12395 12398 12401 12404 12407 12410 12413 12415 12418 12421 12423 12426 12429 12431 12433 12436 12439 12441 12444 12447 12450 12453 12456 12459 12462 12465 12468 12471 12474 12477 12480 12483 12486 12489 12492 12495 12498 12501 12504 12507 12510 12513 12516 12519 12522 12525 12528 12531 12534 12537 12540 12543 12546 12549 12552 12555 12558 12560 12563 12565 12568 12571 12574 12577 12580 12583 12586 12589 12592 12595 12598 12601 12604 12607 12610 12613 12616 12619 12622 12625 12628 12631 12634 12637 12640 12643 12646 12649 12652 12655 12658 12661 12664 12667 12670 12673 12676 12679 12682 12685 12687 12690 12693 12695 12698 12701 12704 12707 12710 12712 12715 12717 12720 12723 12725 12728 12731 12734 12737 12740 12743 12745 12748 12751 12754 12757 12760 12763 12766 12769 12772 12775 12778 12780 12783 12786 12788 12790 12793 12795 12798 12801 12803 12806 12809 12812 12815 12817 12820 12823 12826 12829 12832 12835 12838 12841 12844 12846 12849 12851 12854 12857 12860 12863 12866 12869 12872 12874 12877 12879 12882 12885 12888 12891 12894 12897 12900 12903 12906 12908 12911 12913 12916 12919 12922 12925 12928 12931 12934 12937 12940 12943 12945 12948 12951 12954 12956 12959 12962 12964 12967 12970 12972 12975 12978 12981 12984 12986 12989 12992 12995 12997 13000 13003 13006 13009 13012 13015 13018 13021 13024 13027 13030 13033 13036 13039 13041 13044 13047 13050 13053 13056 13059 13061 13064 13066 13069 13071 13074 13077 13080 13082 13085 13088 13091 13094 13097 13100 13103 13106 13108 13111 13114 13117 13120 13123 13125 13128 13131 13133 13136 13139 13142 13145 13148 13151 13154 13157 13160 13162 13165 13168 13171 13173 13176 13179 13182 13185 13188 13191 13193 13196 13199 13202 13205 13208 13211 13214 13217 13220 13223 13226 13229 13232 13235 13238 13241 13244 13247 13250 13253 13256 13259 13262 13265 13268 13271 13274 13277 13280 13283 13286 13288 13291 13294 13297 13300 13303 13305 13308 13311 13313 13315 13318 13321 13324 13327 13329 13332 13335 13338 13341 13344 13346 13349 13352 13355 13358 13361 13364 13367 13370 13373 13376 13379 13382 13385 13388 13391 13394 13396 13399 13402 13405 13408 13411 13414 13417 13420 13422 13424 13427 13430 13433 13436 13439 13442 13444 13447 13450 13453 13456 13458 13461 13464 13467 13470 13473 13476 13479 13482 13485 13488 13491 13494 13497 13500 13503 13506 13509 13512 13515 13518 13521 13524 13527 13530 13532 13535 13538 13540 13543 13546 13549 13552 13555 13558 13561 13564 13567 13570 13573 13576 13579 13582 13585 13588 13591 13594 13597 13600 13603 13606 13609 13612 13615 13618 13621 13623 13626 13628 13631 13634 13637 13640 13643 13645 13648 13651 13654 13657 13660 13663 13666 13669 13672 13675 13678 13681 13684 13687 13690 13693 13696 13699 13702 13705 13707 13709 13712 13714 13717 13720 13723 13726 13729 13732 13735 13738 13741 13744 13747 13750 13753 13756 13759 13762 13764 13767 13770 13773 13775 13778 13781 13784 13787 13790 13793 13796 13799 13802 13805 13808 13811 13814 13816 13819 13822 13825 13828 13831 13834 13837 13840 13843 13846 13849 13852 13855 13858 13861 13864 13867 13870 13873 13876 13879 13882 13884 13887 13890 13893 13896 13899 13902 13905 13908 13911 13914 13917 13920 13923 13925 13928 13930 13933 13936 13938 13940 13943 13946 13949 13952 13955 13958 13961 13964 13967 13970 13973 13976 13979 13982 13985 13988 13991 13994 13997 14000 14002 14005 14008 14010 14013 14016 14019 14021 14024 14027 14030 14033 14036 14039 14041 14044 14047 14050 14052 14055 14058 14061 14064 14067 14070 14073 14076 14078 14081 14084 14086 14089 14092 14094 14097 14099 14102 14105 14108 14111 14113 14115 14118 14121 14123 14125 14128 14131 14133 14136 14139 14142 14145 14147 14150 14153 14155 14157 14160 14162 14165 14168 14171 14174 14177 14180 14183 14186 14189 14192 14195 14198 14201 14204 14207 14210 14213 14216 14219 14222 14224 14227 14230 14233 14236 14238 14241 14244 14247 14250 14252 14254 14257 14260 14263 14266 14269 14272 14275 14278 14281 14284 14287 14290 14292 14295 14298 14301 14303 14306 14309 14312 14315 14318 14321 14324 14326 14329 14332 14335 14337 14340 14343 14345 14347 14350 14353 14356 14358 14361 14364 14367 14369 14372 14375 14378 14381 14384 14387 14390 14393 14396 14399 14402 14405 14408 14411 14414 14417 14420 14423 14425 14428 14431 14434 14437 14440 14443 14446 14449 14452 14455 14458 14461 14464 14467 14470 14473 14476 14479 14481 14483 14486 14489 14492 14495 14498 14500 14502 14505 14507 14510 14513 14516 14519 14522 14525 14528 14531 14534 14536 14539 14542 14545 14547 14550 14553 14556 14559 14562 14565 14568 14571 14574 14577 14580 14583 14586 14589 14591 14594 14597 14600 14603 14606 14609 14612 14614 14617 14620 14622 14625 14628 14631 14634 14637 14640 14642 14645 14648 14651 14654 14656 14659 14662 14665 14668 14671 14674 14676 14679 14682 14685 14688 14691 14694 14697 14700 14702 14704 14707 14710 14713 14715 14717 14720 14723 14726 14729 14732 14734 14737 14740 14743 14746 14749 14752 14754 14757 14760 14763 14766 14768 14771 14774 14777 14780 14783 14785 14788 14791 14794 14797 14799 14802 14805 14808 14811 14814 14817 14820 14823 14826 14829 14832 14835 14838 14841 14844 14847 14850 14853 14856 14859 14862 14865 14868 14871 14874 14876 14879 14882 14885 14888 14890 14893 14895 14898 14900 14903 14906 14908 14911 14914 14916 14919 14922 14924 14927 14930 14933 14936 14939 14942 14944 14947 14950 14952 14955 14957 14959 14961 14964 14967 14969 14972 14974 14976 14979 14982 14985 14987 14990 14992 14995 14998 15001 15004 15007 15010 15012 15015 15018 15021 15023 15026 15029 15032 15035 15038 15041 15044 15046 15049 15052 15055 15057 15060 15062 15064 15067 15070 15073 15076 15079 15082 15085 15087 15090 15093 15096 15099 15102 15105 15108 15111 15113 15115 15118 15121 15124 15127 15129 15132 15135 15137 15140 15143 15146 15148 15151 15154 15157 15159 15161 15164 15167 15170 15173 15175 15178 15181 15184 15187 15190 15192 15194 15197 15200 15203 15206 15209 15212 15215 15218 15221 15224 15227 15230 15233 15236 15239 15242 15245 15248 15251 15254 15257 15260 15263 15266 15269 15272 15275 15278 15281 15284 15287 15289 15292 15295 15298 15300 15303 15306 15309 15312 15315 15318 15321 15324 15327 15330 15333 15336 15339 15342 15345 15347 15350 15352 15354 15357 15360 15362 15365 15368 15371 15374 15377 15380 15383 15386 15389 15392 15395 15398 15401 15404 15407 15410 15413 15416 15419 15422 15425 15428 15431 15433 15436 15439 15441 15443 15446 15449 15452 15455 15458 15461 15464 15466 15469 15472 15475 15477 15480 15483 15486 15489 15491 15493 15496 15499 15502 15505 15508 15511 15514 15516 15519 15522 15525 15528 15530 15533 15536 15539 15542 15544 15547 15550 15553 15556 15559 15562 15565 15568 15571 15574 15577 15580 15583 15586 15589 15592 15595 15598 15601 15603 15606 15609 15612 15615 15618 15621 15624 15627 15630 15633 15636 15639 15642 15645 15648 15651 15653 15656 15659 15662 15664 15667 15670 15673 15676 15679 15682 15685 15688 15691 15693 15696 15699 15702 15705 15708 15711 15714 15717 15720 15723 15726 15729 15732 15735 15738 15741 15744 15747 15750 15753 15756 15758 15761 15764 15767 15770 15773 15776 15779 15782 15785 15788 15791 15794 15797 15800 15803 15806 15809 15811 15814 15817 15820 15823 15826 15828 15831 15834 15837 15840 15843 15846 15849 15852 15855 15858 15861 15864 15867 15870 15873 15876 15879 15882 15885 15888 15891 15894 15897 15900 15903 15906 15909 15911 15914 15917 15919 15922 15925 15928 15930 15933 15936 15939 15942 15945 15948 15951 15954 15957 15960 15963 15966 15969 15972 15975 15977 15980 15982 15985 15988 15991 15994 15997 16000 16003 16006 16009 16011 16014 16017 16020 16023 16026 16029 16032 16035 16038 16040 16042 16045 16048 16051 16054 16057 16060 16063 16066 16069 16072 16075 16078 16081 16084 16087 16090 16093 16096 16099 16102 16105 16108 16111 16114 16117 16120 16123 16126 16129 16132 16135 16138 16141 16144 16147 16150 16153 16156 16159 16162 16165 16168 16171 16174 16177 16180 16183 16186 16189 16192 16195 16198 16201 16204 16207 16210 16213 16216 16219 16222 16225 16228 16231 16234 16237 16240 16243 16246 16249 16252 16255 16257 16260 16263 16266 16269 16272 16275 16277 16280 16283 16286 16289 16292 16295 16298 16301 16304 16306 16309 16311 16314 16317 16320 16323 16326 16329 16332 16335 16338 16341 16344 16347 16350 16353 16356 16359 16362 16365 16368 16371 16374 16377 16380 16383 16386 16389 16392 16395 16398 16401 16404 16407 16410 16413 16415 16418 16421 16424 16426 16428 16431 16434 16437 16440 16443 16446 16449 16452 16455 16458 16461 16464 16467 16470 16473 16476 16479 16482 16485 16488 16491 16494 16496 16498 16501 16504 16507 16510 16513 16516 16519 16522 16524 16527 16530 16533 16536 16539 16542 16544 16547 16550 16553 16556 16559 16561 16564 16567 16570 16573 16575 16578 16581 16584 16586 16589 16592 16595 16597 16600 16603 16605 16608 16611 16614 16617 16620 16623 16626 16629 16632 16635 16638 16641 16644 16646 16649 16652 16655 16658 16661 16664 16667 16670 16672 16675 16678 16681 16684 16687 16690 16693 16696 16699 16702 16705 16707 16710 16713 16716 16718 16721 16724 16727 16730 16732 16735 16738 16741 16744 16747 16750 16753 16756 16758 16761 16763 16766 16769 16771 16774 16777 16780 16783 16786 16788 16791 16794 16797 16800 16803 16806 16809 16812 16815 16818 16821 16824 16826 16829 16832 16835 16838 16841 16844 16847 16850 16853 16855 16858 16861 16864 16867 16870 16873 16875 16878 16881 16884 16887 16890 16893 16896 16898 16901 16904 16907 16910 16913 16915 16918 16921 16924 16927 16930 16933 16936 16939 16942 16945 16948 16951 16954 16957 16960 16963 16966 16969 16972 16975 16978 16981 16984 16987 16990 16993 16996 16999 17002 17005 17008 17011 17014 17017 17020 17023 17026 17029 17032 17035 17038 17041 17044 17047 17050 17053 17056 17058 17061 17063 17066 17069 17072 17075 17078 17081 17084 17087 17090 17093 17096 17099 17102 17105 17107 17110 17113 17116 17119 17122 17125 17128 17131 17134 17137 17140 17143 17146 17149 17152 17154 17157 17160 17162 17165 17167 17170 17173 17176 17179 17182 17184 17187 17190 17193 17196 17199 17202 17205 17208 17211 17214 17217 17220 17223 17226 17229 17232 17235 17238 17241 17244 17246 17249 17252 17255 17258 17261 17264 17267 17270 17273 17276 17279 17281 17284 17286 17289 17292 17294 17297 17299 17302 17305 17308 17311 17314 17317 17320 17322 17325 17327 17330 17333 17336 17339 17341 17344 17347 17350 17353 17355 17357 17360 17363 17365 17368 17371 17374 17377 17380 17383 17386 17389 17392 17395 17398 17401 17404 17407 17410 17413 17415 17418 17421 17424 17427 17430 17433 17436 17439 17442 17445 17448 17451 17454 17457 17459 17462 17464 17467 17470 17473 17476 17479 17482 17485 17487 17490 17492 17495 17498 17501 17504 17507 17510 17513 17516 17519 17521 17523 17526 17529 17532 17534 17537 17540 17543 17546 17548 17551 17553 17556 17559 17561 17564 17566 17568 17570 17573 17576 17578 17581 17584 17587 17589 17591 17593 17596 17599 17602 17605 17608 17611 17614 17617 17620 17623 17626 17628 17631 17634 17637 17640 17643 17646 17648 17651 17654 17657 17659 17662 17665 17668 17671 17674 17677 17680 17683 17685 17688 17691 17694 17696 17699 17702 17705 17708 17711 17714 17717 17720 17723 17726 17729 17732 17735 17738 17741 17744 17747 17750 17753 17756 17759 17762 17765 17768 17771 17774 17777 17780 17783 17786 17789 17792 17795 17798 17801 17804 17807 17810 17813 17816 17819 17822 17825 17828 17831 17834 17837 17840 17843 17846 17849 17852 17855 17858 17861 17864 17867 17870 17873 17876 17878 17881 17884 17887 17890 17893 17895 17898 17901 17904 17907 17909 17912 17915 17918 17920 17923 17926 17929 17932 17935 17938 17941 17944 17947 17950 17953 17956 17959 17962 17965 17968 17971 17974 17977 17980 17983 17986 17989 17992 17995 17998 18001 18004 18007 18010 18013 18016 18019 18022 18025 18028 18031 18034 18037 18040 18042 18045 18048 18050 18053 18056 18059 18062 18065 18068 18071 18073 18076 18079 18082 18085 18088 18091 18094 18097 18100 18103 18106 18108 18111 18114 18116 18119 18121 18124 18127 18130 18132 18135 18138 18141 18144 18147 18150 18153 18156 18158 18161 18164 18167 18170 18172 18175 18178 18181 18184 18186 18189 18191 18194 18197 18200 18203 18206 18209 18212 18215 18218 18221 18224 18227 18229 18232 18234 18237 18240 18243 18246 18249 18252 18255 18258 18261 18264 18267 18270 18273 18275 18278 18281 18284 18287 18290 18293 18296 18299 18302 18304 18307 18310 18313 18315 18318 18321 18324 18327 18330 18333 18336 18339 18342 18345 18348 18351 18354 18357 18360 18363 18366 18369 18372 18375 18378 18381 18384 18387 18390 18393 18396 18399 18402 18405 18408 18411 18414 18417 18420 18422 18425 18428 18430 18433 18436 18439 18442 18444 18447 18450 18453 18456 18459 18462 18465 18468 18471 18474 18477 18480 18483 18486 18489 18491 18494 18497 18500 18503 18506 18509 18512 18515 18518 18520 18523 18525 18528 18531 18534 18537 18540 18543 18546 18548 18551 18554 18557 18560 18563 18566 18569 18572 18575 18578 18581 18584 18587 18590 18592 18595 18598 18601 18604 18607 18610 18613 18616 18619 18622 18625 18627 18630 18633 18636 18639 18642 18645 18648 18651 18654 18657 18660 18663 18666 18669 18672 18675 18678 18681 18684 18687 18690 18693 18696 18698 18701 18703 18706 18709 18712 18715 18718 18721 18723 18726 18728 18731 18734 18737 18739 18742 18745 18748 18750 18753 18756 18759 18761 18764 18767 18769 18772 18775 18778 18781 18784 18787 18790 18792 18795 18798 18801 18804 18807 18810 18813 18815 18818 18821 18824 18827 18830 18833 18836 18839 18842 18845 18848 18851 18854 18856 18859 18862 18865 18868 18871 18874 18877 18880 18882 18885 18888 18891 18894 18897 18900 18903 18906 18909 18912 18915 18918 18921 18924 18927 18930 18933 18936 18939 18942 18944 18947 18950 18953 18956 18959 18962 18965 18968 18971 18974 18977 18980 18983 18986 18989 18992 18995 18998 19001 19004 19007 19010 19013 19016 19019 19022 19025 19028 19031 19034 19037 19040 19043 19046 19049 19052 19055 19058 19061 19064 19067 19070 19073 19076 19079 19082 19085 19088 19091 19094 19096 19099 19101 19104 19107 19110 19112 19115 19118 19120 19122 19125 19127 19130 19133 19136 19139 19142 19145 19148 19151 19154 19157 19160 19163 19166 19169 19172 19175 19178 19181 19184 19187 19190 19193 19196 19199 19202 19205 19208 19211 19214 19217 19220 19223 19226 19229 19232 19234 19237 19240 19243 19246 19248 19251 19254 19256 19259 19262 19265 19267 19270 19273 19276 19279 19281 19284 19286 19288 19291 19294 19297 19300 19302 19305 19308 19311 19313 19316 19319 19322 19324 19327 19330 19333 19336 19339 19342 19344 19347 19350 19353 19356 19359 19362 19365 19368 19371 19374 19377 19380 19383 19386 19389 19392 19395 19398 19401 19404 19406 19409 19412 19415 19418 19421 19424 19427 19430 19433 19436 19439 19442 19445 19448 19451 19454 19457 19460 19462 19465 19468 19470 19473 19476 19478 19481 19484 19487 19490 19493 19496 19499 19502 19505 19508 19511 19513 19516 19519 19522 19525 19527 19530 19533 19536 19539 19541 19544 19547 19550 19552 19555 19558 19561 19564 19567 19570 19573 19576 19579 19582 19585 19588 19591 19594 19597 19600 19603 19606 19609 19612 19615 19618 19621 19624 19627 19629 19632 19635 19638 19641 19644 19647 19650 19653 19655 19658 19661 19664 19666 19669 19672 19675 19678 19681 19684 19687 19690 19693 19696 19699 19702 19705 19708 19711 19714 19717 19720 19723 19726 19729 19732 19735 19738 19740 19743 19746 19749 19751 19754 19757 19760 19763 19766 19769 19772 19775 19777 19780 19783 19785 19788 19791 19794 19797 19799 19802 19805 19808 19811 19814 19817 19820 19822 19825 19827 19830 19833 19835 19838 19841 19843 19845 19848 19851 19854 19857 19860 19863 19866 19869 19872 19875 19878 19881 19884 19887 19890 19893 19896 19899 19902 19905 19908 19910 19913 19916 19919 19922 19924 19927 19930 19933 19936 19939 19942 19945 19948 19951 19954 19957 19960 19963 19965 19968 19971 19973 19976 19979 19982 19985 19988 19991 19994 19997 20000 20003 20006 20009 20012 20015 20018 20021 20024 20027 20030 20033 20036 20039 20042 20045 20048 20051 20054 20057 20060 20063 20066 20069 20072 20075 20078 20081 20084 20087 20090 20093 20096 20099 20102 20105 20108 20111 20114 20117 20120 20123 20126 20129 20132 20135 20138 20141 20144 20147 20150 20153 20156 20159 20162 20165 20168 20171 20174 20177 20180 20183 20186 20189 20192 20195 20198 20201 20204 20207 20210 20213 20216 20219 20222 20225 20228 20231 20234 20237 20240 20243 20246 20249 20252 20255 20258 20261 20264 20267 20270 20273 20276 20279 20282 20285 20288 20291 20294 20297 20300 20303 20306 20309 20312 20315 20318 20321 20324 20327 20330 20333 20336 20339 20342 20345 20348 20351 20354 20357 20359 20362 20365 20368 20371 20374 20377 20380 20382 20385 20388 20391 20394 20397 20400 20403 20406 20409 20411 20414 20416 20419 20422 20425 20427 20430 20433 20435 20438 20441 20444 20447 20450 20453 20456 20459 20462 20465 20468 20471 20474 20477 20480 20483 20486 20489 20492 20495 20498 20501 20504 20507 20510 20513 20516 20519 20522 20525 20528 20531 20534 20537 20540 20543 20546 20548 20551 20554 20556 20558 20561 20564 20566 20569 20572 20574 20577 20580 20583 20585 20588 20591 20594 20597 20600 20603 20606 20609 20612 20614 20617 20620 20623 20626 20629 20632 20634 20637 20640 20643 20646 20649 20652 20655 20658 20661 20664 20667 20670 20673 20676 20679 20682 20685 20688 20691 20694 20697 20700 20703 20706 20709 20712 20715 20718 20721 20724 20727 20729 20732 20735 20738 20741 20744 20747 20750 20753 20756 20759 20762 20765 20768 20771 20774 20777 20780 20783 20786 20789 20792 20795 20798 20801 20804 20807 20810 20813 20816 20819 20822 20825 20828 20831 20834 20837 20840 20843 20846 20849 20852 20855 20858 20861 20864 20867 20869 20872 20874 20877 20880 20883 20886 20888 20891 20894 20897 20900 20902 20905 20908 20911 20914 20916 20919 20922 20925 20928 20931 20934 20937 20940 20942 20945 20948 20950 20953 20955 20958 20961 20964 20967 20969 20972 20975 20977 20979 20982 20985 20988 20991 20994 20997 20999 21002 21005 21008 21011 21014 21017 21020 21023 21026 21029 21031 21033 21036 21039 21042 21045 21048 21050 21053 21056 21058 21061 21064 21067 21070 21072 21075 21078 21080 21083 21086 21089 21092 21095 21098 21101 21104 21107 21110 21113 21116 21119 21122 21125 21128 21131 21134 21137 21140 21143 21146 21149 21152 21155 21158 21161 21164 21167 21169 21172 21174 21177 21180 21183 21186 21189 21192 21195 21198 21201 21204 21207 21210 21213 21215 21218 21221 21224 21227 21229 21231 21234 21237 21240 21243 21246 21249 21252 21255 21258 21261 21264 21267 21270 21273 21276 21279 21282 21285 21288 21291 21294 21297 21300 21303 21306 21309 21312 21315 21318 21321 21324 21327 21330 21333 21336 21339 21342 21345 21348 21351 21354 21357 21359 21362 21365 21368 21370 21373 21376 21379 21382 21385 21388 21391 21394 21397 21400 21403 21406 21409 21412 21415 21418 21421 21424 21427 21430 21432 21435 21438 21440 21443 21446 21449 21452 21455 21458 21461 21464 21467 21469 21472 21475 21478 21481 21484 21486 21489 21492 21495 21498 21501 21503 21506 21508 21511 21514 21517 21520 21523 21526 21529 21532 21535 21538 21541 21544 21547 21549 21552 21555 21558 21560 21562 21565 21568 21571 21574 21577 21580 21583 21586 21588 21591 21594 21596 21599 21602 21604 21606 21609 21612 21615 21618 21621 21623 21626 21629 21632 21635 21638 21641 21644 21646 21649 21652 21654 21656 21659 21662 21665 21668 21671 21674 21676 21678 21681 21684 21687 21689 21692 21695 21698 21701 21704 21707 21710 21712 21715 21718 21721 21724 21727 21730 21733 21736 21739 21742 21745 21748 21751 21754 21757 21760 21763 21766 21769 21772 21775 21778 21781 21784 21787 21790 21792 21795 21798 21801 21804 21807 21810 21813 21815 21818 21821 21824 21827 21830 21833 21836 21839 21842 21845 21848 21850 21853 21856 21859 21862 21865 21868 21871 21874 21876 21879 21882 21885 21888 21891 21894 21897 21900 21903 21906 21909 21912 21915 21918 21921 21924 21926 21929 21932 21935 21937 21940 21943 21946 21949 21952 21954 21957 21960 21963 21966 21969 21972 21975 21978 21981 21984 21987 21990 21993 21996 21998 22001 22004 22007 22010 22012 22015 22018 22020 22023 22026 22029 22032 22035 22037 22040 22043 22046 22049 22052 22055 22058 22061 22064 22067 22070 22073 22076 22079 22081 22084 22086 22089 22092 22095 22097 22100 22102 22105 22107 22110 22113 22116 22119 22122 22125 22127 22129 22132 22135 22138 22141 22144 22147 22149 22152 22154 22157 22160 22163 22166 22169 22172 22175 22178 22181 22184 22187 22190 22193 22196 22199 22202 22205 22207 22210 22213 22216 22218 22220 22223 22226 22229 22232 22235 22237 22240 22243 22245 22247 22250 22253 22256 22259 22262 22265 22268 22271 22274 22277 22280 22283 22286 22289 22292 22295 22298 22301 22304 22307 22310 22313 22316 22319 22322 22325 22328 22331 22334 22337 22340 22343 22346 22349 22352 22355 22358 22361 22364 22367 22370 22373 22376 22379 22381 22384 22387 22389 22391 22393 22396 22399 22402 22405 22408 22411 22413 22416 22419 22422 22425 22428 22431 22434 22437 22440 22442 22445 22448 22451 22453 22456 22459 22462 22465 22468 22471 22474 22477 22480 22483 22486 22489 22492 22495 22498 22501 22504 22507 22510 22513 22515 22518 22521 22524 22527 22529 22532 22535 22538 22541 22544 22547 22550 22553 22556 22559 22562 22565 22568 22571 22574 22577 22580 22583 22586 22589 22592 22595 22598 22601 22604 22607 22610 22613 22616 22619 22622 22625 22628 22631 22633 22636 22638 22641 22644 22647 22650 22653 22656 22659 22662 22664 22667 22670 22673 22675 22678 22680 22683 22686 22689 22692 22695 22698 22701 22704 22706 22709 22712 22715 22718 22720 22723 22726 22729 22732 22734 22737 22740 22743 22746 22749 22752 22755 22757 22760 22763 22766 22769 22771 22774 22777 22780 22783 22786 22789 22792 22795 22798 22801 22804 22807 22810 22813 22816 22819 22822 22825 22828 22831 22834 22837 22840 22843 22846 22849 22852 22855 22858 22861 22864 22867 22870 22873 22876 22879 22882 22885 22888 22891 22894 22897 22900 22903 22906 22909 22911 22914 22917 22920 22923 22925 22927 22930 22933 22935 22937 22940 22943 22946 22949 22952 22955 22958 22961 22964 22967 22970 22973 22976 22979 22982 22985 22988 22991 22994 22996 22999 23002 23005 23007 23009 23012 23015 23018 23021 23024 23027 23030 23033 23036 23039 23042 23045 23048 23051 23054 23057 23060 23063 23066 23069 23072 23075 23078 23081 23084 23087 23090 23092 23095 23098 23101 23104 23107 23110 23113 23115 23118 23121 23124 23127 23130 23133 23136 23139 23142 23145 23148 23151 23154 23157 23160 23162 23165 23168 23171 23174 23177 23180 23183 23186 23188 23191 23193 23195 23198 23201 23204 23207 23210 23213 23216 23219 23222 23225 23228 23231 23233 23236 23239 23242 23245 23248 23251 23254 23257 23260 23263 23266 23269 23272 23275 23278 23281 23284 23287 23289 23292 23295 23298 23300 23303 23306 23309 23312 23315 23318 23321 23324 23326 23329 23332 23335 23338 23341 23344 23347 23350 23353 23356 23359 23362 23365 23368 23371 23373 23376 23379 23382 23384 23387 23390 23393 23396 23399 23402 23405 23408 23411 23414 23417 23420 23423 23426 23429 23432 23435 23438 23441 23444 23447 23450 23453 23456 23459 23462 23465 23468 23471 23474 23477 23480 23483 23485 23488 23490 23493 23496 23499 23502 23505 23508 23511 23514 23516 23519 23522 23525 23528 23531 23534 23537 23540 23543 23545 23548 23551 23553 23556 23559 23562 23565 23568 23570 23573 23576 23579 23582 23584 23587 23590 23593 23596 23598 23601 23604 23607 23609 23612 23614 23617 23620 23622 23625 23628 23631 23634 23637 23640 23643 23646 23649 23652 23655 23658 23661 23664 23666 23669 23672 23674 23677 23679 23682 23685 23688 23690 23693 23696 23698 23701 23704 23707 23710 23712 23715 23717 23720 23723 23726 23729 23732 23735 23737 23740 23742 23745 23748 23751 23754 23757 23759 23762 23765 23768 23771 23773 23776 23779 23782 23785 23788 23791 23793 23796 23799 23802 23805 23808 23811 23814 23817 23820 23823 23826 23829 23832 23835 23838 23841 23844 23847 23850 23853 23856 23859 23862 23865 23868 23871 23874 23877 23880 23883 23886 23889 23892 23894 23896 23899 23902 23905 23908 23911 23914 23917 23920 23923 23926 23928 23931 23934 23936 23938 23941 23943 23946 23949 23952 23955 23958 23961 23964 23966 23969 23972 23975 23978 23981 23984 23987 23990 23993 23996 23999 24002 24004 24007 24010 24013 24016 24018 24021 24024 24027 24030 24033 24036 24039 24042 24045 24048 24051 24054 24056 24059 24062 24065 24068 24071 24074 24077 24080 24083 24086 24089 24092 24095 24098 24101 24104 24107 24109 24112 24115 24118 24121 24124 24126 24129 24132 24135 24137 24140 24143 24146 24149 24152 24155 24157 24160 24162 24165 24168 24171 24173 24176 24179 24182 24185 24188 24191 24194 24197 24200 24202 24205 24208 24210 24213 24216 24219 24222 24225 24228 24231 24233 24236 24239 24242 24245 24248 24251 24254 24257 24260 24263 24266 24269 24272 24274 24277 24280 24282 24285 24288 24291 24294 24297 24300 24302 24305 24308 24311 24314 24317 24320 24322 24325 24328 24331 24334 24337 24340 24343 24345 24348 24351 24354 24357 24360 24363 24366 24369 24372 24375 24378 24381 24384 24387 24390 24393 24396 24399 24402 24405 24408 24411 24413 24416 24419 24422 24425 24428 24431 24434 24437 24440 24443 24445 24448 24451 24454 24457 24459 24461 24464 24467 24470 24473 24475 24478 24481 24484 24487 24490 24493 24496 24499 24502 24504 24507 24510 24513 24516 24519 24522 24525 24528 24531 24534 24537 24539 24542 24545 24548 24550 24553 24556 24559 24561 24564 24567 24570 24573 24576 24579 24582 24585 24588 24591 24594 24597 24599 24602 24605 24608 24611 24614 24616 24619 24622 24624 24627 24630 24633 24636 24639 24642 24645 24648 24651 24654 24657 24660 24663 24666 24668 24671 24674 24677 24680 24683 24686 24689 24691 24694 24697 24700 24702 24705 24708 24711 24714 24717 24719 24722 24725 24728 24731 24734 24737 24740 24743 24746 24748 24751 24754 24757 24760 24763 24766 24769 24772 24774 24777 24780 24783 24786 24789 24791 24794 24797 24800 24803 24806 24809 24812 24814 24817 24820 24823 24826 24829 24832 24835 24838 24841 24844 24847 24850 24853 24856 24859 24862 24865 24868 24871 24874 24877 24880 24883 24886 24889 24892 24895 24898 24901 24904 24907 24910 24913 24916 24919 24922 24925 24928 24931 24934 24937 24940 24943 24946 24949 24952 24955 24958 24960 24963 24966 24969 24972 24975 24978 24981 24983 24986 24989 24992 24995 24998 25001 25004 25007 25010 25013 25016 25019 25022 25025 25028 25031 25034 25037 25040 25043 25046 25049 25051 25053 25056 25059 25061 25063 25066 25069 25072 25075 25078 25081 25084 25086 25089 25092 25095 25098 25101 25104 25107 25110 25113 25116 25119 25122 25125 25128 25130 25133 25136 25139 25142 25145 25148 25151 25154 25156 25159 25162 25164 25167 25170 25173 25175 25178 25181 25184 25187 25190 25193 25196 25199 25202 25205 25208 25211 25214 25217 25220 25223 25226 25229 25232 25235 25238 25241 25244 25247 25250 25253 25256 25259 25261 25264 25267 25270 25273 25276 25279 25282 25285 25287 25290 25293 25296 25299 25302 25305 25307 25309 25312 25315 25318 25321 25323 25326 25329 25331 25334 25337 25339 25342 25345 25348 25351 25354 25357 25359 25362 25365 25368 25371 25374 25377 25380 25383 25385 25388 25391 25394 25397 25400 25403 25406 25409 25412 25415 25418 25420 25423 25426 25428 25431 25434 25437 25440 25443 25446 25449 25451 25454 25457 25460 25462 25465 25467 25470 25472 25475 25478 25481 25484 25487 25490 25493 25496 25499 25502 25505 25508 25511 25514 25517 25520 25523 25525 25528 25530 25533 25536 25539 25542 25545 25548 25551 25554 25557 25560 25562 25565 25568 25571 25574 25577 25580 25583 25585 25588 25591 25594 25596 25599 25601 25603 25606 25609 25611 25614 25617 25620 25623 25625 25628 25631 25634 25636 25639 25642 25645 25647 25650 25652 25654 25657 25660 25663 25666 25669 25672 25674 25677 25680 25683 25686 25689 25692 25695 25698 25700 25702 25704 25707 25709 25712 25715 25717 25719 25722 25725 25727 25730 25733 25736 25739 25742 25745 25748 25751 25754 25757 25760 25762 25765 25768 25771 25774 25777 25780 25783 25786 25789 25792 25795 25798 25801 25803 25805 25808 25811 25814 25817 25819 25822 25825 25828 25830 25833 25836 25839 25842 25845 25847 25849 25852 25855 25858 25860 25863 25866 25869 25872 25875 25878 25881 25884 25887 25890 25893 25896 25899 25902 25905 25907 25910 25913 25916 25918 25921 25924 25927 25929 25932 25935 25938 25941 25944 25947 25949 25952 25955 25958 25961 25964 25966 25969 25972 25975 25978 25981 25984 25987 25990 25992 25995 25998 26001 26004 26007 26010 26013 26016 26019 26021 26024 26027 26030 26033 26035 26038 26040 26043 26046 26048 26051 26053 26056 26059 26062 26065 26068 26071 26073 26076 26078 26080 26083 26086 26089 26092 26095 26098 26101 26104 26106 26109 26111 26114 26116 26119 26121 26124 26127 26130 26133 26136 26139 26142 26145 26148 26151 26154 26156 26159 26162 26165 26167 26170 26173 26176 26179 26182 26185 26188 26191 26193 26196 26199 26202 26205 26208 26211 26214 26217 26220 26222 26225 26228 26231 26234 26236 26239 26242 26244 26247 26250 26253 26256 26259 26262 26265 26268 26271 26273 26276 26279 26282 26284 26287 26290 26293 26296 26299 26302 26305 26308 26311 26314 26317 26320 26323 26326 26329 26332 26335 26338 26341 26343 26346 26349 26352 26355 26358 26361 26364 26367 26370 26373 26375 26378 26381 26384 26387 26390 26393 26396 26399 26402 26405 26408 26411 26414 26417 26420 26423 26426 26429 26432 26435 26438 26441 26444 26447 26450 26453 26456 26459 26462 26465 26468 26471 26474 26477 26480 26483 26486 26489 26492 26495 26498 26501 26504 26507 26510 26512 26514 26517 26520 26523 26526 26529 26532 26535 26538 26541 26544 26547 26550 26553 26555 26557 26560 26563 26566 26568 26571 26574 26576 26579 26582 26585 26587 26590 26593 26596 26598 26601 26604 26607 26610 26613 26616 26619 26622 26624 26627 26630 26632 26635 26637 26639 26642 26645 26648 26651 26654 26657 26659 26662 26664 26666 26668 26671 26674 26676 26679 26682 26684 26686 26689 26692 26695 26698 26701 26704 26707 26710 26713 26716 26719 26722 26725 26728 26731 26734 26737 26740 26743 26746 26749 26751 26754 26757 26760 26763 26766 26769 26772 26775 26778 26780 26783 26786 26789 26792 26795 26798 26801 26803 26805 26808 26811 26814 26817 26820 26823 26826 26829 26832 26835 26838 26841 26844 26847 26850 26853 26856 26859 26862 26865 26868 26871 26874 26876 26879 26881 26884 26887 26890 26893 26896 26899 26902 26904 26907 26910 26913 26915 26917 26920 26923 26925 26928 26931 26934 26937 26939 26942 26945 26948 26950 26953 26956 26959 26961 26964 26967 26970 26973 26976 26979 26982 26985 26988 26990 26992 26995 26998 27001 27004 27007 27009 27012 27015 27017 27019 27021 27024 27027 27030 27033 27036 27038 27041 27044 27047 27050 27053 27056 27059 27062 27065 27067 27070 27072 27075 27078 27081 27084 27087 27090 27093 27096 27099 27102 27105 27108 27111 27114 27117 27120 27123 27126 27129 27132 27135 27138 27141 27144 27146 27149 27152 27155 27158 27160 27162 27165 27168 27171 27173 27176 27179 27182 27185 27188 27191 27194 27197 27200 27203 27206 27209 27212 27215 27218 27221 27223 27226 27229 27232 27234 27237 27240 27242 27245 27248 27251 27254 27257 27260 27263 27266 27269 27272 27275 27278 27281 27283 27286 27289 27291 27294 27297 27300 27302 27305 27307 27310 27312 27315 27317 27319 27321 27324 27327 27330 27333 27336 27339 27342 27345 27347 27350 27353 27356 27359 27362 27365 27368 27371 27373 27376 27379 27381 27384 27387 27390 27393 27396 27399 27402 27405 27408 27411 27414 27417 27420 27423 27426 27429 27432 27435 27438 27441 27444 27446 27449 27452 27455 27458 27461 27464 27467 27470 27473 27476 27478 27481 27483 27486 27489 27491 27494 27496 27499 27501 27504 27507 27509 27512 27514 27517 27520 27522 27525 27528 27531 27533 27536 27539 27542 27545 27548 27551 27554 27557 27560 27563 27566 27569 27572 27575 27578 27581 27584 27587 27590 27593 27596 27599 27602 27605 27608 27611 27614 27617 27620 27623 27626 27629 27632 27635 27638 27641 27644 27647 27650 27653 27656 27659 27662 27665 27668 27671 27674 27677 27680 27683 27686 27689 27692 27695 27698 27701 27704 27707 27710 27713 27716 27718 27721 27724 27726 27729 27732 27735 27738 27741 27744 27746 27748 27751 27754 27757 27760 27763 27766 27769 27772 27775 27778 27781 27784 27787 27790 27793 27796 27799 27802 27804 27807 27810 27813 27815 27818 27821 27824 27827 27830 27833 27836 27839 27842 27845 27848 27851 27854 27857 27860 27863 27865 27868 27871 27874 27877 27880 27883 27886 27888 27891 27894 27897 27900 27903 27906 27909 27912 27914 27917 27919 27922 27925 27928 27931 27934 27937 27940 27943 27946 27949 27952 27955 27958 27961 27964 27967 27969 27972 27975 27978 27981 27984 27987 27990 27992 27995 27998 28001 28004 28006 28009 28012 28015 28018 28021 28024 28027 28029 28032 28035 28037 28039 28042 28045 28047 28050 28053 28056 28059 28062 28065 28067 28070 28073 28076 28079 28082 28085 28088 28091 28094 28096 28099 28102 28104 28107 28110 28112 28115 28118 28120 28123 28126 28129 28132 28135 28137 28140 28143 28146 28149 28152 28155 28158 28161 28163 28166 28169 28172 28175 28178 28181 28184 28186 28189 28192 28195 28198 28201 28204 28207 28210 28213 28216 28219 28222 28224 28227 28230 28233 28236 28239 28242 28245 28247 28249 28252 28254 28257 28259 28262 28265 28268 28271 28274 28277 28280 28283 28286 28289 28292 28295 28298 28301 28304 28306 28309 28311 28314 28317 28320 28323 28326 28329 28332 28335 28337 28340 28342 28345 28347 28350 28352 28355 28357 28360 28363 28365 28368 28371 28374 28377 28380 28382 28385 28388 28391 28394 28397 28400 28403 28406 28408 28411 28414 28417 28420 28423 28425 28428 28431 28433 28436 28438 28440 28443 28446 28449 28452 28455 28458 28461 28464 28466 28469 28472 28475 28478 28481 28484 28487 28490 28493 28496 28499 28502 28505 28507 28510 28513 28516 28519 28522 28525 28528 28530 28533 28536 28539 28541 28544 28547 28550 28553 28556 28559 28562 28565 28568 28571 28574 28577 28580 28583 28586 28589 28592 28594 28597 28600 28603 28606 28609 28612 28615 28617 28620 28623 28625 28628 28631 28634 28637 28640 28643 28646 28649 28652 28655 28658 28661 28664 28667 28670 28672 28675 28678 28681 28684 28686 28689 28692 28695 28698 28701 28704 28707 28710 28713 28716 28719 28722 28725 28728 28731 28734 28737 28740 28743 28746 28749 28752 28755 28758 28761 28763 28766 28769 28772 28775 28778 28781 28783 28786 28789 28792 28795 28798 28801 28804 28807 28810 28812 28814 28817 28820 28823 28825 28828 28830 28833 28836 28839 28842 28845 28848 28851 28854 28857 28860 28863 28866 28869 28872 28875 28877 28880 28883 28886 28889 28892 28895 28898 28901 28904 28907 28910 28913 28915 28917 28920 28923 28926 28929 28932 28935 28938 28941 28943 28946 28949 28951 28954 28957 28959 28961 28964 28967 28970 28973 28976 28979 28982 28984 28987 28990 28993 28996 28999 29002 29005 29008 29011 29013 29016 29019 29022 29024 29027 29030 29033 29036 29039 29041 29044 29047 29050 29053 29056 29059 29062 29065 29068 29071 29074 29077 29079 29082 29085 29088 29090 29093 29096 29099 29101 29104 29107 29110 29113 29116 29119 29122 29125 29128 29131 29134 29137 29140 29143 29146 29149 29152 29155 29158 29161 29164 29167 29170 29173 29176 29179 29182 29185 29188 29191 29194 29197 29199 29202 29205 29208 29211 29214 29217 29220 29223 29226 29229 29232 29235 29238 29241 29244 29247 29250 29253 29256 29259 29262 29265 29268 29271 29273 29276 29278 29281 29284 29286 29289 29292 29295 29298 29301 29304 29307 29310 29313 29315 29318 29321 29324 29327 29330 29333 29336 29339 29342 29345 29348 29351 29354 29357 29359 29362 29365 29368 29371 29373 29376 29379 29382 29384 29387 29390 29393 29396 29399 29402 29405 29408 29411 29414 29417 29420 29423 29426 29429 29432 29435 29438 29441 29444 29447 29450 29453 29456 29459 29462 29465 29468 29471 29474 29477 29480 29483 29486 29489 29492 29495 29498 29501 29504 29507 29510 29513 29516 29519 29522 29525 29528 29531 29534 29537 29540 29543 29546 29549 29552 29555 29558 29561 29564 29567 29570 29573 29576 29579 29582 29585 29588 29591 29594 29597 29600 29603 29606 29609 29612 29615 29618 29621 29624 29627 29630 29633 29636 29639 29642 29645 29648 29651 29654 29657 29660 29663 29666 29669 29672 29675 29678 29681 29684 29687 29690 29693 29696 29699 29702 29705 29708 29711 29714 29717 29720 29723 29726 29729 29732 29735 29738 29741 29744 29747 29750 29753 29756 29759 29762 29765 29768 29771 29774 29777 29780 29783 29786 29789 29792 29795 29798 29801 29804 29807 29810 29813 29816 29819 29822 29825 29828 29831 29834 29837 29840 29843 29846 29849 29852 29855 29858 29861 29864 29867 29870 29873 29876 29879 29882 29885 29888 29891 29894 29897 29900 29903 29906 29909 29912 29915 29918 29921 29924 29927 29930 29933 29936 29939 29942 29945 29948 29951 29953 29956 29959 29962 29965 29968 29971 29974 29977 29980 29983 29986 29989 29992 29995 29998 30001 30003 30006 30009 30012 30015 30018 30021 30024 30027 30029 30032 30035 30038 30041 30043 30046 30049 30052 30055 30058 30061 30064 30067 30070 30073 30076 30079 30082 30085 30088 30091 30094 30097 30100 30103 30106 30109 30111 30114 30117 30120 30123 30126 30129 30132 30135 30138 30141 30144 30147 30150 30152 30154 30157 30160 30163 30166 30169 30171 30174 30176 30179 30182 30185 30188 30191 30194 30197 30200 30203 30206 30209 30211 30214 30217 30220 30223 30226 30229 30232 30234 30237 30240 30243 30246 30249 30252 30255 30258 30261 30264 30267 30270 30273 30276 30279 30281 30283 30286 30289 30292 30295 30298 30301 30304 30307 30310 30313 30316 30319 30321 30324 30327 30330 30333 30336 30339 30342 30345 30348 30351 30354 30357 30360 30363 30366 30369 30371 30374 30377 30380 30383 30386 30389 30392 30394 30397 30400 30403 30406 30409 30412 30415 30418 30421 30424 30426 30428 30431 30434 30437 30440 30443 30446 30449 30452 30455 30458 30461 30464 30467 30470 30473 30476 30479 30482 30485 30488 30491 30494 30497 30500 30503 30506 30509 30512 30515 30518 30520 30523 30526 30529 30532 30535 30537 30540 30543 30546 30549 30552 30555 30558 30561 30564 30567 30569 30572 30575 30578 30581 30583 30586 30589 30592 30595 30598 30601 30604 30607 30610 30613 30615 30618 30620 30623 30626 30629 30632 30635 30638 30641 30644 30647 30650 30653 30656 30659 30662 30665 30668 30671 30674 30677 30680 30683 30686 30689 30692 30695 30698 30701 30704 30707 30710 30713 30715 30718 30721 30724 30727 30730 30732 30735 30738 30741 30744 30747 30750 30753 30756 30759 30762 30765 30768 30771 30774 30777 30780 30783 30786 30788 30791 30794 30796 30799 30802 30805 30807 30810 30813 30816 30819 30822 30824 30827 30830 30833 30836 30839 30842 30845 30848 30851 30854 30856 30859 30862 30865 30868 30871 30874 30876 30879 30882 30885 30888 30891 30893 30895 30898 30901 30903 30906 30909 30911 30914 30917 30920 30923 30926 30929 30932 30935 30938 30941 30943 30946 30949 30951 30954 30957 30959 30962 30965 30967 30970 30973 30975 30978 30981 30983 30986 30989 30992 30995 30998 31001 31003 31006 31009 31012 31015 31018 31021 31024 31027 31030 31033 31036 31038 31041 31044 31047 31050 31053 31056 31059 31061 31064 31067 31070 31073 31075 31078 31081 31084 31086 31089 31092 31095 31098 31101 31104 31107 31110 31113 31116 31119 31121 31124 31127 31130 31133 31136 31139 31142 31145 31148 31151 31154 31157 31160 31163 31166 31169 31172 31175 31178 31181 31184 31187 31190 31193 31195 31198 31201 31204 31207 31210 31212 31215 31218 31221 31224 31227 31230 31233 31236 31239 31242 31245 31248 31251 31254 31256 31259 31262 31264 31267 31269 31272 31275 31278 31281 31283 31286 31288 31290 31293 31295 31298 31301 31304 31307 31310 31313 31316 31318 31321 31323 31326 31329 31332 31335 31338 31341 31343 31346 31349 31352 31355 31358 31361 31363 31366 31369 31372 31375 31377 31380 31383 31386 31389 31392 31394 31397 31400 31402 31405 31408 31411 31414 31416 31419 31422 31425 31428 31430 31433 31436 31439 31442 31445 31448 31450 31453 31456 31459 31462 31465 31468 31471 31474 31477 31479 31482 31485 31488 31491 31494 31497 31499 31502 31505 31508 31511 31513 31516 31519 31522 31525 31528 31531 31534 31537 31540 31543 31546 31549 31552 31555 31558 31561 31563 31566 31569 31572 31574 31577 31580 31582 31585 31588 31591 31594 31597 31600 31603 31606 31609 31612 31615 31618 31621 31624 31627 31630 31632 31635 31637 31640 31643 31646 31649 31652 31655 31658 31661 31664 31667 31670 31673 31676 31679 31682 31685 31688 31691 31694 31697 31700 31703 31706 31709 31712 31715 31717 31720 31723 31725 31728 31731 31734 31737 31740 31743 31746 31749 31752 31755 31757 31760 31763 31766 31769 31771 31774 31777 31780 31783 31785 31788 31791 31794 31797 31800 31803 31806 31809 31812 31814 31817 31820 31823 31826 31829 31832 31835 31838 31841 31844 31847 31850 31853 31856 31859 31862 31865 31868 31871 31874 31877 31880 31883 31886 31889 31892 31895 31898 
</DataArray>
<DataArray type="UInt32" Name="types" format="ascii">
5 5 5 5 5 3 5 5 5 5 5 5 5 3 5 5 5 5 3 5 5 3 5 5 5 5 3 5 5 5 5 3 5 5 5 5 5 5 5 5 5 5 5 5 5 3 5 5 3 5 5 5 5 5 3 5 5 5 5 5 5 5 3 5 5 5 5 3 5 5 5 5 5 5 5 5 5 3 5 5 3 5 5 3 5 5 5 5 3 5 5 5 5 5 5 5 3 3 3 5 5 3 5 5 5 5 5 3 5 5 5 5 5 5 5 5 5 5 5 5 5 3 5 5 5 3 5 5 5 5 5 5 3 5 5 5 5 5 5 5 5 5 5 5 5 5 5 5 5 5 5 5 5 5 5 5 5 5 3 5 5 5 3 5 5 3 5 5 5 5 5 5 5 5 5 5 5 3 5 5 5 5 5 5 5 5 3 5 5 5 5 5 5 5 5 3 5 5 5 5 5 5 5 5 5 3 5 5 5 5 5 5 5 5 5 5 5 5 5 5 5 5 5 5 5 5 5 5 5 3 5 5 5 3 5 3 5 3 5 5 3 5 5 5 3 5 3 5 3 5 3 3 5 3 5 5 3 5 3 5 5 5 3 5 3 3 5 5 3 5 5 5 3 5 3 3 3 5 3 5 5 5 3 5 3 3 3 5 5 3 3 5 5 5 5 3 5 3 5 5 3 5 5 5 3 5 3 3 3 5 5 5 3 5 3 3 3 3 5 5 5 3 3 5 5 3 3 3 5 3 5 5 5 5 3 5 5 5 5 5 5 5 3 5 5 5 5 5 5 3 3 5 5 5 3 5 5 5 3 5 3 5 3 3 5 5 5 5 3 5 5 3 5 5 5 5 3 5 3 5 5 5 5 5 3 3 5 5 5 5 5 5 5 5 3 5 5 5 3 5 5 3 5 3 5 5 5 5 5 5 5 5 5 5 5 3 5 3 5 3 5 5 5 3 5 3 5 3 5 5 5 5 5 5 3 5 3 5 5 5 3 5 5 5 3 5 3 3 5 5 5 5 3 5 5 5 5 3 3 5 5 3 5 3 5 3 3 5 5 5 3 5 5 5 5 3 5 5 5 5 5 5 5 5 5 5 5 3 5 5 5 5 3 5 5 5 3 5 3 3 3 5 5 5 3 3 5 3 5 5 3 5 5 5 5 3 5 5 5 5 5 5 5 5 5 5 5 3 3 5 5 3 5 5 5 3 5 5 5 5 5 5 3 5 5 5 3 5 5 5 3 5 5 5 5 5 5 5 5 5 5 5 3 5 5 5 3 5 5 5 5 5 5 5 3 5 5 5 5 5 3 5 5 5 5 5 5 5 5 5 5 5 5 5 5 5 5 5 5 5 3 5 5 5 5 3 5 5 3 5 5 5 5 5 5 5 3 5 5 5 5 5 5 5 5 3 5 3 5 5 3 5 5 5 3 5 5 3 5 5 5 3 5 3 5 5 3 5 3 5 5 5 5 5 5 5 5 5 5 5 5 5 5 5 5 5 5 5 5 5 5 3 5 3 5 3 5 5 5 5 5 5 5 5 5 5 5 5 5 5 5 3 5 5 5 5 5 5 5 5 5 3 5 5 5 5 5 5 5 5 5 5 5 5 5 5 5 5 5 5 5 5 5 5 5 5 5 5 5 5 5 3 5 5 3 5 5 5 3 3 5 3 5 5 5 5 5 3 5 5 5 5 5 3 5 5 5 5 5 5 5 5 5 5 5 5 5 5 5 5 5 5 5 5 5 5 5 5 5 5 5 5 5 5 5 5 5 5 5 5 5 5 5 5 5 5 5 5 5 5 5 5 5 3 5 5 5 5 5 5 5 5 5 5 5 5 5 5 5 3 5 5 5 5 3 5 5 5 5 5 5 5 5 5 5 5 5 5 5 5 5 5 5 5 5 5 5 5 5 5 5 5 3 5 5 3 5 3 3 3 3 5 5 3 5 5 5 5 5 5 5 5 5 5 5 5 5 5 5 5 5 3 5 5 3 5 3 5 5 5 5 3 5 3 5 5 5 5 3 5 5 5 3 5 5 5 5 5 3 5 3 5 5 3 3 5 3 5 5 5 5 5 5 5 5 5 5 5 3 5 5 5 3 5 5 5 3 5 5 3 3 3 5 5 5 5 5 5 5 5 5 5 5 3 5 5 5 5 5 5 5 5 3 3 3 5 5 5 5 5 5 5 5 3 3 5 5 5 3 5 5 3 5 5 5 5 5 5 5 5 5 5 5 3 5 5 5 5 5 5 5 5 3 5 5 5 5 5 5 5 5 5 5 3 5 3 3 3 5 5 5 5 5 5 5 3 3 5 3 5 5 5 5 5 3 5 3 3 5 5 5 3 5 3 5 5 5 5 3 5 5 5 5 5 5 5 5 5 5 5 5 5 5 5 5 5 3 5 5 5 3 5 5 5 5 5 3 5 5 5 5 5 5 3 5 3 5 5 5 5 5 5 5 5 3 5 5 5 3 5 5 5 5 5 5 5 5 5 5 5 5 5 5 5 5 5 5 5 5 5 5 5 5 5 3 3 3 5 5 5 5 3 5 5 5 5 3 5 5 5 5 5 5 5 3 5 5 5 5 5 5 5 5 3 5 5 5 5 5 5 5 5 5 5 5 5 3 5 5 5 5 5 5 3 5 5 5 5 5 5 5 5 3 5 5 5 3 5 5 5 5 5 5 5 5 5 5 5 5 3 5 5 5 5 5 5 5 5 5 5 5 5 5 5 5 5 5 5 5 5 5 5 5 5 5 5 5 5 5 5 5 5 5 5 5 5 5 5 5 5 5 5 5 5 5 5 5 3 5 5 5 5 5 5 5 5 5 5 5 5 5 5 5 5 5 5 5 5 5 5 5 5 3 5 5 5 5 5 5 5 5 5 5 3 5 5 3 5 5 5 5 5 5 5 5 5 3 5 3 5 5 5 5 3 5 5 3 5 3 5 5 5 5 5 3 5 5 5 5 5 5 5 5 3 5 5 5 5 5 5 5 5 5 5 5 5 5 5 3 5 3 3 5 5 5 5 5 3 5 5 5 5 5 5 5 5 5 5 5 5 5 5 5 3 5 5 5 5 5 5 5 5 5 5 5 5 5 5 5 5 3 5 5 5 5 5 3 3 5 5 3 5 5 5 5 5 5 5 5 5 5 3 5 5 5 5 5 5 5 5 5 3 5 3 5 5 5 5 5 3 5 5 5 5 3 5 5 5 3 5 5 5 3 5 5 3 5 5 5 5 5 5 5 5 5 5 5 5 5 5 5 5 3 5 5 5 5 5 5 5 3 5 5 5 5 5 5 5 5 5 5 5 5 5 5 5 5 5 5 5 5 5 5 5 5 5 5 5 3 5 5 5 5 3 5 5 5 3 5 5 5 5 5 5 5 5 5 3 5 3 5 5 5 5 5 5 5 5 5 5 5 5 5 5 5 5 5 5 3 3 5 5 5 3 5 5 3 5 5 3 5 5 5 3 5 5 3 5 5 5 5 5 5 5 5 5 5 5 5 5 5 5 5 5 5 5 5 3 5 3 5 5 5 5 5 5 5 5 5 5 5 3 5 3 5 5 5 3 5 5 5 5 5 3 5 5 5 5 5 5 3 5 5 5 5 5 5 5 5 5 5 5 3 5 5 5 5 5 5 5 5 3 5 5 5 3 5 5 3 5 5 5 5 5 3 5 5 5 5 5 5 5 5 5 3 5 5 3 5 3 5 3 3 3 5 3 5 5 5 5 5 5 3 5 5 5 5 5 5 3 5 5 5 5 5 5 5 3 5 5 5 5 3 5 5 5 5 5 3 5 3 5 5 5 5 5 5 5 5 5 5 3 5 5 5 5 5 5 5 3 5 5 5 5 5 5 5 3 5 3 5 5 5 5 5 5 5 5 3 5 5 5 3 3 5 5 5 5 5 3 3 5 3 5 5 3 5 5 3 5 5 5 5 5 5 5 5 3 5 5 5 5 5 3 5 5 5 5 3 5 5 3 5 5 5 5 5 5 5 5 5 5 5 5 5 5 5 5 5 5 5 5 5 5 5 5 5 5 5 5 5 5 5 5 5 5 5 5 5 5 5 5 5 3 5 5 3 5 5 5 5 5 3 5 5 5 5 3 5 5 5 5 5 5 5 5 5 5 5 5 5 5 5 5 5 5 5 5 5 5 5 5 3 5 5 5 3 5 5 5 5 5 5 3 5 5 5 5 5 5 5 5 5 5 5 3 5 3 3 5 5 3 5 5 5 5 5 5 5 5 5 5 5 3 5 5 3 5 5 5 5 5 5 5 5 5 5 5 5 5 5 5 3 5 5 5 5 5 5 5 3 5 3 5 5 5 5 3 5 3 5 5 5 5 5 5 5 5 5 3 5 5 5 5 5 5 5 5 5 5 5 5 5 5 5 5 5 3 5 5 5 5 5 5 5 5 5 5 5 5 5 5 5 5 5 5 5 5 5 5 5 5 5 3 3 5 5 5 5 5 5 5 5 5 5 5 3 5 5 5 5 3 5 5 5 5 3 5 5 5 5 5 5 5 5 3 5 5 5 5 5 5 5 5 5 3 5 5 5 5 5 5 5 5 5 5 5 5 5 5 5 5 5 5 5 5 3 5 5 5 5 5 5 5 5 5 5 5 5 5 5 3 5 3 5 5 5 5 5 5 5 5 3 5 5 3 5 5 5 5 5 5 5 5 5 5 5 5 5 5 5 5 5 5 5 5 5 5 5 5 5 5 5 5 5 5 5 5 5 5 5 5 3 5 5 3 5 5 5 5 3 5 3 5 5 3 5 3 5 5 5 5 5 3 5 5 5 5 5 5 5 5 5 5 5 5 3 5 5 5 3 5 5 5 5 5 5 5 5 5 3 5 5 5 5 3 3 5 5 5 5 5 5 5 5 3 5 5 5 5 5 3 5 5 5 3 5 5 5 3 5 5 5 5 3 5 5 5 5 5 5 5 5 5 5 5 5 5 5 3 5 5 5 5 5 5 3 5 3 3 5 3 5 3 5 5 5 5 3 5 5 5 5 3 5 5 5 5 5 5 5 5 5 3 5 5 5 5 5 5 5 5 5 5 5 5 5 5 3 5 5 5 3 5 5 5 3 5 3 5 5 5 5 5 5 5 5 5 5 5 5 5 5 5 5 3 5 5 5 5 5 5 3 5 5 5 5 5 5 5 5 5 5 5 5 5 5 5 5 5 5 3 5 5 5 5 5 5 5 5 5 5 5 5 5 5 5 5 5 5 5 5 5 5 5 5 5 5 5 5 5 5 5 5 5 5 3 5 5 5 5 3 5 5 5 5 5 5 5 3 5 5 5 5 5 5 5 5 5 3 5 5 3 5 5 5 5 5 3 5 5 5 3 5 5 3 5 5 5 5 5 5 5 5 5 5 5 5 5 5 5 5 5 5 5 5 3 5 5 5 5 5 5 5 5 5 5 3 3 5 3 5 5 5 5 5 3 5 5 5 5 3 5 5 5 5 5 3 5 3 5 5 3 5 5 5 5 5 5 5 5 3 5 5 5 5 5 5 3 5 5 5 5 5 5 3 5 5 5 5 3 5 5 3 5 3 5 5 3 5 5 5 5 5 5 3 5 5 5 5 3 5 5 5 5 5 5 5 5 3 3 5 5 5 5 5 5 5 5 3 5 5 5 5 5 5 3 5 5 5 5 5 5 5 3 5 5 5 3 5 5 5 5 5 5 5 5 5 5 5 5 3 5 5 5 5 3 5 5 3 5 5 5 5 3 5 5 5 3 3 5 5 5 3 5 5 5 3 5 5 5 5 5 5 5 5 5 3 5 5 5 3 5 5 5 5 5 5 5 5 5 5 5 5 3 5 3 5 5 3 5 5 3 5 5 5 5 5 5 5 3 5 5 5 5 5 3 5 3 5 5 5 3 3 5 3 3 5 3 5 5 5 5 5 5 3 5 3 5 5 5 5 5 5 5 5 5 5 5 5 5 3 5 5 3 5 3 5 5 3 5 5 5 3 3 5 5 3 5 5 5 5 5 5 5 5 5 5 5 5 5 5 5 5 5 5 5 5 5 5 5 3 3 5 3 5 3 5 5 3 3 5 5 3 5 5 3 5 5 3 5 3 5 5 5 5 3 5 5 5 5 3 5 3 3 5 3 5 5 3 3 5 5 5 3 5 5 5 5 3 3 5 5 5 5 5 3 5 5 5 5 5 5 5 5 5 5 5 3 5 3 5 3 5 5 3 5 3 5 5 5 5 5 5 5 5 3 5 5 3 5 5 5 5 3 5 5 5 5 5 5 5 5 5 5 5 5 3 5 5 5 5 5 5 5 5 5 5 5 3 5 5 5 5 5 5 3 5 3 5 5 3 5 5 5 5 5 5 5 5 5 5 5 5 5 5 5 5 5 3 3 5 5 5 3 5 5 3 5 5 5 5 5 5 5 5 5 5 5 5 5 5 5 5 5 5 5 5 5 5 5 5 5 3 3 5 5 5 5 5 5 5 5 5 5 5 3 5 5 5 5 5 5 5 5 5 5 5 5 5 5 5 5 5 5 5 5 5 5 5 5 5 5 5 5 5 5 5 5 5 3 5 5 5 5 5 3 5 5 3 5 5 3 3 5 5 5 5 5 5 5 5 5 5 5 5 5 3 5 5 3 5 5 5 5 5 5 3 5 5 3 5 5 5 5 5 5 5 5 5 5 5 5 5 3 5 5 5 5 5 5 5 3 5 5 5 5 5 5 5 5 5 5 5 5 3 5 5 3 5 5 5 5 5 5 5 5 5 5 5 5 5 5 5 5 5 5 5 5 3 5 5 3 5 3 5 5 5 3 5 5 3 5 3 5 5 5 3 5 5 5 5 3 5 5 5 5 5 5 5 3 5 5 5 3 5 5 5 5 5 5 5 5 5 5 5 5 3 5 5 5 5 5 5 5 5 3 5 5 5 5 5 5 5 5 5 5 5 3 5 5 5 5 5 5 5 5 5 5 5 5 5 5 5 5 5 5 5 3 3 5 5 5 3 5 5 5 5 5 5 5 5 5 5 5 5 3 5 5 5 5 5 5 5 5 5 3 5 5 5 5 5 5 5 5 5 5 5 5 5 5 5 5 3 5 3 5 5 5 5 5 3 5 5 5 5 3 5 5 5 3 5 5 5 3 5 5 5 5 5 5 5 5 5 3 5 5 5 3 5 5 3 5 5 5 5 5 5 3 5 5 5 5 5 5 5 5 3 5 5 5 3 5 5 5 5 5 5 5 5 5 5 5 5 5 5 5 5 5 5 5 5 5 5 5 5 5 5 5 3 5 5 5 5 5 5 5 3 5 5 5 5 5 5 5 5 5 5 5 5 5 5 5 5 5 5 5 5 5 5 5 5 5 3 5 3 5 5 5 5 5 5 3 5 5 5 3 5 5 3 5 5 5 5 5 5 5 5 5 5 5 5 3 5 5 5 5 5 3 5 5 5 5 5 5 5 5 5 5 5 5 5 3 5 5 5 3 5 5 5 5 5 5 5 5 5 5 5 5 3 3 5 5 5 5 3 5 5 5 5 5 5 5 5 5 3 3 5 5 5 5 5 3 5 5 5 5 5 3 5 5 5 5 5 3 5 3 5 5 5 5 3 5 3 5 3 3 5 5 5 5 5 5 5 3 3 5 5 5 5 5 5 3 3 3 5 3 3 5 5 5 3 5 5 5 5 5 3 3 3 5 3 5 5 5 3 5 3 3 5 5 5 5 5 5 5 3 3 5 5 3 3 3 5 5 5 5 5 5 5 5 5 5 5 5 5 5 5 5 5 5 5 5 5 5 5 5 5 5 5 5 5 5 5 5 5 5 5 5 5 5 5 5 3 5 5 5 5 5 5 5 5 5 5 3 5 5 5 5 5 5 3 5 5 3 5 5 5 5 5 5 5 5 5 5 5 5 5 3 5 3 5 5 5 5 3 5 5 5 3 5 5 3 5 5 5 3 5 5 3 5 5 5 5 5 3 5 5 5 5 5 5 5 3 5 5 5 5 5 5 5 3 5 5 3 5 5 5 5 3 5 3 5 5 5 5 5 3 5 5 5 5 3 5 5 5 5 5 5 3 3 5 5 5 5 5 3 5 5 3 5 5 5 5 5 5 5 5 5 5 3 5 5 5 5 5 5 5 5 5 5 5 5 5 5 5 5 5 5 3 5 5 5 5 5 5 3 5 5 5 5 5 5 5 3 3 5 5 5 5 3 5 5 5 5 5 5 5 3 5 5 3 5 3 3 3 5 5 5 5 5 5 3 5 5 5 5 5 3 5 5 5 5 3 5 5 5 3 5 5 5 3 5 5 5 5 5 5 5 5 5 5 5 5 5 5 5 5 5 5 5 5 5 5 5 5 5 3 5 5 5 5 5 5 5 3 5 3 5 5 5 5 5 5 3 5 5 3 5 5 5 3 5 5 3 5 5 5 5 5 3 5 5 5 3 3 5 5 5 5 5 5 5 5 5 5 5 5 3 5 5 5 5 5 5 5 5 5 3 5 5 5 5 5 3 3 5 5 5 5 5 5 5 5 5 3 5 5 5 5 5 5 5 5 3 5 5 5 5 5 5 5 5 5 5 5 5 5 5 5 5 5 5 3 5 5 5 5 3 5 3 5 3 5 5 5 5 5 5 5 5 5 5 5 5 5 5 5 5 5 3 5 5 5 5 5 3 5 5 5 3 3 5 5 5 5 5 3 5 5 5 5 3 5 5 5 5 5 5 5 5 3 5 5 5 5 5 5 5 3 5 5 5 5 5 5 5 5 5 3 5 5 5 5 5 5 5 5 5 5 5 5 5 5 5 5 5 5 3 5 5 5 5 5 5 5 5 5 5 5 5 5 3 5 5 5 5 5 5 3 5 5 3 5 5 3 5 5 5 5 5 5 5 5 5 5 5 5 5 5 5 5 5 5 5 5 5 5 5 5 5 5 3 5 3 5 3 3 5 5 5 3 5 5 5 5 5 5 5 5 5 3 3 5 3 5 5 5 5 5 5 5 5 5 5 5 5 5 5 3 5 3 3 5 3 5 5 5 5 5 5 5 5 5 3 3 5 5 5 5 5 5 5 5 5 5 5 5 5 5 5 5 5 5 5 5 5 5 3 5 5 5 5 5 3 5 5 5 5 5 3 5 5 5 3 5 5 5 5 5 5 5 5 5 3 5 5 5 5 3 5 5 5 5 5 5 3 5 5 5 5 5 5 5 3 5 5 5 5 3 5 5 5 5 5 5 5 5 5 5 3 5 5 5 5 3 5 5 5 3 5 5 5 5 5 3 5 5 5 5 5 5 5 5 5 5 5 5 5 5 3 3 5 5 3 5 5 5 5 5 5 5 3 5 5 5 5 5 5 3 5 5 5 5 5 5 5 5 5 5 5 5 5 5 5 5 5 5 5 5 5 5 5 3 5 5 5 5 5 5 5 5 3 5 5 5 5 3 5 5 5 5 5 3 5 3 5 3 5 5 5 5 5 5 5 3 5 5 5 3 5 5 5 5 5 3 5 5 5 5 5 3 5 3 5 5 3 5 3 5 5 5 5 5 3 5 5 5 3 5 5 5 5 5 5 5 5 5 5 3 5 5 5 5 5 5 5 5 5 5 5 5 5 5 5 5 5 5 5 5 5 5 3 5 5 5 5 5 5 5 5 5 5 5 5 5 5 5 5 5 5 3 5 5 5 3 5 5 5 5 5 5 3 5 5 5 3 3 5 3 5 3 3 5 3 5 5 3 5 5 3 3 5 5 5 5 5 5 5 5 3 5 3 5 5 5 5 5 5 5 5 5 5 5 5 5 5 5 5 5 5 5 5 5 5 3 5 5 5 5 5 5 5 5 3 5 5 3 5 5 3 3 5 5 3 5 5 5 5 5 5 5 5 5 5 5 5 5 5 5 5 5 5 5 5 5 5 5 5 5 5 5 5 5 5 5 5 5 5 5 5 5 5 5 3 5 3 5 5 5 5 5 5 5 5 5 5 5 5 5 5 5 5 5 5 5 5 5 5 5 5 5 5 5 5 5 5 5 5 5 5 5 5 5 5 5 5 3 5 5 3 5 5 5 5 5 3 5 3 5 5 3 5 5 5 5 5 5 3 5 5 5 5 5 5 5 5 5 5 5 3 5 5 3 3 5 3 5 5 3 5 5 5 5 3 5 5 5 5 5 5 5 5 5 3 5 3 5 5 5 5 5 5 5 3 5 3 5 5 5 5 5 5 5 5 5 3 5 3 5 5 5 5 5 5 5 5 5 5 3 5 5 5 3 5 5 3 5 5 3 5 5 5 5 3 5 5 5 3 5 5 5 5 5 5 5 5 5 5 5 5 5 5 3 5 5 5 5 5 5 3 5 3 5 3 5 5 5 3 5 5 5 5 5 5 5 5 3 5 5 5 5 5 3 5 5 3 5 5 5 5 5 5 5 5 5 3 5 5 5 3 5 5 5 5 5 5 3 5 5 5 5 5 5 5 5 5 5 5 5 5 5 5 5 5 5 5 5 5 5 5 5 5 5 5 5 5 5 5 3 5 5 5 5 5 3 5 5 3 3 5 5 5 5 3 5 5 5 5 5 3 5 5 5 5 5 5 5 5 5 5 5 5 5 5 5 5 3 5 5 5 5 5 5 5 5 3 3 5 5 5 5 5 5 3 5 5 5 5 3 5 5 5 5 5 5 5 5 5 5 5 5 5 5 5 5 5 5 5 5 5 5 5 5 3 5 5 3 5 5 5 5 5 5 5 5 5 5 5 5 5 5 5 5 5 5 5 5 5 5 5 5 5 5 5 3 5 3 5 5 5 5 5 3 5 5 5 5 5 5 5 5 5 5 5 5 5 5 5 5 5 5 5 5 3 3 5 3 5 5 5 5 5 5 5 5 5 5 5 5 5 5 5 5 3 5 5 5 3 5 5 5 5 5 5 5 5 5 5 5 5 5 3 5 5 5 5 5 5 5 5 5 5 5 5 5 5 5 5 5 5 5 5 5 5 3 5 5 5 5 5 5 5 5 5 5 5 5 5 3 5 3 5 5 3 3 5 5 5 5 5 5 5 5 5 5 5 5 5 5 5 5 5 5 5 5 3 5 5 3 5 5 5 3 5 5 5 5 5 5 3 5 5 5 3 5 5 5 5 5 5 5 5 3 5 5 3 5 5 3 5 3 5 5 5 5 3 3 5 5 3 3 5 5 3 5 5 5 5 3 5 5 3 3 5 3 5 5 5 5 5 5 5 5 5 5 5 5 5 5 5 5 5 5 5 5 3 5 5 5 5 3 5 5 5 5 3 3 5 5 5 5 5 5 5 5 5 5 5 5 3 5 5 5 3 5 5 5 5 5 5 5 3 5 5 5 3 5 5 3 3 5 5 5 3 5 5 5 3 5 5 5 5 5 5 5 5 5 5 5 5 5 5 5 5 5 5 3 5 5 5 5 5 5 5 5 5 5 5 5 5 5 5 5 5 5 3 3 5 5 5 5 5 3 3 5 3 5 5 5 5 5 5 5 5 5 3 5 5 5 3 5 5 5 5 5 5 5 5 5 5 5 5 5 5 3 5 5 5 5 5 5 5 3 5 5 3 5 5 5 5 5 5 3 5 5 5 5 3 5 5 5 5 5 5 3 5 5 5 5 5 5 5 5 3 3 5 5 5 3 3 5 5 5 5 5 3 5 5 5 5 5 5 3 5 5 5 5 3 5 5 5 5 5 3 5 5 5 5 3 5 5 5 5 5 5 5 5 5 5 5 5 5 5 5 5 5 5 5 5 5 5 5 5 5 3 5 5 5 5 3 5 3 5 3 5 5 3 5 5 3 5 5 3 5 5 5 5 5 5 3 5 5 3 5 3 3 3 5 5 3 5 3 3 5 5 5 3 5 3 5 5 5 5 5 5 3 5 5 5 3 5 5 5 5 5 5 5 3 5 5 5 3 5 3 3 5 5 5 5 5 5 5 3 5 5 5 5 5 5 5 5 3 3 5 5 5 5 3 5 5 3 5 5 5 3 5 5 5 3 3 5 5 5 5 3 5 5 5 5 5 3 3 5 5 5 5 5 5 5 5 5 5 5 5 5 5 5 5 5 5 5 5 5 5 5 5 5 5 5 5 5 5 5 3 5 5 5 3 5 5 5 5 5 5 5 5 5 5 5 5 5 5 5 3 5 3 3 5 5 3 5 5 5 5 5 5 5 5 5 5 5 5 5 5 5 5 5 5 5 5 5 5 5 3 5 5 3 3 5 5 5 5 5 5 5 3 5 5 5 3 5 5 5 5 3 3 5 5 5 5 5 5 5 3 5 5 5 5 3 5 5 5 5 3 5 5 5 5 5 5 5 5 5 5 5 5 5 5 5 5 5 5 5 3 5 5 5 5 5 5 5 5 5 5 5 5 5 5 5 5 3 5 5 5 3 5 5 5 5 5 5 5 5 5 3 5 5 5 5 5 5 5 5 5 5 5 5 5 5 5 5 5 5 5 5 5 3 5 5 5 5 5 5 5 5 5 5 5 5 5 5 5 5 5 3 5 5 5 5 5 3 5 5 5 5 5 5 5 5 5 5 5 5 5 5 5 5 5 5 5 5 5 5 5 5 5 5 5 3 5 5 3 5 5 5 3 5 5 5 5 5 5 5 5 5 5 5 5 5 5 5 3 5 3 5 5 5 5 5 5 5 5 5 3 5 5 5 5 5 5 5 5 5 3 3 5 5 5 5 5 5 5 5 5 5 5 5 5 5 5 5 5 5 5 5 5 5 5 5 5 5 5 5 5 5 5 5 5 5 5 5 5 5 5 5 5 5 5 5 5 5 5 5 5 5 5 5 5 5 5 5 5 5 5 5 5 5 5 5 5 5 5 5 5 5 5 3 5 5 5 5 5 5 3 5 5 5 5 5 5 5 5 5 3 5 3 5 5 5 5 5 5 5 5 5 5 5 5 5 5 5 5 5 5 5 5 5 5 5 5 5 5 5 5 5 5 5 5 5 5 3 5 5 5 3 3 5 5 5 5 5 5 5 5 5 5 5 5 5 5 5 5 5 5 5 5 5 5 3 3 5 5 5 5 5 5 5 5 3 5 5 5 5 5 5 3 5 5 5 5 5 3 5 5 5 5 3 5 5 5 3 5 5 5 3 5 5 3 5 5 5 5 5 5 5 5 5 5 5 5 5 3 5 5 5 5 5 5 5 5 3 5 5 5 5 5 5 5 5 5 5 5 3 5 5 5 3 5 5 5 5 3 5 5 5 5 5 5 5 5 3 5 3 5 5 3 5 5 5 5 5 3 5 5 5 5 5 5 5 5 5 5 5 5 3 5 5 5 5 5 5 5 5 5 3 5 5 5 5 5 5 3 5 5 5 5 5 5 5 3 5 5 5 5 5 3 5 5 5 5 5 5 5 5 5 5 5 5 5 5 5 5 5 5 5 5 5 5 5 5 5 5 5 5 5 5 5 5 5 5 5 5 5 5 5 5 5 5 5 5 5 5 5 3 5 3 5 5 5 5 5 5 5 5 5 5 5 5 5 5 3 5 5 5 5 5 5 5 5 5 5 5 5 5 5 5 3 5 5 3 5 3 5 5 5 5 5 3 5 5 5 5 5 5 5 5 5 5 5 5 5 5 5 5 5 5 5 5 3 5 5 5 5 5 5 5 5 5 5 5 3 5 3 5 5 3 5 3 5 5 5 5 5 5 5 3 5 3 5 5 5 5 3 5 5 5 5 3 3 5 5 3 5 5 5 5 5 5 5 5 5 5 5 5 5 5 5 5 3 5 5 5 5 5 5 5 5 5 5 5 5 5 5 3 5 3 5 5 5 5 5 5 5 3 5 3 5 5 5 5 5 5 5 5 5 3 3 5 5 5 3 5 5 5 5 3 5 3 5 5 3 5 3 3 3 5 5 3 5 5 5 3 3 3 5 5 5 5 5 5 5 5 5 5 5 3 5 5 5 5 5 5 3 5 5 5 3 5 5 5 5 5 5 5 5 3 5 5 5 3 5 5 5 5 5 5 5 5 5 5 5 5 5 5 5 5 5 5 5 5 5 5 5 5 5 5 5 5 5 5 5 5 5 5 5 5 5 5 5 5 5 5 5 5 5 5 5 5 5 5 5 5 5 5 5 5 5 5 5 5 3 5 5 5 5 5 3 5 5 5 5 3 5 5 5 3 5 5 5 5 5 5 5 5 5 5 5 5 5 5 5 5 5 5 5 5 5 5 5 5 5 5 5 5 5 5 5 5 5 5 5 5 5 5 5 5 3 5 5 3 5 5 5 5 5 5 5 3 5 5 5 5 5 5 5 5 5 5 5 3 5 5 3 5 3 5 5 5 3 5 5 5 5 5 5 5 5 3 5 5 5 5 3 5 5 5 5 3 5 3 5 5 5 5 5 5 5 5 5 5 5 5 3 5 3 5 5 5 5 5 5 5 5 5 5 5 5 5 3 5 5 5 5 5 5 5 5 5 3 5 5 5 3 5 5 5 5 5 5 5 5 5 5 5 5 5 5 5 5 5 5 5 5 5 5 5 5 5 5 5 5 5 5 5 5 5 5 5 3 5 5 3 5 5 5 5 3 5 5 5 5 5 5 5 5 5 5 5 5 5 5 5 3 5 5 5 5 5 5 5 5 5 3 5 3 5 5 5 5 5 5 5 3 5 5 5 5 5 5 5 5 5 5 5 5 5 5 3 5 5 5 5 5 5 5 5 5 5 5 3 5 5 5 5 5 5 5 5 5 5 5 5 5 5 5 5 5 5 5 5 5 5 5 3 5 3 5 5 5 5 5 5 3 5 3 5 5 5 3 5 5 5 3 5 5 5 3 5 5 3 5 5 5 5 5 5 5 3 5 5 5 5 5 5 5 3 5 5 5 5 5 5 5 5 5 5 5 5 5 3 5 5 5 5 5 5 5 5 3 5 5 5 5 5 5 5 5 5 5 5 5 5 5 5 5 5 5 5 5 3 5 5 5 5 5 5 5 5 5 5 5 5 5 5 5 5 5 5 5 5 5 5 5 5 5 5 5 5 5 5 5 5 5 5 5 5 5 5 5 5 5 5 5 5 5 5 5 5 5 5 3 5 3 5 5 5 3 5 5 3 3 5 3 5 5 5 5 5 5 5 5 5 5 5 5 5 5 5 5 5 5 5 5 5 5 5 5 5 5 5 5 5 5 5 5 5 5 5 3 5 5 5 5 3 5 5 3 5 5 5 3 5 5 5 5 3 5 3 3 5 5 5 5 3 5 5 5 3 5 5 5 3 5 5 5 5 5 5 3 5 5 5 5 5 5 5 5 5 5 5 5 5 5 5 5 5 5 5 5 3 5 5 5 5 5 5 5 5 5 5 5 5 5 5 5 5 5 5 3 5 5 3 5 5 3 5 5 5 5 5 5 5 5 5 5 5 3 5 5 5 5 3 5 5 5 5 3 5 5 5 3 5 5 5 5 5 5 5 5 5 5 5 5 5 5 5 5 5 5 5 5 5 5 5 5 5 3 5 5 5 5 5 5 5 5 3 5 5 5 3 5 5 5 5 5 5 5 5 5 5 5 5 5 5 5 5 5 5 5 5 5 5 5 5 3 5 5 5 3 5 5 5 5 5 5 5 5 3 5 5 3 5 5 5 5 3 5 5 5 5 5 5 5 3 5 3 5 5 3 5 5 3 3 5 5 5 5 5 5 5 5 5 5 5 5 5 5 5 5 5 5 5 5 5 3 5 5 5 5 3 5 5 5 5 5 5 5 5 5 5 5 5 5 3 5 5 3 5 5 5 5 5 5 5 5 5 5 5 5 5 5 5 5 5 5 5 5 5 5 5 5 5 5 5 5 5 5 5 5 5 5 5 5 5 5 5 5 5 5 5 5 5 5 5 5 5 5 5 5 5 5 5 5 5 5 5 5 5 5 5 5 5 5 5 5 5 5 5 5 5 5 5 5 5 5 5 5 5 5 5 5 5 5 5 5 5 5 5 5 5 5 5 5 5 5 5 5 5 5 5 5 5 5 5 5 5 5 5 5 5 5 5 5 5 5 5 5 5 5 5 5 5 5 5 5 3 5 5 5 5 5 5 5 3 5 5 5 5 5 5 5 5 5 3 5 3 5 5 5 3 5 5 3 5 5 5 5 5 5 5 5 5 5 5 5 5 5 5 5 5 5 5 5 5 5 5 5 5 5 5 5 5 5 5 5 5 5 5 5 5 3 5 5 3 3 5 5 3 5 5 3 5 5 5 3 5 5 5 5 5 5 5 5 5 3 5 5 5 5 5 5 3 5 5 5 5 5 5 5 5 5 5 5 5 5 5 5 5 5 5 5 5 5 5 5 5 5 5 5 5 5 5 5 3 5 5 5 5 5 5 5 5 5 5 5 5 5 5 5 5 5 5 5 5 5 5 5 5 5 5 5 5 5 5 5 5 5 5 5 5 5 5 5 5 5 5 5 5 5 5 3 5 3 5 5 5 5 3 5 5 5 5 3 5 5 5 5 3 5 5 5 5 5 5 5 5 3 5 5 3 5 3 5 5 5 5 3 5 5 3 3 5 5 5 5 5 5 3 5 5 5 5 5 5 5 5 5 5 3 3 5 5 5 5 5 3 5 5 3 5 5 5 5 3 5 5 3 5 5 5 5 5 5 5 5 5 5 5 5 5 5 5 5 5 5 5 5 5 5 5 5 5 5 5 5 5 3 5 3 5 5 5 5 5 5 5 5 5 5 5 5 5 3 5 5 5 5 3 3 5 5 5 5 5 5 5 5 5 5 5 5 5 5 5 5 5 5 5 5 5 5 5 5 5 5 5 5 5 5 5 5 5 5 5 5 5 5 5 5 5 5 3 5 5 5 3 5 5 5 5 5 5 5 5 5 5 5 5 5 5 5 5 5 5 5 5 3 5 5 3 5 5 5 5 5 5 5 5 5 3 5 5 5 5 5 3 5 5 5 5 5 3 5 3 5 5 5 5 5 5 5 5 5 5 5 5 5 3 5 5 5 3 3 5 5 5 5 5 5 5 5 3 5 5 3 5 5 3 3 5 5 5 5 5 3 5 5 5 5 5 5 5 3 5 5 3 3 5 5 5 5 5 5 3 3 5 5 5 3 5 5 5 5 5 5 5 3 5 5 5 5 5 5 5 5 5 5 5 5 5 5 5 5 5 5 5 5 5 5 5 5 5 5 3 5 5 5 5 5 5 5 3 5 5 5 5 5 5 5 5 5 5 5 3 5 5 5 5 5 5 5 5 3 5 5 5 5 5 5 5 5 5 5 5 5 5 5 5 5 3 5 5 5 3 5 5 5 5 5 3 5 5 5 5 5 5 5 5 5 5 5 5 5 5 3 5 5 5 5 3 5 5 3 5 5 5 5 5 3 5 5 5 5 5 5 5 5 5 5 5 5 5 5 3 5 3 5 5 5 3 5 3 5 3 5 5 5 5 5 5 3 3 5 5 5 5 5 5 3 5 3 5 5 5 5 5 5 5 5 5 5 5 5 5 5 5 5 5 3 5 5 5 3 3 5 5 5 5 5 3 5 5 3 3 5 5 5 5 5 5 5 5 5 5 5 5 5 5 5 5 5 5 5 5 5 5 5 5 5 5 5 5 5 5 5 5 5 5 5 5 5 5 5 5 5 5 5 5 3 5 5 3 3 3 5 5 5 5 5 5 3 5 5 5 5 5 5 5 5 5 3 5 5 5 3 5 5 5 5 5 5 5 5 5 5 5 5 5 5 5 5 5 5 5 5 3 5 5 5 5 3 5 5 5 5 5 5 5 5 5 5 5 5 5 5 5 5 5 5 5 5 5 5 5 5 5 5 5 5 5 5 5 5 5 5 3 5 3 5 5 5 5 5 5 5 5 3 5 5 5 3 5 3 5 5 5 5 5 5 5 5 3 5 5 5 5 3 5 5 5 5 3 5 5 5 5 5 5 5 3 5 5 5 5 3 5 5 5 5 5 5 5 5 5 5 5 5 5 5 5 5 5 5 5 5 5 5 5 5 5 5 5 5 5 5 5 5 5 5 5 5 5 5 5 5 5 5 5 5 5 5 3 5 5 5 5 3 3 5 5 3 3 5 5 5 5 5 5 5 5 5 5 5 5 5 5 5 5 5 5 5 3 5 5 5 3 3 5 5 5 5 5 5 5 5 5 5 5 5 5 5 5 5 5 5 5 5 5 5 5 5 5 5 5 3 5 5 5 5 5 5 5 3 5 5 5 5 5 5 5 5 5 5 5 5 5 5 5 3 5 5 5 5 5 5 5 5 3 5 3 3 5 5 5 5 5 5 5 5 5 5 5 5 3 5 5 5 5 5 5 5 5 5 5 5 5 5 5 5 5 5 5 3 5 5 5 3 5 5 5 5 5 5 5 5 3 5 5 5 5 5 5 5 5 5 5 5 5 5 5 5 3 5 5 5 3 5 5 5 5 5 5 5 5 5 5 5 5 5 5 5 5 5 5 5 5 5 5 5 5 5 5 5 5 5 5 5 5 5 3 5 3 5 5 5 5 5 5 5 5 3 5 5 5 5 5 5 5 5 5 3 5 5 3 5 5 5 5 5 3 5 5 5 5 3 5 5 5 5 3 5 5 5 3 5 3 5 5 3 5 5 5 5 5 5 5 5 5 5 5 5 5 5 3 5 5 3 5 3 5 5 5 3 5 5 3 5 5 5 5 3 5 3 5 5 5 5 5 5 3 5 3 5 5 5 5 5 3 5 5 5 5 3 5 5 5 5 5 5 3 5 5 5 5 5 5 5 5 5 5 5 5 5 5 5 5 5 5 5 5 5 5 5 5 5 5 5 5 5 5 5 5 5 3 3 5 5 5 5 5 5 5 5 5 5 3 5 5 3 3 5 3 5 5 5 5 5 5 5 3 5 5 5 5 5 5 5 5 5 5 5 5 3 5 5 5 5 3 5 5 5 5 5 5 5 5 5 5 5 5 3 5 5 5 5 5 5 5 5 5 5 5 5 5 5 5 5 5 3 5 5 5 5 5 3 5 5 5 3 5 5 5 5 5 5 3 5 3 5 5 5 3 5 5 5 5 5 5 5 5 5 3 5 5 3 5 5 5 5 5 5 5 3 5 5 5 5 5 5 5 5 5 5 5 5 5 3 5 5 3 5 5 5 5 5 5 3 5 5 5 5 5 5 3 5 5 5 5 5 5 5 3 5 5 5 5 5 5 5 5 5 5 5 5 5 5 5 5 5 5 5 5 5 5 3 5 5 5 5 5 5 5 5 5 5 3 5 5 5 5 3 3 5 5 5 5 3 5 5 5 5 5 5 5 5 5 3 5 5 5 5 5 5 5 5 5 5 5 3 5 5 5 3 5 5 5 3 5 5 5 5 5 5 5 5 5 5 5 5 3 5 5 5 5 5 3 5 5 3 5 5 5 5 5 5 5 5 5 5 5 5 5 5 3 5 5 5 5 5 5 5 3 5 5 5 3 5 5 5 5 5 3 5 5 5 5 5 5 5 5 5 3 5 5 5 5 5 5 5 5 3 5 5 5 5 5 3 5 5 5 5 5 5 5 3 5 5 5 5 5 5 5 5 5 5 5 5 5 5 5 5 5 5 5 5 5 5 5 5 5 5 5 5 5 5 5 5 5 5 5 5 5 5 5 5 5 5 5 5 5 5 5 5 3 5 5 5 5 5 5 5 3 5 5 5 5 5 5 5 5 5 5 5 5 5 5 5 5 5 5 5 5 5 5 3 3 5 5 3 3 5 5 5 5 5 5 5 3 5 5 5 5 5 5 5 5 5 5 5 5 5 5 3 5 5 5 5 5 5 5 5 3 5 5 3 5 5 5 3 5 5 5 5 5 5 5 5 5 5 5 5 5 5 5 5 5 5 5 5 5 5 5 5 5 5 5 5 3 5 5 5 5 5 5 5 5 3 5 5 5 5 5 5 3 3 5 5 5 5 3 5 5 3 5 5 3 5 5 5 5 5 5 3 5 5 5 5 5 5 5 5 3 5 5 5 5 5 5 5 5 5 5 5 3 5 5 3 5 5 5 5 5 5 5 3 5 5 5 3 5 3 5 3 5 5 5 5 5 5 5 5 5 5 5 5 5 5 5 5 5 3 5 3 5 5 5 5 5 5 5 5 5 5 3 5 5 5 5 5 5 5 3 5 5 5 3 5 3 3 5 5 3 5 5 5 5 3 5 5 5 3 5 5 5 3 5 3 3 5 5 5 5 5 5 3 5 5 5 5 5 5 5 5 3 3 3 5 3 5 5 3 3 5 5 3 5 5 5 5 5 5 5 5 5 5 5 3 5 5 5 5 5 5 5 5 5 5 5 5 5 3 3 5 5 5 5 3 5 5 5 3 5 5 5 5 5 3 3 5 5 5 3 5 5 5 5 5 5 5 5 5 5 5 5 5 5 5 3 5 5 5 3 5 5 5 3 5 5 5 5 5 5 3 5 5 5 5 5 3 5 5 5 5 5 5 5 5 3 5 5 5 5 5 5 5 5 5 3 5 5 5 5 3 5 3 5 5 3 5 3 5 5 5 5 5 5 3 5 3 3 5 5 5 5 5 5 5 5 3 5 3 5 3 5 3 5 5 5 5 5 5 5 5 5 5 5 3 5 5 5 3 5 5 5 5 5 5 5 5 3 5 5 5 5 5 5 5 5 5 3 5 5 5 5 3 5 5 3 5 5 5 5 5 5 5 5 5 3 5 5 5 3 5 5 5 5 5 5 5 5 5 5 5 5 5 5 5 5 5 5 5 3 5 5 5 5 5 5 5 5 5 5 3 5 5 5 5 5 5 5 5 5 5 5 5 5 5 5 5 5 5 5 5 5 5 5 5 5 5 5 5 5 5 5 5 5 5 5 5 5 5 5 5 5 5 5 5 5 3 3 5 5 5 5 5 5 5 5 5 5 5 5 5 3 3 5 5 5 3 5 5 3 5 5 5 3 5 5 5 3 5 5 5 5 5 5 5 5 3 5 5 3 5 3 3 5 5 5 5 5 5 3 5 3 3 3 5 5 3 5 5 3 3 5 5 5 5 5 5 5 5 5 5 5 5 5 5 5 5 5 5 5 5 5 3 5 5 5 5 5 5 5 5 5 3 5 5 5 5 5 5 5 3 3 5 5 5 5 5 5 5 5 5 5 5 5 5 5 5 5 5 5 5 5 5 5 5 3 5 3 5 5 5 5 5 5 5 3 5 5 5 3 3 5 5 3 5 5 5 5 3 5 5 5 3 5 5 5 3 5 5 5 5 5 5 5 5 5 3 3 5 5 5 5 5 3 5 5 3 3 3 5 5 5 5 5 3 5 5 5 5 5 5 5 5 5 3 5 3 5 5 5 5 5 5 5 5 5 5 5 5 5 5 5 5 5 5 5 5 5 5 5 5 3 5 5 5 5 3 3 5 5 5 3 5 5 5 5 5 5 5 5 5 5 5 5 5 5 5 5 3 5 5 5 3 5 5 3 5 5 5 5 5 5 5 5 5 5 5 5 5 3 5 5 3 5 5 5 3 5 3 5 3 5 3 3 3 5 5 5 5 5 5 5 5 3 5 5 5 5 5 5 5 5 3 5 5 3 5 5 5 5 5 5 5 5 5 5 5 5 5 5 5 5 5 5 5 5 5 3 5 5 5 5 5 5 5 5 5 5 3 5 3 5 5 3 5 3 5 3 5 5 3 5 3 5 5 3 5 5 5 3 5 5 5 5 5 5 5 5 5 5 5 5 5 5 5 5 5 5 5 5 5 5 5 5 5 5 5 5 5 5 5 5 5 5 5 5 5 5 5 5 5 5 5 5 5 5 5 5 5 5 5 5 5 5 5 5 5 5 5 5 5 3 5 5 3 5 5 5 5 5 5 3 3 5 5 5 5 5 5 5 5 5 5 5 5 5 5 5 5 5 5 3 5 5 5 3 5 5 5 5 5 5 5 5 5 5 5 5 5 5 5 5 3 5 5 5 5 5 5 5 3 5 5 5 5 5 5 5 5 3 5 3 5 5 5 5 5 5 5 5 5 5 5 5 5 5 5 5 3 5 5 5 5 5 5 5 3 5 5 5 5 3 5 5 5 5 5 5 5 3 5 5 3 3 5 5 3 5 5 5 5 5 5 3 5 5 5 5 5 5 5 5 5 3 5 5 3 5 5 3 5 5 3 5 5 5 5 5 3 5 5 5 5 5 5 5 5 3 5 5 5 5 5 5 5 3 5 5 5 5 5 5 5 5 5 5 5 5 3 5 5 5 5 5 5 5 3 3 5 3 5 3 5 5 5 5 5 5 5 5 5 5 5 5 5 5 5 3 5 3 5 5 5 5 5 5 5 5 3 5 3 5 3 5 3 5 3 5 5 3 5 5 5 5 5 3 5 5 5 5 5 5 5 5 3 5 5 5 5 5 3 5 5 3 5 3 3 5 5 5 5 5 5 5 5 3 5 5 5 5 5 5 5 5 5 5 5 5 5 3 5 5 5 5 5 5 5 3 5 5 5 3 5 5 5 5 5 5 5 5 5 5 5 5 5 5 5 5 5 3 5 5 5 5 5 5 5 3 5 5 3 5 5 5 5 5 5 5 5 5 5 5 5 5 5 5 3 5 5 5 5 3 5 5 5 5 5 5 5 5 5 5 5 5 5 5 5 5 5 5 5 5 5 5 5 5 5 3 5 5 5 5 5 5 3 5 5 5 5 5 5 5 5 5 3 3 5 5 5 3 5 3 5 5 5 5 5 5 5 5 5 5 5 5 5 5 5 3 5 5 5 5 5 5 5 5 5 5 5 5 3 3 5 5 5 5 5 5 5 5 3 5 5 3 5 5 3 3 5 5 5 5 5 5 5 3 5 5 5 5 5 5 5 5 5 3 5 5 5 3 5 5 5 5 5 3 5 5 5 5 5 5 5 5 5 5 5 5 3 5 5 5 3 5 5 5 3 5 5 5 5 5 5 5 5 5 5 5 5 5 5 5 5 5 5 5 5 5 5 5 5 5 5 5 5 5 5 5 5 3 5 5 5 5 5 5 5 5 5 5 5 5 5 5 5 5 5 5 5 5 5 5 5 5 3 5 3 5 5 3 5 5 5 5 5 5 5 5 5 3 5 5 5 5 5 5 5 5 5 5 5 5 5 5 3 5 5 5 5 3 5 5 5 3 5 5 5 5 5 5 5 5 5 5 5 5 5 5 5 5 5 5 5 5 5 5 5 5 5 5 5 5 5 5 5 5 5 5 5 5 5 5 5 5 5 5 5 5 5 5 5 5 5 5 5 5 5 5 5 5 5 5 5 5 5 5 5 5 5 5 5 5 5 5 5 5 5 5 5 5 5 5 5 5 5 5 5 5 5 5 5 5 5 5 5 5 5 5 5 5 5 5 5 5 5 5 5 5 5 5 5 5 5 5 5 5 5 5 5 5 5 5 5 5 5 5 5 5 5 5 5 5 5 5 5 5 5 5 5 5 5 5 5 5 5 5 5 5 5 5 5 5 5 5 5 5 5 5 5 5 5 5 5 5 5 5 5 5 5 5 5 5 5 5 5 5 5 5 5 5 5 5 5 5 5 5 5 5 5 5 5 5 5 3 5 5 5 5 5 5 5 5 5 5 5 5 5 5 5 5 3 5 5 5 5 5 5 5 5 3 5 5 5 5 3 5 5 5 5 5 5 5 5 5 5 5 5 5 5 5 5 5 5 5 5 5 5 3 5 5 5 5 5 5 5 5 5 5 5 5 5 3 3 5 5 5 5 5 3 5 3 5 5 5 5 5 5 5 5 5 5 5 3 5 5 5 5 5 5 5 3 5 5 5 5 5 5 5 5 5 5 5 5 5 5 5 3 3 5 5 5 5 5 5 5 5 5 5 5 5 3 5 5 5 5 5 5 5 5 5 5 5 5 5 5 5 5 3 5 5 5 5 5 5 5 3 5 5 5 5 5 5 5 5 5 5 3 3 5 5 5 5 5 5 5 5 5 5 5 5 5 5 5 5 5 5 5 5 5 5 5 5 5 5 5 5 5 5 3 5 5 5 5 5 3 5 5 5 5 5 5 5 5 5 5 3 5 5 5 5 3 5 5 5 5 5 5 5 5 5 5 3 5 3 5 5 5 5 5 5 5 5 5 5 5 5 5 5 5 5 5 5 5 5 5 5 5 5 5 5 5 5 5 5 5 3 5 5 5 5 5 3 5 5 5 5 5 5 5 5 5 5 5 5 5 5 5 5 5 5 3 5 5 3 5 5 5 3 5 5 5 5 5 3 5 5 5 5 5 5 5 5 5 5 3 5 5 5 5 5 5 3 5 5 5 5 5 3 3 5 5 3 5 5 3 5 5 5 5 5 5 5 5 5 5 3 5 5 3 5 5 3 5 5 3 5 5 3 5 5 3 5 5 5 5 5 5 3 5 5 5 5 5 5 5 5 5 5 5 3 5 5 5 5 5 5 5 3 5 5 5 5 3 5 5 5 3 5 5 5 5 5 5 5 5 5 5 5 3 5 5 5 5 5 5 5 5 5 5 5 5 5 5 5 5 5 5 5 5 5 5 5 5 3 5 5 5 5 5 3 5 5 5 5 5 5 5 5 5 5 5 5 5 5 3 5 5 3 5 3 5 5 5 5 3 5 3 3 5 3 5 5 5 5 5 5 5 3 5 3 5 5 5 5 5 5 3 5 5 5 5 5 5 3 5 5 5 5 3 5 5 5 5 5 3 5 5 3 5 5 5 5 3 5 5 5 5 3 5 5 5 5 5 5 3 5 5 5 5 5 5 5 5 5 3 5 5 5 5 5 5 3 5 5 5 5 3 5 5 5 5 5 5 5 5 5 5 5 5 5 5 5 5 3 5 5 5 3 5 5 3 5 5 5 5 5 5 5 5 5 5 5 5 5 5 5 5 3 5 3 5 5 5 5 5 5 5 5 5 5 5 5 5 5 5 5 5 5 5 5 5 5 5 5 5 5 3 5 5 3 5 5 5 5 5 5 5 5 5 5 3 5 5 5 5 3 5 5 5 5 3 5 5 5 5 5 5 5 5 5 3 5 5 5 5 5 5 5 5 5 5 5 5 5 5 5 5 5 5 5 5 5 5 5 5 5 5 5 5 
</DataArray>
</Cells>
<PointData Scalars="" Vectors="displacement," Tensors="">
<DataArray type="Float64" Name="displacement" NumberOfComponents="3" format="ascii">
-0.034997130060826526 -2.718910821088433e-07 0 -0.034119508316485199 -0.00018174901655991363 0 -0.034997665558808913 -7.4697751834817774e-07 0 -0.034997130060826526 -2.718910821088433e-07 0 -0.03347418195432518 -0.00012251451530503277 0 -0.034119508316485199 -0.00018174901655991363 0 -0.034997130060826526 -2.718910821088433e-07 0 -0.03347418195432518 -0.00012251451530503277 0 -0.031404216199268128 -2.7655472896681296e-07 0 -0.03347418195432518 -0.00012251451530503277 0 -0.031404216199268128 -2.7655472896681296e-07 0 -0.032861729221640754 6.5450310871409837e-05 0 -0.031404216199268128 -2.7655472896681296e-07 0 -0.032861729221640754 6.5450310871409837e-05 0 -0.031218204984612519 -6.7515547720150965e-05 0 -0.033388305982678501 0.00029928962979740585 0 -0.033444057421912345 0.00030889182812029331 0 -0.032861729221640754 6.5450310871409837e-05 0 -0.032323624955206173 0.0002978308392770475 0 -0.032273258142361587 9.432919532367867e-05 0 -0.032861729221640754 6.5450310871409837e-05 0 -0.032273258142361587 9.432919532367867e-05 0 -0.032296073574742214 1.4509613102945728e-05 0 -0.03347418195432518 -0.00012251451530503277 0 -0.032861729221640754 6.5450310871409837e-05 0 -0.034119508316485199 -0.00018174901655991363 0 -0.032861729221640754 6.5450310871409837e-05 0 -0.034119508316485199 -0.00018174901655991363 0 -0.034445179961199134 0.00026098574080945375 0 -0.034119508316485199 -0.00018174901655991363 0 -0.034883333088487463 -3.2613906838364838e-05 0 -0.034445179961199134 0.00026098574080945375 0 -0.034119508316485199 -0.00018174901655991363 0 -0.034997665558808913 -7.4697751834817774e-07 0 -0.034883333088487463 -3.2613906838364838e-05 0 -0.034999999102182648 1.233304502787474e-10 0 -0.034999152539792487 -3.9745172648041005e-07 0 -0.034999999293077323 -4.9075967175139535e-10 0 -0.034997006607250483 1.1735755399689877e-06 0 -0.03429015675743579 0.00017876742976281865 0 -0.034999999293077323 -4.9075967175139535e-10 0 -0.034998976450758938 -7.4270774501592807e-07 0 -0.034999616651226091 -1.1709317043146887e-06 0 -0.034999999293077323 -4.9075967175139535e-10 0 -0.034999997603512717 -1.7166789505052628e-09 0 -0.034999616651226091 -1.1709317043146887e-06 0 -0.034999152539792487 -3.9745172648041005e-07 0 -0.034999999293077323 -4.9075967175139535e-10 0 -0.034998976450758938 -7.4270774501592807e-07 0 -0.034999152539792487 -3.9745172648041005e-07 0 -0.034998976450758938 -7.4270774501592807e-07 0 -0.034997887535128114 -6.8978218193279207e-07 0 -0.03429015675743579 0.00017876742976281865 0 -0.033497925115773083 0.00033546453601576075 0 -0.034998976450758938 -7.4270774501592807e-07 0 -0.034998688445233496 -9.6083194594734465e-07 0 -0.034997887535128114 -6.8978218193279207e-07 0 -0.034998976450758938 -7.4270774501592807e-07 0 -0.034998688445233496 -9.6083194594734465e-07 0 -0.034999616651226091 -1.1709317043146887e-06 0 -0.033950891665130337 0.00021133937126623017 0 -0.033497925115773083 0.00033546453601576075 0 -0.033363693754126816 0.00015079618338244437 0 -0.033122053946743342 0.00042571748563386119 0 -0.032783184569119841 0.00028796547235656413 0 -0.033363693754126816 0.00015079618338244437 0 -0.033122053946743342 0.00042571748563386119 0 -0.033420823884104195 0.00049010493714018728 0 -0.033122053946743342 0.00042571748563386119 0 -0.032783184569119841 0.00028796547235656413 0 -0.033056793274313712 0.0007711164810578901 0 -0.03206650578137351 0.00034387317299815337 0 -0.031967102531863856 0.00018162808444378061 0 -0.032163432411710796 0.00021009517940953759 0 -0.033497925115773083 0.00033546453601576075 0 -0.032530211349754631 0.00072062852042806811 0 -0.031967102531863856 0.00018162808444378061 0 -0.032163432411710796 0.00021009517940953759 0 -0.032111016573643493 0.00010981563441530265 0 -0.033056793274313712 0.0007711164810578901 0 -0.033420823884104195 0.00049010493714018728 0 -0.033512346907597863 0.00079234180910846188 0 -0.033122053946743342 0.00042571748563386119 0 -0.033056793274313712 0.0007711164810578901 0 -0.033420823884104195 0.00049010493714018728 0 -0.03206650578137351 0.00034387317299815337 0 -0.032323624955206173 0.0002978308392770475 0 -0.032163432411710796 0.00021009517940953759 0 -0.033497925115773083 0.00033546453601576075 0 -0.033444057421912345 0.00030889182812029331 0 -0.034883333088487463 -3.2613906838364838e-05 0 -0.035005451976469773 0.00023442868808767106 0 -0.034445179961199134 0.00026098574080945375 0 -0.032163432411710796 0.00021009517940953759 0 -0.032273258142361587 9.432919532367867e-05 0 -0.032206302583404185 0.00011835909947766582 0 -0.032163432411710796 0.00021009517940953759 0 -0.032206302583404185 0.00011835909947766582 0 -0.032111016573643493 0.00010981563441530265 0 -0.032323624955206173 0.0002978308392770475 0 -0.032163432411710796 0.00021009517940953759 0 -0.032273258142361587 9.432919532367867e-05 0 -0.032273258142361587 9.432919532367867e-05 0 -0.032274661664060934 6.9930412390781669e-05 0 -0.032296073574742214 1.4509613102945728e-05 0 -0.032274661664060934 6.9930412390781669e-05 0 -0.032277912855177018 0.00013422989252053304 0 -0.032296073574742214 1.4509613102945728e-05 0 -0.032274661664060934 6.9930412390781669e-05 0 -0.032262278632203198 7.5469108804886899e-05 0 -0.032271658355353304 9.7281790178531757e-05 0 -0.032274661664060934 6.9930412390781669e-05 0 -0.032250614415817322 8.0890750322367355e-05 0 -0.032262278632203198 7.5469108804886899e-05 0 -0.032273258142361587 9.432919532367867e-05 0 -0.032274661664060934 6.9930412390781669e-05 0 -0.032250614415817322 8.0890750322367355e-05 0 -0.032273258142361587 9.432919532367867e-05 0 -0.032206302583404185 0.00011835909947766582 0 -0.032250614415817322 8.0890750322367355e-05 0 -0.032206302583404185 0.00011835909947766582 0 -0.032250614415817322 8.0890750322367355e-05 0 -0.032217107271482061 6.9864556924553858e-05 0 -0.032206302583404185 0.00011835909947766582 0 -0.032217107271482061 6.9864556924553858e-05 0 -0.032111016573643493 0.00010981563441530265 0 -0.032217107271482061 6.9864556924553858e-05 0 -0.032111016573643493 0.00010981563441530265 0 -0.032112237246795343 1.0964101718644697e-05 0 -0.026835277045403887 0.0013913504921015663 0 -0.026791650291458545 0.0014161124670253556 0 -0.032217107271482061 6.9864556924553858e-05 0 -0.032250160532763555 6.2898996115774562e-05 0 -0.032228478032885768 2.3836877463312296e-05 0 -0.032217107271482061 6.9864556924553858e-05 0 -0.032197090613714105 -3.8727999743278963e-05 0 -0.032112237246795343 1.0964101718644697e-05 0 -0.026833313549435505 0.001430601174056984 0 -0.026791650291458545 0.0014161124670253556 0 -0.032250160532763555 6.2898996115774562e-05 0 -0.032271658355353304 9.7281790178531757e-05 0 -0.032298793834121611 0.00010325670290840316 0 -0.032250614415817322 8.0890750322367355e-05 0 -0.032262278632203198 7.5469108804886899e-05 0 -0.032250160532763555 6.2898996115774562e-05 0 -0.032250614415817322 8.0890750322367355e-05 0 -0.032217107271482061 6.9864556924553858e-05 0 -0.032250160532763555 6.2898996115774562e-05 0 -0.032262278632203198 7.5469108804886899e-05 0 -0.032250160532763555 6.2898996115774562e-05 0 -0.032271658355353304 9.7281790178531757e-05 0 -0.032271658355353304 9.7281790178531757e-05 0 -0.032298793834121611 0.00010325670290840316 0 -0.032283849411458745 0.00014884750883052686 0 -0.026791650291458545 0.0014161124670253556 0 -0.02646177775011696 0.0012099014113600124 0 -0.032298793834121611 0.00010325670290840316 0 -0.032283849411458745 0.00014884750883052686 0 -0.032320493881994358 0.00020142284391874059 0 -0.032283849411458745 0.00014884750883052686 0 -0.032277912855177018 0.00013422989252053304 0 -0.032257745362797192 0.00021300747286147405 0 -0.032277912855177018 0.00013422989252053304 0 -0.032257745362797192 0.00021300747286147405 0 -0.032231414706481575 0.00020815309222127802 0 -0.032271658355353304 9.7281790178531757e-05 0 -0.032283849411458745 0.00014884750883052686 0 -0.032277912855177018 0.00013422989252053304 0 -0.032274661664060934 6.9930412390781669e-05 0 -0.032271658355353304 9.7281790178531757e-05 0 -0.032277912855177018 0.00013422989252053304 0 -0.031967102531863856 0.00018162808444378061 0 -0.031834960606623608 -5.8053728775383251e-06 0 -0.03200197639147561 2.2499945143674848e-05 0 -0.033056793274313712 0.0007711164810578901 0 -0.033327474930438868 0.0012437856741925456 0 -0.033512346907597863 0.00079234180910846188 0 -0.032530211349754631 0.00072062852042806811 0 -0.031602814037954244 0.0011990001854656311 0 -0.031834960606623608 -5.8053728775383251e-06 0 -0.03200197639147561 2.2499945143674848e-05 0 -0.031934535163227966 -7.5432789883991784e-05 0 -0.031967102531863856 0.00018162808444378061 0 -0.03200197639147561 2.2499945143674848e-05 0 -0.032111016573643493 0.00010981563441530265 0 -0.03200197639147561 2.2499945143674848e-05 0 -0.032111016573643493 0.00010981563441530265 0 -0.032112237246795343 1.0964101718644697e-05 0 -0.032197090613714105 -3.8727999743278963e-05 0 -0.032046026694316374 -0.00011145790168484932 0 -0.032056456481934233 -0.00028377365003733708 0 -0.026791650291458545 0.0014161124670253556 0 -0.026599391545394317 0.0015493061789525297 0 -0.03200197639147561 2.2499945143674848e-05 0 -0.032112237246795343 1.0964101718644697e-05 0 -0.032046026694316374 -0.00011145790168484932 0 -0.032197090613714105 -3.8727999743278963e-05 0 -0.032112237246795343 1.0964101718644697e-05 0 -0.032046026694316374 -0.00011145790168484932 0 -0.03200197639147561 2.2499945143674848e-05 0 -0.032046026694316374 -0.00011145790168484932 0 -0.031934535163227966 -7.5432789883991784e-05 0 -0.032046026694316374 -0.00011145790168484932 0 -0.031934535163227966 -7.5432789883991784e-05 0 -0.031855265461753296 -0.0002087242925670675 0 -0.031834960606623608 -5.8053728775383251e-06 0 -0.031855265461753296 -0.0002087242925670675 0 -0.031708800803635487 -0.0002112977390496542 0 -0.031834960606623608 -5.8053728775383251e-06 0 -0.031934535163227966 -7.5432789883991784e-05 0 -0.031855265461753296 -0.0002087242925670675 0 -0.031855265461753296 -0.0002087242925670675 0 -0.031896192687517692 -0.00035456547615385288 0 -0.032056456481934233 -0.00028377365003733708 0 -0.031855265461753296 -0.0002087242925670675 0 -0.031896192687517692 -0.00035456547615385288 0 -0.031765584727015996 -0.0003729244070744087 0 -0.032046026694316374 -0.00011145790168484932 0 -0.031855265461753296 -0.0002087242925670675 0 -0.032056456481934233 -0.00028377365003733708 0 -0.026599391545394317 0.0015493061789525297 0 -0.025983335328671444 0.001669062997588161 0 -0.026201317364376822 0.0013916104056419692 0 -0.026233817936717661 0.001272132132085439 0 -0.026133941447524595 0.0012737346671639579 0 -0.026201317364376822 0.0013916104056419692 0 -0.026233817936717661 0.001272132132085439 0 -0.026251384785369418 0.001390852346869175 0 -0.025837947915708835 0.0010501795760738649 0 -0.025983335328671444 0.001669062997588161 0 -0.031905516432523984 -0.00055519935491049176 0 -0.031765584727015996 -0.0003729244070744087 0 -0.031692721806011452 -0.00055612473343354032 0 -0.031896192687517692 -0.00035456547615385288 0 -0.031905516432523984 -0.00055519935491049176 0 -0.031765584727015996 -0.0003729244070744087 0 -0.025983335328671444 0.001669062997588161 0 -0.027442393344752184 0.0016948565692097629 0 -0.031896192687517692 -0.00035456547615385288 0 -0.032056456481934233 -0.00028377365003733708 0 -0.031905516432523984 -0.00055519935491049176 0 -0.026269030332389115 0.0015097643406357928 0 -0.026201317364376822 0.0013916104056419692 0 -0.026251384785369418 0.001390852346869175 0 -0.032283849411458745 0.00014884750883052686 0 -0.032257745362797192 0.00021300747286147405 0 -0.032320493881994358 0.00020142284391874059 0 -0.032320863692277123 0.00027231100734714949 0 -0.032257745362797192 0.00021300747286147405 0 -0.032320493881994358 0.00020142284391874059 0 -0.025837947915708835 0.0010501795760738649 0 -0.02646177775011696 0.0012099014113600124 0 -0.032320863692277123 0.00027231100734714949 0 -0.032257745362797192 0.00021300747286147405 0 -0.032237673340747723 0.00027234384302651544 0 -0.032257745362797192 0.00021300747286147405 0 -0.032217493875310123 0.00022919335279884197 0 -0.032237673340747723 0.00027234384302651544 0 -0.032217493875310123 0.00022919335279884197 0 -0.032167622793049272 0.00027469954608834804 0 -0.032237673340747723 0.00027234384302651544 0 -0.032257745362797192 0.00021300747286147405 0 -0.032217493875310123 0.00022919335279884197 0 -0.032231414706481575 0.00020815309222127802 0 -0.032217493875310123 0.00022919335279884197 0 -0.032197126181954042 0.00021279336684084017 0 -0.032231414706481575 0.00020815309222127802 0 -0.031715069483156874 0.00064406316201123857 0 -0.029712840220946481 0.00074604014859199624 0 -0.031083987590562384 0.00022482486100282607 0 -0.023675231591657648 0.0017423221092140347 0 -0.023904575613579188 0.00088764466989082569 0 -0.024902141691878418 0.0010869113409329579 0 -0.027625306893780267 -0.0004893965008834234 0 -0.027233638485416649 -0.00022917864253529721 0 -0.027625306893780267 -0.0004893965008834234 0 -0.027628317122547385 -0.00048924456046318943 0 -0.027625306893780267 -0.0004893965008834234 0 -0.027273991599800932 0.00017590026320305849 0 -0.032217493875310123 0.00022919335279884197 0 -0.032197126181954042 0.00021279336684084017 0 -0.032181466184722597 0.00023959575524010551 0 -0.032217493875310123 0.00022919335279884197 0 -0.032181466184722597 0.00023959575524010551 0 -0.032167622793049272 0.00027469954608834804 0 -0.027273991599800932 0.00017590026320305849 0 -0.026892808136484869 0.00079773822766232225 0 -0.023904575613579188 0.00088764466989082569 0 -0.024485349881660255 0.00057718609326442606 0 -0.024135174547485334 2.2778776375386869e-05 0 -0.024485349881660255 0.00057718609326442606 0 -0.024902141691878418 0.0010869113409329579 0 -0.024818648825772661 8.3434139993345544e-06 0 -0.024902141691878418 0.0010869113409329579 0 -0.025525271103544165 -0.00012755905447303019 0 -0.024818648825772661 8.3434139993345544e-06 0 -0.024485349881660255 0.00057718609326442606 0 -0.024818648825772661 8.3434139993345544e-06 0 -0.024135174547485334 2.2778776375386869e-05 0 -0.023904575613579188 0.00088764466989082569 0 -0.024485349881660255 0.00057718609326442606 0 -0.024902141691878418 0.0010869113409329579 0 -0.026667945652989716 -4.7522989091931421e-07 0 -0.027233638485416649 -0.00022917864253529721 0 -0.026663356081606367 1.8321091175710465e-06 0 -0.024902141691878418 0.0010869113409329579 0 -0.025525271103544165 -0.00012755905447303019 0 -0.02666974211946371 2.843331464459264e-06 0 -0.029712840220946481 0.00074604014859199624 0 -0.028698741916549763 -4.9120573897903436e-07 0 -0.029712840220946481 0.00074604014859199624 0 -0.031083987590562384 0.00022482486100282607 0 -0.028698741916549763 -4.9120573897903436e-07 0 -0.031083987590562384 0.00022482486100282607 0 -0.028698741916549763 -4.9120573897903436e-07 0 -0.031218204984612519 -6.7515547720150965e-05 0 -0.031404216199268128 -2.7655472896681296e-07 0 -0.028698741916549763 -4.9120573897903436e-07 0 -0.031218204984612519 -6.7515547720150965e-05 0 -0.031083987590562384 0.00022482486100282607 0 -0.031218204984612519 -6.7515547720150965e-05 0 -0.031961098147540737 2.8074260137148665e-05 0 -0.032861729221640754 6.5450310871409837e-05 0 -0.031218204984612519 -6.7515547720150965e-05 0 -0.031961098147540737 2.8074260137148665e-05 0 -0.032861729221640754 6.5450310871409837e-05 0 -0.031961098147540737 2.8074260137148665e-05 0 -0.032296073574742214 1.4509613102945728e-05 0 -0.031961098147540737 2.8074260137148665e-05 0 -0.032296073574742214 1.4509613102945728e-05 0 -0.031979276909833564 0.0001561675896305329 0 -0.032296073574742214 1.4509613102945728e-05 0 -0.032231414706481575 0.00020815309222127802 0 -0.031979276909833564 0.0001561675896305329 0 -0.032277912855177018 0.00013422989252053304 0 -0.032296073574742214 1.4509613102945728e-05 0 -0.032231414706481575 0.00020815309222127802 0 -0.031755545817149483 0.00061806115924296966 0 -0.032231414706481575 0.00020815309222127802 0 -0.03177684791913632 0.0005119190212039725 0 -0.032231414706481575 0.00020815309222127802 0 -0.03177684791913632 0.0005119190212039725 0 -0.031979276909833564 0.0001561675896305329 0 -0.027625306893780267 -0.0004893965008834234 0 -0.027956186862080512 -0.00058710240563743135 0 -0.031083987590562384 0.00022482486100282607 0 -0.03177684791913632 0.0005119190212039725 0 -0.031979276909833564 0.0001561675896305329 0 -0.031715069483156874 0.00064406316201123857 0 -0.031083987590562384 0.00022482486100282607 0 -0.03177684791913632 0.0005119190212039725 0 -0.031083987590562384 0.00022482486100282607 0 -0.031961098147540737 2.8074260137148665e-05 0 -0.031979276909833564 0.0001561675896305329 0 -0.03091740808508664 0.0013463524047334983 0 -0.030367103376545936 0.0020664507168649889 0 -0.034803217003138411 -0.00032820036029984758 0 -0.034846412635790892 -0.0013650627215355674 0 -0.034291656371049098 -0.00052905643926845632 0 -0.034947006505577215 0.00010379949027937049 0 -0.034972662852044263 7.9396213317519705e-05 0 -0.034980353983430683 0.00013704749471922682 0 -0.034947006505577215 0.00010379949027937049 0 -0.034943293827622485 0.00015229577801454395 0 -0.034980353983430683 0.00013704749471922682 0 -0.034947006505577215 0.00010379949027937049 0 -0.034915151090451194 0.00014740258480145244 0 -0.034943293827622485 0.00015229577801454395 0 -0.034947006505577215 0.00010379949027937049 0 -0.034950585746716056 5.4390089062058888e-05 0 -0.034952198562591283 5.1359242828871866e-05 0 -0.034947006505577215 0.00010379949027937049 0 -0.034950585746716056 5.4390089062058888e-05 0 -0.034972662852044263 7.9396213317519705e-05 0 -0.03091740808508664 0.0013463524047334983 0 -0.031098669149564755 0.0011641697086336761 0 -0.034950585746716056 5.4390089062058888e-05 0 -0.034972662852044263 7.9396213317519705e-05 0 -0.034907847870144261 4.7179650739614839e-05 0 -0.034803217003138411 -0.00032820036029984758 0 -0.034907847870144261 4.7179650739614839e-05 0 -0.034350935724799116 3.0786606091795106e-05 0 -0.034907847870144261 4.7179650739614839e-05 0 -0.034999916256294776 1.0179182676733228e-07 0 -0.034965406404760105 3.102635060059494e-05 0 -0.034907847870144261 4.7179650739614839e-05 0 -0.034999916256294776 1.0179182676733228e-07 0 -0.034748603386606555 5.8675328711857995e-05 0 -0.034999916256294776 1.0179182676733228e-07 0 -0.034965406404760105 3.102635060059494e-05 0 -0.034999940207972084 -4.9883329500139711e-09 0 -0.034950585746716056 5.4390089062058888e-05 0 -0.034907847870144261 4.7179650739614839e-05 0 -0.034965406404760105 3.102635060059494e-05 0 -0.034950585746716056 5.4390089062058888e-05 0 -0.034965406404760105 3.102635060059494e-05 0 -0.034952198562591283 5.1359242828871866e-05 0 -0.034952198562591283 5.1359242828871866e-05 0 -0.034967716477793176 8.9316924663467752e-06 0 -0.034936989758373393 3.9532172869994063e-05 0 -0.034965406404760105 3.102635060059494e-05 0 -0.034952198562591283 5.1359242828871866e-05 0 -0.034967716477793176 8.9316924663467752e-06 0 -0.034999940207972084 -4.9883329500139711e-09 0 -0.034967716477793176 8.9316924663467752e-06 0 -0.034999932292361563 8.5063026923400105e-09 0 -0.034965406404760105 3.102635060059494e-05 0 -0.034999940207972084 -4.9883329500139711e-09 0 -0.034967716477793176 8.9316924663467752e-06 0 -0.034967716477793176 8.9316924663467752e-06 0 -0.034999932292361563 8.5063026923400105e-09 0 -0.034951567679559398 -9.0928355746655384e-06 0 -0.034951567679559398 -9.0928355746655384e-06 0 -0.034936989758373393 3.9532172869994063e-05 0 -0.034854188440905806 3.4287417924506809e-05 0 -0.034967716477793176 8.9316924663467752e-06 0 -0.034951567679559398 -9.0928355746655384e-06 0 -0.034936989758373393 3.9532172869994063e-05 0 -0.034936989758373393 3.9532172869994063e-05 0 -0.034879158406638022 9.2639388639353696e-05 0 -0.034854188440905806 3.4287417924506809e-05 0 -0.034879158406638022 9.2639388639353696e-05 0 -0.034875599687732593 0.00014183991816673781 0 -0.034827565773408557 0.00013847148166105822 0 -0.034879158406638022 9.2639388639353696e-05 0 -0.034924734553507975 9.5424436757137089e-05 0 -0.034875599687732593 0.00014183991816673781 0 -0.034936989758373393 3.9532172869994063e-05 0 -0.034879158406638022 9.2639388639353696e-05 0 -0.034924734553507975 9.5424436757137089e-05 0 -0.034947006505577215 0.00010379949027937049 0 -0.034952198562591283 5.1359242828871866e-05 0 -0.034924734553507975 9.5424436757137089e-05 0 -0.034952198562591283 5.1359242828871866e-05 0 -0.034936989758373393 3.9532172869994063e-05 0 -0.034924734553507975 9.5424436757137089e-05 0 -0.034947006505577215 0.00010379949027937049 0 -0.034924734553507975 9.5424436757137089e-05 0 -0.034915151090451194 0.00014740258480145244 0 -0.034924734553507975 9.5424436757137089e-05 0 -0.034915151090451194 0.00014740258480145244 0 -0.034875599687732593 0.00014183991816673781 0 -0.034915151090451194 0.00014740258480145244 0 -0.034875599687732593 0.00014183991816673781 0 -0.034865702559558093 0.00018994985048781577 0 -0.034875599687732593 0.00014183991816673781 0 -0.034807641723185984 0.0001820054298103205 0 -0.034865702559558093 0.00018994985048781577 0 -0.034875599687732593 0.00014183991816673781 0 -0.034827565773408557 0.00013847148166105822 0 -0.034807641723185984 0.0001820054298103205 0 -0.030982064814177538 0.0019847853821520207 0 -0.031097421474955388 0.0019184109473244953 0 -0.03476583562630807 0.0002101200500498139 0 -0.034706901799967792 0.00021426402179224055 0 -0.034741734740536968 0.00013894261625196916 0 -0.034827565773408557 0.00013847148166105822 0 -0.034807641723185984 0.0001820054298103205 0 -0.034741734740536968 0.00013894261625196916 0 -0.034521062084601636 0.00093968390857699746 0 -0.034437963353302223 0.00063900397396238554 0 -0.034709643172147323 8.7011952061466228e-05 0 -0.030984742348783002 0.0017907805190048901 0 -0.031458627259472689 0.0018607405735505847 0 -0.034521062084601636 0.00093968390857699746 0 -0.034437963353302223 0.00063900397396238554 0 -0.034131264048649523 0.00060825388828822174 0 -0.034437963353302223 0.00063900397396238554 0 -0.034709643172147323 8.7011952061466228e-05 0 -0.034510837375916176 0.0002257223968382531 0 -0.030984742348783002 0.0017907805190048901 0 -0.031408270459659063 0.0011895501269875682 0 -0.034706901799967792 0.00021426402179224055 0 -0.034709643172147323 8.7011952061466228e-05 0 -0.034741734740536968 0.00013894261625196916 0 -0.034437963353302223 0.00063900397396238554 0 -0.034389162038112861 0.00037851327142298958 0 -0.034236781403475407 0.00042611530831020806 0 -0.034437963353302223 0.00063900397396238554 0 -0.034389162038112861 0.00037851327142298958 0 -0.034510837375916176 0.0002257223968382531 0 -0.034389162038112861 0.00037851327142298958 0 -0.034330627184467534 0.00021021112124810026 0 -0.034236781403475407 0.00042611530831020806 0 -0.034389162038112861 0.00037851327142298958 0 -0.034330627184467534 0.00021021112124810026 0 -0.034510837375916176 0.0002257223968382531 0 -0.034709643172147323 8.7011952061466228e-05 0 -0.034807215229985894 0.0001026486781297206 0 -0.034854188440905806 3.4287417924506809e-05 0 -0.034709643172147323 8.7011952061466228e-05 0 -0.034741734740536968 0.00013894261625196916 0 -0.034807215229985894 0.0001026486781297206 0 -0.034879158406638022 9.2639388639353696e-05 0 -0.034827565773408557 0.00013847148166105822 0 -0.034807215229985894 0.0001026486781297206 0 -0.034827565773408557 0.00013847148166105822 0 -0.034741734740536968 0.00013894261625196916 0 -0.034807215229985894 0.0001026486781297206 0 -0.034879158406638022 9.2639388639353696e-05 0 -0.034807215229985894 0.0001026486781297206 0 -0.034854188440905806 3.4287417924506809e-05 0 -0.034951567679559398 -9.0928355746655384e-06 0 -0.034854188440905806 3.4287417924506809e-05 0 -0.034694004557618681 -9.020269171487322e-05 0 -0.034557108428959038 5.8500009854563087e-05 0 -0.034485270643497032 7.4569649234109301e-05 0 -0.034951567679559398 -9.0928355746655384e-06 0 -0.034987840509796343 -2.1213043700450883e-06 0 -0.035000456310743076 -1.0349134812720781e-05 0 -0.034709643172147323 8.7011952061466228e-05 0 -0.034854188440905806 3.4287417924506809e-05 0 -0.034694004557618681 -9.020269171487322e-05 0 -0.034999932292361563 8.5063026923400105e-09 0 -0.03500001223752594 -3.3936756280540634e-09 0 -0.03499700989334692 -1.209971963069665e-06 0 -0.034999932292361563 8.5063026923400105e-09 0 -0.034987840509796343 -2.1213043700450883e-06 0 -0.03499700989334692 -1.209971963069665e-06 0 -0.034999932292361563 8.5063026923400105e-09 0 -0.034951567679559398 -9.0928355746655384e-06 0 -0.034987840509796343 -2.1213043700450883e-06 0 -0.034987840509796343 -2.1213043700450883e-06 0 -0.03499700989334692 -1.209971963069665e-06 0 -0.035000456310743076 -1.0349134812720781e-05 0 -0.03499700989334692 -1.209971963069665e-06 0 -0.035000456310743076 -1.0349134812720781e-05 0 -0.035000774425807034 -2.5099180203863885e-06 0 -0.03500001223752594 -3.3936756280540634e-09 0 -0.03499700989334692 -1.209971963069665e-06 0 -0.035000774425807034 -2.5099180203863885e-06 0 -0.034485270643497032 7.4569649234109301e-05 0 -0.03427598844972321 0.00012578279114250972 0 -0.035000456310743076 -1.0349134812720781e-05 0 -0.035000157199845706 -2.5745972845069808e-06 0 -0.035000774425807034 -2.5099180203863885e-06 0 -0.034330627184467534 0.00021021112124810026 0 -0.034694004557618681 -9.020269171487322e-05 0 -0.034018954772984937 -6.9936203637757735e-06 0 -0.034709643172147323 8.7011952061466228e-05 0 -0.034510837375916176 0.0002257223968382531 0 -0.034694004557618681 -9.020269171487322e-05 0 -0.034330627184467534 0.00021021112124810026 0 -0.034510837375916176 0.0002257223968382531 0 -0.034694004557618681 -9.020269171487322e-05 0 -0.035000157199845706 -2.5745972845069808e-06 0 -0.035000774425807034 -2.5099180203863885e-06 0 -0.034999616651226091 -1.1709317043146887e-06 0 -0.03500001223752594 -3.3936756280540634e-09 0 -0.035000774425807034 -2.5099180203863885e-06 0 -0.034999997603512717 -1.7166789505052628e-09 0 -0.035000774425807034 -2.5099180203863885e-06 0 -0.034999997603512717 -1.7166789505052628e-09 0 -0.034999616651226091 -1.1709317043146887e-06 0 -0.034998688445233496 -9.6083194594734465e-07 0 -0.035000157199845706 -2.5745972845069808e-06 0 -0.034999616651226091 -1.1709317043146887e-06 0 -0.033950891665130337 0.00021133937126623017 0 -0.03427598844972321 0.00012578279114250972 0 -0.033363693754126816 0.00015079618338244437 0 -0.033420823884104195 0.00049010493714018728 0 -0.033738444553335627 0.00028316836184493367 0 -0.033363693754126816 0.00015079618338244437 0 -0.034018954772984937 -6.9936203637757735e-06 0 -0.033738444553335627 0.00028316836184493367 0 -0.033420823884104195 0.00049010493714018728 0 -0.033738444553335627 0.00028316836184493367 0 -0.033704418862643359 0.00054902725649401266 0 -0.034018954772984937 -6.9936203637757735e-06 0 -0.033738444553335627 0.00028316836184493367 0 -0.034074595052911334 0.00030889880219595647 0 -0.034330627184467534 0.00021021112124810026 0 -0.034018954772984937 -6.9936203637757735e-06 0 -0.034074595052911334 0.00030889880219595647 0 -0.034330627184467534 0.00021021112124810026 0 -0.034074595052911334 0.00030889880219595647 0 -0.034236781403475407 0.00042611530831020806 0 -0.034074595052911334 0.00030889880219595647 0 -0.034236781403475407 0.00042611530831020806 0 -0.034131264048649523 0.00060825388828822174 0 -0.033738444553335627 0.00028316836184493367 0 -0.034037208536147126 0.00057726610084594498 0 -0.033704418862643359 0.00054902725649401266 0 -0.033738444553335627 0.00028316836184493367 0 -0.034074595052911334 0.00030889880219595647 0 -0.034131264048649523 0.00060825388828822174 0 -0.031587576073849863 0.0018616096645657002 0 -0.031458627259472689 0.0018607405735505847 0 -0.034037208536147126 0.00057726610084594498 0 -0.033833409868494403 0.00071083541401022166 0 -0.033704418862643359 0.00054902725649401266 0 -0.034437963353302223 0.00063900397396238554 0 -0.034236781403475407 0.00042611530831020806 0 -0.034131264048649523 0.00060825388828822174 0 -0.034037208536147126 0.00057726610084594498 0 -0.034072941908990878 0.00073372443351001136 0 -0.033833409868494403 0.00071083541401022166 0 -0.03433717590634134 0.00084398729399507333 0 -0.034037208536147126 0.00057726610084594498 0 -0.034072941908990878 0.00073372443351001136 0 -0.034072941908990878 0.00073372443351001136 0 -0.033919980861851544 0.00087241967091871212 0 -0.033994864538627857 0.0010485810037301065 0 -0.034072941908990878 0.00073372443351001136 0 -0.033919980861851544 0.00087241967091871212 0 -0.033833409868494403 0.00071083541401022166 0 -0.033919980861851544 0.00087241967091871212 0 -0.033833409868494403 0.00071083541401022166 0 -0.03370853569223009 0.0010138175460048453 0 -0.033833409868494403 0.00071083541401022166 0 -0.033512346907597863 0.00079234180910846188 0 -0.03370853569223009 0.0010138175460048453 0 -0.033420823884104195 0.00049010493714018728 0 -0.033512346907597863 0.00079234180910846188 0 -0.033704418862643359 0.00054902725649401266 0 -0.033833409868494403 0.00071083541401022166 0 -0.033512346907597863 0.00079234180910846188 0 -0.033704418862643359 0.00054902725649401266 0 -0.033327474930438868 0.0012437856741925456 0 -0.033512346907597863 0.00079234180910846188 0 -0.03370853569223009 0.0010138175460048453 0 -0.033327474930438868 0.0012437856741925456 0 -0.03370853569223009 0.0010138175460048453 0 -0.033671485214502424 0.0013488014267564101 0 -0.03370853569223009 0.0010138175460048453 0 -0.033892554932244578 0.0012658185948209208 0 -0.033671485214502424 0.0013488014267564101 0 -0.034072941908990878 0.00073372443351001136 0 -0.033994864538627857 0.0010485810037301065 0 -0.034270172173946879 0.0012095839750032253 0 -0.033919980861851544 0.00087241967091871212 0 -0.03370853569223009 0.0010138175460048453 0 -0.033994864538627857 0.0010485810037301065 0 -0.033994864538627857 0.0010485810037301065 0 -0.034089601346080863 0.0012522218729744709 0 -0.033892554932244578 0.0012658185948209208 0 -0.033994864538627857 0.0010485810037301065 0 -0.034089601346080863 0.0012522218729744709 0 -0.034270172173946879 0.0012095839750032253 0 -0.03370853569223009 0.0010138175460048453 0 -0.033994864538627857 0.0010485810037301065 0 -0.033892554932244578 0.0012658185948209208 0 -0.033892554932244578 0.0012658185948209208 0 -0.033855789310244737 0.0014977149445900282 0 -0.033671485214502424 0.0013488014267564101 0 -0.033855789310244737 0.0014977149445900282 0 -0.033587895439818743 0.0017074337144033815 0 -0.034144335347914043 0.0017209807461224728 0 -0.033892554932244578 0.0012658185948209208 0 -0.034054978261842582 0.0013857023052254965 0 -0.033855789310244737 0.0014977149445900282 0 -0.034089601346080863 0.0012522218729744709 0 -0.033892554932244578 0.0012658185948209208 0 -0.034054978261842582 0.0013857023052254965 0 -0.034089601346080863 0.0012522218729744709 0 -0.034054978261842582 0.0013857023052254965 0 -0.034236511647044152 0.0013518955882412236 0 -0.030508306807392131 0.0020329851544268664 0 -0.030424014084883388 0.0020485911933738284 0 -0.034054978261842582 0.0013857023052254965 0 -0.033855789310244737 0.0014977149445900282 0 -0.034144335347914043 0.0017209807461224728 0 -0.034054978261842582 0.0013857023052254965 0 -0.034144335347914043 0.0017209807461224728 0 -0.034229727003807123 0.001353466439418278 0 -0.033327474930438868 0.0012437856741925456 0 -0.033671485214502424 0.0013488014267564101 0 -0.033587895439818743 0.0017074337144033815 0 -0.031602814037954244 0.0011990001854656311 0 -0.030583710441845918 0.0017490397915597927 0 -0.033855789310244737 0.0014977149445900282 0 -0.033671485214502424 0.0013488014267564101 0 -0.033587895439818743 0.0017074337144033815 0 -0.03067028031408928 0.0017132631227112377 0 -0.030583710441845918 0.0017490397915597927 0 -0.031855265461753296 -0.0002087242925670675 0 -0.031674888257879188 -0.00020828639746433807 0 -0.031765584727015996 -0.0003729244070744087 0 -0.030583710441845918 0.0017490397915597927 0 -0.029566506226574994 0.0017152239355401823 0 -0.031674888257879188 -0.00020828639746433807 0 -0.031765584727015996 -0.0003729244070744087 0 -0.031574821540382929 -0.00037983801042079917 0 -0.031765584727015996 -0.0003729244070744087 0 -0.031574821540382929 -0.00037983801042079917 0 -0.031692721806011452 -0.00055612473343354032 0 -0.027442393344752184 0.0016948565692097629 0 -0.028544283543218314 0.0017993338638786235 0 -0.031574821540382929 -0.00037983801042079917 0 -0.031692721806011452 -0.00055612473343354032 0 -0.031474253132753871 -0.00055336968541247022 0 -0.029215500517321105 0.0017855602054380432 0 -0.029318576359047603 0.001939198056925609 0 -0.029389885491820551 0.0016384895390499212 0 -0.029120894305510861 0.002145487599030823 0 -0.029147060014150388 0.0020365886195480975 0 -0.029172341571179955 0.0020954007056716742 0 -0.028556144607245457 0.0018519839048326836 0 -0.029948694850809154 0.0018838884494749896 0 -0.028651095179235773 0.0018442909523730439 0 -0.028369442922569831 0.0018482774299162672 0 -0.028667246910252787 0.0017750218657729079 0 -0.028556144607245457 0.0018519839048326836 0 -0.028441376581000554 0.0021580021774670875 0 -0.028423218480633148 0.0019503645435291557 0 -0.028525684317210049 0.00194888186921518 0 -0.028453561472241273 0.0018199916608894885 0 -0.028556144607245457 0.0018519839048326836 0 -0.028544283543218314 0.0017993338638786235 0 -0.029215500517321105 0.0017855602054380432 0 -0.029318576359047603 0.001939198056925609 0 -0.029300705252238258 0.0019394638504328856 0 -0.029566506226574994 0.0017152239355401823 0 -0.028544283543218314 0.0017993338638786235 0 -0.030583710441845918 0.0017490397915597927 0 -0.029948694850809154 0.0018838884494749896 0 -0.029130332913892644 0.0016316200422805194 0 -0.029215500517321105 0.0017855602054380432 0 -0.029389885491820551 0.0016384895390499212 0 -0.029948694850809154 0.0018838884494749896 0 -0.029685636096271412 0.0022089244003651821 0 -0.029204322345539172 0.0020383269804288549 0 -0.029172341571179955 0.0020954007056716742 0 -0.029235017434701673 0.0021116394435100874 0 -0.029147060014150388 0.0020365886195480975 0 -0.029204322345539172 0.0020383269804288549 0 -0.029172341571179955 0.0020954007056716742 0 -0.028441376581000554 0.0021580021774670875 0 -0.028487649250413392 0.0030361754902542221 0 -0.029172341571179955 0.0020954007056716742 0 -0.029154309919875693 0.002145023001316517 0 -0.029235017434701673 0.0021116394435100874 0 -0.028441376581000554 0.0021580021774670875 0 -0.028815878043483588 0.0026291189118916444 0 -0.029120894305510861 0.002145487599030823 0 -0.029172341571179955 0.0020954007056716742 0 -0.029154309919875693 0.002145023001316517 0 -0.02876949870777858 0.0026902912917871002 0 -0.028247019275760524 0.0026984316126294028 0 -0.028323249481834449 0.0028764692064478323 0 -0.029153012868925351 0.0029540476647736849 0 -0.029332675002438028 0.0033736816072861653 0 -0.028255140319913521 0.0033614221175950506 0 -0.028487649250413392 0.0030361754902542221 0 -0.028815878043483588 0.0026291189118916444 0 -0.029490542164400585 0.002436033757096473 0 -0.029410111458841485 0.0022487792392453876 0 -0.029195422759039778 0.0024281833426096689 0 -0.029685636096271412 0.0022089244003651821 0 -0.028815878043483588 0.0026291189118916444 0 -0.029685636096271412 0.0022089244003651821 0 -0.029720819511181253 0.0026386027497207303 0 -0.030084270691343201 0.0023334827909218077 0 -0.030073038615716318 0.0023432895605371754 0 -0.030055681446491518 0.0023329154605326897 0 -0.030073038615716318 0.0023432895605371754 0 -0.03009161482481313 0.0023500415831276779 0 -0.030071385578204362 0.0023538108700250733 0 -0.03037921490851548 0.0020893306106398576 0 -0.030630282588933719 0.0022011550742097653 0 -0.030073038615716318 0.0023432895605371754 0 -0.030071385578204362 0.0023538108700250733 0 -0.030062242444818886 0.0023462666264990324 0 -0.02987705285900116 0.0023150358773841736 0 -0.030097716693646307 0.0018208293175117178 0 -0.02998753399403473 0.001841306109873958 0 -0.02987705285900116 0.0023150358773841736 0 -0.030313842516022958 0.0023269332895388684 0 -0.030097716693646307 0.0018208293175117178 0 -0.029685636096271412 0.0022089244003651821 0 -0.03037921490851548 0.0020893306106398576 0 -0.030084270691343201 0.0023334827909218077 0 -0.030073038615716318 0.0023432895605371754 0 -0.03009161482481313 0.0023500415831276779 0 -0.029948694850809154 0.0018838884494749896 0 -0.030424014084883388 0.0020485911933738284 0 -0.030424014084883388 0.0020485911933738284 0 -0.030538984314471305 0.0020298030766481238 0 -0.03037921490851548 0.0020893306106398576 0 -0.030538984314471305 0.0020298030766481238 0 -0.030677920988890581 0.00223907136268728 0 -0.030533028277822141 0.0022660304262242538 0 -0.030588185792097215 0.0020291683439356044 0 -0.03037921490851548 0.0020893306106398576 0 -0.030424014084883388 0.0020485911933738284 0 -0.03433717590634134 0.00084398729399507333 0 -0.034072941908990878 0.00073372443351001136 0 -0.034254724720683846 0.0011808604997270427 0 -0.030923187368822692 0.0021667826322624871 0 -0.030990809779336274 0.00187552646973474 0 -0.030545689275517318 0.0018477880059452852 0 -0.030946909410823162 0.0017731235873569219 0 -0.030990809779336274 0.00187552646973474 0 -0.030545689275517318 0.0018477880059452852 0 -0.030715516885388001 0.0020191642530949174 0 -0.030538984314471305 0.0020298030766481238 0 -0.034089601346080863 0.0012522218729744709 0 -0.034236511647044152 0.0013518955882412236 0 -0.034270172173946879 0.0012095839750032253 0 -0.030984742348783002 0.0017907805190048901 0 -0.030538984314471305 0.0020298030766481238 0 -0.030984742348783002 0.0017907805190048901 0 -0.030630282588933719 0.0022011550742097653 0 -0.030982064814177538 0.0019847853821520207 0 -0.03062208137161997 0.0021757861661178281 0 -0.03476583562630807 0.0002101200500498139 0 -0.034706901799967792 0.00021426402179224055 0 -0.034770180628352867 0.00027196049435375034 0 -0.03476583562630807 0.0002101200500498139 0 -0.034770180628352867 0.00027196049435375034 0 -0.03478661150842257 0.00026903221846810813 0 -0.030630282588933719 0.0022011550742097653 0 -0.03062208137161997 0.0021757861661178281 0 -0.03062208137161997 0.0021757861661178281 0 -0.030567719436113288 0.0020677548081191842 0 -0.034807641723185984 0.0001820054298103205 0 -0.034835994281201335 0.00023877241835422797 0 -0.034865702559558093 0.00018994985048781577 0 -0.030118238514414329 0.0023302331478404935 0 -0.030015730079094756 0.0023491444065944682 0 -0.030093902604798842 0.0022786192773341855 0 -0.034835994281201335 0.00023877241835422797 0 -0.034865702559558093 0.00018994985048781577 0 -0.034909123779903163 0.00022568225468136795 0 -0.034915151090451194 0.00014740258480145244 0 -0.034865702559558093 0.00018994985048781577 0 -0.034909123779903163 0.00022568225468136795 0 -0.030567719436113288 0.0020677548081191842 0 -0.030734721358274465 0.0020116467443341639 0 -0.029971278657979928 0.0029515877720197527 0 -0.029778262040566862 0.0027664638281479949 0 -0.029612371429104421 0.0030181229984560902 0 -0.030668419287378148 0.0018969651046654319 0 -0.030567719436113288 0.0020677548081191842 0 -0.034915151090451194 0.00014740258480145244 0 -0.034910631205330889 0.00016657606021681549 0 -0.034943293827622485 0.00015229577801454395 0 -0.029971278657979928 0.0029515877720197527 0 -0.029778262040566862 0.0027664638281479949 0 -0.030006927322072583 0.0025738675454241725 0 -0.030567719436113288 0.0020677548081191842 0 -0.029937793546702424 0.0024845586107984071 0 -0.029778262040566862 0.0027664638281479949 0 -0.029798745307943245 0.0025869165789436585 0 -0.030006927322072583 0.0025738675454241725 0 -0.030069656159642407 0.0026248392598637268 0 -0.029863518367649812 0.0021841219930564186 0 -0.029714126586247055 0.0023249253460644013 0 -0.030015730079094756 0.0023491444065944682 0 -0.030093902604798842 0.0022786192773341855 0 -0.030027376121786273 0.0022228358611216634 0 -0.030283120587652531 0.0023327749371013372 0 -0.029937793546702424 0.0024845586107984071 0 -0.030073038615716318 0.0023432895605371754 0 -0.030062242444818886 0.0023462666264990324 0 -0.030055681446491518 0.0023329154605326897 0 -0.030283120587652531 0.0023327749371013372 0 -0.029720819511181253 0.0026386027497207303 0 -0.030630282588933719 0.0022011550742097653 0 -0.030283120587652531 0.0023327749371013372 0 -0.03062208137161997 0.0021757861661178281 0 -0.030283120587652531 0.0023327749371013372 0 -0.030310188737128561 0.0024458137266549192 0 -0.030314261024213758 0.0024450297431360363 0 -0.030317328357736928 0.0024520758240991515 0 -0.029410111458841485 0.0022487792392453876 0 -0.029195422759039778 0.0024281833426096689 0 -0.029159759787547011 0.00235234467685984 0 -0.029863518367649812 0.0021841219930564186 0 -0.029727777423840009 0.0021804467386379576 0 -0.029714126586247055 0.0023249253460644013 0 -0.029720819511181253 0.0026386027497207303 0 -0.029705865753279537 0.0027121908104607143 0 -0.029566336531847964 0.0027736557320930657 0 -0.029454533600882241 0.0025357382787065705 0 -0.029431623950798493 0.0027700202025294938 0 -0.029720819511181253 0.0026386027497207303 0 -0.029471632697849835 0.0028213962302961275 0 -0.029471632697849835 0.0028213962302961275 0 -0.029705865753279537 0.0027121908104607143 0 -0.028487649250413392 0.0030361754902542221 0 -0.028583271291235175 0.0040591101789793655 0 -0.028815878043483588 0.0026291189118916444 0 -0.029471632697849835 0.0028213962302961275 0 -0.029332675002438028 0.0033736816072861653 0 -0.028056511587779328 0.003900214813092552 0 -0.028255140319913521 0.0033614221175950506 0 -0.029153012868925351 0.0029540476647736849 0 -0.028255140319913521 0.0033614221175950506 0 -0.028144318950613943 0.002969181432432866 0 -0.028056511587779328 0.003900214813092552 0 -0.028255140319913521 0.0033614221175950506 0 -0.028130768362634184 0.0031046962974405085 0 -0.029471632697849835 0.0028213962302961275 0 -0.028650901083469914 0.0040037208429225656 0 -0.028646380219642983 0.0039948736090518397 0 -0.028650901083469914 0.0040037208429225656 0 -0.028255140319913521 0.0033614221175950506 0 -0.028131384768307999 0.0031048128841155292 0 -0.028144318950613943 0.002969181432432866 0 -0.028559353680741945 0.0048426684857013824 0 -0.028670864068891012 0.003674682755560676 0 -0.028000846583809219 0.0036844053709373277 0 -0.028650901083469914 0.0040037208429225656 0 -0.028614111175796899 0.0041412070021307878 0 -0.028650901083469914 0.0040037208429225656 0 -0.028583271291235175 0.0040591101789793655 0 -0.028583271291235175 0.0040591101789793655 0 -0.028614111175796899 0.0041412070021307878 0 -0.029178821262024004 0.0036296682176526875 0 -0.028975008331959793 0.0038174946469681642 0 -0.028847768674665611 0.0037929395990621553 0 -0.028614111175796899 0.0041412070021307878 0 -0.028378608717250817 0.0053166551908672508 0 -0.029178821262024004 0.0036296682176526875 0 -0.028847768674665611 0.0037929395990621553 0 -0.028729878094096564 0.0036374904243126273 0 -0.029203967994142172 0.0036811796042805654 0 -0.029178821262024004 0.0036296682176526875 0 -0.029083593819632787 0.0037890853552134123 0 -0.029178821262024004 0.0036296682176526875 0 -0.029083593819632787 0.0037890853552134123 0 -0.028975008331959793 0.0038174946469681642 0 -0.029176780937063072 0.0039856128822011016 0 -0.029203967994142172 0.0036811796042805654 0 -0.029083593819632787 0.0037890853552134123 0 -0.029471632697849835 0.0028213962302961275 0 -0.029478612517023162 0.0028574046098849919 0 -0.029173859040640036 0.0039847339335454205 0 -0.029083593819632787 0.0037890853552134123 0 -0.029021013970532049 0.0039391299639208247 0 -0.029083593819632787 0.0037890853552134123 0 -0.028975008331959793 0.0038174946469681642 0 -0.029021013970532049 0.0039391299639208247 0 -0.028975008331959793 0.0038174946469681642 0 -0.028906096395410422 0.003905991250037761 0 -0.029021013970532049 0.0039391299639208247 0 -0.028906096395410422 0.003905991250037761 0 -0.02879346712619095 0.0039806268179093411 0 -0.028847768674665611 0.0037929395990621553 0 -0.028975008331959793 0.0038174946469681642 0 -0.028906096395410422 0.003905991250037761 0 -0.028847768674665611 0.0037929395990621553 0 -0.028933381155796911 0.0040149714876050744 0 -0.029159687991688513 0.0041293156469608553 0 -0.028786735815124708 0.0041196027628364468 0 -0.028906096395410422 0.003905991250037761 0 -0.028933381155796911 0.0040149714876050744 0 -0.02879346712619095 0.0039806268179093411 0 -0.029705865753279537 0.0027121908104607143 0 -0.029198630453713601 0.0032921589650777264 0 -0.030014705768829454 0.0024937448365810401 0 -0.029943472998161039 0.0025204924645787661 0 -0.029676680524397661 0.0024846122687354126 0 -0.028906096395410422 0.003905991250037761 0 -0.028933381155796911 0.0040149714876050744 0 -0.029021013970532049 0.0039391299639208247 0 -0.028933381155796911 0.0040149714876050744 0 -0.029021013970532049 0.0039391299639208247 0 -0.029159687991688513 0.0041293156469608553 0 -0.029173859040640036 0.0039847339335454205 0 -0.029021013970532049 0.0039391299639208247 0 -0.029159687991688513 0.0041293156469608553 0 -0.029798745307943245 0.0025869165789436585 0 -0.029943472998161039 0.0025204924645787661 0 -0.030006927322072583 0.0025738675454241725 0 -0.030014705768829454 0.0024937448365810401 0 -0.029943472998161039 0.0025204924645787661 0 -0.030007243612336955 0.0025743724243703918 0 -0.029705865753279537 0.0027121908104607143 0 -0.029937793546702424 0.0024845586107984071 0 -0.029938117733826607 0.00248489815678484 0 -0.029937793546702424 0.0024845586107984071 0 -0.029798745307943245 0.0025869165789436585 0 -0.029943472998161039 0.0025204924645787661 0 -0.029676680524397661 0.0024846122687354126 0 -0.02879346712619095 0.0039806268179093411 0 -0.028645783941445575 0.0036450346440994397 0 -0.028418048206461981 0.0041087068002699286 0 -0.028786735815124708 0.0041196027628364468 0 -0.02879346712619095 0.0039806268179093411 0 -0.028418048206461981 0.0041087068002699286 0 -0.029198630453713601 0.0032921589650777264 0 -0.028681547969337758 0.0038712312167957686 0 -0.029676680524397661 0.0024846122687354126 0 -0.029338407083841295 0.002475493715009114 0 -0.02954236375142846 0.0027045906308852839 0 -0.028933381155796911 0.0040149714876050744 0 -0.028786735815124708 0.0041196027628364468 0 -0.02879346712619095 0.0039806268179093411 0 -0.02879346712619095 0.0039806268179093411 0 -0.028645783941445575 0.0036450346440994397 0 -0.028729558149914472 0.0036440386019003777 0 -0.028370005614237005 0.0051632361678200216 0 -0.028378608717250817 0.0053166551908672508 0 -0.02879346712619095 0.0039806268179093411 0 -0.028847768674665611 0.0037929395990621553 0 -0.028729878094096564 0.0036374904243126273 0 -0.028358514877825529 0.0054289758251011106 0 -0.028378608717250817 0.0053166551908672508 0 -0.021995839969766465 0.0093144515503055577 0 -0.023702682130416812 0.0082131622105547034 0 -0.02352265595684529 0.0061934203935457895 0 -0.028358514877825529 0.0054289758251011106 0 -0.02784740168899252 0.0061308216317017888 0 -0.028358514877825529 0.0054289758251011106 0 -0.028681547969337758 0.0038712312167957686 0 -0.021995839969766465 0.0093144515503055577 0 -0.023702682130416812 0.0082131622105547034 0 -0.025459884739226439 0.0092775252372230364 0 -0.023702682130416812 0.0082131622105547034 0 -0.024723915982883898 0.0071026407462170173 0 -0.025459884739226439 0.0092775252372230364 0 -0.023702682130416812 0.0082131622105547034 0 -0.024723915982883898 0.0071026407462170173 0 -0.02352265595684529 0.0061934203935457895 0 -0.023149166652071038 0.0060424237910230126 0 -0.024340865638630273 0.0056916969127501519 0 -0.026202529509461472 0.0060837131950796765 0 -0.028681547969337758 0.0038712312167957686 0 -0.028104250107945924 0.0040782295559373908 0 -0.024723915982883898 0.0071026407462170173 0 -0.02352265595684529 0.0061934203935457895 0 -0.025966406727236543 0.0062134755918149013 0 -0.023149166652071038 0.0060424237910230126 0 -0.024340865638630273 0.0056916969127501519 0 -0.024200543007566674 0.0038844869857719536 0 -0.028681547969337758 0.0038712312167957686 0 -0.029205091809618292 0.0030865998315902036 0 -0.029338407083841295 0.002475493715009114 0 -0.029222440618697585 0.0027124816357524469 0 -0.02954236375142846 0.0027045906308852839 0 -0.029222440618697585 0.0027124816357524469 0 -0.02954236375142846 0.0027045906308852839 0 -0.029407650987375186 0.0028798774428589842 0 -0.024108421404605715 0.0039488617661992903 0 -0.024350256877418399 0.0034322995220045804 0 -0.02372877146071856 0.00032354339565398161 0 -0.024340865638630273 0.0056916969127501519 0 -0.024139186593729215 0.0039182101398053063 0 -0.02504654368804364 0.0047617491081852203 0 -0.029149578159365662 0.0031641354716281031 0 -0.029205091809618292 0.0030865998315902036 0 -0.024139186593729215 0.0039182101398053063 0 -0.024350256877418399 0.0034322995220045804 0 -0.025246125639287714 0.0035211084091121758 0 -0.029205091809618292 0.0030865998315902036 0 -0.029196251253768887 0.0030944690917964197 0 -0.029778262040566862 0.0027664638281479949 0 -0.02954236375142846 0.0027045906308852839 0 -0.029612371429104421 0.0030181229984560902 0 -0.029798745307943245 0.0025869165789436585 0 -0.029676680524397661 0.0024846122687354126 0 -0.02954236375142846 0.0027045906308852839 0 -0.029778262040566862 0.0027664638281479949 0 -0.029798745307943245 0.0025869165789436585 0 -0.02954236375142846 0.0027045906308852839 0 -0.02954236375142846 0.0027045906308852839 0 -0.029612371429104421 0.0030181229984560902 0 -0.029407650987375186 0.0028798774428589842 0 -0.029612371429104421 0.0030181229984560902 0 -0.029407650987375186 0.0028798774428589842 0 -0.029253497682640961 0.0030842087744929543 0 -0.029205091809618292 0.0030865998315902036 0 -0.030367103376545936 0.0020664507168649889 0 -0.030734721358274465 0.0020116467443341639 0 -0.030367103376545936 0.0020664507168649889 0 -0.029222440618697585 0.0027124816357524469 0 -0.029407650987375186 0.0028798774428589842 0 -0.029253497682640961 0.0030842087744929543 0 -0.024350256877418399 0.0034322995220045804 0 -0.02372877146071856 0.00032354339565398161 0 -0.024795156764870461 0.0022855949808022586 0 -0.028138869237500721 0.0099870872177442171 0 -0.02792681832844934 0.010410698218509037 0 -0.028486132347905441 0.0095429593372546809 0 -0.028138869237500721 0.0099870872177442171 0 -0.027852556220165425 0.01026375132359527 0 -0.02784137422816749 0.0099053659274900546 0 -0.028138869237500721 0.0099870872177442171 0 -0.028142872563133317 0.0097296128593733645 0 -0.02784137422816749 0.0099053659274900546 0 -0.028142872563133317 0.0097296128593733645 0 -0.028087156914901653 0.0093879540093216481 0 -0.02784137422816749 0.0099053659274900546 0 -0.028138869237500721 0.0099870872177442171 0 -0.028142872563133317 0.0097296128593733645 0 -0.028486132347905441 0.0095429593372546809 0 -0.029410748257550599 0.010980624780303923 0 -0.029941082471937098 0.010170983553568965 0 -0.029402946801734352 0.0096668909690808564 0 -0.028616491446699581 0.0079418032966046773 0 -0.028652684024305718 0.0083888958478537771 0 -0.028843473274016727 0.010205103180428792 0 -0.028486132347905441 0.0095429593372546809 0 -0.028565825400230928 0.0093060246419219752 0 -0.029410748257550599 0.010980624780303923 0 -0.029402946801734352 0.0096668909690808564 0 -0.028565825400230928 0.0093060246419219752 0 -0.028786902489776327 0.010209481115097341 0 -0.028843473274016727 0.010205103180428792 0 -0.028486132347905441 0.0095429593372546809 0 -0.028774572635357681 0.005777676159350752 0 -0.029063491805521927 0.0066932923111765567 0 -0.028786902489776327 0.010209481115097341 0 -0.028625541952246248 0.010464444297533885 0 -0.028486132347905441 0.0095429593372546809 0 -0.028839328200810664 0.010200531181219713 0 -0.028625541952246248 0.010464444297533885 0 -0.029032584149761342 0.010663006682334851 0 -0.028774572635357681 0.005777676159350752 0 -0.028684524282115868 0.0057646124462937568 0 -0.028786902489776327 0.010209481115097341 0 -0.028839328200810664 0.010200531181219713 0 -0.028625541952246248 0.010464444297533885 0 -0.028773721617202423 0.0057795857493377623 0 -0.028774572635357681 0.005777676159350752 0 -0.02792681832844934 0.010410698218509037 0 -0.027930761872258871 0.010286726059703041 0 -0.027830567045301464 0.010386253768805505 0 -0.028138869237500721 0.0099870872177442171 0 -0.02792681832844934 0.010410698218509037 0 -0.027930761872258871 0.010286726059703041 0 -0.028138869237500721 0.0099870872177442171 0 -0.027930761872258871 0.010286726059703041 0 -0.027852556220165425 0.01026375132359527 0 -0.027930761872258871 0.010286726059703041 0 -0.027852556220165425 0.01026375132359527 0 -0.027830567045301464 0.010386253768805505 0 -0.027852556220165425 0.01026375132359527 0 -0.027830567045301464 0.010386253768805505 0 -0.027695641559839966 0.01046037713528624 0 -0.02792681832844934 0.010410698218509037 0 -0.027830567045301464 0.010386253768805505 0 -0.027750826769967738 0.010322743359202446 0 -0.027830567045301464 0.010386253768805505 0 -0.027708937418701826 0.010331922479455906 0 -0.027695641559839966 0.01046037713528624 0 -0.027830567045301464 0.010386253768805505 0 -0.027750826769967738 0.010322743359202446 0 -0.027708937418701826 0.010331922479455906 0 -0.027632694997435297 0.010205642073396051 0 -0.027671294543994918 0.010220915131620054 0 -0.027661382094788748 0.010005729090097733 0 -0.027708937418701826 0.010331922479455906 0 -0.027671294543994918 0.010220915131620054 0 -0.027661382094788748 0.010005729090097733 0 -0.027750826769967738 0.010322743359202446 0 -0.027708937418701826 0.010331922479455906 0 -0.027671294543994918 0.010220915131620054 0 -0.02840753476435123 0.0058024298628359785 0 -0.028684524282115868 0.0057646124462937568 0 -0.028199765757460103 0.0057641530206775397 0 -0.029190174574355868 0.0057498559650147121 0 -0.028920597774554298 0.0042913966987658632 0 -0.028378608717250817 0.0053166551908672508 0 -0.02840753476435123 0.0058024298628359785 0 -0.027632694997435297 0.010205642073396051 0 -0.027671294543994918 0.010220915131620054 0 -0.027617612910597097 0.010232104872999316 0 -0.028358514877825529 0.0054289758251011106 0 -0.02840753476435123 0.0058024298628359785 0 -0.027750826769967738 0.010322743359202446 0 -0.027671294543994918 0.010220915131620054 0 -0.027617612910597097 0.010232104872999316 0 -0.02792681832844934 0.010410698218509037 0 -0.027750826769967738 0.010322743359202446 0 -0.027617612910597097 0.010232104872999316 0 -0.028625541952246248 0.010464444297533885 0 -0.02876967927447276 0.011182809033764927 0 -0.029032584149761342 0.010663006682334851 0 -0.028616491446699581 0.0079418032966046773 0 -0.02840753476435123 0.0058024298628359785 0 -0.028065784073630657 0.0048847956638479843 0 -0.028244891098312373 0.0049787568296106892 0 -0.02811639269199441 0.004781532949875298 0 -0.028684524282115868 0.0057646124462937568 0 -0.028686433216313145 0.0057373433753330752 0 -0.029090593936853894 0.0051006283284040594 0 -0.02876482032471709 0.0050195937585757865 0 -0.028909684556224464 0.0047260723335652991 0 -0.028614111175796899 0.0041412070021307878 0 -0.028684524282115868 0.0057646124462937568 0 -0.029090593936853894 0.0051006283284040594 0 -0.02878067664919674 0.0051062357381575808 0 -0.02876482032471709 0.0050195937585757865 0 -0.028208818896092894 0.0051807386823786127 0 -0.028065784073630657 0.0048847956638479843 0 -0.028244891098312373 0.0049787568296106892 0 -0.028225075630365436 0.0051804535126501678 0 -0.028208818896092894 0.0051807386823786127 0 -0.028244891098312373 0.0049787568296106892 0 -0.02826668968526572 0.0037771501433570085 0 -0.02830400382016 0.0037771162570442445 0 -0.028290863949845157 0.0037940360772230038 0 -0.02826668968526572 0.0037771501433570085 0 -0.028290863949845157 0.0037940360772230038 0 -0.028281555439721776 0.003813560602555575 0 -0.02830400382016 0.0037771162570442445 0 -0.028290863949845157 0.0037940360772230038 0 -0.028300461183392859 0.0038134771926442907 0 -0.028583271291235175 0.0040591101789793655 0 -0.028050259059811258 0.0042637122963332507 0 -0.028290863949845157 0.0037940360772230038 0 -0.028281555439721776 0.003813560602555575 0 -0.028300461183392859 0.0038134771926442907 0 -0.027934701999245779 0.0036581140050543676 0 -0.027503965386453104 0.00443497843195979 0 -0.025975098052055751 0.0029615358952058734 0 -0.02599901164288692 0.0030124661627748055 0 -0.02596921572852497 0.0029962102350443928 0 -0.028244891098312373 0.0049787568296106892 0 -0.028265430926743287 0.0047758958807998528 0 -0.02811639269199441 0.004781532949875298 0 -0.028281555439721776 0.003813560602555575 0 -0.028300461183392859 0.0038134771926442907 0 -0.028296582991987902 0.0038510943680893695 0 -0.028050259059811258 0.0042637122963332507 0 -0.027503965386453104 0.00443497843195979 0 -0.02597353865638562 0.0030205504861093341 0 -0.02599901164288692 0.0030124661627748055 0 -0.02596921572852497 0.0029962102350443928 0 -0.02597353865638562 0.0030205504861093341 0 -0.02599901164288692 0.0030124661627748055 0 -0.025995970471046514 0.0030499065301217679 0 -0.02597353865638562 0.0030205504861093341 0 -0.025978575091607541 0.00305332518675203 0 -0.025995970471046514 0.0030499065301217679 0 -0.027503965386453104 0.00443497843195979 0 -0.02692991273173799 0.0047396551863478405 0 -0.026381455075137911 0.0037477262135769541 0 -0.02720825739506217 0.005680091529963429 0 -0.02741115706760373 0.0035545107558837457 0 -0.027457621433041129 0.00503690254821314 0 -0.027503965386453104 0.00443497843195979 0 -0.028774572635357681 0.005777676159350752 0 -0.027457621433041129 0.00503690254821314 0 -0.027972330930195903 0.0046937375337245679 0 -0.028211806028975949 0.00464855618286617 0 -0.02811639269199441 0.004781532949875298 0 -0.027972330930195903 0.0046937375337245679 0 -0.028065176957113899 0.0048875123951072647 0 -0.02811639269199441 0.004781532949875298 0 -0.028211806028975949 0.00464855618286617 0 -0.028265430926743287 0.0047758958807998528 0 -0.02811639269199441 0.004781532949875298 0 -0.030793838631698805 0.010711373840315914 0 -0.029941082471937098 0.010170983553568965 0 -0.030385539810331482 0.0097566452276399429 0 -0.027457621433041129 0.00503690254821314 0 -0.027851654411285124 0.0058546261560204205 0 -0.029410748257550599 0.010980624780303923 0 -0.030793838631698805 0.010711373840315914 0 -0.029941082471937098 0.010170983553568965 0 -0.029941082471937098 0.010170983553568965 0 -0.030385539810331482 0.0097566452276399429 0 -0.029867175467937681 0.0095038001956673293 0 -0.029941082471937098 0.010170983553568965 0 -0.029867175467937681 0.0095038001956673293 0 -0.029402946801734352 0.0096668909690808564 0 -0.02211288902798381 0.0048419336122143752 0 -0.022207394735494997 0.0049518250858360318 0 -0.022366967241533482 0.0047167275854883648 0 -0.026671634563745234 0.0048533044612981075 0 -0.026235061744658689 0.0045163004598146395 0 -0.026235061744658689 0.0045163004598146395 0 -0.02692991273173799 0.0047396551863478405 0 -0.026507019309416457 0.0032253634077857897 0 -0.028852287405829746 0.0059593382825717627 0 -0.026198428761354638 0.0064573641640529849 0 -0.027800976592632788 0.0055219170961673513 0 -0.027737401066664124 0.005369806920521465 0 -0.027871017470285437 0.0054366532299953071 0 -0.027457621433041129 0.00503690254821314 0 -0.02692991273173799 0.0047396551863478405 0 -0.027800976592632788 0.0055219170961673513 0 -0.027871017470285437 0.0054366532299953071 0 -0.027863989411433927 0.005510197074560191 0 -0.026671634563745234 0.0048533044612981075 0 -0.02692991273173799 0.0047396551863478405 0 -0.022207394735494997 0.0049518250858360318 0 -0.022366967241533482 0.0047167275854883648 0 -0.022601951877092692 0.0048762738070750626 0 -0.026235061744658689 0.0045163004598146395 0 -0.023741051243231562 0.0039043435669678956 0 -0.023741051243231562 0.0039043435669678956 0 -0.021036460327719601 0.0033168889664434492 0 -0.025915558246668212 0.0030359893578890316 0 -0.02588768056196248 0.0029905632290979523 0 -0.025867207110680426 0.0030441838792996693 0 -0.025915558246668212 0.0030359893578890316 0 -0.025929359730006523 0.0029906424539938147 0 -0.02588768056196248 0.0029905632290979523 0 -0.02597353865638562 0.0030205504861093341 0 -0.025978575091607541 0.00305332518675203 0 -0.025929359730006523 0.0029906424539938147 0 -0.026235061744658689 0.0045163004598146395 0 -0.026067139782916696 0.004241759208850936 0 -0.025957753735206909 0.0030281794680982015 0 -0.025915558246668212 0.0030359893578890316 0 -0.025929359730006523 0.0029906424539938147 0 -0.02597353865638562 0.0030205504861093341 0 -0.02596921572852497 0.0029962102350443928 0 -0.025929359730006523 0.0029906424539938147 0 -0.025975098052055751 0.0029615358952058734 0 -0.02596921572852497 0.0029962102350443928 0 -0.025929359730006523 0.0029906424539938147 0 -0.025975098052055751 0.0029615358952058734 0 -0.025929359730006523 0.0029906424539938147 0 -0.025917065328646158 0.0029664879352072834 0 -0.028487649250413392 0.0030361754902542221 0 -0.027934701999245779 0.0036581140050543676 0 -0.025956255271088292 0.0029171293711493804 0 -0.025975098052055751 0.0029615358952058734 0 -0.025926908376061829 0.0029393564581060199 0 -0.025975098052055751 0.0029615358952058734 0 -0.025926908376061829 0.0029393564581060199 0 -0.025917065328646158 0.0029664879352072834 0 -0.025899956228389552 0.0029184802647191227 0 -0.025956255271088292 0.0029171293711493804 0 -0.025926908376061829 0.0029393564581060199 0 -0.025899956228389552 0.0029184802647191227 0 -0.025896772108667431 0.0029355036047767529 0 -0.025926908376061829 0.0029393564581060199 0 -0.025926908376061829 0.0029393564581060199 0 -0.025894433010346853 0.0029542031479254252 0 -0.025917065328646158 0.0029664879352072834 0 -0.025896772108667431 0.0029355036047767529 0 -0.025926908376061829 0.0029393564581060199 0 -0.025894433010346853 0.0029542031479254252 0 -0.025929359730006523 0.0029906424539938147 0 -0.025917065328646158 0.0029664879352072834 0 -0.02588768056196248 0.0029905632290979523 0 -0.025894433010346853 0.0029542031479254252 0 -0.025917065328646158 0.0029664879352072834 0 -0.02588768056196248 0.0029905632290979523 0 -0.025894433010346853 0.0029542031479254252 0 -0.02588768056196248 0.0029905632290979523 0 -0.025877201505550854 0.0029587255975372039 0 -0.02588768056196248 0.0029905632290979523 0 -0.025859373617899497 0.0029684591259564472 0 -0.025843521939439434 0.0030007055720714841 0 -0.02588768056196248 0.0029905632290979523 0 -0.025859373617899497 0.0029684591259564472 0 -0.025877201505550854 0.0029587255975372039 0 -0.028265090040917807 0.0018984126166723221 0 -0.028322171690871031 0.0019007461335908279 0 -0.025894433010346853 0.0029542031479254252 0 -0.025877201505550854 0.0029587255975372039 0 -0.025877693585929087 0.0029361651753718725 0 -0.026044741661792777 0.001461583627544821 0 -0.026267508176862076 0.0014572864238527666 0 -0.026276911367670058 0.0015040532725939155 0 -0.025859373617899497 0.0029684591259564472 0 -0.025877201505550854 0.0029587255975372039 0 -0.025877693585929087 0.0029361651753718725 0 -0.025899956228389552 0.0029184802647191227 0 -0.025896772108667431 0.0029355036047767529 0 -0.025879441625288227 0.0029271807219943872 0 -0.028441376581000554 0.0021580021774670875 0 -0.028322171690871031 0.0019007461335908279 0 -0.028369442922569831 0.0018482774299162672 0 -0.028667246910252787 0.0017750218657729079 0 -0.028680257211800977 0.0017191943589732913 0 -0.026267508176862076 0.0014572864238527666 0 -0.02628188875825686 0.0014830582433101756 0 -0.026276911367670058 0.0015040532725939155 0 -0.025896772108667431 0.0029355036047767529 0 -0.025894433010346853 0.0029542031479254252 0 -0.025879441625288227 0.0029271807219943872 0 -0.028544283543218314 0.0017993338638786235 0 -0.028468451405264078 0.0018348664724053417 0 -0.025894433010346853 0.0029542031479254252 0 -0.025877693585929087 0.0029361651753718725 0 -0.025879118690150096 0.002931023380559603 0 -0.028556144607245457 0.0018519839048326836 0 -0.028468451405264078 0.0018348664724053417 0 -0.028468451405264078 0.0018348664724053417 0 -0.028322171690871031 0.0019007461335908279 0 -0.028320048528889471 0.0019041303379873048 0 -0.028322171690871031 0.0019007461335908279 0 -0.026044741661792777 0.001461583627544821 0 -0.026276911367670058 0.0015040532725939155 0 -0.025927291432312965 0.0016488392171600185 0 -0.025859373617899497 0.0029684591259564472 0 -0.025877693585929087 0.0029361651753718725 0 -0.025817927036321686 0.0029556099524022366 0 -0.025877693585929087 0.0029361651753718725 0 -0.025879249948982625 0.0029311542094788826 0 -0.025817927036321686 0.0029556099524022366 0 -0.028322171690871031 0.0019007461335908279 0 -0.024473040755944992 0.001661026579501393 0 -0.02249725368015025 0.0023779993314361272 0 -0.024473040755944992 0.001661026579501393 0 -0.025859373617899497 0.0029684591259564472 0 -0.025843521939439434 0.0030007055720714841 0 -0.025817927036321686 0.0029556099524022366 0 -0.02249725368015025 0.0023779993314361272 0 -0.021036460327719601 0.0033168889664434492 0 -0.013694164439999967 0.002953196821091182 0 -0.013318469157199019 0.0022775981656245245 0 -0.013957148984393878 0.0025974070557927718 0 -0.02588768056196248 0.0029905632290979523 0 -0.025843521939439434 0.0030007055720714841 0 -0.025867207110680426 0.0030441838792996693 0 -0.021036460327719601 0.0033168889664434492 0 -0.018335713490835803 0.0033719772376138461 0 -0.013318469157199019 0.0022775981656245245 0 -0.013956957965347606 0.0021526508903333213 0 -0.013957148984393878 0.0025974070557927718 0 -0.01411309562482206 0.0019283203940602819 0 -0.013833618047773437 0.0015756980720936366 0 -0.014278704082005253 0.001428694734712908 0 -0.013668725035740542 0.0019916985185703972 0 -0.01411309562482206 0.0019283203940602819 0 -0.013833618047773437 0.0015756980720936366 0 -0.013668725035740542 0.0019916985185703972 0 -0.013833618047773437 0.0015756980720936366 0 -0.013382827362813404 0.0014406254966080796 0 -0.021036460327719601 0.0033168889664434492 0 -0.019862189658547712 0.0027204723608730977 0 -0.013833618047773437 0.0015756980720936366 0 -0.013939215322139166 0.0010852131986395632 0 -0.013382827362813404 0.0014406254966080796 0 -0.013833618047773437 0.0015756980720936366 0 -0.013939215322139166 0.0010852131986395632 0 -0.014278704082005253 0.001428694734712908 0 -0.013939215322139166 0.0010852131986395632 0 -0.013900962071708392 0.00069079879029116981 0 -0.013586965672508316 0.00086460711677304781 0 -0.013939215322139166 0.0010852131986395632 0 -0.013900962071708392 0.00069079879029116981 0 -0.014091933274182504 0.00068654258392333227 0 -0.013900962071708392 0.00069079879029116981 0 -0.014031059507455963 0.00052006193806195574 0 -0.013940161111248578 0.0004798953326901443 0 -0.013900962071708392 0.00069079879029116981 0 -0.014091933274182504 0.00068654258392333227 0 -0.014031059507455963 0.00052006193806195574 0 -0.013900962071708392 0.00069079879029116981 0 -0.013586965672508316 0.00086460711677304781 0 -0.013798275913305395 0.00048936013146516492 0 -0.013586965672508316 0.00086460711677304781 0 -0.013798275913305395 0.00048936013146516492 0 -0.013388709498778259 0.00053130592602371098 0 -0.013939215322139166 0.0010852131986395632 0 -0.013586965672508316 0.00086460711677304781 0 -0.013382827362813404 0.0014406254966080796 0 -0.022480630379295478 0.0038910383731101113 0 -0.022387265240151822 0.0040286310012253353 0 -0.022738983539458985 0.0043467194414501054 0 -0.013586965672508316 0.00086460711677304781 0 -0.01310927086117411 0.00091860014743784079 0 -0.013382827362813404 0.0014406254966080796 0 -0.019197166237045132 0.0024540638521365842 0 -0.019862189658547712 0.0027204723608730977 0 -0.019197166237045132 0.0024540638521365842 0 -0.016639493511359307 0.0026886388358701475 0 -0.013586965672508316 0.00086460711677304781 0 -0.01310927086117411 0.00091860014743784079 0 -0.013388709498778259 0.00053130592602371098 0 -0.017834534723686169 0.0034884461846414142 0 -0.018104102323406236 0.0030958936278207916 0 -0.017806236329879706 0.0029994873473879633 0 -0.019197166237045132 0.0024540638521365842 0 -0.021327568588443011 0.0042323068608999242 0 -0.022484211211533309 0.003889126234576067 0 -0.022194820339377093 0.0039220598367302271 0 -0.022240849091046833 0.0034570100097965533 0 -0.017834534723686169 0.0034884461846414142 0 -0.017806236329879706 0.0029994873473879633 0 -0.017561660474600057 0.0030076927677968623 0 -0.022484211211533309 0.003889126234576067 0 -0.022387265240151822 0.0040286310012253353 0 -0.022194820339377093 0.0039220598367302271 0 -0.019197166237045132 0.0024540638521365842 0 -0.01923208143181564 0.0024551290740694029 0 -0.022387265240151822 0.0040286310012253353 0 -0.022411754774699529 0.0043689689823504319 0 -0.022153504909830101 0.0043831811105707131 0 -0.022387265240151822 0.0040286310012253353 0 -0.022411754774699529 0.0043689689823504319 0 -0.022738983539458985 0.0043467194414501054 0 -0.022366967241533482 0.0047167275854883648 0 -0.022601951877092692 0.0048762738070750626 0 -0.022738983539458985 0.0043467194414501054 0 -0.022601951877092692 0.0048762738070750626 0 -0.022995655949330243 0.0048009851187142969 0 -0.022738983539458985 0.0043467194414501054 0 -0.022366967241533482 0.0047167275854883648 0 -0.022411754774699529 0.0043689689823504319 0 -0.022738983539458985 0.0043467194414501054 0 -0.022366967241533482 0.0047167275854883648 0 -0.022411754774699529 0.0043689689823504319 0 -0.022153504909830101 0.0043831811105707131 0 -0.026671634563745234 0.0048533044612981075 0 -0.025189234256967209 0.0051412873989401748 0 -0.02211288902798381 0.0048419336122143752 0 -0.022366967241533482 0.0047167275854883648 0 -0.022153504909830101 0.0043831811105707131 0 -0.031927920281883571 0.010412005386632403 0 -0.031434078096550279 0.009480348902740068 0 -0.032114426670279264 0.008613391250560487 0 -0.031434078096550279 0.009480348902740068 0 -0.031264752205493539 0.0088543938653350817 0 -0.032114426670279264 0.008613391250560487 0 -0.026671634563745234 0.0048533044612981075 0 -0.028049584574599187 0.0062728903337804414 0 -0.031927920281883571 0.010412005386632403 0 -0.031434078096550279 0.009480348902740068 0 -0.030528620947785162 0.0088812488786074485 0 -0.027737401066664124 0.005369806920521465 0 -0.027871017470285437 0.0054366532299953071 0 -0.027673875411812023 0.0052183757459881627 0 -0.030385539810331482 0.0097566452276399429 0 -0.029867175467937681 0.0095038001956673293 0 -0.029971593360628046 0.0088083831322541273 0 -0.027851654411285124 0.0058546261560204205 0 -0.028049584574599187 0.0062728903337804414 0 -0.029867175467937681 0.0095038001956673293 0 -0.029971593360628046 0.0088083831322541273 0 -0.029629624314677139 0.0091251824804230337 0 -0.031434078096550279 0.009480348902740068 0 -0.031054013977274655 0.008954273205519692 0 -0.031264752205493539 0.0088543938653350817 0 -0.031434078096550279 0.009480348902740068 0 -0.030528620947785162 0.0088812488786074485 0 -0.031054013977274655 0.008954273205519692 0 -0.031054013977274655 0.008954273205519692 0 -0.031264752205493539 0.0088543938653350817 0 -0.030934475746669056 0.0086289495130084312 0 -0.030528620947785162 0.0088812488786074485 0 -0.031054013977274655 0.008954273205519692 0 -0.030934475746669056 0.0086289495130084312 0 -0.030934475746669056 0.0086289495130084312 0 -0.031216487903126089 0.008374009918782923 0 -0.030571145609742507 0.0079680960166216078 0 -0.031264752205493539 0.0088543938653350817 0 -0.030934475746669056 0.0086289495130084312 0 -0.031216487903126089 0.008374009918782923 0 -0.030528620947785162 0.0088812488786074485 0 -0.030934475746669056 0.0086289495130084312 0 -0.030571145609742507 0.0079680960166216078 0 -0.031216487903126089 0.008374009918782923 0 -0.030571145609742507 0.0079680960166216078 0 -0.031258086893993876 0.0075246160132503787 0 -0.031216487903126089 0.008374009918782923 0 -0.032114426670279264 0.008613391250560487 0 -0.031258086893993876 0.0075246160132503787 0 -0.032114426670279264 0.008613391250560487 0 -0.032324982374627755 0.0067713147318229647 0 -0.031258086893993876 0.0075246160132503787 0 -0.025189234256967209 0.0051412873989401748 0 -0.023499526964086786 0.0047660177049094893 0 -0.031264752205493539 0.0088543938653350817 0 -0.031216487903126089 0.008374009918782923 0 -0.032114426670279264 0.008613391250560487 0 -0.022387265240151822 0.0040286310012253353 0 -0.022153504909830101 0.0043831811105707131 0 -0.022194820339377093 0.0039220598367302271 0 -0.032324982374627755 0.0067713147318229647 0 -0.03114695676171713 0.0060972694793539764 0 -0.031258086893993876 0.0075246160132503787 0 -0.023499526964086786 0.0047660177049094893 0 -0.021327568588443011 0.0042323068608999242 0 -0.032324982374627755 0.0067713147318229647 0 -0.03114695676171713 0.0060972694793539764 0 -0.032533664971851117 0.0048804844466764415 0 -0.03114695676171713 0.0060972694793539764 0 -0.030390780734525884 0.0068838998560161726 0 -0.029787875308785478 0.0055435759270602222 0 -0.03114695676171713 0.0060972694793539764 0 -0.029787875308785478 0.0055435759270602222 0 -0.031269234131744338 0.004805157629330553 0 -0.03114695676171713 0.0060972694793539764 0 -0.030390780734525884 0.0068838998560161726 0 -0.031258086893993876 0.0075246160132503787 0 -0.030571145609742507 0.0079680960166216078 0 -0.030390780734525884 0.0068838998560161726 0 -0.031258086893993876 0.0075246160132503787 0 -0.030390780734525884 0.0068838998560161726 0 -0.029185678526648638 0.0072734250886933626 0 -0.029787875308785478 0.0055435759270602222 0 -0.030571145609742507 0.0079680960166216078 0 -0.030390780734525884 0.0068838998560161726 0 -0.029185678526648638 0.0072734250886933626 0 -0.028378836955519886 0.0066409377654521248 0 -0.02829261162466766 0.0065267942776683864 0 -0.029185678526648638 0.0072734250886933626 0 -0.029787875308785478 0.0055435759270602222 0 -0.027755295524539821 0.0057111087985467065 0 -0.028956632075322009 0.0073940752999808812 0 -0.027323196855611839 0.0071575088921994514 0 -0.027755295524539821 0.0057111087985467065 0 -0.028956632075322009 0.0073940752999808812 0 -0.027987339631279119 0.0083329815773407617 0 -0.027323196855611839 0.0071575088921994514 0 -0.028956632075322009 0.0073940752999808812 0 -0.027987339631279119 0.0083329815773407617 0 -0.028612826736611308 0.008581692634511898 0 -0.030528620947785162 0.0088812488786074485 0 -0.030571145609742507 0.0079680960166216078 0 -0.029185678526648638 0.0072734250886933626 0 -0.028049584574599187 0.0062728903337804414 0 -0.028378836955519886 0.0066409377654521248 0 -0.028956632075322009 0.0073940752999808812 0 -0.028612826736611308 0.008581692634511898 0 -0.029245559359597217 0.0088721266574230788 0 -0.029971593360628046 0.0088083831322541273 0 -0.028956632075322009 0.0073940752999808812 0 -0.029245559359597217 0.0088721266574230788 0 -0.028612826736611308 0.008581692634511898 0 -0.029245559359597217 0.0088721266574230788 0 -0.02886654006174804 0.0090048173758871357 0 -0.02886654006174804 0.0090048173758871357 0 -0.029308626524046831 0.0091606233732036014 0 -0.029042843003598207 0.0092797894677569982 0 -0.029245559359597217 0.0088721266574230788 0 -0.02886654006174804 0.0090048173758871357 0 -0.029308626524046831 0.0091606233732036014 0 -0.02886654006174804 0.0090048173758871357 0 -0.029042843003598207 0.0092797894677569982 0 -0.028565825400230928 0.0093060246419219752 0 -0.029971593360628046 0.0088083831322541273 0 -0.029245559359597217 0.0088721266574230788 0 -0.029629624314677139 0.0091251824804230337 0 -0.029245559359597217 0.0088721266574230788 0 -0.029308626524046831 0.0091606233732036014 0 -0.029629624314677139 0.0091251824804230337 0 -0.029867175467937681 0.0095038001956673293 0 -0.029629624314677139 0.0091251824804230337 0 -0.029402946801734352 0.0096668909690808564 0 -0.029308626524046831 0.0091606233732036014 0 -0.029629624314677139 0.0091251824804230337 0 -0.029402946801734352 0.0096668909690808564 0 -0.029308626524046831 0.0091606233732036014 0 -0.029402946801734352 0.0096668909690808564 0 -0.029042843003598207 0.0092797894677569982 0 -0.029402946801734352 0.0096668909690808564 0 -0.029042843003598207 0.0092797894677569982 0 -0.028565825400230928 0.0093060246419219752 0 -0.028142872563133317 0.0097296128593733645 0 -0.028486132347905441 0.0095429593372546809 0 -0.028087156914901653 0.0093879540093216481 0 -0.027987339631279119 0.0083329815773407617 0 -0.028612826736611308 0.008581692634511898 0 -0.028087156914901653 0.0093879540093216481 0 -0.028486132347905441 0.0095429593372546809 0 -0.028565825400230928 0.0093060246419219752 0 -0.028087156914901653 0.0093879540093216481 0 -0.028612826736611308 0.008581692634511898 0 -0.02886654006174804 0.0090048173758871357 0 -0.028565825400230928 0.0093060246419219752 0 -0.028612826736611308 0.008581692634511898 0 -0.028565825400230928 0.0093060246419219752 0 -0.028087156914901653 0.0093879540093216481 0 -0.024405094238578763 -0.00028566380395319261 0 -0.024832367601094276 -8.9932877721546139e-05 0 -0.02491568102771595 -0.0007589332572739588 0 -0.024405094238578763 -0.00028566380395319261 0 -0.024832367601094276 -8.9932877721546139e-05 0 -0.024069787787794707 0.00030550909108221006 0 -0.021812970621516745 0.0010443406679878106 0 -0.022526942454275771 0.0012820863831528705 0 -0.024832367601094276 -8.9932877721546139e-05 0 -0.02491568102771595 -0.0007589332572739588 0 -0.02554576384366852 -0.00040104887917432122 0 -0.016732454873128338 0.002805406582910906 0 -0.016619779314303335 0.0022198512301235024 0 -0.015839600596725411 0.0022993613767624752 0 -0.016732454873128338 0.002805406582910906 0 -0.016619779314303335 0.0022198512301235024 0 -0.017238439629424774 0.0018694651528440214 0 -0.016619779314303335 0.0022198512301235024 0 -0.017238439629424774 0.0018694651528440214 0 -0.016826404760850903 0.0013865421916151555 0 -0.021812970621516745 0.0010443406679878106 0 -0.021662086709987434 0.00058920628559396265 0 -0.016732454873128338 0.002805406582910906 0 -0.017238439629424774 0.0018694651528440214 0 -0.018597726625491126 0.0021253404674007217 0 -0.024069787787794707 0.00030550909108221006 0 -0.023410534569629462 -4.616129199704132e-05 0 -0.023971527211777238 -5.126731979951022e-05 0 -0.021662086709987434 0.00058920628559396265 0 -0.021724317104166765 2.0393464544883304e-06 0 -0.023410534569629462 -4.616129199704132e-05 0 -0.023371095840487195 -5.2241595335885527e-07 0 -0.021726813480366217 1.3603989263336664e-06 0 -0.024069787787794707 0.00030550909108221006 0 -0.023410534569629462 -4.616129199704132e-05 0 -0.021726813480366217 1.3603989263336664e-06 0 -0.023410534569629462 -4.616129199704132e-05 0 -0.024167494573137955 -0.00019848388074581613 0 -0.023371095840487195 -5.2241595335885527e-07 0 -0.024405094238578763 -0.00028566380395319261 0 -0.023971527211777238 -5.126731979951022e-05 0 -0.024200576298752892 -0.00072881384551100922 0 -0.024167494573137955 -0.00019848388074581613 0 -0.023971527211777238 -5.126731979951022e-05 0 -0.024550152114850708 -0.00026943619172947801 0 -0.023410534569629462 -4.616129199704132e-05 0 -0.024167494573137955 -0.00019848388074581613 0 -0.023971527211777238 -5.126731979951022e-05 0 -0.024405094238578763 -0.00028566380395319261 0 -0.024069787787794707 0.00030550909108221006 0 -0.023971527211777238 -5.126731979951022e-05 0 -0.026456192971244533 0.00037358488312714492 0 -0.026573814220520429 0.00045010917914401426 0 -0.024167494573137955 -0.00019848388074581613 0 -0.024550152114850708 -0.00026943619172947801 0 -0.024845153230397161 -0.00018980929755523741 0 -0.024167494573137955 -0.00019848388074581613 0 -0.025019324513058508 -1.0681557277435677e-06 0 -0.024845153230397161 -0.00018980929755523741 0 -0.024167494573137955 -0.00019848388074581613 0 -0.023371095840487195 -5.2241595335885527e-07 0 -0.025019324513058508 -1.0681557277435677e-06 0 -0.026663356081606367 1.8321091175710465e-06 0 -0.025019324513058508 -1.0681557277435677e-06 0 -0.025525271103544165 -0.00012755905447303019 0 -0.025019324513058508 -1.0681557277435677e-06 0 -0.024845153230397161 -0.00018980929755523741 0 -0.025525271103544165 -0.00012755905447303019 0 -0.024550152114850708 -0.00026943619172947801 0 -0.024845153230397161 -0.00018980929755523741 0 -0.024818648825772661 8.3434139993345544e-06 0 -0.024550152114850708 -0.00026943619172947801 0 -0.024818648825772661 8.3434139993345544e-06 0 -0.024627314464521335 1.6567578085475254e-05 0 -0.024845153230397161 -0.00018980929755523741 0 -0.025525271103544165 -0.00012755905447303019 0 -0.024818648825772661 8.3434139993345544e-06 0 -0.02677474879900232 0.00078823780216314961 0 -0.026892808136484869 0.00079773822766232225 0 -0.024200576298752892 -0.00072881384551100922 0 -0.024389809365512057 -0.0013889252969328135 0 -0.02491568102771595 -0.0007589332572739588 0 -0.026573814220520429 0.00045010917914401426 0 -0.026892808136484869 0.00079773822766232225 0 -0.024405094238578763 -0.00028566380395319261 0 -0.024200576298752892 -0.00072881384551100922 0 -0.02491568102771595 -0.0007589332572739588 0 -0.024389809365512057 -0.0013889252969328135 0 -0.02491568102771595 -0.0007589332572739588 0 -0.025281417846261214 -0.0013950193887400668 0 -0.026892808136484869 0.00079773822766232225 0 -0.027068525586332583 0.00078969915081373925 0 -0.02491568102771595 -0.0007589332572739588 0 -0.025281417846261214 -0.0013950193887400668 0 -0.025727715148039346 -0.00098335599600124588 0 -0.026161712377780429 -0.0014024939866546131 0 -0.025281417846261214 -0.0013950193887400668 0 -0.025727715148039346 -0.00098335599600124588 0 -0.026161712377780429 -0.0014024939866546131 0 -0.025727715148039346 -0.00098335599600124588 0 -0.026261244442061266 -0.00070126478690620854 0 -0.025837947915708835 0.0010501795760738649 0 -0.027068525586332583 0.00078969915081373925 0 -0.025727715148039346 -0.00098335599600124588 0 -0.026261244442061266 -0.00070126478690620854 0 -0.02554576384366852 -0.00040104887917432122 0 -0.014794003771080312 0.0032500897046653723 0 -0.014809147596271725 0.0033478572229221929 0 -0.01563684345594727 0.0030874289675306811 0 -0.024278509458341677 0.0011945761952533885 0 -0.022526942454275771 0.0012820863831528705 0 -0.02491568102771595 -0.0007589332572739588 0 -0.025727715148039346 -0.00098335599600124588 0 -0.02554576384366852 -0.00040104887917432122 0 -0.025436311389114258 0.0011339843448326034 0 -0.025574559868003156 0.00137753511249547 0 -0.025174318541872357 0.0015437004773201112 0 -0.025822772838598018 0.0014662205019070915 0 -0.026044741661792777 0.001461583627544821 0 -0.025927291432312965 0.0016488392171600185 0 -0.025983335328671444 0.001669062997588161 0 -0.024473040755944992 0.001661026579501393 0 -0.025116817191599493 0.00113857296122236 0 -0.025436311389114258 0.0011339843448326034 0 -0.025174318541872357 0.0015437004773201112 0 -0.025837947915708835 0.0010501795760738649 0 -0.024278509458341677 0.0011945761952533885 0 -0.014810294382788336 0.0033394102385112404 0 -0.014295272336947764 0.0031809662939352441 0 -0.014556642037322006 0.0030820186321554857 0 -0.014794003771080312 0.0032500897046653723 0 -0.014810294382788336 0.0033394102385112404 0 -0.014556642037322006 0.0030820186321554857 0 -0.024270045208705206 0.0011984841637978393 0 -0.024278509458341677 0.0011945761952533885 0 -0.013694164439999967 0.002953196821091182 0 -0.014080967367403977 0.0036288951277193985 0 -0.014295272336947764 0.0031809662939352441 0 -0.024473040755944992 0.001661026579501393 0 -0.024278509458341677 0.0011945761952533885 0 -0.014080967367403977 0.0036288951277193985 0 -0.014810294382788336 0.0033394102385112404 0 -0.014295272336947764 0.0031809662939352441 0 -0.013694164439999967 0.002953196821091182 0 -0.013957148984393878 0.0025974070557927718 0 -0.014295272336947764 0.0031809662939352441 0 -0.013957148984393878 0.0025974070557927718 0 -0.014295272336947764 0.0031809662939352441 0 -0.014392339338947496 0.0026365691021283818 0 -0.014295272336947764 0.0031809662939352441 0 -0.014392339338947496 0.0026365691021283818 0 -0.014556642037322006 0.0030820186321554857 0 -0.014794003771080312 0.0032500897046653723 0 -0.014709423852758126 0.0028168797447090427 0 -0.015121563543472952 0.0026438161168175437 0 -0.014392339338947496 0.0026365691021283818 0 -0.014556642037322006 0.0030820186321554857 0 -0.014709423852758126 0.0028168797447090427 0 -0.014392339338947496 0.0026365691021283818 0 -0.014709423852758126 0.0028168797447090427 0 -0.014721554901038115 0.0024510134350212184 0 -0.014794003771080312 0.0032500897046653723 0 -0.014556642037322006 0.0030820186321554857 0 -0.014709423852758126 0.0028168797447090427 0 -0.014709423852758126 0.0028168797447090427 0 -0.014721554901038115 0.0024510134350212184 0 -0.015121563543472952 0.0026438161168175437 0 -0.014392339338947496 0.0026365691021283818 0 -0.014721554901038115 0.0024510134350212184 0 -0.014596130444424881 0.0020111409864580414 0 -0.014721554901038115 0.0024510134350212184 0 -0.015236921820708287 0.0018323534463449479 0 -0.014596130444424881 0.0020111409864580414 0 -0.013956957965347606 0.0021526508903333213 0 -0.014392339338947496 0.0026365691021283818 0 -0.014596130444424881 0.0020111409864580414 0 -0.013956957965347606 0.0021526508903333213 0 -0.013957148984393878 0.0025974070557927718 0 -0.014392339338947496 0.0026365691021283818 0 -0.01563684345594727 0.0030874289675306811 0 -0.015121563543472952 0.0026438161168175437 0 -0.015839600596725411 0.0022993613767624752 0 -0.016732454873128338 0.002805406582910906 0 -0.01563684345594727 0.0030874289675306811 0 -0.015839600596725411 0.0022993613767624752 0 -0.014794003771080312 0.0032500897046653723 0 -0.01563684345594727 0.0030874289675306811 0 -0.015121563543472952 0.0026438161168175437 0 -0.015121563543472952 0.0026438161168175437 0 -0.015839600596725411 0.0022993613767624752 0 -0.015236921820708287 0.0018323534463449479 0 -0.014721554901038115 0.0024510134350212184 0 -0.015121563543472952 0.0026438161168175437 0 -0.015236921820708287 0.0018323534463449479 0 -0.015839600596725411 0.0022993613767624752 0 -0.015236921820708287 0.0018323534463449479 0 -0.015920362439281858 0.0014843215307951164 0 -0.015236921820708287 0.0018323534463449479 0 -0.015125877439187559 0.0012897970678315757 0 -0.014746696586829798 0.0015112409274919076 0 -0.015236921820708287 0.0018323534463449479 0 -0.015125877439187559 0.0012897970678315757 0 -0.015920362439281858 0.0014843215307951164 0 -0.015125877439187559 0.0012897970678315757 0 -0.015920362439281858 0.0014843215307951164 0 -0.015409513260562431 0.00090586431758038087 0 -0.015910862465811134 0.0011913567329556263 0 -0.015711494696833399 0.00082639552119048818 0 -0.016183037770236806 0.00084434765930418456 0 -0.015744472594513403 0.00033588235718643534 0 -0.016506917427441613 0.00033539939908511771 0 -0.018335713490835803 0.0033719772376138461 0 -0.017170763829635879 0.0033358921408024882 0 -0.01411309562482206 0.0019283203940602819 0 -0.014599277071226843 0.001889398993374859 0 -0.014278704082005253 0.001428694734712908 0 -0.016874111524703247 0.0033093032302518566 0 -0.017170763829635879 0.0033358921408024882 0 -0.015236921820708287 0.0018323534463449479 0 -0.014599277071226843 0.001889398993374859 0 -0.014746696586829798 0.0015112409274919076 0 -0.014599277071226843 0.001889398993374859 0 -0.014746696586829798 0.0015112409274919076 0 -0.014278704082005253 0.001428694734712908 0 -0.015125877439187559 0.0012897970678315757 0 -0.014746696586829798 0.0015112409274919076 0 -0.014591205852949801 0.0011587225774803487 0 -0.014746696586829798 0.0015112409274919076 0 -0.014278704082005253 0.001428694734712908 0 -0.014591205852949801 0.0011587225774803487 0 -0.013939215322139166 0.0010852131986395632 0 -0.014278704082005253 0.001428694734712908 0 -0.014255300489186912 0.00090974863944532063 0 -0.014278704082005253 0.001428694734712908 0 -0.014255300489186912 0.00090974863944532063 0 -0.014591205852949801 0.0011587225774803487 0 -0.013939215322139166 0.0010852131986395632 0 -0.014255300489186912 0.00090974863944532063 0 -0.014091933274182504 0.00068654258392333227 0 -0.015125877439187559 0.0012897970678315757 0 -0.014591205852949801 0.0011587225774803487 0 -0.014673974717565576 0.00075885872958739175 0 -0.014255300489186912 0.00090974863944532063 0 -0.014591205852949801 0.0011587225774803487 0 -0.014673974717565576 0.00075885872958739175 0 -0.014673974717565576 0.00075885872958739175 0 -0.014201554168648267 0.0005275050809297006 0 -0.014404734050682674 0.00037945056854592571 0 -0.014673974717565576 0.00075885872958739175 0 -0.015006167517396581 0.00031675912269842424 0 -0.014404734050682674 0.00037945056854592571 0 -0.014255300489186912 0.00090974863944532063 0 -0.014673974717565576 0.00075885872958739175 0 -0.014201554168648267 0.0005275050809297006 0 -0.014255300489186912 0.00090974863944532063 0 -0.014201554168648267 0.0005275050809297006 0 -0.014091933274182504 0.00068654258392333227 0 -0.014201554168648267 0.0005275050809297006 0 -0.014091933274182504 0.00068654258392333227 0 -0.014031059507455963 0.00052006193806195574 0 -0.015125877439187559 0.0012897970678315757 0 -0.014673974717565576 0.00075885872958739175 0 -0.015409513260562431 0.00090586431758038087 0 -0.015711494696833399 0.00082639552119048818 0 -0.01560880531897531 0.00065009620493529418 0 -0.014673974717565576 0.00075885872958739175 0 -0.015409513260562431 0.00090586431758038087 0 -0.015006167517396581 0.00031675912269842424 0 -0.015744472594513403 0.00033588235718643534 0 -0.016228036633888613 1.1217063039250552e-05 0 -0.015006167517396581 0.00031675912269842424 0 -0.016228036633888613 1.1217063039250552e-05 0 -0.017426718156881474 5.0066667345802979e-05 0 -0.017046218175432764 -0.00017278933045206517 0 -0.016228036633888613 1.1217063039250552e-05 0 -0.017426718156881474 5.0066667345802979e-05 0 -0.016506917427441613 0.00033539939908511771 0 -0.015744472594513403 0.00033588235718643534 0 -0.016228036633888613 1.1217063039250552e-05 0 -0.016506917427441613 0.00033539939908511771 0 -0.016183037770236806 0.00084434765930418456 0 -0.016506917427441613 0.00033539939908511771 0 -0.017455014378445554 0.00085749147863380766 0 -0.017426718156881474 5.0066667345802979e-05 0 -0.016506917427441613 0.00033539939908511771 0 -0.017455014378445554 0.00085749147863380766 0 -0.017238439629424774 0.0018694651528440214 0 -0.017455014378445554 0.00085749147863380766 0 -0.016826404760850903 0.0013865421916151555 0 -0.017238439629424774 0.0018694651528440214 0 -0.018597726625491126 0.0021253404674007217 0 -0.017455014378445554 0.00085749147863380766 0 -0.016029813252030067 0.0014214255044605142 0 -0.015910862465811134 0.0011913567329556263 0 -0.016619779314303335 0.0022198512301235024 0 -0.015839600596725411 0.0022993613767624752 0 -0.015920362439281858 0.0014843215307951164 0 -0.016619779314303335 0.0022198512301235024 0 -0.016183037770236806 0.00084434765930418456 0 -0.016826404760850903 0.0013865421916151555 0 -0.016183037770236806 0.00084434765930418456 0 -0.017455014378445554 0.00085749147863380766 0 -0.016826404760850903 0.0013865421916151555 0 -0.018597726625491126 0.0021253404674007217 0 -0.021719762834551366 4.8115524744657089e-06 0 -0.019039683961735977 0.00017359676344328551 0 -0.018597726625491126 0.0021253404674007217 0 -0.017455014378445554 0.00085749147863380766 0 -0.019039683961735977 0.00017359676344328551 0 -0.017426718156881474 5.0066667345802979e-05 0 -0.017455014378445554 0.00085749147863380766 0 -0.019039683961735977 0.00017359676344328551 0 -0.019039683961735977 0.00017359676344328551 0 -0.019773734719846094 -1.3137494279761856e-06 0 -0.01818869729160608 -9.7376021018656404e-05 0 -0.021719762834551366 4.8115524744657089e-06 0 -0.019039683961735977 0.00017359676344328551 0 -0.019773734719846094 -1.3137494279761856e-06 0 -0.019773734719846094 -1.3137494279761856e-06 0 -0.01818869729160608 -9.7376021018656404e-05 0 -0.017822860044914606 -1.9294095730241822e-07 0 -0.017426718156881474 5.0066667345802979e-05 0 -0.019039683961735977 0.00017359676344328551 0 -0.01818869729160608 -9.7376021018656404e-05 0 -0.017426718156881474 5.0066667345802979e-05 0 -0.01818869729160608 -9.7376021018656404e-05 0 -0.017046218175432764 -0.00017278933045206517 0 -0.01818869729160608 -9.7376021018656404e-05 0 -0.017046218175432764 -0.00017278933045206517 0 -0.017822860044914606 -1.9294095730241822e-07 0 -0.017822860044914606 -1.9294095730241822e-07 0 -0.016224493334498064 -0.00025565819142636166 0 -0.015873411112320698 -4.5474274107798828e-07 0 -0.017046218175432764 -0.00017278933045206517 0 -0.017822860044914606 -1.9294095730241822e-07 0 -0.016224493334498064 -0.00025565819142636166 0 -0.017046218175432764 -0.00017278933045206517 0 -0.016224493334498064 -0.00025565819142636166 0 -0.016183806943897441 -0.00030350392347883187 0 -0.016224493334498064 -0.00025565819142636166 0 -0.016183806943897441 -0.00030350392347883187 0 -0.015348001840735464 -0.00037735942408419063 0 -0.016224493334498064 -0.00025565819142636166 0 -0.015873411112320698 -4.5474274107798828e-07 0 -0.015348001840735464 -0.00037735942408419063 0 -0.016228036633888613 1.1217063039250552e-05 0 -0.016183806943897441 -0.00030350392347883187 0 -0.015637035780576302 -0.00012403724622753369 0 -0.016228036633888613 1.1217063039250552e-05 0 -0.017046218175432764 -0.00017278933045206517 0 -0.016183806943897441 -0.00030350392347883187 0 -0.016183806943897441 -0.00030350392347883187 0 -0.015798166152518393 -0.00040187565005398199 0 -0.015348001840735464 -0.00037735942408419063 0 -0.016183806943897441 -0.00030350392347883187 0 -0.015798166152518393 -0.00040187565005398199 0 -0.015637035780576302 -0.00012403724622753369 0 -0.015798166152518393 -0.00040187565005398199 0 -0.015708221608465717 -0.00028396557314367408 0 -0.015348603697201181 -0.000571906576292688 0 -0.015798166152518393 -0.00040187565005398199 0 -0.015708221608465717 -0.00028396557314367408 0 -0.015348001840735464 -0.00037735942408419063 0 -0.015708221608465717 -0.00028396557314367408 0 -0.015348001840735464 -0.00037735942408419063 0 -0.015002239475369534 0.00020454593242404175 0 -0.015873411112320698 -4.5474274107798828e-07 0 -0.015348001840735464 -0.00037735942408419063 0 -0.013923315303980504 -1.2231692328904474e-06 0 -0.015348001840735464 -0.00037735942408419063 0 -0.013853740703248095 2.2398620587201106e-05 0 -0.015002239475369534 0.00020454593242404175 0 -0.015348001840735464 -0.00037735942408419063 0 -0.013923315303980504 -1.2231692328904474e-06 0 -0.013853740703248095 2.2398620587201106e-05 0 -0.013923315303980504 -1.2231692328904474e-06 0 -0.013853740703248095 2.2398620587201106e-05 0 -0.011975897447058088 2.6915468937797041e-06 0 -0.013853740703248095 2.2398620587201106e-05 0 -0.011975897447058088 2.6915468937797041e-06 0 -0.013173354376442311 0.00090940623325142889 0 -0.01197088494781152 4.4193561940578917e-07 0 -0.011659858392515007 -3.1233769998837122e-05 0 -0.011970891555333358 -2.6524549763080604e-10 0 -0.011546553509047031 -4.4908067496629879e-07 0 -0.01113544164717321 -9.5244120366010323e-10 0 -0.0099727650262375345 0.00075625840321465068 0 -0.011130636884239023 1.4423351570172777e-06 0 -0.0098783271098472156 0.00013372535565848789 0 -0.011659858392515007 -3.1233769998837122e-05 0 -0.011136764388311663 8.859811433722378e-07 0 -0.014643633338664936 0.00073454136644968604 0 -0.014292212386490902 0.00074038608609264765 0 -0.014234948246281857 0.00099184404376229671 0 -0.014643633338664936 0.00073454136644968604 0 -0.014292212386490902 0.00074038608609264765 0 -0.014296047957674677 0.00047224957552600906 0 -0.0099727650262375345 0.00075625840321465068 0 -0.0098783271098472156 0.00013372535565848789 0 -0.0088790943502035508 3.1955680012915391e-05 0 -0.011659858392515007 -3.1233769998837122e-05 0 -0.011185342825075941 0.00012716200829803446 0 -0.011659858392515007 -3.1233769998837122e-05 0 -0.012911204585073999 -0.00021918554817953984 0 -0.013853740703248095 2.2398620587201106e-05 0 -0.013173354376442311 0.00090940623325142889 0 -0.015002239475369534 0.00020454593242404175 0 -0.013526060484199517 -0.00025239644161551922 0 -0.012911204585073999 -0.00021918554817953984 0 -0.013713465480184622 0.0012022448154279785 0 -0.014234948246281857 0.00099184404376229671 0 -0.013994660275822487 0.00075951661834739869 0 -0.013713465480184622 0.0012022448154279785 0 -0.013994660275822487 0.00075951661834739869 0 -0.013605981257592511 0.00097079043903690115 0 -0.013994660275822487 0.00075951661834739869 0 -0.013702335170847737 0.00063482862716498774 0 -0.013605981257592511 0.00097079043903690115 0 -0.014292212386490902 0.00074038608609264765 0 -0.013994660275822487 0.00075951661834739869 0 -0.014296047957674677 0.00047224957552600906 0 -0.014292212386490902 0.00074038608609264765 0 -0.014234948246281857 0.00099184404376229671 0 -0.013994660275822487 0.00075951661834739869 0 -0.010472234874635519 0.00014239158896427087 0 -0.011185342825075941 0.00012716200829803446 0 -0.009021763321394637 -1.5113252022054138e-05 0 -0.0088267912926952453 -5.6699576315823339e-05 0 -0.0088790943502035508 3.1955680012915391e-05 0 -0.013994660275822487 0.00075951661834739869 0 -0.014027101098645391 0.00017472872990862654 0 -0.014296047957674677 0.00047224957552600906 0 -0.014027101098645391 0.00017472872990862654 0 -0.013704701600929655 0.00015100590497164456 0 -0.013702335170847737 0.00063482862716498774 0 -0.013994660275822487 0.00075951661834739869 0 -0.014027101098645391 0.00017472872990862654 0 -0.013702335170847737 0.00063482862716498774 0 -0.014027101098645391 0.00017472872990862654 0 -0.013704701600929655 0.00015100590497164456 0 -0.013719414050702518 -0.00035047728282548653 0 -0.010472234874635519 0.00014239158896427087 0 -0.0093727141939655301 -1.0080992878180473e-05 0 -0.009021763321394637 -1.5113252022054138e-05 0 -0.0088267912926952453 -5.6699576315823339e-05 0 -0.0089688753443421566 0.00016742486159902032 0 -0.0088267912926952453 -5.6699576315823339e-05 0 -0.0083131504543876508 0.00013205511740846867 0 -0.0093944610143701923 -6.2734234779835614e-05 0 -0.0088267912926952453 -5.6699576315823339e-05 0 -0.0083131504543876508 0.00013205511740846867 0 -0.0089688753443421566 0.00016742486159902032 0 -0.0090675149608706214 -2.3078755678044506e-07 0 -0.0083131504543876508 0.00013205511740846867 0 -0.0093944610143701923 -6.2734234779835614e-05 0 -0.011130636884239023 1.4423351570172777e-06 0 -0.0090675149608706214 -2.3078755678044506e-07 0 -0.0093944610143701923 -6.2734234779835614e-05 0 -0.011130636884239023 1.4423351570172777e-06 0 -0.0093944610143701923 -6.2734234779835614e-05 0 -0.0098783271098472156 0.00013372535565848789 0 -0.0093944610143701923 -6.2734234779835614e-05 0 -0.0098783271098472156 0.00013372535565848789 0 -0.0088790943502035508 3.1955680012915391e-05 0 -0.0088267912926952453 -5.6699576315823339e-05 0 -0.0093944610143701923 -6.2734234779835614e-05 0 -0.0088790943502035508 3.1955680012915391e-05 0 -0.013055657768613792 0.00069744727658114917 0 -0.012541863957071802 0.00075453080312462453 0 -0.012801356966444145 0.00018793478586554181 0 -0.012541863957071802 0.00075453080312462453 0 -0.012282893907460055 2.8512172739956671e-05 0 -0.012801356966444145 0.00018793478586554181 0 -0.013055657768613792 0.00069744727658114917 0 -0.012801356966444145 0.00018793478586554181 0 -0.013168611181435206 0.00018181729684895625 0 -0.012541863957071802 0.00075453080312462453 0 -0.012282893907460055 2.8512172739956671e-05 0 -0.011371081156076733 0.00020029316254208191 0 -0.012541863957071802 0.00075453080312462453 0 -0.012101383779638486 0.0012756196361965481 0 -0.011371081156076733 0.00020029316254208191 0 -0.012282893907460055 2.8512172739956671e-05 0 -0.011903332731908495 -0.00058066961700811899 0 -0.011371081156076733 0.00020029316254208191 0 -0.012282893907460055 2.8512172739956671e-05 0 -0.011903332731908495 -0.00058066961700811899 0 -0.012604722332638617 -0.00041378044593746251 0 -0.012282893907460055 2.8512172739956671e-05 0 -0.012604722332638617 -0.00041378044593746251 0 -0.012801356966444145 0.00018793478586554181 0 -0.012801356966444145 0.00018793478586554181 0 -0.01295310250514858 -0.00025724853512780547 0 -0.013168611181435206 0.00018181729684895625 0 -0.012604722332638617 -0.00041378044593746251 0 -0.012801356966444145 0.00018793478586554181 0 -0.01295310250514858 -0.00025724853512780547 0 -0.012604722332638617 -0.00041378044593746251 0 -0.01295310250514858 -0.00025724853512780547 0 -0.012914859081709988 -0.00060041807611427365 0 -0.01295310250514858 -0.00025724853512780547 0 -0.013260431433438734 -0.00020798212155181633 0 -0.013121586602038883 -0.0005261584072232435 0 -0.013260431433438734 -0.00020798212155181633 0 -0.013355781808926057 -0.00044480414731140313 0 -0.013121586602038883 -0.0005261584072232435 0 -0.013260431433438734 -0.00020798212155181633 0 -0.013429500881063363 9.3236251876820507e-05 0 -0.013496786356283126 -0.0001807244086500488 0 -0.013260431433438734 -0.00020798212155181633 0 -0.013496786356283126 -0.0001807244086500488 0 -0.013355781808926057 -0.00044480414731140313 0 -0.013260431433438734 -0.00020798212155181633 0 -0.013429500881063363 9.3236251876820507e-05 0 -0.013168611181435206 0.00018181729684895625 0 -0.01295310250514858 -0.00025724853512780547 0 -0.013260431433438734 -0.00020798212155181633 0 -0.013168611181435206 0.00018181729684895625 0 -0.013496786356283126 -0.0001807244086500488 0 -0.013704701600929655 0.00015100590497164456 0 -0.013719414050702518 -0.00035047728282548653 0 -0.013429500881063363 9.3236251876820507e-05 0 -0.013496786356283126 -0.0001807244086500488 0 -0.013704701600929655 0.00015100590497164456 0 -0.013704701600929655 0.00015100590497164456 0 -0.013413237673816901 0.00048268095892859813 0 -0.013702335170847737 0.00063482862716498774 0 -0.013429500881063363 9.3236251876820507e-05 0 -0.013704701600929655 0.00015100590497164456 0 -0.013413237673816901 0.00048268095892859813 0 -0.013055657768613792 0.00069744727658114917 0 -0.013168611181435206 0.00018181729684895625 0 -0.013413237673816901 0.00048268095892859813 0 -0.013429500881063363 9.3236251876820507e-05 0 -0.013168611181435206 0.00018181729684895625 0 -0.013413237673816901 0.00048268095892859813 0 -0.013055657768613792 0.00069744727658114917 0 -0.013413237673816901 0.00048268095892859813 0 -0.013328760856637116 0.0010158658932939663 0 -0.013413237673816901 0.00048268095892859813 0 -0.013328760856637116 0.0010158658932939663 0 -0.013702335170847737 0.00063482862716498774 0 -0.013328760856637116 0.0010158658932939663 0 -0.013702335170847737 0.00063482862716498774 0 -0.013605981257592511 0.00097079043903690115 0 -0.013713465480184622 0.0012022448154279785 0 -0.013605981257592511 0.00097079043903690115 0 -0.013393390795231675 0.0011422865886962831 0 -0.013328760856637116 0.0010158658932939663 0 -0.013605981257592511 0.00097079043903690115 0 -0.013393390795231675 0.0011422865886962831 0 -0.013328760856637116 0.0010158658932939663 0 -0.013234528787986734 0.0012624327219215978 0 -0.013393390795231675 0.0011422865886962831 0 -0.013234528787986734 0.0012624327219215978 0 -0.012872644225999387 0.0012271756720275988 0 -0.013014716395941879 0.001406421867698101 0 -0.013328760856637116 0.0010158658932939663 0 -0.013234528787986734 0.0012624327219215978 0 -0.012872644225999387 0.0012271756720275988 0 -0.013234528787986734 0.0012624327219215978 0 -0.013014716395941879 0.001406421867698101 0 -0.013306806070367092 0.0012229680463616908 0 -0.013055657768613792 0.00069744727658114917 0 -0.013328760856637116 0.0010158658932939663 0 -0.012872644225999387 0.0012271756720275988 0 -0.013055657768613792 0.00069744727658114917 0 -0.012541863957071802 0.00075453080312462453 0 -0.012872644225999387 0.0012271756720275988 0 -0.012101383779638486 0.0012756196361965481 0 -0.012618242176905773 0.0015081435339048773 0 -0.011752068199162077 0.0018093546474616865 0 -0.012872644225999387 0.0012271756720275988 0 -0.012101383779638486 0.0012756196361965481 0 -0.012618242176905773 0.0015081435339048773 0 -0.012541863957071802 0.00075453080312462453 0 -0.012872644225999387 0.0012271756720275988 0 -0.012101383779638486 0.0012756196361965481 0 -0.012618242176905773 0.0015081435339048773 0 -0.011752068199162077 0.0018093546474616865 0 -0.012684470745666856 0.0014583778070552866 0 -0.012872644225999387 0.0012271756720275988 0 -0.012618242176905773 0.0015081435339048773 0 -0.013014716395941879 0.001406421867698101 0 -0.012618242176905773 0.0015081435339048773 0 -0.013014716395941879 0.001406421867698101 0 -0.013107960702131822 0.0014930149584091743 0 -0.012618242176905773 0.0015081435339048773 0 -0.013107960702131822 0.0014930149584091743 0 -0.012684470745666856 0.0014583778070552866 0 -0.013458834358746573 0.0026056114877533818 0 -0.013417597177967705 0.002702116981843531 0 -0.013107960702131822 0.0014930149584091743 0 -0.01255354739478713 0.0022954216493918799 0 -0.012684470745666856 0.0014583778070552866 0 -0.013107960702131822 0.0014930149584091743 0 -0.013487291149824499 0.0010727016797861294 0 -0.013966065509076331 0.00093872343885108961 0 -0.013487291149824499 0.0010727016797861294 0 -0.013724873517444525 0.00077823126376186651 0 -0.013966065509076331 0.00093872343885108961 0 -0.013487291149824499 0.0010727016797861294 0 -0.013306806070367092 0.0012229680463616908 0 -0.01364466493706467 0.00083629616427096222 0 -0.013107960702131822 0.0014930149584091743 0 -0.013487291149824499 0.0010727016797861294 0 -0.013306806070367092 0.0012229680463616908 0 -0.013014716395941879 0.001406421867698101 0 -0.013107960702131822 0.0014930149584091743 0 -0.013306806070367092 0.0012229680463616908 0 -0.013234528787986734 0.0012624327219215978 0 -0.013306806070367092 0.0012229680463616908 0 -0.01350422308433186 0.0010329652962686058 0 -0.013306806070367092 0.0012229680463616908 0 -0.01364466493706467 0.00083629616427096222 0 -0.01350422308433186 0.0010329652962686058 0 -0.01364466493706467 0.00083629616427096222 0 -0.013844981707728252 0.00055918751911220271 0 -0.014119660818478007 0.00017586447753458991 0 -0.01364466493706467 0.00083629616427096222 0 -0.01350422308433186 0.0010329652962686058 0 -0.014119660818478007 0.00017586447753458991 0 -0.013844981707728252 0.00055918751911220271 0 -0.013724873517444525 0.00077823126376186651 0 -0.013929392725679212 0.00058743893018756664 0 -0.013844981707728252 0.00055918751911220271 0 -0.013965030509647612 0.00041305755431975659 0 -0.013929392725679212 0.00058743893018756664 0 -0.013724873517444525 0.00077823126376186651 0 -0.013966065509076331 0.00093872343885108961 0 -0.013929392725679212 0.00058743893018756664 0 -0.01364466493706467 0.00083629616427096222 0 -0.013844981707728252 0.00055918751911220271 0 -0.013724873517444525 0.00077823126376186651 0 -0.013487291149824499 0.0010727016797861294 0 -0.01364466493706467 0.00083629616427096222 0 -0.013724873517444525 0.00077823126376186651 0 -0.013526060484199517 -0.00025239644161551922 0 -0.01376875867587736 -0.00024096979330612484 0 -0.013713465480184622 0.0012022448154279785 0 -0.013393390795231675 0.0011422865886962831 0 -0.013310001722764534 0.0010088217410558849 0 -0.013393390795231675 0.0011422865886962831 0 -0.01350422308433186 0.0010329652962686058 0 -0.013310001722764534 0.0010088217410558849 0 -0.013234528787986734 0.0012624327219215978 0 -0.013393390795231675 0.0011422865886962831 0 -0.01350422308433186 0.0010329652962686058 0 -0.01350422308433186 0.0010329652962686058 0 -0.013310001722764534 0.0010088217410558849 0 -0.014119660818478007 0.00017586447753458991 0 -0.01376875867587736 -0.00024096979330612484 0 -0.013828357202322656 -0.00023342937362635948 0 -0.015798166152518393 -0.00040187565005398199 0 -0.015348603697201181 -0.000571906576292688 0 -0.015637035780576302 -0.00012403724622753369 0 -0.015348603697201181 -0.000571906576292688 0 -0.015637035780576302 -0.00012403724622753369 0 -0.014119660818478007 0.00017586447753458991 0 -0.015637035780576302 -0.00012403724622753369 0 -0.015006167517396581 0.00031675912269842424 0 -0.014119660818478007 0.00017586447753458991 0 -0.016228036633888613 1.1217063039250552e-05 0 -0.015637035780576302 -0.00012403724622753369 0 -0.015006167517396581 0.00031675912269842424 0 -0.013965030509647612 0.00041305755431975659 0 -0.014104373787059541 0.00035568720409507616 0 -0.013994763292543557 0.00040651735234133906 0 -0.013965030509647612 0.00041305755431975659 0 -0.014000009113514829 0.00046596199822546819 0 -0.013929392725679212 0.00058743893018756664 0 -0.013965030509647612 0.00041305755431975659 0 -0.013994763292543557 0.00040651735234133906 0 -0.014000009113514829 0.00046596199822546819 0 -0.014119660818478007 0.00017586447753458991 0 -0.014404734050682674 0.00037945056854592571 0 -0.014104373787059541 0.00035568720409507616 0 -0.013844981707728252 0.00055918751911220271 0 -0.013965030509647612 0.00041305755431975659 0 -0.014119660818478007 0.00017586447753458991 0 -0.013965030509647612 0.00041305755431975659 0 -0.014119660818478007 0.00017586447753458991 0 -0.014104373787059541 0.00035568720409507616 0 -0.015006167517396581 0.00031675912269842424 0 -0.014119660818478007 0.00017586447753458991 0 -0.014404734050682674 0.00037945056854592571 0 -0.014201554168648267 0.0005275050809297006 0 -0.014404734050682674 0.00037945056854592571 0 -0.014104373787059541 0.00035568720409507616 0 -0.014201554168648267 0.0005275050809297006 0 -0.014104373787059541 0.00035568720409507616 0 -0.014057943080686443 0.00042276742178399071 0 -0.014104373787059541 0.00035568720409507616 0 -0.014057943080686443 0.00042276742178399071 0 -0.013994763292543557 0.00040651735234133906 0 -0.014201554168648267 0.0005275050809297006 0 -0.014057943080686443 0.00042276742178399071 0 -0.014031059507455963 0.00052006193806195574 0 -0.014031059507455963 0.00052006193806195574 0 -0.013940161111248578 0.0004798953326901443 0 -0.013990569938262578 0.00041766416791353376 0 -0.014057943080686443 0.00042276742178399071 0 -0.014031059507455963 0.00052006193806195574 0 -0.013990569938262578 0.00041766416791353376 0 -0.013900962071708392 0.00069079879029116981 0 -0.013940161111248578 0.0004798953326901443 0 -0.013798275913305395 0.00048936013146516492 0 -0.013940161111248578 0.0004798953326901443 0 -0.013909709287681166 0.00044237304892083632 0 -0.013798275913305395 0.00048936013146516492 0 -0.013940161111248578 0.0004798953326901443 0 -0.013909709287681166 0.00044237304892083632 0 -0.013952876110356265 0.00041960276133647307 0 -0.013909709287681166 0.00044237304892083632 0 -0.013952876110356265 0.00041960276133647307 0 -0.013944598471916038 0.00038990798678766156 0 -0.013940161111248578 0.0004798953326901443 0 -0.013952876110356265 0.00041960276133647307 0 -0.013990569938262578 0.00041766416791353376 0 -0.013952876110356265 0.00041960276133647307 0 -0.013990569938262578 0.00041766416791353376 0 -0.013971931550772983 0.00040568411482843416 0 -0.013952876110356265 0.00041960276133647307 0 -0.013971931550772983 0.00040568411482843416 0 -0.013944598471916038 0.00038990798678766156 0 -0.014057943080686443 0.00042276742178399071 0 -0.013990569938262578 0.00041766416791353376 0 -0.013994763292543557 0.00040651735234133906 0 -0.013971931550772983 0.00040568411482843416 0 -0.014000009113514829 0.00046596199822546819 0 -0.01411029626990584 0.00055251906479641358 0 -0.013994763292543557 0.00040651735234133906 0 -0.013971931550772983 0.00040568411482843416 0 -0.014000009113514829 0.00046596199822546819 0 -0.01371353710111722 0.0026797000220992488 0 -0.013476217096821286 0.0028234212698327087 0 -0.013990569938262578 0.00041766416791353376 0 -0.013994763292543557 0.00040651735234133906 0 -0.013971931550772983 0.00040568411482843416 0 -0.013971931550772983 0.00040568411482843416 0 -0.013944598471916038 0.00038990798678766156 0 -0.01411029626990584 0.00055251906479641358 0 -0.01405694576430736 0.0031013441458850851 0 -0.013152346187230613 0.0031355768191541019 0 -0.013170256581559028 0.003167615445272832 0 -0.013456140889664186 0.0035100589208108381 0 -0.013621218315243745 0.0025166152508599698 0 -0.01405694576430736 0.0031013441458850851 0 -0.014097046859969278 0.0031596149036762565 0 -0.01405694576430736 0.0031013441458850851 0 -0.013476217096821286 0.0028234212698327087 0 -0.01405694576430736 0.0031013441458850851 0 -0.01371353710111722 0.0026797000220992488 0 -0.01405694576430736 0.0031013441458850851 0 -0.016639493511359307 0.0026886388358701475 0 -0.013689263815981222 0.0001100422902112808 0 -0.013832711897654882 0.00028143765892020854 0 -0.013798275913305395 0.00048936013146516492 0 -0.013689263815981222 0.0001100422902112808 0 -0.013798275913305395 0.00048936013146516492 0 -0.013388709498778259 0.00053130592602371098 0 -0.01371353710111722 0.0026797000220992488 0 -0.013723519450177937 0.0026051053297873874 0 -0.013909709287681166 0.00044237304892083632 0 -0.013944598471916038 0.00038990798678766156 0 -0.013798275913305395 0.00048936013146516492 0 -0.018377650636602398 0.0026937910884901636 0 -0.018104102323406236 0.0030958936278207916 0 -0.018023729792087179 0.002762918016154295 0 -0.018104102323406236 0.0030958936278207916 0 -0.017806236329879706 0.0029994873473879633 0 -0.018023729792087179 0.002762918016154295 0 -0.017706209964381263 0.0028357259096953324 0 -0.017596546104146054 0.0026667065023991288 0 -0.017561660474600057 0.0030076927677968623 0 -0.017806236329879706 0.0029994873473879633 0 -0.017837576024080395 0.0028123863125932417 0 -0.017706209964381263 0.0028357259096953324 0 -0.017806236329879706 0.0029994873473879633 0 -0.017837576024080395 0.0028123863125932417 0 -0.018023729792087179 0.002762918016154295 0 -0.017806236329879706 0.0029994873473879633 0 -0.017706209964381263 0.0028357259096953324 0 -0.017561660474600057 0.0030076927677968623 0 -0.017596546104146054 0.0026667065023991288 0 -0.017722792328480688 0.0024916806543097965 0 -0.017536316497235714 0.0023274728538697918 0 -0.017706209964381263 0.0028357259096953324 0 -0.017596546104146054 0.0026667065023991288 0 -0.017787746998429776 0.0026751347585366818 0 -0.017837576024080395 0.0028123863125932417 0 -0.017787746998429776 0.0026751347585366818 0 -0.018023729792087179 0.002762918016154295 0 -0.017837576024080395 0.0028123863125932417 0 -0.017706209964381263 0.0028357259096953324 0 -0.017787746998429776 0.0026751347585366818 0 -0.017787746998429776 0.0026751347585366818 0 -0.017722792328480688 0.0024916806543097965 0 -0.017907796875114474 0.0025484505264755609 0 -0.017596546104146054 0.0026667065023991288 0 -0.017787746998429776 0.0026751347585366818 0 -0.017722792328480688 0.0024916806543097965 0 -0.018377650636602398 0.0026937910884901636 0 -0.018023729792087179 0.002762918016154295 0 -0.018125047844186237 0.0025061919705185163 0 -0.014080165813255387 0.0032925075807068945 0 -0.013634962541126916 0.0029626188519694509 0 -0.013500061202779573 0.0025939765115957571 0 -0.017787746998429776 0.0026751347585366818 0 -0.018023729792087179 0.002762918016154295 0 -0.017907796875114474 0.0025484505264755609 0 -0.018023729792087179 0.002762918016154295 0 -0.017907796875114474 0.0025484505264755609 0 -0.018125047844186237 0.0025061919705185163 0 -0.014097046859969278 0.0031596149036762565 0 -0.013930002104049526 0.0031579719632146876 0 -0.017907796875114474 0.0025484505264755609 0 -0.018125047844186237 0.0025061919705185163 0 -0.01787981253544043 0.0023063830305823955 0 -0.013634962541126916 0.0029626188519694509 0 -0.013500061202779573 0.0025939765115957571 0 -0.013203985546157714 0.0026121956772215699 0 -0.013152346187230613 0.0031355768191541019 0 -0.013930002104049526 0.0031579719632146876 0 -0.01630951619421361 0.0047330389726286124 0 -0.015504989391181173 0.0047820699802742072 0 -0.015278610350857568 0.0038903286995486093 0 -0.013930002104049526 0.0031579719632146876 0 -0.016760242238253582 0.0032194251636945025 0 -0.0085053943453696126 0.0058974353210994 0 -0.0078004975179536201 0.0059423988769564794 0 -0.0071470196622473638 0.0044388115561860121 0 -0.017722792328480688 0.0024916806543097965 0 -0.01787981253544043 0.0023063830305823955 0 -0.017536316497235714 0.0023274728538697918 0 -0.017722792328480688 0.0024916806543097965 0 -0.017907796875114474 0.0025484505264755609 0 -0.01787981253544043 0.0023063830305823955 0 -0.0122960813689905 0.0028566735185963895 0 -0.012169799349555062 0.0027362478954227791 0 -0.012141639715451531 0.0027224935693395333 0 -0.013930002104049526 0.0031579719632146876 0 -0.012411352502280995 0.0028015625185221623 0 -0.0078004975179536201 0.0059423988769564794 0 -0.0071470196622473638 0.0044388115561860121 0 -0.0059491361345125372 0.0044495040613169567 0 -0.013152346187230613 0.0031355768191541019 0 -0.011190004939318602 0.0024792327381711258 0 -0.01215728547736678 0.002744391131191337 0 -0.012220330983772522 0.002686959120828412 0 -0.012150873305819359 0.0026649076617848554 0 -0.012169799349555062 0.0027362478954227791 0 -0.012141639715451531 0.0027224935693395333 0 -0.012049577189589697 0.0026148845083042009 0 -0.012262346385781702 0.002868036446064033 0 -0.012281151972079955 0.002746639612834288 0 -0.012385534016923449 0.0027548224751273347 0 -0.012262346385781702 0.002868036446064033 0 -0.01215728547736678 0.002744391131191337 0 -0.012281151972079955 0.002746639612834288 0 -0.013152346187230613 0.0031355768191541019 0 -0.012909368844369438 0.002929642548615584 0 -0.01215728547736678 0.002744391131191337 0 -0.012281151972079955 0.002746639612834288 0 -0.012220330983772522 0.002686959120828412 0 -0.012281151972079955 0.002746639612834288 0 -0.012344772878747631 0.0026426701070815795 0 -0.012220330983772522 0.002686959120828412 0 -0.012281151972079955 0.002746639612834288 0 -0.012385534016923449 0.0027548224751273347 0 -0.012344772878747631 0.0026426701070815795 0 -0.013275212355590912 0.0028295113982107216 0 -0.012359236819559539 0.0025982654767063547 0 -0.012385534016923449 0.0027548224751273347 0 -0.012482600228389288 0.0028534560607737535 0 -0.012512402140034202 0.0026687881241470694 0 -0.01255354739478713 0.0022954216493918799 0 -0.012333852359651223 0.0014056337144467469 0 -0.012684470745666856 0.0014583778070552866 0 -0.01255354739478713 0.0022954216493918799 0 -0.012134883681199979 0.0026480933087770402 0 -0.012333852359651223 0.0014056337144467469 0 -0.01255354739478713 0.0022954216493918799 0 -0.012134883681199979 0.0026480933087770402 0 -0.012309223664760571 0.0026497215005723768 0 -0.013487968629380192 0.0032017487834466833 0 -0.013297655627233951 0.0031997601395002701 0 -0.013548329435325614 0.0028374763304521195 0 -0.013275212355590912 0.0028295113982107216 0 -0.013366502136141425 0.0028214260735180403 0 -0.013966065509076331 0.00093872343885108961 0 -0.014076038370782151 0.00071746927177648748 0 -0.013929392725679212 0.00058743893018756664 0 -0.013417597177967705 0.002702116981843531 0 -0.013366502136141425 0.0028214260735180403 0 -0.014076038370782151 0.00071746927177648748 0 -0.013929392725679212 0.00058743893018756664 0 -0.01411029626990584 0.00055251906479641358 0 -0.014000009113514829 0.00046596199822546819 0 -0.013929392725679212 0.00058743893018756664 0 -0.01411029626990584 0.00055251906479641358 0 -0.013275212355590912 0.0028295113982107216 0 -0.013476217096821286 0.0028234212698327087 0 -0.013366502136141425 0.0028214260735180403 0 -0.013476217096821286 0.0028234212698327087 0 -0.012262346385781702 0.002868036446064033 0 -0.012385534016923449 0.0027548224751273347 0 -0.012482600228389288 0.0028534560607737535 0 -0.013152346187230613 0.0031355768191541019 0 -0.013275212355590912 0.0028295113982107216 0 -0.013789420498796794 0.0029723366265765943 0 -0.013605751570263934 0.0029841101661392221 0 -0.013612767645814349 0.0029424085551303524 0 -0.013681908919925255 0.0028429816177344982 0 -0.013789420498796794 0.0029723366265765943 0 -0.013612767645814349 0.0029424085551303524 0 -0.02870483303676561 0.0040398667681388169 0 -0.028413092717269647 0.0025055151511633768 0 -0.026859752443112655 0.0036259893411883042 0 -0.02870483303676561 0.0040398667681388169 0 -0.029806963078310766 0.0024785038393062122 0 -0.028413092717269647 0.0025055151511633768 0 -0.029787875308785478 0.0055435759270602222 0 -0.02870483303676561 0.0040398667681388169 0 -0.027755295524539821 0.0057111087985467065 0 -0.029787875308785478 0.0055435759270602222 0 -0.02870483303676561 0.0040398667681388169 0 -0.03041148354788422 0.0038369215574635437 0 -0.02870483303676561 0.0040398667681388169 0 -0.03041148354788422 0.0038369215574635437 0 -0.029806963078310766 0.0024785038393062122 0 -0.03041148354788422 0.0038369215574635437 0 -0.031175689049377217 0.0024143436330061703 0 -0.029806963078310766 0.0024785038393062122 0 -0.03041148354788422 0.0038369215574635437 0 -0.031269234131744338 0.004805157629330553 0 -0.031860897598696356 0.0036534905673860688 0 -0.03041148354788422 0.0038369215574635437 0 -0.031860897598696356 0.0036534905673860688 0 -0.031175689049377217 0.0024143436330061703 0 -0.029787875308785478 0.0055435759270602222 0 -0.03041148354788422 0.0038369215574635437 0 -0.031269234131744338 0.004805157629330553 0 -0.021327568588443011 0.0042323068608999242 0 -0.020696412220865042 0.0038471714206237476 0 -0.031269234131744338 0.004805157629330553 0 -0.032533664971851117 0.0048804844466764415 0 -0.031860897598696356 0.0036534905673860688 0 -0.03114695676171713 0.0060972694793539764 0 -0.031269234131744338 0.004805157629330553 0 -0.032533664971851117 0.0048804844466764415 0 -0.017596546104146054 0.0026667065023991288 0 -0.017561660474600057 0.0030076927677968623 0 -0.017377678588723581 0.0026776029788691722 0 -0.020696412220865042 0.0038471714206237476 0 -0.01965202563510253 0.0032581876643456259 0 -0.017596546104146054 0.0026667065023991288 0 -0.017377678588723581 0.0026776029788691722 0 -0.017536316497235714 0.0023274728538697918 0 -0.017377678588723581 0.0026776029788691722 0 -0.017536316497235714 0.0023274728538697918 0 -0.017193906019559183 0.0023488718030652551 0 -0.015504989391181173 0.0047820699802742072 0 -0.015278610350857568 0.0038903286995486093 0 -0.014697651061766523 0.0048328363556189658 0 -0.016760242238253582 0.0032194251636945025 0 -0.01965202563510253 0.0032581876643456259 0 -0.015278610350857568 0.0038903286995486093 0 -0.014197599231203327 0.0039559699608848744 0 -0.014697651061766523 0.0048328363556189658 0 -0.030640298883413523 0.00070081819108634225 0 -0.031526030680066854 0.0022876575387276417 0 -0.029974594326318767 0.0023890209433566571 0 -0.01758596503389535 0.0032478420714344217 0 -0.01965202563510253 0.0032581876643456259 0 -0.01965202563510253 0.0032581876643456259 0 -0.022471846090190942 0.003063208635950331 0 -0.022471846090190942 0.003063208635950331 0 -0.023248003908365008 0.0030084318699540352 0 -0.030640298883413523 0.00070081819108634225 0 -0.029974594326318767 0.0023890209433566571 0 -0.02882816888145559 0.00090878340088612912 0 -0.030640298883413523 0.00070081819108634225 0 -0.02882816888145559 0.00090878340088612912 0 -0.029743182779138694 -0.00090743064572443527 0 -0.02882816888145559 0.00090878340088612912 0 -0.027245597829202713 0.0017039557952750431 0 -0.027564238927727486 0.00020826202999561739 0 -0.02882816888145559 0.00090878340088612912 0 -0.028339827679469683 -0.00024648541567385776 0 -0.027564238927727486 0.00020826202999561739 0 -0.02882816888145559 0.00090878340088612912 0 -0.028413092717269647 0.0025055151511633768 0 -0.027245597829202713 0.0017039557952750431 0 -0.029974594326318767 0.0023890209433566571 0 -0.02882816888145559 0.00090878340088612912 0 -0.028413092717269647 0.0025055151511633768 0 -0.02882465167388194 -0.0025222872199582181 0 -0.028580000201473846 -0.0019996317486190214 0 -0.029743182779138694 -0.00090743064572443527 0 -0.02800530821344421 -0.0023641222081511866 0 -0.028580000201473846 -0.0019996317486190214 0 -0.028392609256502187 -0.0028879647379394724 0 -0.02800530821344421 -0.0023641222081511866 0 -0.028580000201473846 -0.0019996317486190214 0 -0.027933138357081895 -0.0016854790971660906 0 -0.02800530821344421 -0.0023641222081511866 0 -0.027933138357081895 -0.0016854790971660906 0 -0.027370949948872833 -0.0022991074418213281 0 -0.02882465167388194 -0.0025222872199582181 0 -0.028580000201473846 -0.0019996317486190214 0 -0.028376573167140758 -0.0028755290063005455 0 -0.010882361161092431 0.0020775374273149161 0 -0.010701527013170216 0.0021433530264491677 0 -0.028580000201473846 -0.0019996317486190214 0 -0.028636143238078188 -0.0010904490871909631 0 -0.029743182779138694 -0.00090743064572443527 0 -0.028580000201473846 -0.0019996317486190214 0 -0.027933138357081895 -0.0016854790971660906 0 -0.028636143238078188 -0.0010904490871909631 0 -0.027933138357081895 -0.0016854790971660906 0 -0.027819106332338871 -0.0008327414977924247 0 -0.028636143238078188 -0.0010904490871909631 0 -0.02882816888145559 0.00090878340088612912 0 -0.028339827679469683 -0.00024648541567385776 0 -0.029743182779138694 -0.00090743064572443527 0 -0.027819106332338871 -0.0008327414977924247 0 -0.028339827679469683 -0.00024648541567385776 0 -0.028636143238078188 -0.0010904490871909631 0 -0.028339827679469683 -0.00024648541567385776 0 -0.028636143238078188 -0.0010904490871909631 0 -0.029743182779138694 -0.00090743064572443527 0 -0.027819106332338871 -0.0008327414977924247 0 -0.028339827679469683 -0.00024648541567385776 0 -0.027564238927727486 0.00020826202999561739 0 -0.014197599231203327 0.0039559699608848744 0 -0.013694849147044432 0.0030740730347486073 0 -0.014239473501906467 0.0030410763393864948 0 -0.01758596503389535 0.0032478420714344217 0 -0.014859268819221385 0.0029261584901003777 0 -0.011259436736451139 0.002324159544541589 0 -0.011400847082562547 0.0024023796266681649 0 -0.011259436736451139 0.002324159544541589 0 -0.014859268819221385 0.0029261584901003777 0 -0.013192463792210582 0.002187160514326646 0 -0.013694849147044432 0.0030740730347486073 0 -0.014239473501906467 0.0030410763393864948 0 -0.0027984605672512755 0.0017404610814748896 0 -0.0038162962485577333 0.0019081094215682272 0 -0.0042004761262838782 0.0029875931101539842 0 -0.0038162962485577333 0.0019081094215682272 0 -0.0048341459763107299 0.0020783226562360695 0 -0.003936473530372523 0.0012424267440948227 0 -0.0045580272628240473 0.0021164007823279334 0 -0.0053896280434217814 0.0019564896287331637 0 -0.0045850548424397923 0.0013604955814988341 0 -0.0048341459763107299 0.0020783226562360695 0 -0.0042004761262838782 0.0029875931101539842 0 -0.0050493607847441327 0.0029143552795697783 0 -0.0038162962485577333 0.0019081094215682272 0 -0.0048341459763107299 0.0020783226562360695 0 -0.0042004761262838782 0.0029875931101539842 0 -0.015278610350857568 0.0038903286995486093 0 -0.014197599231203327 0.0039559699608848744 0 -0.014239473501906467 0.0030410763393864948 0 -0.0059491361345125372 0.0044495040613169567 0 -0.0042004761262838782 0.0029875931101539842 0 -0.0050493607847441327 0.0029143552795697783 0 -0.012411352502280995 0.0028015625185221623 0 -0.011400847082562547 0.0024023796266681649 0 -0.0093317450935976182 0.0017558099680151124 0 -0.0094709983336550285 0.0017605651446114621 0 -0.0071470196622473638 0.0044388115561860121 0 -0.0059491361345125372 0.0044495040613169567 0 -0.0058223914144462556 0.0030225528225828482 0 -0.0059491361345125372 0.0044495040613169567 0 -0.0050493607847441327 0.0029143552795697783 0 -0.0058223914144462556 0.0030225528225828482 0 -0.012141639715451531 0.0027224935693395333 0 -0.011998636628689186 0.0025852464686334379 0 -0.012049577189589697 0.0026148845083042009 0 -0.011190004939318602 0.0024792327381711258 0 -0.0094709983336550285 0.0017605651446114621 0 -0.0053256785878236304 0.003123028659344274 0 -0.0053896280434217814 0.0019564896287331637 0 -0.0062418223476143507 0.0024274335435748736 0 -0.0045580272628240473 0.0021164007823279334 0 -0.0053256785878236304 0.003123028659344274 0 -0.0053896280434217814 0.0019564896287331637 0 -0.0086866978761677947 0.0013686857515523255 0 -0.0094709983336550285 0.0017605651446114621 0 -0.0048341459763107299 0.0020783226562360695 0 -0.0050493607847441327 0.0029143552795697783 0 -0.0057506795329781328 0.0030154336012208419 0 -0.0051880295852345642 0.00094097581928966913 0 -0.0062396939510095846 0.0014439959362643493 0 -0.0059325110313448309 0.00017153653672382643 0 -0.0053896280434217814 0.0019564896287331637 0 -0.0051880295852345642 0.00094097581928966913 0 -0.0062396939510095846 0.0014439959362643493 0 -0.0053896280434217814 0.0019564896287331637 0 -0.0051880295852345642 0.00094097581928966913 0 -0.0045850548424397923 0.0013604955814988341 0 -0.0051880295852345642 0.00094097581928966913 0 -0.0049920234331122084 0.00012960622892670549 0 -0.0059325110313448309 0.00017153653672382643 0 -0.0049920234331122084 0.00012960622892670549 0 -0.0059325110313448309 0.00017153653672382643 0 -0.0053018939657156197 -0.00055840651926820342 0 -0.0049920234331122084 0.00012960622892670549 0 -0.0042254265837579101 0.00048186972171714276 0 -0.0044405392676624437 -0.00046378601880582077 0 -0.0051880295852345642 0.00094097581928966913 0 -0.0049920234331122084 0.00012960622892670549 0 -0.0042254265837579101 0.00048186972171714276 0 -0.0042254265837579101 0.00048186972171714276 0 -0.0045850548424397923 0.0013604955814988341 0 -0.003936473530372523 0.0012424267440948227 0 -0.0051880295852345642 0.00094097581928966913 0 -0.0042254265837579101 0.00048186972171714276 0 -0.0045850548424397923 0.0013604955814988341 0 -0.0045580272628240473 0.0021164007823279334 0 -0.0045850548424397923 0.0013604955814988341 0 -0.003936473530372523 0.0012424267440948227 0 -0.0086866978761677947 0.0013686857515523255 0 -0.0084012955342594176 0.0012082358597565416 0 -0.0027984605672512755 0.0017404610814748896 0 -0.0038162962485577333 0.0019081094215682272 0 -0.003400575594236253 0.0013022489857889401 0 -0.0038162962485577333 0.0019081094215682272 0 -0.003936473530372523 0.0012424267440948227 0 -0.003400575594236253 0.0013022489857889401 0 -0.0027984605672512755 0.0017404610814748896 0 -0.003400575594236253 0.0013022489857889401 0 -0.0029094348908218978 0.0010972473825469568 0 -0.003400575594236253 0.0013022489857889401 0 -0.0032076763477781101 0.00066274101830664516 0 -0.0029094348908218978 0.0010972473825469568 0 -0.003400575594236253 0.0013022489857889401 0 -0.0036660434712710291 0.00076673154435437244 0 -0.0032076763477781101 0.00066274101830664516 0 -0.003936473530372523 0.0012424267440948227 0 -0.003400575594236253 0.0013022489857889401 0 -0.0036660434712710291 0.00076673154435437244 0 -0.0042254265837579101 0.00048186972171714276 0 -0.003936473530372523 0.0012424267440948227 0 -0.0036660434712710291 0.00076673154435437244 0 -0.0042254265837579101 0.00048186972171714276 0 -0.0036660434712710291 0.00076673154435437244 0 -0.0033602662261737865 0.00023438959918630506 0 -0.0031238116847858021 0.0003903064448069243 0 -0.003021620683960214 0.00033311267827842945 0 -0.0042254265837579101 0.00048186972171714276 0 -0.0033602662261737865 0.00023438959918630506 0 -0.0033990737929986245 -0.00057758991505531417 0 -0.0033602662261737865 0.00023438959918630506 0 -0.0029447257107030143 0.00030082178422555055 0 -0.0029067931692355626 -0.00010500604652522285 0 -0.0033602662261737865 0.00023438959918630506 0 -0.0029067931692355626 -0.00010500604652522285 0 -0.0033990737929986245 -0.00057758991505531417 0 -0.0033602662261737865 0.00023438959918630506 0 -0.0032076763477781101 0.00066274101830664516 0 -0.0029447257107030143 0.00030082178422555055 0 -0.0036660434712710291 0.00076673154435437244 0 -0.0033602662261737865 0.00023438959918630506 0 -0.0032076763477781101 0.00066274101830664516 0 -0.0032076763477781101 0.00066274101830664516 0 -0.0027115048723858688 0.0005746261412169232 0 -0.0029447257107030143 0.00030082178422555055 0 -0.0027115048723858688 0.0005746261412169232 0 -0.0029447257107030143 0.00030082178422555055 0 -0.0025441273328733129 0.00014958916221128726 0 -0.0029067931692355626 -0.00010500604652522285 0 -0.0025441273328733129 0.00014958916221128726 0 -0.0026503706909979594 -0.00049044855909548886 0 -0.0029447257107030143 0.00030082178422555055 0 -0.0029067931692355626 -0.00010500604652522285 0 -0.0025441273328733129 0.00014958916221128726 0 -0.0025441273328733129 0.00014958916221128726 0 -0.0023482036699653602 0.00022642377595293855 0 -0.0026503706909979594 -0.00049044855909548886 0 -0.0083421091109821075 0.0022080395960791662 0 -0.0083733320725323142 0.0022029146010168156 0 -0.0093938608261289296 0.0018986081502197067 0 -0.0093921180659575915 0.0018850222823260021 0 -0.0093979524461607206 0.0018969999996215588 0 -0.0083733320725323142 0.0022029146010168156 0 -0.0098425845108570786 0.0021186695463279314 0 -0.0083733320725323142 0.0022029146010168156 0 -0.0084306450734440049 0.0022234940893080782 0 -0.0098425845108570786 0.0021186695463279314 0 -0.0084306450734440049 0.0022234940893080782 0 -0.0027115048723858688 0.0005746261412169232 0 -0.0023217656367355271 0.00023464427690099904 0 -0.0024562359059382582 0.001031198319234379 0 -0.0027115048723858688 0.0005746261412169232 0 -0.0025441273328733129 0.00014958916221128726 0 -0.0023217656367355271 0.00023464427690099904 0 -0.010083022308585684 0.0014585727676356794 0 -0.010227334664443607 0.0021362230042236735 0 -0.0085080678132289801 0.00073756216263169076 0 -0.0032076763477781101 0.00066274101830664516 0 -0.0027115048723858688 0.0005746261412169232 0 -0.0029094348908218978 0.0010972473825469568 0 -0.0027115048723858688 0.0005746261412169232 0 -0.0024562359059382582 0.001031198319234379 0 -0.0029094348908218978 0.0010972473825469568 0 -0.010127931926971897 0.0019680299001041709 0 -0.010436954506545993 0.002513965241250654 0 -0.010362543093720368 0.0021582294530775549 0 -0.0027984605672512755 0.0017404610814748896 0 -0.0024562359059382582 0.001031198319234379 0 -0.0029094348908218978 0.0010972473825469568 0 -0.011259436736451139 0.002324159544541589 0 -0.0098425845108570786 0.0021186695463279314 0 -0.011259436736451139 0.002324159544541589 0 -0.010701527013170216 0.0021433530264491677 0 -0.02800530821344421 -0.0023641222081511866 0 -0.028392609256502187 -0.0028879647379394724 0 -0.027480161739127519 -0.0029393191473424344 0 -0.0098425845108570786 0.0021186695463279314 0 -0.010701527013170216 0.0021433530264491677 0 -0.010228346549065723 0.0026918277878337873 0 -0.0089847086564301664 0.0016622533144192778 0 -0.010642710092873776 0.0011975261424811486 0 -0.010228346549065723 0.0026918277878337873 0 -0.0089847086564301664 0.0016622533144192778 0 -0.0088912418539074094 0.003810895149552994 0 -0.010228346549065723 0.0026918277878337873 0 -0.011752068199162077 0.0018093546474616865 0 -0.010642710092873776 0.0011975261424811486 0 -0.012101383779638486 0.0012756196361965481 0 -0.011752068199162077 0.0018093546474616865 0 -0.010642710092873776 0.0011975261424811486 0 -0.010228346549065723 0.0026918277878337873 0 -0.011752068199162077 0.0018093546474616865 0 -0.011300139734930577 0.0042872389243847784 0 -0.01235818526462569 0.0024797514005976558 0 -0.012359236819559539 0.0025982654767063547 0 -0.011752068199162077 0.0018093546474616865 0 -0.012638337583479939 0.0014868759862500553 0 -0.012684470745666856 0.0014583778070552866 0 -0.012359236819559539 0.0025982654767063547 0 -0.012360365514420447 0.0025931784077321855 0 -0.012359236819559539 0.0025982654767063547 0 -0.011224562609153209 0.0023823455466835471 0 -0.012385534016923449 0.0027548224751273347 0 -0.012512402140034202 0.0026687881241470694 0 -0.012344772878747631 0.0026426701070815795 0 -0.010228346549065723 0.0026918277878337873 0 -0.011300139734930577 0.0042872389243847784 0 -0.0088912418539074094 0.003810895149552994 0 -0.0088912418539074094 0.003810895149552994 0 -0.0069562524061484434 0.003492204961275763 0 -0.0074095267806987049 0.0021797594800341828 0 -0.011224562609153209 0.0023823455466835471 0 -0.010251627780307328 0.002104648120328434 0 -0.012344772878747631 0.0026426701070815795 0 -0.012220330983772522 0.002686959120828412 0 -0.012175266762339191 0.0026131926352872467 0 -0.0094709983336550285 0.0017605651446114621 0 -0.010251627780307328 0.002104648120328434 0 -0.011998636628689186 0.0025852464686334379 0 -0.012049577189589697 0.0026148845083042009 0 -0.012175266762339191 0.0026131926352872467 0 -0.0053256785878236304 0.003123028659344274 0 -0.0069562524061484434 0.003492204961275763 0 -0.0062418223476143507 0.0024274335435748736 0 -0.01215728547736678 0.002744391131191337 0 -0.012049577189589697 0.0026148845083042009 0 -0.012150873305819359 0.0026649076617848554 0 -0.012049577189589697 0.0026148845083042009 0 -0.012150873305819359 0.0026649076617848554 0 -0.012175266762339191 0.0026131926352872467 0 -0.012909368844369438 0.002929642548615584 0 -0.012828042350996645 0.0028600669054542711 0 -0.012220330983772522 0.002686959120828412 0 -0.012150873305819359 0.0026649076617848554 0 -0.012175266762339191 0.0026131926352872467 0 -0.0069562524061484434 0.003492204961275763 0 -0.0062418223476143507 0.0024274335435748736 0 -0.0074095267806987049 0.0021797594800341828 0 -0.0062418223476143507 0.0024274335435748736 0 -0.0074095267806987049 0.0021797594800341828 0 -0.0062396939510095846 0.0014439959362643493 0 -0.0053896280434217814 0.0019564896287331637 0 -0.0062418223476143507 0.0024274335435748736 0 -0.0062396939510095846 0.0014439959362643493 0 -0.0089847086564301664 0.0016622533144192778 0 -0.0088912418539074094 0.003810895149552994 0 -0.0074095267806987049 0.0021797594800341828 0 -0.0089847086564301664 0.0016622533144192778 0 -0.0074095267806987049 0.0021797594800341828 0 -0.0074869457704852061 0.00087319618546799125 0 -0.0074869457704852061 0.00087319618546799125 0 -0.0062396939510095846 0.0014439959362643493 0 -0.0059325110313448309 0.00017153653672382643 0 -0.0074095267806987049 0.0021797594800341828 0 -0.0074869457704852061 0.00087319618546799125 0 -0.0062396939510095846 0.0014439959362643493 0 -0.0074869457704852061 0.00087319618546799125 0 -0.0059325110313448309 0.00017153653672382643 0 -0.0074758692283074957 -0.00042864777879910712 0 -0.0074869457704852061 0.00087319618546799125 0 -0.0074758692283074957 -0.00042864777879910712 0 -0.0093899536194406337 0.00038975116957368244 0 -0.0074758692283074957 -0.00042864777879910712 0 -0.0093899536194406337 0.00038975116957368244 0 -0.010164156439407518 -0.0012500989713630235 0 -0.0089847086564301664 0.0016622533144192778 0 -0.0093899536194406337 0.00038975116957368244 0 -0.010642710092873776 0.0011975261424811486 0 -0.0089847086564301664 0.0016622533144192778 0 -0.0074869457704852061 0.00087319618546799125 0 -0.0093899536194406337 0.00038975116957368244 0 -0.0093899536194406337 0.00038975116957368244 0 -0.010642710092873776 0.0011975261424811486 0 -0.011371081156076733 0.00020029316254208191 0 -0.012101383779638486 0.0012756196361965481 0 -0.010642710092873776 0.0011975261424811486 0 -0.011371081156076733 0.00020029316254208191 0 -0.011903332731908495 -0.00058066961700811899 0 -0.011371081156076733 0.00020029316254208191 0 -0.010164156439407518 -0.0012500989713630235 0 -0.0093899536194406337 0.00038975116957368244 0 -0.011371081156076733 0.00020029316254208191 0 -0.010164156439407518 -0.0012500989713630235 0 -0.0084611739918273084 -0.00081189568276048918 0 -0.0083334511368909243 -0.00079182907533671503 0 -0.0080199603136613968 -0.00061844174252149542 0 -0.0082233298303557543 -0.0010556292116862089 0 -0.008879590581943736 -0.00085826075826285454 0 -0.011903332731908495 -0.00058066961700811899 0 -0.010164156439407518 -0.0012500989713630235 0 -0.011902689957610197 -0.0012848692871569654 0 -0.0082233298303557543 -0.0010556292116862089 0 -0.0079098192020625752 -0.0015521147705487392 0 -0.0088051757920010465 -0.0012986407753067643 0 -0.0059388016355909944 -0.0010515163958544238 0 -0.0064604606618196767 -0.00086503229938307644 0 -0.0030112102762242547 -0.001120483494260856 0 -0.0026958324285706291 -0.0010082216710676157 0 -0.002764525218077071 -0.00071040021972042222 0 -0.0079098192020625752 -0.0015521147705487392 0 -0.0074979186921082935 -0.00095761519235937299 0 -0.0065813078356118009 -0.001838268376825817 0 -0.0082233298303557543 -0.0010556292116862089 0 -0.0079098192020625752 -0.0015521147705487392 0 -0.0074979186921082935 -0.00095761519235937299 0 -0.0080199603136613968 -0.00061844174252149542 0 -0.0082233298303557543 -0.0010556292116862089 0 -0.0074979186921082935 -0.00095761519235937299 0 -0.0074758692283074957 -0.00042864777879910712 0 -0.0080199603136613968 -0.00061844174252149542 0 -0.0074979186921082935 -0.00095761519235937299 0 -0.0083734539158528704 -0.00078217104133515233 0 -0.0084611739918273084 -0.00081189568276048918 0 -0.0074758692283074957 -0.00042864777879910712 0 -0.0074979186921082935 -0.00095761519235937299 0 -0.0064349192375910301 -0.00084304985717749122 0 -0.0059325110313448309 0.00017153653672382643 0 -0.0074758692283074957 -0.00042864777879910712 0 -0.0064349192375910301 -0.00084304985717749122 0 -0.0059325110313448309 0.00017153653672382643 0 -0.0064349192375910301 -0.00084304985717749122 0 -0.0053018939657156197 -0.00055840651926820342 0 -0.0064349192375910301 -0.00084304985717749122 0 -0.0054057029105810906 -0.0011292486089311273 0 -0.0053018939657156197 -0.00055840651926820342 0 -0.0064349192375910301 -0.00084304985717749122 0 -0.0054057029105810906 -0.0011292486089311273 0 -0.0065813078356118009 -0.001838268376825817 0 -0.0074979186921082935 -0.00095761519235937299 0 -0.0064349192375910301 -0.00084304985717749122 0 -0.0065813078356118009 -0.001838268376825817 0 -0.0059388016355909944 -0.0010515163958544238 0 -0.005641974722585188 -0.0011620489939173813 0 -0.0030112102762242547 -0.001120483494260856 0 -0.0034696973591273436 -0.0014322081361883836 0 -0.0032762976863510689 -0.0010395951466775693 0 -0.005641974722585188 -0.0011620489939173813 0 -0.0055273269033117699 -0.0011977190619416249 0 -0.0034696973591273436 -0.0014322081361883836 0 -0.0032762976863510689 -0.0010395951466775693 0 -0.0044171148833972015 -0.0015087007434418736 0 -0.0054057029105810906 -0.0011292486089311273 0 -0.0065813078356118009 -0.001838268376825817 0 -0.0044171148833972015 -0.0015087007434418736 0 -0.0032762976863510689 -0.0010395951466775693 0 -0.0044171148833972015 -0.0015087007434418736 0 -0.003578704118858439 -0.00094562904674131245 0 -0.0032762976863510689 -0.0010395951466775693 0 -0.0029347094823160436 -0.00084659181704230474 0 -0.0029631793590484167 -0.00077721742570119681 0 -0.0029347094823160436 -0.00084659181704230474 0 -0.0029631793590484167 -0.00077721742570119681 0 -0.0028177656173153922 -0.00064471852207826762 0 -0.0029347094823160436 -0.00084659181704230474 0 -0.0028177656173153922 -0.00064471852207826762 0 -0.002764525218077071 -0.00071040021972042222 0 -0.0030112102762242547 -0.001120483494260856 0 -0.0029347094823160436 -0.00084659181704230474 0 -0.002764525218077071 -0.00071040021972042222 0 -0.0030112102762242547 -0.001120483494260856 0 -0.0032762976863510689 -0.0010395951466775693 0 -0.0029347094823160436 -0.00084659181704230474 0 -0.0028994119127670353 0.00044005851245838921 0 -0.003021620683960214 0.00033311267827842945 0 -0.0026609555571016665 -0.0015828088607356672 0 -0.0026503706909979594 -0.00049044855909548886 0 -0.0021285867334508569 -0.00095349455133011637 0 -0.0023482036699653602 0.00022642377595293855 0 -0.0026503706909979594 -0.00049044855909548886 0 -0.0021285867334508569 -0.00095349455133011637 0 -0.0026609555571016665 -0.0015828088607356672 0 -0.0026503706909979594 -0.00049044855909548886 0 -0.0033990737929986245 -0.00057758991505531417 0 -0.0083733320725323142 0.0022029146010168156 0 -0.0058577523292318258 0.001242914407122653 0 -0.0029067931692355626 -0.00010500604652522285 0 -0.0026503706909979594 -0.00049044855909548886 0 -0.0033990737929986245 -0.00057758991505531417 0 -0.0035224905117713745 -0.00093747695541541488 0 -0.0037419772520185719 -0.00046953733835256251 0 -0.0037581392680116617 -0.0010811376956895021 0 -0.0037419772520185719 -0.00046953733835256251 0 -0.0040935696725703692 -0.0010545218547348067 0 -0.0037581392680116617 -0.0010811376956895021 0 -0.0040935696725703692 -0.0010545218547348067 0 -0.0046413745408159538 -0.00097772055130050943 0 -0.0044171148833972015 -0.0015087007434418736 0 -0.0040935696725703692 -0.0010545218547348067 0 -0.0044405392676624437 -0.00046378601880582077 0 -0.0046413745408159538 -0.00097772055130050943 0 -0.0042254265837579101 0.00048186972171714276 0 -0.0037419772520185719 -0.00046953733835256251 0 -0.0044405392676624437 -0.00046378601880582077 0 -0.0037419772520185719 -0.00046953733835256251 0 -0.0040935696725703692 -0.0010545218547348067 0 -0.0044405392676624437 -0.00046378601880582077 0 -0.0044405392676624437 -0.00046378601880582077 0 -0.0053018939657156197 -0.00055840651926820342 0 -0.0046413745408159538 -0.00097772055130050943 0 -0.0049920234331122084 0.00012960622892670549 0 -0.0044405392676624437 -0.00046378601880582077 0 -0.0053018939657156197 -0.00055840651926820342 0 -0.0054057029105810906 -0.0011292486089311273 0 -0.0046413745408159538 -0.00097772055130050943 0 -0.0044171148833972015 -0.0015087007434418736 0 -0.0054057029105810906 -0.0011292486089311273 0 -0.0053018939657156197 -0.00055840651926820342 0 -0.0046413745408159538 -0.00097772055130050943 0 -0.0044171148833972015 -0.0015087007434418736 0 -0.0040462859069478304 -0.0011693749639497997 0 -0.0040393103076428035 -0.0012578556489736699 0 -0.0044171148833972015 -0.0015087007434418736 0 -0.0040462859069478304 -0.0011693749639497997 0 -0.003578704118858439 -0.00094562904674131245 0 -0.0040462859069478304 -0.0011693749639497997 0 -0.0040393103076428035 -0.0012578556489736699 0 -0.0038431922992483202 -0.0011048187166908612 0 -0.0040393103076428035 -0.0012578556489736699 0 -0.0037246410376395897 -0.0011838875976734008 0 -0.0038431922992483202 -0.0011048187166908612 0 -0.0040935696725703692 -0.0010545218547348067 0 -0.0044171148833972015 -0.0015087007434418736 0 -0.0040393103076428035 -0.0012578556489736699 0 -0.0040935696725703692 -0.0010545218547348067 0 -0.0040393103076428035 -0.0012578556489736699 0 -0.0037581392680116617 -0.0010811376956895021 0 -0.0040393103076428035 -0.0012578556489736699 0 -0.0037581392680116617 -0.0010811376956895021 0 -0.0037246410376395897 -0.0011838875976734008 0 -0.0037581392680116617 -0.0010811376956895021 0 -0.0037246410376395897 -0.0011838875976734008 0 -0.0035760479839236606 -0.0011212164347834852 0 -0.0037246410376395897 -0.0011838875976734008 0 -0.003497925950790457 -0.0011836074005088547 0 -0.003491834627876176 -0.0011486774875813298 0 -0.0037246410376395897 -0.0011838875976734008 0 -0.003497925950790457 -0.0011836074005088547 0 -0.0035760479839236606 -0.0011212164347834852 0 -0.003497925950790457 -0.0011836074005088547 0 -0.0035760479839236606 -0.0011212164347834852 0 -0.0034231886119191952 -0.0011376066730850462 0 -0.003497925950790457 -0.0011836074005088547 0 -0.0034147421427205217 -0.0012134742954871395 0 -0.0034231886119191952 -0.0011376066730850462 0 -0.0035224905117713745 -0.00093747695541541488 0 -0.0035760479839236606 -0.0011212164347834852 0 -0.0034231886119191952 -0.0011376066730850462 0 -0.0035224905117713745 -0.00093747695541541488 0 -0.0037581392680116617 -0.0010811376956895021 0 -0.0035760479839236606 -0.0011212164347834852 0 -0.0028994119127670353 0.00044005851245838921 0 -0.003016964735956233 0.0011207027880809585 0 -0.0014803791818584512 0.0025381430993208559 0 -0.0021135841722415521 0.0019531094689003924 0 -0.0020076506011024202 0.0015457643446916221 0 -0.0023323543020210241 0.0016067984907564609 0 0.0012893798554353714 0.0049474401507002526 0 0.0017578139051120855 0.0055664963584499752 0 0.0020225225547552657 0.0068950023012332292 0 -0.0020058420997252895 0.0021585114440397226 0 -0.0019125744355081849 0.0026075670947467385 0 -0.0021037945856477681 0.0019044096642171671 0 -0.0031040546841038037 -0.0011185848536623738 0 -0.0032643952849819081 -0.0011931566043075783 0 -0.0034147421427205217 -0.0012134742954871395 0 0.0012893798554353714 0.0049474401507002526 0 0.0017578139051120855 0.0055664963584499752 0 0.0014982395760810032 0.00419824314296245 0 -0.0018334452580982515 0.0022594668975808052 0 -0.0014803791818584512 0.0025381430993208559 0 -0.0031040546841038037 -0.0011185848536623738 0 -0.0029751082675428132 -0.0012366831130084053 0 -0.0023153613970097872 -0.00064380156404679077 0 -0.0029751082675428132 -0.0012366831130084053 0 -0.0032643952849819081 -0.0011931566043075783 0 -0.0033021060422379553 -0.0011567578081891625 0 -0.0031040546841038037 -0.0011185848536623738 0 -0.0029751082675428132 -0.0012366831130084053 0 -0.0032643952849819081 -0.0011931566043075783 0 -0.0034014520358266768 -0.0011819013606462711 0 -0.0032643952849819081 -0.0011931566043075783 0 -0.0034147421427205217 -0.0012134742954871395 0 -0.0018334452580982515 0.0022594668975808052 0 -0.0023323543020210241 0.0016067984907564609 0 -0.003497925950790457 -0.0011836074005088547 0 -0.0034014520358266768 -0.0011819013606462711 0 -0.0034147421427205217 -0.0012134742954871395 0 -0.003497925950790457 -0.0011836074005088547 0 -0.0034014520358266768 -0.0011819013606462711 0 -0.003491834627876176 -0.0011486774875813298 0 -0.0034014520358266768 -0.0011819013606462711 0 -0.0032643952849819081 -0.0011931566043075783 0 -0.003491834627876176 -0.0011486774875813298 0 -0.0032643952849819081 -0.0011931566043075783 0 -0.003491834627876176 -0.0011486774875813298 0 -0.0033021060422379553 -0.0011567578081891625 0 -0.003491834627876176 -0.0011486774875813298 0 -0.0035141626479410185 -0.0011154196005346733 0 -0.0033021060422379553 -0.0011567578081891625 0 -0.003491834627876176 -0.0011486774875813298 0 -0.0035141626479410185 -0.0011154196005346733 0 -0.0038431922992483202 -0.0011048187166908612 0 -0.0037246410376395897 -0.0011838875976734008 0 -0.003491834627876176 -0.0011486774875813298 0 -0.0038431922992483202 -0.0011048187166908612 0 -0.002782238490681667 -0.00074326748611525291 0 -0.0027209863350360747 -0.00070824178518562287 0 -0.0029751082675428132 -0.0012366831130084053 0 -0.001304264945405402 -0.00064411822823689352 0 -0.0023153613970097872 -0.00064380156404679077 0 -0.0029751082675428132 -0.0012366831130084053 0 -0.0035141626479410185 -0.0011154196005346733 0 -0.0038658274545140636 -0.0011052287630105781 0 -0.0029751082675428132 -0.0012366831130084053 0 -0.0035141626479410185 -0.0011154196005346733 0 -0.0033021060422379553 -0.0011567578081891625 0 -0.0035141626479410185 -0.0011154196005346733 0 -0.0038658274545140636 -0.0011052287630105781 0 -0.0038431922992483202 -0.0011048187166908612 0 -0.0038658274545140636 -0.0011052287630105781 0 -0.0038431922992483202 -0.0011048187166908612 0 -0.003864444195209192 -0.00096723738302989146 0 -0.0040462859069478304 -0.0011693749639497997 0 -0.003864444195209192 -0.00096723738302989146 0 -0.003578704118858439 -0.00094562904674131245 0 -0.0040462859069478304 -0.0011693749639497997 0 -0.0038431922992483202 -0.0011048187166908612 0 -0.003864444195209192 -0.00096723738302989146 0 -0.0038658274545140636 -0.0011052287630105781 0 -0.003864444195209192 -0.00096723738302989146 0 -0.0036326431137299179 -0.00059284639424928432 0 -0.0027209863350360747 -0.00070824178518562287 0 -0.0026544466519311488 -0.00064937011153033458 0 -0.001304264945405402 -0.00064411822823689352 0 -0.0013335423274428177 -0.00037612727318213292 0 -0.0016797359936757644 -0.00014519602121685254 0 -0.0013335423274428177 -0.00037612727318213292 0 -0.0015415210421531249 -0.00042827534829181584 0 -0.0016797359936757644 -0.00014519602121685254 0 -0.0013335423274428177 -0.00037612727318213292 0 -0.0015415210421531249 -0.00042827534829181584 0 -0.0012505776291367213 -0.00025955212610764405 0 -0.0015415210421531249 -0.00042827534829181584 0 -0.0012505776291367213 -0.00025955212610764405 0 -0.001305689288915538 -0.0004179838774469342 0 -0.0013335423274428177 -0.00037612727318213292 0 -0.0012505776291367213 -0.00025955212610764405 0 -0.0015164664258644209 -0.00030075101242526647 0 -0.0012505776291367213 -0.00025955212610764405 0 -0.0011734600669408594 -8.7232526570675648e-05 0 -0.00095407466980330881 -0.00022041530313464367 0 -0.0012505776291367213 -0.00025955212610764405 0 -0.0015164664258644209 -0.00030075101242526647 0 -0.0011734600669408594 -8.7232526570675648e-05 0 -0.001304264945405402 -0.00064411822823689352 0 -0.0013335423274428177 -0.00037612727318213292 0 -0.0015164664258644209 -0.00030075101242526647 0 -0.001304264945405402 -0.00064411822823689352 0 -0.0023153613970097872 -0.00064380156404679077 0 -0.0015164664258644209 -0.00030075101242526647 0 -0.0023153613970097872 -0.00064380156404679077 0 -0.0018288092220427096 -0.00029819531990094521 0 -0.001979999061356741 -0.00011097976478144673 0 -0.0023153613970097872 -0.00064380156404679077 0 -0.0018288092220427096 -0.00029819531990094521 0 -0.0015164664258644209 -0.00030075101242526647 0 -0.0015164664258644209 -0.00030075101242526647 0 -0.0016139724140013007 -0.00020002098655407782 0 -0.0011734600669408594 -8.7232526570675648e-05 0 -0.0018892814252289029 0.0012566491911276763 0 -0.0018726594700136613 0.0010628438691836777 0 -0.0011734600669408594 -8.7232526570675648e-05 0 -0.001979999061356741 -0.00011097976478144673 0 -0.00049948877383649659 7.1191529970669241e-05 0 -0.0018288092220427096 -0.00029819531990094521 0 -0.0015164664258644209 -0.00030075101242526647 0 -0.0016139724140013007 -0.00020002098655407782 0 -0.0016139724140013007 -0.00020002098655407782 0 -0.0011734600669408594 -8.7232526570675648e-05 0 -0.001979999061356741 -0.00011097976478144673 0 -0.0018288092220427096 -0.00029819531990094521 0 -0.0016139724140013007 -0.00020002098655407782 0 -0.001979999061356741 -0.00011097976478144673 0 0.0011712467717589711 0.0031267652726731836 0 0.0013664143891368979 0.002251115063553211 0 0.00075497143011837549 0.00092267682886878317 0 0.00043825043338037125 0.0028744385302337415 0 0.0011966295635015378 0.0029867456529277534 0 0.00075497143011837549 0.00092267682886878317 0 -0.00088556388711653834 0.002905758013011885 0 -0.0008402089657586336 0.0027933500799768867 0 0.0015918648459763635 0.0017993264549048186 0 0.0013664143891368979 0.002251115063553211 0 0.00075497143011837549 0.00092267682886878317 0 0.0017872444917629892 0.002510379194812837 0 0.0021927007021247192 0.0029216040768408318 0 0.0022296153912709808 0.0020762304050543994 0 0.0015918648459763635 0.0017993264549048186 0 0.0017872444917629892 0.002510379194812837 0 0.0022296153912709808 0.0020762304050543994 0 0.0015918648459763635 0.0017993264549048186 0 0.0013664143891368979 0.002251115063553211 0 0.0017872444917629892 0.002510379194812837 0 0.0013664143891368979 0.002251115063553211 0 0.0017872444917629892 0.002510379194812837 0 0.0015959660600776159 0.0027551334491794535 0 0.0017872444917629892 0.002510379194812837 0 0.0015959660600776159 0.0027551334491794535 0 0.0021927007021247192 0.0029216040768408318 0 0.0011712467717589711 0.0031267652726731836 0 0.0015959660600776159 0.0027551334491794535 0 0.0021927007021247192 0.0029216040768408318 0 0.0011712467717589711 0.0031267652726731836 0 0.0013664143891368979 0.002251115063553211 0 0.0015959660600776159 0.0027551334491794535 0 -0.00088556388711653834 0.002905758013011885 0 -0.0014803791818584512 0.0025381430993208559 0 0.0012893798554353714 0.0049474401507002526 0 0.00043825043338037125 0.0028744385302337415 0 0.0014982395760810032 0.00419824314296245 0 -0.0021448598960979184 0.0029160981743864976 0 -0.0021876421015954374 0.0027524510775525511 0 -0.0023899675641842495 0.0027784546191753274 0 -0.0031040546841038037 -0.0011185848536623738 0 -0.0023153613970097872 -0.00064380156404679077 0 -0.001979999061356741 -0.00011097976478144673 0 -0.0020076506011024202 0.0015457643446916221 0 -0.0018892814252289029 0.0012566491911276763 0 0.00043825043338037125 0.0028744385302337415 0 0.0011966295635015378 0.0029867456529277534 0 0.0014982395760810032 0.00419824314296245 0 -0.0028103015329421365 -0.00058905899401850406 0 -0.0030960527724013046 -0.00073103404932498331 0 -0.0027053560139434058 -0.00036018313212228976 0 -0.0028103015329421365 -0.00058905899401850406 0 -0.0027053560139434058 -0.00036018313212228976 0 -0.0027487534838433799 -0.00054581047512755056 0 -0.0028103015329421365 -0.00058905899401850406 0 -0.0027487534838433799 -0.00054581047512755056 0 -0.0028183996244341178 -0.00057367382860616266 0 -0.0028177656173153922 -0.00064471852207826762 0 -0.0028103015329421365 -0.00058905899401850406 0 -0.0028183996244341178 -0.00057367382860616266 0 -0.0029631793590484167 -0.00077721742570119681 0 -0.0028177656173153922 -0.00064471852207826762 0 -0.0028103015329421365 -0.00058905899401850406 0 -0.0029631793590484167 -0.00077721742570119681 0 -0.0028103015329421365 -0.00058905899401850406 0 -0.0030960527724013046 -0.00073103404932498331 0 -0.0032762976863510689 -0.0010395951466775693 0 -0.0029631793590484167 -0.00077721742570119681 0 -0.0030960527724013046 -0.00073103404932498331 0 -0.0032762976863510689 -0.0010395951466775693 0 -0.0030960527724013046 -0.00073103404932498331 0 -0.003578704118858439 -0.00094562904674131245 0 -0.0030960527724013046 -0.00073103404932498331 0 -0.003578704118858439 -0.00094562904674131245 0 -0.0036326431137299179 -0.00059284639424928432 0 -0.003864444195209192 -0.00096723738302989146 0 -0.003578704118858439 -0.00094562904674131245 0 -0.0036326431137299179 -0.00059284639424928432 0 -0.0030960527724013046 -0.00073103404932498331 0 -0.0036326431137299179 -0.00059284639424928432 0 -0.0027053560139434058 -0.00036018313212228976 0 -0.0026544466519311488 -0.00064937011153033458 0 -0.0026298313241952479 -0.00062576437229714126 0 -0.0016797359936757644 -0.00014519602121685254 0 -0.0021858011735020246 -0.00067246747574893921 0 -0.0027053560139434058 -0.00036018313212228976 0 -0.0015415210421531249 -0.00042827534829181584 0 -0.0016797359936757644 -0.00014519602121685254 0 -0.0021858011735020246 -0.00067246747574893921 0 -0.0015415210421531249 -0.00042827534829181584 0 -0.0021858011735020246 -0.00067246747574893921 0 -0.0015615183718008059 -0.0007182632054297404 0 -0.0021858011735020246 -0.00067246747574893921 0 -0.0025944163186274738 -0.0007246854330058074 0 -0.0027053560139434058 -0.00036018313212228976 0 -0.0025944163186274738 -0.0007246854330058074 0 -0.0027053560139434058 -0.00036018313212228976 0 -0.0027487534838433799 -0.00054581047512755056 0 -0.0025944163186274738 -0.0007246854330058074 0 -0.0027487534838433799 -0.00054581047512755056 0 -0.0027347547045642111 -0.00072361358749566498 0 -0.0027347547045642111 -0.00072361358749566498 0 -0.0029771235267019086 -0.00066402113242144305 0 -0.0028844524894213164 -0.00059265807780565811 0 -0.0027347547045642111 -0.00072361358749566498 0 -0.0029771235267019086 -0.00066402113242144305 0 -0.0027290118121007655 -0.00089261914759976356 0 -0.0029771235267019086 -0.00066402113242144305 0 -0.0028844524894213164 -0.00059265807780565811 0 -0.0030659281614515803 -0.00058815467340317114 0 -0.0027487534838433799 -0.00054581047512755056 0 -0.0027347547045642111 -0.00072361358749566498 0 -0.0028844524894213164 -0.00059265807780565811 0 -0.0028844524894213164 -0.00059265807780565811 0 -0.0029397475955045094 -0.00055665429190987113 0 -0.0028183996244341178 -0.00057367382860616266 0 -0.0027487534838433799 -0.00054581047512755056 0 -0.0028844524894213164 -0.00059265807780565811 0 -0.0028183996244341178 -0.00057367382860616266 0 -0.0028844524894213164 -0.00059265807780565811 0 -0.0029397475955045094 -0.00055665429190987113 0 -0.0030659281614515803 -0.00058815467340317114 0 -0.0029397475955045094 -0.00055665429190987113 0 -0.0028742680801788676 -0.00055393443472521401 0 -0.0030218701220480816 -0.00047454033682419356 0 -0.0029397475955045094 -0.00055665429190987113 0 -0.0028183996244341178 -0.00057367382860616266 0 -0.0028742680801788676 -0.00055393443472521401 0 -0.0028177656173153922 -0.00064471852207826762 0 -0.0028183996244341178 -0.00057367382860616266 0 -0.0028742680801788676 -0.00055393443472521401 0 -0.0033006234825664988 -0.00051064161824454892 0 -0.0032928629415409473 -0.00056464789501525943 0 -0.0035589617387705107 -0.00048574650923663556 0 -0.0033006234825664988 -0.00051064161824454892 0 -0.0031411447774813486 -0.00053843273894144865 0 -0.0032147774161967982 -0.0004111487581519387 0 -0.0033006234825664988 -0.00051064161824454892 0 -0.0035589617387705107 -0.00048574650923663556 0 -0.0034857781887329057 -0.0002269462138854465 0 -0.0031411447774813486 -0.00053843273894144865 0 -0.0030218701220480816 -0.00047454033682419356 0 -0.0032147774161967982 -0.0004111487581519387 0 -0.0029397475955045094 -0.00055665429190987113 0 -0.0031411447774813486 -0.00053843273894144865 0 -0.0030218701220480816 -0.00047454033682419356 0 -0.0029397475955045094 -0.00055665429190987113 0 -0.0031411447774813486 -0.00053843273894144865 0 -0.0030659281614515803 -0.00058815467340317114 0 -0.0031411447774813486 -0.00053843273894144865 0 -0.0032928629415409473 -0.00056464789501525943 0 -0.0030659281614515803 -0.00058815467340317114 0 -0.0033006234825664988 -0.00051064161824454892 0 -0.0031411447774813486 -0.00053843273894144865 0 -0.0032928629415409473 -0.00056464789501525943 0 -0.0032928629415409473 -0.00056464789501525943 0 -0.0031634187071854143 -0.0005993920626221114 0 -0.0032336118345855113 -0.00055454927285070513 0 -0.0032928629415409473 -0.00056464789501525943 0 -0.0031634187071854143 -0.0005993920626221114 0 -0.0030659281614515803 -0.00058815467340317114 0 -0.0029771235267019086 -0.00066402113242144305 0 -0.0031634187071854143 -0.0005993920626221114 0 -0.0030659281614515803 -0.00058815467340317114 0 -0.0029771235267019086 -0.00066402113242144305 0 -0.0031634187071854143 -0.0005993920626221114 0 -0.0031396438077133239 -0.00067478320888680334 0 -0.0031634187071854143 -0.0005993920626221114 0 -0.0031616681520591381 -0.00053518143061272064 0 -0.0031396438077133239 -0.00067478320888680334 0 -0.0031616681520591381 -0.00053518143061272064 0 -0.0028344520383150229 -0.00046078272953029416 0 -0.003081181199311246 -0.00045025019189746457 0 -0.0028344520383150229 -0.00046078272953029416 0 -0.003081181199311246 -0.00045025019189746457 0 -0.0028925395902795214 -0.00035139594942431456 0 -0.0031616681520591381 -0.00053518143061272064 0 -0.003081181199311246 -0.00045025019189746457 0 -0.003321708294482455 -0.00051059033347880523 0 -0.003081181199311246 -0.00045025019189746457 0 -0.0033272152433243061 -0.00041956949569235208 0 -0.0031334268871016173 -0.0003011530259870887 0 -0.003081181199311246 -0.00045025019189746457 0 -0.0033272152433243061 -0.00041956949569235208 0 -0.003321708294482455 -0.00051059033347880523 0 -0.0032928629415409473 -0.00056464789501525943 0 -0.003321708294482455 -0.00051059033347880523 0 -0.0032336118345855113 -0.00055454927285070513 0 -0.0031634187071854143 -0.0005993920626221114 0 -0.0031616681520591381 -0.00053518143061272064 0 -0.0032336118345855113 -0.00055454927285070513 0 -0.0031616681520591381 -0.00053518143061272064 0 -0.003321708294482455 -0.00051059033347880523 0 -0.0032336118345855113 -0.00055454927285070513 0 -0.00080410444919604043 5.3595349097404976e-07 0 -0.00048873693976893035 1.4623400805214014e-05 0 0.0011208364874002615 -6.2723647697299591e-05 0 -0.0028904291840347262 -0.00031845734148294128 0 -0.0026436922324448884 -0.00038694704227340847 0 -0.0028925395902795214 -0.00035139594942431456 0 -0.0028904291840347262 -0.00031845734148294128 0 -0.0028925395902795214 -0.00035139594942431456 0 -0.0029576013477251367 -0.00020279511905300118 0 -0.0028344520383150229 -0.00046078272953029416 0 -0.0026436922324448884 -0.00038694704227340847 0 -0.0028925395902795214 -0.00035139594942431456 0 -0.003081181199311246 -0.00045025019189746457 0 -0.0028925395902795214 -0.00035139594942431456 0 -0.0031334268871016173 -0.0003011530259870887 0 -0.0031334268871016173 -0.0003011530259870887 0 -0.0029576013477251367 -0.00020279511905300118 0 -0.0031315716284005487 -0.00021332966205832895 0 -0.0028925395902795214 -0.00035139594942431456 0 -0.0031334268871016173 -0.0003011530259870887 0 -0.0029576013477251367 -0.00020279511905300118 0 -0.00080410444919604043 5.3595349097404976e-07 0 -0.00048873693976893035 1.4623400805214014e-05 0 -0.0026134328858280656 -3.1304954342624333e-05 0 -0.0028904291840347262 -0.00031845734148294128 0 -0.0029576013477251367 -0.00020279511905300118 0 -0.0026134328858280656 -3.1304954342624333e-05 0 -0.00080410444919604043 5.3595349097404976e-07 0 -0.0028709113466213604 -6.8568994264703248e-07 0 -0.0026134328858280656 -3.1304954342624333e-05 0 0.0005755272461596294 -0.00042747568575393153 0 0.00044798287556832843 -0.00053153652304523819 0 -0.0029576013477251367 -0.00020279511905300118 0 -0.0026134328858280656 -3.1304954342624333e-05 0 -0.0031315716284005487 -0.00021332966205832895 0 -0.0028709113466213604 -6.8568994264703248e-07 0 -0.0032505912695218351 -0.0001833563686180119 0 -0.0040185750297237477 -0.00020824267480373625 0 -0.0028709113466213604 -6.8568994264703248e-07 0 -0.0026134328858280656 -3.1304954342624333e-05 0 -0.0032505912695218351 -0.0001833563686180119 0 -0.0026134328858280656 -3.1304954342624333e-05 0 -0.0032505912695218351 -0.0001833563686180119 0 -0.0031315716284005487 -0.00021332966205832895 0 -0.0032505912695218351 -0.0001833563686180119 0 -0.0034916448341250354 -0.00033874027655091848 0 -0.0040185750297237477 -0.00020824267480373625 0 -0.0032505912695218351 -0.0001833563686180119 0 -0.0034916448341250354 -0.00033874027655091848 0 -0.0031315716284005487 -0.00021332966205832895 0 -0.0031334268871016173 -0.0003011530259870887 0 -0.0034916448341250354 -0.00033874027655091848 0 -0.0031315716284005487 -0.00021332966205832895 0 -0.0033272152433243061 -0.00041956949569235208 0 -0.0031334268871016173 -0.0003011530259870887 0 -0.0034916448341250354 -0.00033874027655091848 0 -0.0034916448341250354 -0.00033874027655091848 0 -0.0040066546156963066 -0.00038704375445020039 0 -0.0035682186514242892 -0.00045954227298588028 0 -0.0034916448341250354 -0.00033874027655091848 0 -0.0040066546156963066 -0.00038704375445020039 0 -0.0040185750297237477 -0.00020824267480373625 0 -0.0040066546156963066 -0.00038704375445020039 0 -0.0040185750297237477 -0.00020824267480373625 0 -0.004603225342215164 -0.00022645695108158796 0 -0.0028709113466213604 -6.8568994264703248e-07 0 -0.0040185750297237477 -0.00020824267480373625 0 -0.0049361269358479277 -5.4441086129490166e-07 0 -0.0032928629415409473 -0.00056464789501525943 0 -0.003321708294482455 -0.00051059033347880523 0 -0.0034764260939304618 -0.00051136111043631558 0 -0.0032928629415409473 -0.00056464789501525943 0 -0.0034764260939304618 -0.00051136111043631558 0 -0.0035589617387705107 -0.00048574650923663556 0 -0.003321708294482455 -0.00051059033347880523 0 -0.0034764260939304618 -0.00051136111043631558 0 -0.0035682186514242892 -0.00045954227298588028 0 -0.0033272152433243061 -0.00041956949569235208 0 -0.003321708294482455 -0.00051059033347880523 0 -0.0035682186514242892 -0.00045954227298588028 0 -0.0033272152433243061 -0.00041956949569235208 0 -0.0034916448341250354 -0.00033874027655091848 0 -0.0035682186514242892 -0.00045954227298588028 0 -0.0034764260939304618 -0.00051136111043631558 0 -0.0035682186514242892 -0.00045954227298588028 0 -0.0037636474230047564 -0.00044737839653472743 0 -0.0040066546156963066 -0.00038704375445020039 0 -0.0037636474230047564 -0.00044737839653472743 0 -0.0040944763841170972 -0.00035118116075337502 0 -0.0040066546156963066 -0.00038704375445020039 0 -0.0035682186514242892 -0.00045954227298588028 0 -0.0037636474230047564 -0.00044737839653472743 0 -0.0037636474230047564 -0.00044737839653472743 0 -0.0035589617387705107 -0.00048574650923663556 0 -0.0040944763841170972 -0.00035118116075337502 0 -0.0034764260939304618 -0.00051136111043631558 0 -0.0037636474230047564 -0.00044737839653472743 0 -0.0035589617387705107 -0.00048574650923663556 0 -0.0035589617387705107 -0.00048574650923663556 0 -0.0040944763841170972 -0.00035118116075337502 0 -0.0034857781887329057 -0.0002269462138854465 0 -0.0040944763841170972 -0.00035118116075337502 0 -0.0055139107901808699 -3.3187810427871485e-05 0 -0.0039890873590073019 0.00029103463506745009 0 -0.0057624233883927659 -0.00013016522922348368 0 -0.0058317406727715765 -0.00015147182774471793 0 -0.0040944763841170972 -0.00035118116075337502 0 -0.0039890873590073019 0.00029103463506745009 0 -0.0034857781887329057 -0.0002269462138854465 0 -0.0039890873590073019 0.00029103463506745009 0 -0.0034066214462585083 0.0001584510646595908 0 -0.0034857781887329057 -0.0002269462138854465 0 -0.0040185750297237477 -0.00020824267480373625 0 -0.0049361269358479277 -5.4441086129490166e-07 0 -0.004603225342215164 -0.00022645695108158796 0 -0.0040066546156963066 -0.00038704375445020039 0 -0.0040944763841170972 -0.00035118116075337502 0 -0.004603225342215164 -0.00022645695108158796 0 -0.0040944763841170972 -0.00035118116075337502 0 -0.004603225342215164 -0.00022645695108158796 0 -0.0055139107901808699 -3.3187810427871485e-05 0 -0.0049361269358479277 -5.4441086129490166e-07 0 -0.004603225342215164 -0.00022645695108158796 0 -0.0055139107901808699 -3.3187810427871485e-05 0 -0.0049361269358479277 -5.4441086129490166e-07 0 -0.0055139107901808699 -3.3187810427871485e-05 0 -0.0070012222329456 -1.3674814152610381e-08 0 -0.0055139107901808699 -3.3187810427871485e-05 0 -0.0070012222329456 -1.3674814152610381e-08 0 -0.0067598519638943982 -7.4032651211934229e-05 0 -0.0055139107901808699 -3.3187810427871485e-05 0 -0.0067598519638943982 -7.4032651211934229e-05 0 -0.0061042758423408474 -0.00011407865099892262 0 -0.0083131504543876508 0.00013205511740846867 0 -0.0067598519638943982 -7.4032651211934229e-05 0 -0.0061469668268130445 0.00031508618169701102 0 -0.0076383323031465377 -0.00020485175523149345 0 -0.0076028986477970741 -0.00023277026675252524 0 -0.0083131504543876508 0.00013205511740846867 0 -0.0070012222329456 -1.3674814152610381e-08 0 -0.0067598519638943982 -7.4032651211934229e-05 0 -0.0090675149608706214 -2.3078755678044506e-07 0 -0.0083131504543876508 0.00013205511740846867 0 -0.0070012222329456 -1.3674814152610381e-08 0 -0.0058317406727715765 -0.00015147182774471793 0 -0.0062133609991093554 -0.00026218698246374586 0 -0.0059922727510179396 2.1904832369518298e-05 0 -0.005829205926274921 0.00012206625835128545 0 -0.0057703081310027096 -3.9299289881558032e-05 0 -0.0059922727510179396 2.1904832369518298e-05 0 -0.0060835395122186622 -7.6493183613051725e-05 0 -0.0057703081310027096 -3.9299289881558032e-05 0 -0.0055139107901808699 -3.3187810427871485e-05 0 -0.0060835395122186622 -7.6493183613051725e-05 0 -0.0061042758423408474 -0.00011407865099892262 0 -0.0059922727510179396 2.1904832369518298e-05 0 -0.0060835395122186622 -7.6493183613051725e-05 0 -0.0061042758423408474 -0.00011407865099892262 0 -0.0067598519638943982 -7.4032651211934229e-05 0 -0.0061042758423408474 -0.00011407865099892262 0 -0.0061469668268130445 0.00031508618169701102 0 -0.0059922727510179396 2.1904832369518298e-05 0 -0.0061042758423408474 -0.00011407865099892262 0 -0.0061469668268130445 0.00031508618169701102 0 -0.009021763321394637 -1.5113252022054138e-05 0 -0.0089688753443421566 0.00016742486159902032 0 -0.0091680888179494248 0.0001933150661045976 0 -0.0059922727510179396 2.1904832369518298e-05 0 -0.0061469668268130445 0.00031508618169701102 0 -0.005829205926274921 0.00012206625835128545 0 -0.009021763321394637 -1.5113252022054138e-05 0 -0.0092167249039078157 0.00011737018438595627 0 -0.0091680888179494248 0.0001933150661045976 0 -0.0076028986477970741 -0.00023277026675252524 0 -0.0075753276688527091 -0.00031993904816605615 0 -0.0092167249039078157 0.00011737018438595627 0 -0.0091680888179494248 0.0001933150661045976 0 -0.0093913136894043167 0.00023560281593303054 0 -0.0075753276688527091 -0.00031993904816605615 0 -0.0075250347770412715 -0.00048465567722486095 0 -0.013496786356283126 -0.0001807244086500488 0 -0.013719414050702518 -0.00035047728282548653 0 -0.013355781808926057 -0.00044480414731140313 0 -0.005829205926274921 0.00012206625835128545 0 -0.0057703081310027096 -3.9299289881558032e-05 0 -0.0055576617877552961 4.7250763116010212e-05 0 -0.0034066214462585083 0.0001584510646595908 0 -0.0031832829761939915 -6.4745664319934096e-05 0 -0.0030632916827224447 6.8360849285966223e-05 0 -0.0057703081310027096 -3.9299289881558032e-05 0 -0.005530552443369011 2.804441148697984e-05 0 -0.0055576617877552961 4.7250763116010212e-05 0 -0.0062133609991093554 -0.00026218698246374586 0 -0.0072758575547942394 -0.00055329536373498211 0 -0.0031832829761939915 -6.4745664319934096e-05 0 -0.0030632916827224447 6.8360849285966223e-05 0 -0.0030361025746767417 -0.00015680486180747025 0 -0.013134712142444398 -0.0011202288574262767 0 -0.013018613414043968 -0.001056115427277888 0 -0.012959870918338782 -0.001189948697767552 0 -0.0075250347770412715 -0.00048465567722486095 0 -0.007378488045211986 -0.00056955063486786265 0 -0.0071029970086647423 -0.00060774593416166374 0 -0.0068650917541744167 -0.00077219252749927538 0 -0.0073189722327814295 -0.00066977487032239254 0 -0.0072758575547942394 -0.00055329536373498211 0 -0.0075250347770412715 -0.00048465567722486095 0 -0.013719414050702518 -0.00035047728282548653 0 -0.013239374296800523 -0.00075928301438088009 0 -0.013355781808926057 -0.00044480414731140313 0 -0.013134712142444398 -0.0011202288574262767 0 -0.013093007409048538 -0.00095592439876297027 0 -0.013239374296800523 -0.00075928301438088009 0 -0.013093007409048538 -0.00095592439876297027 0 -0.013018613414043968 -0.001056115427277888 0 -0.012978964612434491 -0.00089198288733977787 0 -0.013719414050702518 -0.00035047728282548653 0 -0.013134712142444398 -0.0011202288574262767 0 -0.013239374296800523 -0.00075928301438088009 0 -0.013134712142444398 -0.0011202288574262767 0 -0.013093007409048538 -0.00095592439876297027 0 -0.013018613414043968 -0.001056115427277888 0 -0.0093727141939655301 -1.0080992878180473e-05 0 -0.0075250347770412715 -0.00048465567722486095 0 -0.013093007409048538 -0.00095592439876297027 0 -0.013239374296800523 -0.00075928301438088009 0 -0.012978964612434491 -0.00089198288733977787 0 -0.013121586602038883 -0.0005261584072232435 0 -0.012914859081709988 -0.00060041807611427365 0 -0.012978964612434491 -0.00089198288733977787 0 -0.013239374296800523 -0.00075928301438088009 0 -0.013121586602038883 -0.0005261584072232435 0 -0.012978964612434491 -0.00089198288733977787 0 -0.013239374296800523 -0.00075928301438088009 0 -0.013355781808926057 -0.00044480414731140313 0 -0.013121586602038883 -0.0005261584072232435 0 -0.012604722332638617 -0.00041378044593746251 0 -0.012914859081709988 -0.00060041807611427365 0 -0.012724857641459574 -0.00077507980202922062 0 -0.012695238651147099 -0.0010435261625364714 0 -0.011902689957610197 -0.0012848692871569654 0 -0.012959870918338782 -0.001189948697767552 0 -0.01295310250514858 -0.00025724853512780547 0 -0.013121586602038883 -0.0005261584072232435 0 -0.012914859081709988 -0.00060041807611427365 0 -0.012409992840628145 -0.00090072372891367722 0 -0.012695238651147099 -0.0010435261625364714 0 -0.011902689957610197 -0.0012848692871569654 0 -0.0083334511368909243 -0.00079182907533671503 0 -0.007378488045211986 -0.00056955063486786265 0 -0.012914859081709988 -0.00060041807611427365 0 -0.012724857641459574 -0.00077507980202922062 0 -0.012978964612434491 -0.00089198288733977787 0 -0.012604722332638617 -0.00041378044593746251 0 -0.012724857641459574 -0.00077507980202922062 0 -0.012409992840628145 -0.00090072372891367722 0 -0.012724857641459574 -0.00077507980202922062 0 -0.012409992840628145 -0.00090072372891367722 0 -0.012695238651147099 -0.0010435261625364714 0 -0.013018613414043968 -0.001056115427277888 0 -0.012913689451101279 -0.0010475651756445279 0 -0.012959870918338782 -0.001189948697767552 0 -0.013018613414043968 -0.001056115427277888 0 -0.012913689451101279 -0.0010475651756445279 0 -0.012978964612434491 -0.00089198288733977787 0 -0.012695238651147099 -0.0010435261625364714 0 -0.012913689451101279 -0.0010475651756445279 0 -0.012978964612434491 -0.00089198288733977787 0 -0.012695238651147099 -0.0010435261625364714 0 -0.012913689451101279 -0.0010475651756445279 0 -0.012959870918338782 -0.001189948697767552 0 -0.012724857641459574 -0.00077507980202922062 0 -0.012695238651147099 -0.0010435261625364714 0 -0.012978964612434491 -0.00089198288733977787 0 -0.011903332731908495 -0.00058066961700811899 0 -0.012409992840628145 -0.00090072372891367722 0 -0.011902689957610197 -0.0012848692871569654 0 -0.011903332731908495 -0.00058066961700811899 0 -0.012604722332638617 -0.00041378044593746251 0 -0.012409992840628145 -0.00090072372891367722 0 -0.008879590581943736 -0.00085826075826285454 0 -0.0088051757920010465 -0.0012986407753067643 0 -0.0096901886065827707 -0.0010885077152873401 0 -0.0026958324285706291 -0.0010082216710676157 0 -0.0025162459646838353 -0.00091112668462639914 0 -0.002764525218077071 -0.00071040021972042222 0 -0.0082233298303557543 -0.0010556292116862089 0 -0.008879590581943736 -0.00085826075826285454 0 -0.0088051757920010465 -0.0012986407753067643 0 -0.0026958324285706291 -0.0010082216710676157 0 -0.002322331262293309 -0.0010798605123719062 0 -0.0025162459646838353 -0.00091112668462639914 0 -0.0064604606618196767 -0.00086503229938307644 0 -0.007378488045211986 -0.00056955063486786265 0 -0.0022887671776467447 -0.0010700240231213481 0 -0.002322331262293309 -0.0010798605123719062 0 -0.0025162459646838353 -0.00091112668462639914 0 -0.0072758575547942394 -0.00055329536373498211 0 -0.007378488045211986 -0.00056955063486786265 0 -0.0072758575547942394 -0.00055329536373498211 0 -0.0062526996914173327 -0.0009635300805582107 0 -0.0030632916827224447 6.8360849285966223e-05 0 -0.002873238093892476 -0.00022198256298530076 0 -0.0030361025746767417 -0.00015680486180747025 0 -0.0030361025746767417 -0.00015680486180747025 0 -0.0029200175788589794 -0.00041725186776059346 0 -0.0031168141405591514 -0.00027102612575530054 0 -0.002873238093892476 -0.00022198256298530076 0 -0.0030361025746767417 -0.00015680486180747025 0 -0.0029200175788589794 -0.00041725186776059346 0 -0.002873238093892476 -0.00022198256298530076 0 -0.0029200175788589794 -0.00041725186776059346 0 -0.002764525218077071 -0.00071040021972042222 0 -0.0029200175788589794 -0.00041725186776059346 0 -0.002764525218077071 -0.00071040021972042222 0 -0.0028265556889045854 -0.00058758837571826672 0 -0.0062526996914173327 -0.0009635300805582107 0 -0.0059450234212883053 -0.0010820281486861596 0 -0.0029200175788589794 -0.00041725186776059346 0 -0.0028742680801788676 -0.00055393443472521401 0 -0.0028265556889045854 -0.00058758837571826672 0 -0.0028177656173153922 -0.00064471852207826762 0 -0.002764525218077071 -0.00071040021972042222 0 -0.0028265556889045854 -0.00058758837571826672 0 -0.0028177656173153922 -0.00064471852207826762 0 -0.0028742680801788676 -0.00055393443472521401 0 -0.0028265556889045854 -0.00058758837571826672 0 -0.0029200175788589794 -0.00041725186776059346 0 -0.0030218701220480816 -0.00047454033682419356 0 -0.0031168141405591514 -0.00027102612575530054 0 -0.0029200175788589794 -0.00041725186776059346 0 -0.0028742680801788676 -0.00055393443472521401 0 -0.0030218701220480816 -0.00047454033682419356 0 -0.0032147774161967982 -0.0004111487581519387 0 -0.0032876119821917747 -0.00016302455691843078 0 -0.0031168141405591514 -0.00027102612575530054 0 -0.0030218701220480816 -0.00047454033682419356 0 -0.0032147774161967982 -0.0004111487581519387 0 -0.0031168141405591514 -0.00027102612575530054 0 -0.0032147774161967982 -0.0004111487581519387 0 -0.0034857781887329057 -0.0002269462138854465 0 -0.0032876119821917747 -0.00016302455691843078 0 -0.0033006234825664988 -0.00051064161824454892 0 -0.0032147774161967982 -0.0004111487581519387 0 -0.0034857781887329057 -0.0002269462138854465 0 -0.0034066214462585083 0.0001584510646595908 0 -0.0034857781887329057 -0.0002269462138854465 0 -0.0032876119821917747 -0.00016302455691843078 0 -0.0034066214462585083 0.0001584510646595908 0 -0.0031832829761939915 -6.4745664319934096e-05 0 -0.0032876119821917747 -0.00016302455691843078 0 -0.0031832829761939915 -6.4745664319934096e-05 0 -0.0032876119821917747 -0.00016302455691843078 0 -0.0031168141405591514 -0.00027102612575530054 0 -0.0031832829761939915 -6.4745664319934096e-05 0 -0.0030361025746767417 -0.00015680486180747025 0 -0.0031168141405591514 -0.00027102612575530054 0 -0.004292372631800487 0.0030021277980004039 0 -0.0038608065778797107 0.0017103202580466177 0 -0.0054029662564779495 0.0014996237951004261 0 -0.004292372631800487 0.0030021277980004039 0 -0.0025723141396415236 0.0020313008069942724 0 -0.0038608065778797107 0.0017103202580466177 0 -0.0079080130023684945 0.0021251483534798442 0 -0.0083579981479553287 0.0024465128720628994 0 -0.004292372631800487 0.0030021277980004039 0 -0.0060652982802294744 0.003204068651844093 0 -0.0054029662564779495 0.0014996237951004261 0 -0.0060652982802294744 0.003204068651844093 0 -0.0054029662564779495 0.0014996237951004261 0 -0.0073495387008538195 0.0029266284427323184 0 -0.004292372631800487 0.0030021277980004039 0 -0.005256706835972247 0.0038092942501909408 0 -0.0060652982802294744 0.003204068651844093 0 -0.005256706835972247 0.0038092942501909408 0 -0.0060652982802294744 0.003204068651844093 0 -0.0059649101898650771 0.0044047534516220383 0 -0.0060652982802294744 0.003204068651844093 0 -0.0059649101898650771 0.0044047534516220383 0 -0.0073577637024827376 0.0039339411734058164 0 -0.0060652982802294744 0.003204068651844093 0 -0.0073495387008538195 0.0029266284427323184 0 -0.0073577637024827376 0.0039339411734058164 0 -0.0059649101898650771 0.0044047534516220383 0 -0.0073577637024827376 0.0039339411734058164 0 -0.0067935075336357413 0.0051451533458301722 0 -0.005256706835972247 0.0038092942501909408 0 -0.0059649101898650771 0.0044047534516220383 0 -0.0047333518138323047 0.00483710558281201 0 -0.0059649101898650771 0.0044047534516220383 0 -0.0047333518138323047 0.00483710558281201 0 -0.005653436322765085 0.0055197819554407548 0 -0.004292372631800487 0.0030021277980004039 0 -0.0047333518138323047 0.00483710558281201 0 -0.0026685081057404823 0.0045379095893665136 0 -0.004292372631800487 0.0030021277980004039 0 -0.005256706835972247 0.0038092942501909408 0 -0.0047333518138323047 0.00483710558281201 0 -0.0033210258651456223 0.0056076038894497171 0 -0.0017465815036111553 0.0051178558050819275 0 -0.0025723141396415236 0.0020313008069942724 0 -0.0033210258651456223 0.0056076038894497171 0 -0.0017465815036111553 0.0051178558050819275 0 -0.0021064903899141968 0.0069147560232911409 0 -0.00060477478709917824 0.0041516882969129098 0 -0.0017465815036111553 0.0051178558050819275 0 -3.5635818274768485e-06 0.0061808323541476511 0 -0.00060477478709917824 0.0041516882969129098 0 -0.00074307437909115293 0.0023772068217144571 0 -0.0025723141396415236 0.0020313008069942724 0 -0.00060477478709917824 0.0041516882969129098 0 -0.0017465815036111553 0.0051178558050819275 0 -0.0025723141396415236 0.0020313008069942724 0 -0.0028058327502337951 0.0059168970265737041 0 -0.0027035157180678509 0.0051993746263049824 0 -0.004292372631800487 0.0030021277980004039 0 -0.0026685081057404823 0.0045379095893665136 0 -0.0025723141396415236 0.0020313008069942724 0 -0.0025723141396415236 0.0020313008069942724 0 -0.00062477091202117329 0.00098009852759533742 0 -0.0032145178127714015 0.00033708013449672096 0 -0.0025723141396415236 0.0020313008069942724 0 -0.0032145178127714015 0.00033708013449672096 0 -0.0038608065778797107 0.0017103202580466177 0 -0.00074307437909115293 0.0023772068217144571 0 -0.0025723141396415236 0.0020313008069942724 0 -0.00062477091202117329 0.00098009852759533742 0 -0.00062477091202117329 0.00098009852759533742 0 -0.0032145178127714015 0.00033708013449672096 0 -0.00093989966486865602 -0.0013039485884920779 0 -0.0069901777949899413 0.0014989643072968854 0 -0.0059140281886094961 0.0007907480120240613 0 -0.012226964859482627 0.0020746011881525766 0 -0.012268569647005283 0.0019697253592883602 0 -0.011286167800804426 0.0026694197653994306 0 -0.011034056031922649 0.0026709927622954495 0 -0.011267676544143264 0.002783923453512859 0 -0.011286167800804426 0.0026694197653994306 0 -0.010751203585220023 0.0023099947234362234 0 -0.011034056031922649 0.0026709927622954495 0 -0.0069901777949899413 0.0014989643072968854 0 -0.0079080130023684945 0.0021251483534798442 0 -0.0032145178127714015 0.00033708013449672096 0 -0.0038608065778797107 0.0017103202580466177 0 -0.0054029662564779495 0.0014996237951004261 0 -0.010751203585220023 0.0023099947234362234 0 -0.01037521525440639 0.0025610073296467458 0 -0.011034056031922649 0.0026709927622954495 0 -0.010751203585220023 0.0023099947234362234 0 -0.01037521525440639 0.0025610073296467458 0 -0.0098766714892213718 0.0025171643279639734 0 -0.01037521525440639 0.0025610073296467458 0 -0.011034056031922649 0.0026709927622954495 0 -0.010351589532585612 0.0028706122559339726 0 -0.011034056031922649 0.0026709927622954495 0 -0.010351589532585612 0.0028706122559339726 0 -0.011790802306331149 0.0029769711881462301 0 -0.011262518310432412 0.0026326455976336139 0 -0.010852871807421397 0.0026767932576611865 0 -0.010687490927642649 0.0025436690174824622 0 -0.011262518310432412 0.0026326455976336139 0 -0.010852871807421397 0.0026767932576611865 0 -0.010988984843285639 0.0029132971138097616 0 -0.01050328682703329 0.0027404507044165422 0 -0.010477229490513896 0.0029820232597365494 0 -0.010809628587847569 0.0030380716129904716 0 -0.010505287089712345 0.002631747336855411 0 -0.010852871807421397 0.0026767932576611865 0 -0.010988984843285639 0.0029132971138097616 0 -0.010505287089712345 0.002631747336855411 0 -0.01050328682703329 0.0027404507044165422 0 -0.010809628587847569 0.0030380716129904716 0 -0.011327027962094314 0.0028370438001105364 0 -0.011437319015722848 0.0029314041197343126 0 -0.01050328682703329 0.0027404507044165422 0 -0.010206154109334752 0.0028965030267985928 0 -0.010477229490513896 0.0029820232597365494 0 -0.010505287089712345 0.002631747336855411 0 -0.010852871807421397 0.0026767932576611865 0 -0.010687490927642649 0.0025436690174824622 0 -0.010505287089712345 0.002631747336855411 0 -0.01050328682703329 0.0027404507044165422 0 -0.010464084151462936 0.0024409416987916615 0 -0.010505287089712345 0.002631747336855411 0 -0.010687490927642649 0.0025436690174824622 0 -0.010464084151462936 0.0024409416987916615 0 -0.010687490927642649 0.0025436690174824622 0 -0.010610178062357499 0.0023897410882496653 0 -0.010464084151462936 0.0024409416987916615 0 -0.011262518310432412 0.0026326455976336139 0 -0.010687490927642649 0.0025436690174824622 0 -0.010610178062357499 0.0023897410882496653 0 -0.01037521525440639 0.0025610073296467458 0 -0.010351589532585612 0.0028706122559339726 0 -0.0099539753817673281 0.0025526899733321622 0 -0.010351589532585612 0.0028706122559339726 0 -0.0095749234244912745 0.0024784686056250824 0 -0.0099539753817673281 0.0025526899733321622 0 -0.0095749234244912745 0.0024784686056250824 0 -0.0099539753817673281 0.0025526899733321622 0 -0.0096217362427523413 0.0025174432413804051 0 -0.010668443612231284 0.002679645905726519 0 -0.01059860260686632 0.0026660949977431658 0 -0.01037521525440639 0.0025610073296467458 0 -0.0099539753817673281 0.0025526899733321622 0 -0.0098766714892213718 0.0025171643279639734 0 0.0024086885148170093 0.0052929247644325763 0 0.0023005301699187256 0.0054217154069891391 0 -0.0098223336587945492 0.0029334188475705191 0 -0.010038391189702421 0.0025590005642929497 0 -0.0096575593328550296 0.0023101990934213537 0 -0.0098223336587945492 0.0029334188475705191 0 -0.0096575593328550296 0.0023101990934213537 0 -0.0092771481964717926 0.0030388120717487963 0 -0.0098223336587945492 0.0029334188475705191 0 -0.010038391189702421 0.0025590005642929497 0 -0.010206154109334752 0.0028965030267985928 0 -0.01050328682703329 0.0027404507044165422 0 -0.010206154109334752 0.0028965030267985928 0 -0.010248965453757636 0.0025859329223081435 0 -0.010038391189702421 0.0025590005642929497 0 -0.010206154109334752 0.0028965030267985928 0 -0.010248965453757636 0.0025859329223081435 0 0.00051768040499135064 0.0054798523893084738 0 0.001007375030291914 0.0054753885500659384 0 -0.010038391189702421 0.0025590005642929497 0 -0.010244339663044574 0.0021358257598108315 0 -0.0096575593328550296 0.0023101990934213537 0 -0.01050328682703329 0.0027404507044165422 0 -0.010248965453757636 0.0025859329223081435 0 -0.010244339663044574 0.0021358257598108315 0 -0.010038391189702421 0.0025590005642929497 0 -0.010248965453757636 0.0025859329223081435 0 -0.010244339663044574 0.0021358257598108315 0 0.016294594713500438 0.0063800654722141721 0 0.016301388788443678 0.0061749770400300252 0 0.016054060378402884 0.0060776216414084056 0 0.0024086885148170093 0.0052929247644325763 0 0.002490299076346856 0.0055329171508559207 0 0.016294594713500438 0.0063800654722141721 0 0.016301388788443678 0.0061749770400300252 0 0.016485022368971418 0.0062499470149069329 0 0.016301388788443678 0.0061749770400300252 0 0.016248491373351919 0.0060072744563721978 0 0.016396503080211466 0.006082353924727303 0 0.016301388788443678 0.0061749770400300252 0 0.016054060378402884 0.0060776216414084056 0 0.016248491373351919 0.0060072744563721978 0 0.001007375030291914 0.0054753885500659384 0 0.002490299076346856 0.0055329171508559207 0 -0.010464084151462936 0.0024409416987916615 0 -0.010380603866757142 0.002721728088139259 0 -0.010288036138019901 0.0027542558997916133 0 -0.010244339663044574 0.0021358257598108315 0 -0.0096575593328550296 0.0023101990934213537 0 -0.010027334858517381 0.0015690527790907208 0 0.015425755149833931 0.0072172248015912009 0 0.014875036946090721 0.0061194793738170257 0 0.01578150835102456 0.0062616806380262529 0 0.002490299076346856 0.0055329171508559207 0 0.0026394382795556144 0.0076874784067813354 0 -0.010288036138019901 0.0027542558997916133 0 -0.0099553538863740611 0.0029014483205995374 0 -0.0099577668285136551 0.0037491473819029389 0 -0.010380603866757142 0.002721728088139259 0 -0.010288036138019901 0.0027542558997916133 0 -0.0099577668285136551 0.0037491473819029389 0 0.002490299076346856 0.0055329171508559207 0 0.004470677286338683 0.0046209780084731531 0 0.016054060378402884 0.0060776216414084056 0 0.016248491373351919 0.0060072744563721978 0 0.016096561378224693 0.0057573893272223377 0 0.016248491373351919 0.0060072744563721978 0 0.016096561378224693 0.0057573893272223377 0 0.016423612217478133 0.0059254836334413129 0 0.016248491373351919 0.0060072744563721978 0 0.016396503080211466 0.006082353924727303 0 0.016423612217478133 0.0059254836334413129 0 -0.010751203585220023 0.0023099947234362234 0 -0.0098766714892213718 0.0025171643279639734 0 -0.0090392615263798441 0.0027678453664933666 0 -0.0054029662564779495 0.0014996237951004261 0 -0.0073495387008538195 0.0029266284427323184 0 -0.0090392615263798441 0.0027678453664933666 0 -0.0094913672769678919 0.0026060847437892119 0 -0.0098766714892213718 0.0025171643279639734 0 -0.0090392615263798441 0.0027678453664933666 0 -0.0094913672769678919 0.0026060847437892119 0 -0.0093411943583172757 0.002680487007614616 0 -0.0094899864912879536 0.0026495880796786014 0 -0.0093411943583172757 0.002680487007614616 0 -0.0093174985949955862 0.0027578014937155847 0 -0.0094899864912879536 0.0026495880796786014 0 -0.0093411943583172757 0.002680487007614616 0 -0.0093174985949955862 0.0027578014937155847 0 -0.0090392615263798441 0.0027678453664933666 0 -0.0094913672769678919 0.0026060847437892119 0 -0.0093411943583172757 0.002680487007614616 0 -0.0090392615263798441 0.0027678453664933666 0 -0.0094913672769678919 0.0026060847437892119 0 -0.0096217362427523413 0.0025174432413804051 0 -0.0094899864912879536 0.0026495880796786014 0 -0.0094913672769678919 0.0026060847437892119 0 -0.0098766714892213718 0.0025171643279639734 0 -0.0096217362427523413 0.0025174432413804051 0 -0.0099539753817673281 0.0025526899733321622 0 -0.0098766714892213718 0.0025171643279639734 0 -0.0096217362427523413 0.0025174432413804051 0 -0.0095749234244912745 0.0024784686056250824 0 -0.0096093215098273996 0.0025623692634630063 0 -0.0098045739107583268 0.0026717148030968368 0 -0.010610178062357499 0.0023897410882496653 0 -0.010464084151462936 0.0024409416987916615 0 -0.010288036138019901 0.0027542558997916133 0 -0.0095749234244912745 0.0024784686056250824 0 -0.010288036138019901 0.0027542558997916133 0 -0.0098045739107583268 0.0026717148030968368 0 -0.01059860260686632 0.0026660949977431658 0 -0.01060451077100975 0.002697357501633287 0 -0.0096217362427523413 0.0025174432413804051 0 -0.0096093215098273996 0.0025623692634630063 0 -0.0094899864912879536 0.0026495880796786014 0 -0.0095749234244912745 0.0024784686056250824 0 -0.0096217362427523413 0.0025174432413804051 0 -0.0096093215098273996 0.0025623692634630063 0 -0.010288036138019901 0.0027542558997916133 0 -0.0098045739107583268 0.0026717148030968368 0 -0.0099553538863740611 0.0029014483205995374 0 -0.0098045739107583268 0.0026717148030968368 0 -0.0094899864912879536 0.0026495880796786014 0 -0.0096556315016257058 0.0029506429553136457 0 -0.0096093215098273996 0.0025623692634630063 0 -0.0098045739107583268 0.0026717148030968368 0 -0.0094899864912879536 0.0026495880796786014 0 -0.0094899864912879536 0.0026495880796786014 0 -0.0094363619399617064 0.0028252374446058204 0 -0.0096556315016257058 0.0029506429553136457 0 -0.0093174985949955862 0.0027578014937155847 0 -0.0094899864912879536 0.0026495880796786014 0 -0.0094363619399617064 0.0028252374446058204 0 0.0014873833505566043 0.007920050963572723 0 0.0026394382795556144 0.0076874784067813354 0 -0.0094363619399617064 0.0028252374446058204 0 -0.0096556315016257058 0.0029506429553136457 0 -0.0092480240611625807 0.0029888755632180206 0 -0.0096556315016257058 0.0029506429553136457 0 -0.0099553538863740611 0.0029014483205995374 0 -0.0099577668285136551 0.0037491473819029389 0 -0.0092480240611625807 0.0029888755632180206 0 -0.0092826745342096742 0.0049979045508105014 0 -0.010928182475357024 0.0058456546396787167 0 -0.0096556315016257058 0.0029506429553136457 0 -0.0092480240611625807 0.0029888755632180206 0 -0.0099577668285136551 0.0037491473819029389 0 -0.0098045739107583268 0.0026717148030968368 0 -0.0096556315016257058 0.0029506429553136457 0 -0.0099553538863740611 0.0029014483205995374 0 -0.0085584470208586345 0.0044482764495460472 0 -0.0092480240611625807 0.0029888755632180206 0 -0.0092826745342096742 0.0049979045508105014 0 -0.0085584470208586345 0.0044482764495460472 0 -0.0086799736433983473 0.0034717930868723794 0 -0.008183909675058644 0.0039204836543030698 0 -0.0085584470208586345 0.0044482764495460472 0 -0.0086799736433983473 0.0034717930868723794 0 -0.0092480240611625807 0.0029888755632180206 0 -0.0086799736433983473 0.0034717930868723794 0 -0.0081284384038702168 0.0034130938883461036 0 -0.008183909675058644 0.0039204836543030698 0 -0.0086799736433983473 0.0034717930868723794 0 -0.0090392615263798441 0.0027678453664933666 0 -0.0081284384038702168 0.0034130938883461036 0 -0.0093174985949955862 0.0027578014937155847 0 -0.0090392615263798441 0.0027678453664933666 0 -0.0092480240611625807 0.0029888755632180206 0 -0.0086799736433983473 0.0034717930868723794 0 -0.0090392615263798441 0.0027678453664933666 0 -0.0092480240611625807 0.0029888755632180206 0 -0.0093174985949955862 0.0027578014937155847 0 -0.0094363619399617064 0.0028252374446058204 0 -0.0092480240611625807 0.0029888755632180206 0 -0.0073495387008538195 0.0029266284427323184 0 -0.0081284384038702168 0.0034130938883461036 0 -0.0073577637024827376 0.0039339411734058164 0 -0.0073495387008538195 0.0029266284427323184 0 -0.0090392615263798441 0.0027678453664933666 0 -0.0081284384038702168 0.0034130938883461036 0 -0.0081284384038702168 0.0034130938883461036 0 -0.0073577637024827376 0.0039339411734058164 0 -0.008183909675058644 0.0039204836543030698 0 -0.0073577637024827376 0.0039339411734058164 0 -0.007779479658465426 0.004656331242465772 0 -0.0067935075336357413 0.0051451533458301722 0 -0.0073577637024827376 0.0039339411734058164 0 -0.008183909675058644 0.0039204836543030698 0 -0.007779479658465426 0.004656331242465772 0 -0.0085584470208586345 0.0044482764495460472 0 -0.008183909675058644 0.0039204836543030698 0 -0.007779479658465426 0.004656331242465772 0 -0.007779479658465426 0.004656331242465772 0 -0.0078752399936050221 0.0057289018583246221 0 -0.0067935075336357413 0.0051451533458301722 0 -0.0085584470208586345 0.0044482764495460472 0 -0.007779479658465426 0.004656331242465772 0 -0.0078752399936050221 0.0057289018583246221 0 -0.0078752399936050221 0.0057289018583246221 0 -0.0075250047872909131 0.0075762216090955164 0 -0.0062845088214264133 0.0065559674608775594 0 -0.0078752399936050221 0.0057289018583246221 0 -0.0088754082341569104 0.0065108759805750744 0 -0.0075250047872909131 0.0075762216090955164 0 -0.0078752399936050221 0.0057289018583246221 0 -0.0088754082341569104 0.0065108759805750744 0 -0.0092826745342096742 0.0049979045508105014 0 -0.0085584470208586345 0.0044482764495460472 0 -0.0078752399936050221 0.0057289018583246221 0 -0.0092826745342096742 0.0049979045508105014 0 -0.0088754082341569104 0.0065108759805750744 0 -0.0092826745342096742 0.0049979045508105014 0 -0.010928182475357024 0.0058456546396787167 0 -0.0088754082341569104 0.0065108759805750744 0 -0.010928182475357024 0.0058456546396787167 0 -0.0092872860736678952 0.0087415925164112517 0 0.0026394382795556144 0.0076874784067813354 0 0.0015987267360940023 0.009600326661821439 0 0.0060000421220883574 0.020187451200716924 0 0.0047259228323034376 0.017741291522093552 0 0.0062246505218623146 0.017622625224505785 0 -0.0088754082341569104 0.0065108759805750744 0 -0.0092872860736678952 0.0087415925164112517 0 -0.0075250047872909131 0.0075762216090955164 0 -0.0092872860736678952 0.0087415925164112517 0 -0.0075250047872909131 0.0075762216090955164 0 -0.0071275087425744623 0.0094521131926401797 0 0.016096561378224693 0.0057573893272223377 0 0.016496093009811665 0.00574235363504692 0 0.016466159847556276 0.0054679910644336079 0 0.004470677286338683 0.0046209780084731531 0 0.0051141422040436053 0.0043136679705259853 0 0.016096561378224693 0.0057573893272223377 0 0.016423612217478133 0.0059254836334413129 0 0.016496093009811665 0.00574235363504692 0 0.014875036946090721 0.0061194793738170257 0 0.01578150835102456 0.0062616806380262529 0 0.015584876577809156 0.0052394763480303119 0 0.0060000421220883574 0.020187451200716924 0 0.0075573898865861806 0.018165880347630423 0 0.0062246505218623146 0.017622625224505785 0 0.0026394382795556144 0.0076874784067813354 0 0.0064996834644390324 0.0077485671388034796 0 0.01578150835102456 0.0062616806380262529 0 0.015584876577809156 0.0052394763480303119 0 0.016126578335336678 0.0053103051426672951 0 0.016096561378224693 0.0057573893272223377 0 0.016126578335336678 0.0053103051426672951 0 0.016466159847556276 0.0054679910644336079 0 0.015584876577809156 0.0052394763480303119 0 0.016126578335336678 0.0053103051426672951 0 0.016084248649541753 0.0049838477233518867 0 0.016126578335336678 0.0053103051426672951 0 0.016300442126593848 0.0050040997342245081 0 0.016084248649541753 0.0049838477233518867 0 0.016126578335336678 0.0053103051426672951 0 0.016300442126593848 0.0050040997342245081 0 0.01637034959138926 0.0052321784602337787 0 0.016126578335336678 0.0053103051426672951 0 0.01637034959138926 0.0052321784602337787 0 0.016466159847556276 0.0054679910644336079 0 0.0075573898865861806 0.018165880347630423 0 0.0091637255688877713 0.016150082636484462 0 0.0089915010736469157 0.016239519080249724 0 0.015584876577809156 0.0052394763480303119 0 0.016153813341114882 0.0045530316333334299 0 0.016084248649541753 0.0049838477233518867 0 0.0075573898865861806 0.018165880347630423 0 0.0089915010736469157 0.016239519080249724 0 0.0072898811935167788 0.016374736107496419 0 0.0064996834644390324 0.0077485671388034796 0 0.0098039935107352618 0.0073243468962825428 0 0.0091719985259642728 0.016154374489963642 0 0.0089915010736469157 0.016239519080249724 0 0.0090437897191129289 0.015731733060132484 0 0.0098039935107352618 0.0073243468962825428 0 0.0097997878726269784 0.0073292735418727115 0 0.016153813341114882 0.0045530316333334299 0 0.016223420740263381 0.0048172358510410462 0 0.01641906449541633 0.0046916224581354153 0 0.016223420740263381 0.0048172358510410462 0 0.016300442126593848 0.0050040997342245081 0 0.01641906449541633 0.0046916224581354153 0 0.016153813341114882 0.0045530316333334299 0 0.016223420740263381 0.0048172358510410462 0 0.016084248649541753 0.0049838477233518867 0 0.016223420740263381 0.0048172358510410462 0 0.016300442126593848 0.0050040997342245081 0 0.016084248649541753 0.0049838477233518867 0 0.0089915010736469157 0.016239519080249724 0 0.0072898811935167788 0.016374736107496419 0 0.0085047494027670617 0.015446082554976101 0 0.0075573898865861806 0.018165880347630423 0 0.0072898811935167788 0.016374736107496419 0 0.0062246505218623146 0.017622625224505785 0 0.0072898811935167788 0.016374736107496419 0 0.0062246505218623146 0.017622625224505785 0 0.0056480324122451025 0.01597272420319696 0 0.0071350764380349162 0.015064821428519658 0 0.008196027441895409 0.014338720327494427 0 0.0059702579985211925 0.014045999816412125 0 0.0071350764380349162 0.015064821428519658 0 0.0056480324122451025 0.01597272420319696 0 0.0059702579985211925 0.014045999816412125 0 0.0072898811935167788 0.016374736107496419 0 0.0071350764380349162 0.015064821428519658 0 0.0056480324122451025 0.01597272420319696 0 0.0072898811935167788 0.016374736107496419 0 0.0071350764380349162 0.015064821428519658 0 0.0085047494027670617 0.015446082554976101 0 0.0085047494027670617 0.015446082554976101 0 0.008196027441895409 0.014338720327494427 0 0.0093053296958763246 0.015037109052057971 0 0.0071350764380349162 0.015064821428519658 0 0.0085047494027670617 0.015446082554976101 0 0.008196027441895409 0.014338720327494427 0 0.008196027441895409 0.014338720327494427 0 0.0093053296958763246 0.015037109052057971 0 0.0096603537724818701 0.014072466600408057 0 0.0093053296958763246 0.015037109052057971 0 0.0090437897191129289 0.015731733060132484 0 0.0095176211072504832 0.015761639408156339 0 0.0085047494027670617 0.015446082554976101 0 0.0093053296958763246 0.015037109052057971 0 0.0090437897191129289 0.015731733060132484 0 0.0089915010736469157 0.016239519080249724 0 0.0085047494027670617 0.015446082554976101 0 0.0090437897191129289 0.015731733060132484 0 0.0091719985259642728 0.016154374489963642 0 0.0090437897191129289 0.015731733060132484 0 0.0095176211072504832 0.015761639408156339 0 0.0098039935107352618 0.0073243468962825428 0 0.0097753348969893301 0.0073799316294674705 0 0.0015987267360940023 0.009600326661821439 0 0.00079434308104449629 0.010472211051608523 0 -0.0092872860736678952 0.0087415925164112517 0 -0.0071275087425744623 0.0094521131926401797 0 -0.0076143514027199573 0.011855801856687845 0 0.0047259228323034376 0.017741291522093552 0 0.0062246505218623146 0.017622625224505785 0 0.0056480324122451025 0.01597272420319696 0 0.0047259228323034376 0.017741291522093552 0 0.0056480324122451025 0.01597272420319696 0 0.0034348933983121381 0.015263111937966634 0 0.00079434308104449629 0.010472211051608523 0 0.002510720337387984 0.01065659461983255 0 0.0056480324122451025 0.01597272420319696 0 0.0034348933983121381 0.015263111937966634 0 0.0059702579985211925 0.014045999816412125 0 0.0015140352000108236 0.016192645894496177 0 0.0051672518392812403 0.014416237754879336 0 0.002362227838835643 0.013496601803514086 0 0.00079434308104449629 0.010472211051608523 0 0.00064877335218039244 0.010550898602579906 0 -0.0024537530401677146 0.010012577353311916 0 -0.0022961399996242427 0.010058552044464783 0 -0.0022041558187298172 0.010223595425925606 0 -0.0022961399996242427 0.010058552044464783 0 -0.0025683646220451143 0.010046785019578345 0 -0.0025284025653863978 0.0099208028333834623 0 0.00079434308104449629 0.010472211051608523 0 -7.4094912379563081e-05 0.010707692216342849 0 -0.0024537530401677146 0.010012577353311916 0 -0.0022961399996242427 0.010058552044464783 0 -0.0025284025653863978 0.0099208028333834623 0 -0.0025683646220451143 0.010046785019578345 0 -0.002279181188189898 0.0099786077545071395 0 -0.0020065723324069603 0.010205700246612782 0 -0.0022961399996242427 0.010058552044464783 0 -0.0025683646220451143 0.010046785019578345 0 -0.0020065723324069603 0.010205700246612782 0 -0.0030172835810316784 0.0077280497075187023 0 -0.0029588938325880304 0.0071476156106115626 0 -0.0025683646220451143 0.010046785019578345 0 -0.0031127035912267313 0.0094604459122634137 0 -0.0025284025653863978 0.0099208028333834623 0 -0.0025683646220451143 0.010046785019578345 0 -0.0031127035912267313 0.0094604459122634137 0 -0.0028558052149866677 0.0082408894704847913 0 -0.00029206700837305769 0.010748734899519009 0 -7.4094912379563081e-05 0.010707692216342849 0 -0.0031127035912267313 0.0094604459122634137 0 -0.0055440844192140275 0.010861292586978039 0 -0.0056124383951109101 0.0083136829649471267 0 -0.0071275087425744623 0.0094521131926401797 0 -0.0055440844192140275 0.010861292586978039 0 -0.0056124383951109101 0.0083136829649471267 0 -0.0071275087425744623 0.0094521131926401797 0 -0.0076143514027199573 0.011855801856687845 0 -0.0055440844192140275 0.010861292586978039 0 -0.0075250047872909131 0.0075762216090955164 0 -0.0071275087425744623 0.0094521131926401797 0 -0.0056124383951109101 0.0083136829649471267 0 -0.0075250047872909131 0.0075762216090955164 0 -0.0056124383951109101 0.0083136829649471267 0 -0.0062845088214264133 0.0065559674608775594 0 -0.0056124383951109101 0.0083136829649471267 0 -0.0045021687936780651 0.0066902648362902528 0 -0.0062845088214264133 0.0065559674608775594 0 -0.0031127035912267313 0.0094604459122634137 0 -0.0056124383951109101 0.0083136829649471267 0 -0.0039745395527535261 0.0082076291989913574 0 -0.0031127035912267313 0.0094604459122634137 0 -0.0039745395527535261 0.0082076291989913574 0 -0.0028558052149866677 0.0082408894704847913 0 -0.0039745395527535261 0.0082076291989913574 0 -0.0045021687936780651 0.0066902648362902528 0 -0.0028558052149866677 0.0082408894704847913 0 -0.0056124383951109101 0.0083136829649471267 0 -0.0039745395527535261 0.0082076291989913574 0 -0.0045021687936780651 0.0066902648362902528 0 -0.0047333518138323047 0.00483710558281201 0 -0.0026685081057404823 0.0045379095893665136 0 -0.0045021687936780651 0.0066902648362902528 0 -0.0026685081057404823 0.0045379095893665136 0 -0.0045021687936780651 0.0066902648362902528 0 -0.0028558052149866677 0.0082408894704847913 0 -0.0047333518138323047 0.00483710558281201 0 -0.0045021687936780651 0.0066902648362902528 0 -0.005653436322765085 0.0055197819554407548 0 -0.0078752399936050221 0.0057289018583246221 0 -0.0067935075336357413 0.0051451533458301722 0 -0.0062845088214264133 0.0065559674608775594 0 -0.005653436322765085 0.0055197819554407548 0 -0.0067935075336357413 0.0051451533458301722 0 -0.0062845088214264133 0.0065559674608775594 0 -0.0059649101898650771 0.0044047534516220383 0 -0.005653436322765085 0.0055197819554407548 0 -0.0067935075336357413 0.0051451533458301722 0 -0.0045021687936780651 0.0066902648362902528 0 -0.005653436322765085 0.0055197819554407548 0 -0.0062845088214264133 0.0065559674608775594 0 -0.0017465815036111553 0.0051178558050819275 0 -0.0021064903899141968 0.0069147560232911409 0 -3.5635818274768485e-06 0.0061808323541476511 0 -0.0021064903899141968 0.0069147560232911409 0 -3.5635818274768485e-06 0.0061808323541476511 0 -0.0001049471801552 0.0088257764201444214 0 -0.0033210258651456223 0.0056076038894497171 0 -0.0021064903899141968 0.0069147560232911409 0 -0.0032642345171837511 0.0085919608323205676 0 -0.0028058327502337951 0.0059168970265737041 0 -0.0029588938325880304 0.0071476156106115626 0 -0.0021064903899141968 0.0069147560232911409 0 -0.0032642345171837511 0.0085919608323205676 0 -0.0022677524483114692 0.0086319087804962048 0 0.0012874493864279569 0.0060209675596491381 0 0.0018149403016422024 0.0062094652936465645 0 -0.0021064903899141968 0.0069147560232911409 0 -0.0022677524483114692 0.0086319087804962048 0 -0.0016148900296733227 0.0090550162797812007 0 -0.0022181094174232151 0.0095809609226674003 0 -0.0020016514113653373 0.0096084012460108913 0 -0.0016148900296733227 0.0090550162797812007 0 -0.0022677524483114692 0.0086319087804962048 0 -0.0022181094174232151 0.0095809609226674003 0 -0.0016148900296733227 0.0090550162797812007 0 -0.0025683646220451143 0.010046785019578345 0 -0.0032642345171837511 0.0085919608323205676 0 -0.0022181094174232151 0.0095809609226674003 0 -0.0032642345171837511 0.0085919608323205676 0 -0.0022677524483114692 0.0086319087804962048 0 -0.0022181094174232151 0.0095809609226674003 0 -0.0022181094174232151 0.0095809609226674003 0 -0.002279181188189898 0.0099786077545071395 0 -0.0021961817872297711 0.009843932976874083 0 -0.0025683646220451143 0.010046785019578345 0 -0.0022181094174232151 0.0095809609226674003 0 -0.002279181188189898 0.0099786077545071395 0 -0.0022181094174232151 0.0095809609226674003 0 -0.0020016514113653373 0.0096084012460108913 0 -0.0021961817872297711 0.009843932976874083 0 -0.0020016514113653373 0.0096084012460108913 0 -0.0021535392964674585 0.0096978249761370781 0 -0.0021961817872297711 0.009843932976874083 0 0.0017906826931143962 0.010931559602802137 0 0.0033956147334633577 0.0086802048220422125 0 -0.0001049471801552 0.0088257764201444214 0 -0.0020016514113653373 0.0096084012460108913 0 -0.002151127182259334 0.0097166080940627557 0 -0.0021535392964674585 0.0096978249761370781 0 0.0029757336393895851 0.0061566951928930212 0 0.0018149403016422024 0.0062094652936465645 0 -0.0020016514113653373 0.0096084012460108913 0 -0.002151127182259334 0.0097166080940627557 0 -0.0016148900296733227 0.0090550162797812007 0 0.0029757336393895851 0.0061566951928930212 0 0.0044162773790181672 0.0051374700423233539 0 0.0017906826931143962 0.010931559602802137 0 0.0047562658201002785 0.011219838898957724 0 0.0036888410493615509 0.013081166648117449 0 0.0091319983647114768 0.0030442304785560175 0 0.0077468176830871914 0.0025464580970878431 0 0.0080888473802144794 0.0047084008632647624 0 0.0091319983647114768 0.0030442304785560175 0 0.0077468176830871914 0.0025464580970878431 0 0.0092492359774714473 0.001982964275654522 0 0.0041393418290279526 0.0049522232696031458 0 0.0036544804590675941 0.0044727933477538631 0 0.0047562658201002785 0.011219838898957724 0 0.0033956147334633577 0.0086802048220422125 0 0.0058420996322636485 0.0093391871174262567 0 0.0017906826931143962 0.010931559602802137 0 0.0047562658201002785 0.011219838898957724 0 0.0033956147334633577 0.0086802048220422125 0 0.0033956147334633577 0.0086802048220422125 0 0.005096912023800023 0.0078441592480152523 0 0.0058420996322636485 0.0093391871174262567 0 0.0033956147334633577 0.0086802048220422125 0 0.005096912023800023 0.0078441592480152523 0 0.0042060403371479921 0.0059113200110474818 0 0.005096912023800023 0.0078441592480152523 0 0.0042060403371479921 0.0059113200110474818 0 0.006944002679547835 0.0074292705268620149 0 0.0037005968840293484 0.0041745570307121123 0 0.0029410525713313746 0.0036210306841520665 0 0.0033956147334633577 0.0086802048220422125 0 0.0042060403371479921 0.0059113200110474818 0 0.0018777862547896709 0.0068667941522955042 0 0.0042060403371479921 0.0059113200110474818 0 0.0018777862547896709 0.0068667941522955042 0 0.0019217287151295937 0.0046965975180791536 0 0.0018777862547896709 0.0068667941522955042 0 -3.5635818274768485e-06 0.0061808323541476511 0 0.0019217287151295937 0.0046965975180791536 0 0.0033956147334633577 0.0086802048220422125 0 0.0018777862547896709 0.0068667941522955042 0 -0.0001049471801552 0.0088257764201444214 0 0.0018777862547896709 0.0068667941522955042 0 -3.5635818274768485e-06 0.0061808323541476511 0 -0.0001049471801552 0.0088257764201444214 0 -0.0021876421015954374 0.0027524510775525511 0 -0.0023899675641842495 0.0027784546191753274 0 -0.0023316031975253383 0.0026261311314802679 0 -0.00088556388711653834 0.002905758013011885 0 0.00040793648280576029 0.0032042799177739163 0 0.0011712467717589711 0.0031267652726731836 0 0.003219194416122412 0.0042723923988410425 0 0.0021927007021247192 0.0029216040768408318 0 0.003219194416122412 0.0042723923988410425 0 0.0030722296596672537 0.002536093643175902 0 0.0040347138305340709 0.0028225398733880327 0 0.003219194416122412 0.0042723923988410425 0 0.0021927007021247192 0.0029216040768408318 0 0.0030722296596672537 0.002536093643175902 0 0.0021927007021247192 0.0029216040768408318 0 0.0022296153912709808 0.0020762304050543994 0 0.0030722296596672537 0.002536093643175902 0 0.0022296153912709808 0.0020762304050543994 0 0.0030722296596672537 0.002536093643175902 0 0.0027692874853798084 0.0015533519092609837 0 0.0030722296596672537 0.002536093643175902 0 0.0027692874853798084 0.0015533519092609837 0 0.0036628259008005689 0.0017253420068223501 0 0.0030722296596672537 0.002536093643175902 0 0.0040347138305340709 0.0028225398733880327 0 0.0036628259008005689 0.0017253420068223501 0 0.0040347138305340709 0.0028225398733880327 0 0.0049907858642273557 0.0020790557107754314 0 0.005054391930807956 0.0037979387419173343 0 0.0040347138305340709 0.0028225398733880327 0 0.0049907858642273557 0.0020790557107754314 0 0.0036628259008005689 0.0017253420068223501 0 0.003219194416122412 0.0042723923988410425 0 0.0040347138305340709 0.0028225398733880327 0 0.005054391930807956 0.0037979387419173343 0 0.003219194416122412 0.0042723923988410425 0 0.005054391930807956 0.0037979387419173343 0 0.0051571367757477079 0.0053895775082076734 0 0.00040793648280576029 0.0032042799177739163 0 0.0016484195322054942 0.0034397890089803945 0 0.005054391930807956 0.0037979387419173343 0 0.0064693601519486303 0.0046798524288775654 0 0.0051571367757477079 0.0053895775082076734 0 0.005054391930807956 0.0037979387419173343 0 0.0064693601519486303 0.0046798524288775654 0 0.0063746068006728662 0.0031365622100588968 0 0.0049907858642273557 0.0020790557107754314 0 0.005054391930807956 0.0037979387419173343 0 0.0063746068006728662 0.0031365622100588968 0 0.0049907858642273557 0.0020790557107754314 0 0.0063746068006728662 0.0031365622100588968 0 0.0059819312184529365 0.0011034504760372937 0 0.0063746068006728662 0.0031365622100588968 0 0.0077468176830871914 0.0025464580970878431 0 0.0059819312184529365 0.0011034504760372937 0 0.0063746068006728662 0.0031365622100588968 0 0.0077468176830871914 0.0025464580970878431 0 0.0080888473802144794 0.0047084008632647624 0 0.0064693601519486303 0.0046798524288775654 0 0.0063746068006728662 0.0031365622100588968 0 0.0080888473802144794 0.0047084008632647624 0 0.005096912023800023 0.0078441592480152523 0 0.0058420996322636485 0.0093391871174262567 0 0.006944002679547835 0.0074292705268620149 0 0.0036544804590675941 0.0044727933477538631 0 0.0029410525713313746 0.0036210306841520665 0 0.0064693601519486303 0.0046798524288775654 0 0.0080888473802144794 0.0047084008632647624 0 0.0070753461906651926 0.006453330865684951 0 0.0067432636972553032 0.0072422482070577171 0 0.0079517077560167983 0.0050991687539783505 0 0.0063508237183484096 0.0056043195200724443 0 0.0042060403371479921 0.0059113200110474818 0 0.0067432636972553032 0.0072422482070577171 0 0.0063508237183484096 0.0056043195200724443 0 0.0029410525713313746 0.0036210306841520665 0 0.0011194678646321429 0.0027890046412644329 0 -0.0028566553266109141 0.002509321864395282 0 -0.0026094528771618782 0.0024028696147376676 0 -0.0027124314992012788 0.0022502124851413769 0 -0.0028566553266109141 0.002509321864395282 0 -0.0026271185332454958 0.0026412092519334288 0 -0.0026094528771618782 0.0024028696147376676 0 0.0029410525713313746 0.0036210306841520665 0 0.0016484195322054942 0.0034397890089803945 0 0.0064693601519486303 0.0046798524288775654 0 0.0070753461906651926 0.006453330865684951 0 0.0051571367757477079 0.0053895775082076734 0 -0.0026271185332454958 0.0026412092519334288 0 -0.0024648440430561891 0.002528309449170547 0 -0.0026094528771618782 0.0024028696147376676 0 -0.0023899675641842495 0.0027784546191753274 0 -0.0026271185332454958 0.0026412092519334288 0 -0.0024648440430561891 0.002528309449170547 0 -0.0024648440430561891 0.002528309449170547 0 -0.0026094528771618782 0.0024028696147376676 0 -0.0024658015075745298 0.0023214708996506643 0 -0.0024658015075745298 0.0023214708996506643 0 -0.0022703329648963199 0.002455750942053159 0 -0.0023421944316961421 0.0021933609230857147 0 -0.0021135841722415521 0.0019531094689003924 0 -0.0026762947690081879 0.001352348259060721 0 -0.0020988150800971741 0.0017094139587646071 0 -0.0021037945856477681 0.0019044096642171671 0 -0.0022698644542092643 0.0012859576286603531 0 -0.0024648440430561891 0.002528309449170547 0 -0.0024658015075745298 0.0023214708996506643 0 -0.0022703329648963199 0.002455750942053159 0 -0.0020058420997252895 0.0021585114440397226 0 -0.0020988150800971741 0.0017094139587646071 0 -0.0021037945856477681 0.0019044096642171671 0 -0.0024648440430561891 0.002528309449170547 0 -0.0022703329648963199 0.002455750942053159 0 -0.0023316031975253383 0.0026261311314802679 0 -0.0023899675641842495 0.0027784546191753274 0 -0.0024648440430561891 0.002528309449170547 0 -0.0023316031975253383 0.0026261311314802679 0 -0.0021876421015954374 0.0027524510775525511 0 -0.0022703329648963199 0.002455750942053159 0 -0.0023316031975253383 0.0026261311314802679 0 -0.0026609555571016665 -0.0015828088607356672 0 -0.0018678703827802502 -0.0020904110446741246 0 -0.0019642351928738548 -0.0025658449180239878 0 -0.0023945594306155138 0.0020304350655107623 0 -0.0024279854535396127 0.0020270802229406604 0 -0.0024278077301963276 0.0019104032053801211 0 -0.0024279854535396127 0.0020270802229406604 0 -0.0023778165092903981 0.0021714547764541676 0 -0.0025308696822060298 0.0021793746529448032 0 -0.0027988481326308985 0.001279973545435933 0 -0.0028195514744888289 0.001214526093746479 0 -0.0024279854535396127 0.0020270802229406604 0 -0.0023809115148844865 0.0021048301009120359 0 -0.0023996633674147408 0.002131355944165165 0 -0.0023945594306155138 0.0020304350655107623 0 -0.0024279854535396127 0.0020270802229406604 0 -0.0023809115148844865 0.0021048301009120359 0 -0.0037859616771388884 0.00081010249660696306 0 -0.003016964735956233 0.0011207027880809585 0 -0.0027220644337114549 0.0014979213339901428 0 -0.0027786626766603956 0.0012211564742280697 0 -0.0027996549108160601 0.0013049308267327124 0 -0.0023323543020210241 0.0016067984907564609 0 -0.003016964735956233 0.0011207027880809585 0 -0.0027786626766603956 0.0012211564742280697 0 -0.0027996549108160601 0.0013049308267327124 0 -0.0028099737721826242 0.001266164321988381 0 -0.003016964735956233 0.0011207027880809585 0 -0.0028195514744888289 0.001214526093746479 0 -0.0026762947690081879 0.001352348259060721 0 -0.0028195514744888289 0.001214526093746479 0 -0.0023323543020210241 0.0016067984907564609 0 -0.0026762947690081879 0.001352348259060721 0 -0.0024658015075745298 0.0023214708996506643 0 -0.0023421944316961421 0.0021933609230857147 0 -0.0023520011345919455 0.0021567659627700301 0 -0.0028367100841199117 0.0012803876287803767 0 -0.0028195514744888289 0.001214526093746479 0 -0.0025308696822060298 0.0021793746529448032 0 -0.0025723824088765722 0.002008288883406159 0 -0.0027124314992012788 0.0022502124851413769 0 -0.0026094528771618782 0.0024028696147376676 0 -0.0024658015075745298 0.0023214708996506643 0 -0.0025308696822060298 0.0021793746529448032 0 -0.0026094528771618782 0.0024028696147376676 0 -0.0025308696822060298 0.0021793746529448032 0 -0.0027124314992012788 0.0022502124851413769 0 -0.0024658015075745298 0.0023214708996506643 0 -0.0023778165092903981 0.0021714547764541676 0 -0.0025308696822060298 0.0021793746529448032 0 -0.0024279854535396127 0.0020270802229406604 0 -0.0025308696822060298 0.0021793746529448032 0 -0.0025723824088765722 0.002008288883406159 0 -0.0024279854535396127 0.0020270802229406604 0 -0.0025723824088765722 0.002008288883406159 0 -0.0024278077301963276 0.0019104032053801211 0 -0.00088832122190732603 0.0018226080000002189 0 0.0011194678646321429 0.0027890046412644329 0 0.0091246750846597433 0.0029319064298524724 0 0.0075778104685531606 0.0034937918132580494 0 0.0069652860191061622 0.0020082202219999907 0 0.0091246750846597433 0.0029319064298524724 0 0.0075778104685531606 0.0034937918132580494 0 0.0079517077560167983 0.0050991687539783505 0 0.0075778104685531606 0.0034937918132580494 0 0.0079517077560167983 0.0050991687539783505 0 0.0062701548977030543 0.0039392539385385136 0 0.0079517077560167983 0.0050991687539783505 0 0.0063508237183484096 0.0056043195200724443 0 0.0062701548977030543 0.0039392539385385136 0 0.0062701548977030543 0.0039392539385385136 0 0.0069652860191061622 0.0020082202219999907 0 0.0042989431819031856 0.0029449862490657122 0 0.0075778104685531606 0.0034937918132580494 0 0.0062701548977030543 0.0039392539385385136 0 0.0069652860191061622 0.0020082202219999907 0 0.0014184867550769691 0.0022627492150113313 0 0.00062203944711310361 0.0018929079341971204 0 0.0073393657527586528 -9.8422624143628572e-05 0 0.0050508426558878603 0.00044199788989860778 0 0.0057061740046584816 -0.0014673487447923064 0 0.0069652860191061622 0.0020082202219999907 0 0.0073393657527586528 -9.8422624143628572e-05 0 0.0050508426558878603 0.00044199788989860778 0 0.0073393657527586528 -9.8422624143628572e-05 0 0.0085535146182563575 0.0012069367823296093 0 0.0088809960606184846 1.6279062064752495e-05 0 0.0073393657527586528 -9.8422624143628572e-05 0 0.0088809960606184846 1.6279062064752495e-05 0 0.0084884724143556942 -0.0010463165898030129 0 0.0091246750846597433 0.0029319064298524724 0 0.0069652860191061622 0.0020082202219999907 0 0.0085535146182563575 0.0012069367823296093 0 0.0069652860191061622 0.0020082202219999907 0 0.0073393657527586528 -9.8422624143628572e-05 0 0.0085535146182563575 0.0012069367823296093 0 -0.0025723824088765722 0.002008288883406159 0 -0.0024622169391172789 0.0018181968085711194 0 -0.0024278077301963276 0.0019104032053801211 0 -0.00088832122190732603 0.0018226080000002189 0 -0.0037535770342966286 0.0013161883498444651 0 0.0091246750846597433 0.0029319064298524724 0 0.0085535146182563575 0.0012069367823296093 0 0.010288323333477867 0.00080107328243618297 0 0.0088809960606184846 1.6279062064752495e-05 0 0.010288323333477867 0.00080107328243618297 0 0.0096797620419925411 -0.00074683800121320238 0 0.0085535146182563575 0.0012069367823296093 0 0.0088809960606184846 1.6279062064752495e-05 0 0.010288323333477867 0.00080107328243618297 0 -0.0023518072974854096 0.0016710431824493292 0 -0.0023918338287348979 0.001746181746999985 0 -0.0023730075905807673 0.001835388556800079 0 -0.0037535770342966286 0.0013161883498444651 0 -0.0084306450734440049 0.0022234940893080782 0 -0.0024622169391172789 0.0018181968085711194 0 -0.0023918338287348979 0.001746181746999985 0 -0.002380357150725355 0.0016603916344546013 0 0.010288323333477867 0.00080107328243618297 0 0.01146172404173839 -0.0013103555051832633 0 0.0096797620419925411 -0.00074683800121320238 0 -0.0024622169391172789 0.0018181968085711194 0 -0.0023918338287348979 0.001746181746999985 0 -0.0023730075905807673 0.001835388556800079 0 -0.0026609555571016665 -0.0015828088607356672 0 -0.0018678703827802502 -0.0020904110446741246 0 -0.0021285867334508569 -0.00095349455133011637 0 -0.0024054367461190415 0.0020105638827682755 0 -0.0023730075905807673 0.001835388556800079 0 -0.0024278077301963276 0.0019104032053801211 0 -0.0037859616771388884 0.00081010249660696306 0 -0.0058577523292318258 0.001242914407122653 0 -0.0024622169391172789 0.0018181968085711194 0 -0.0023730075905807673 0.001835388556800079 0 -0.0024278077301963276 0.0019104032053801211 0 -0.0037859616771388884 0.00081010249660696306 0 -0.0037479299926635773 0.00089910719330353465 0 0.0019217287151295937 0.0046965975180791536 0 0.0042989431819031856 0.0029449862490657122 0 0.0012387853646775226 0.0021937069052175517 0 -0.00060477478709917824 0.0041516882969129098 0 -0.00074307437909115293 0.0023772068217144571 0 0.0012387853646775226 0.0021937069052175517 0 -0.00060477478709917824 0.0041516882969129098 0 0.0019217287151295937 0.0046965975180791536 0 0.0012387853646775226 0.0021937069052175517 0 -0.00060477478709917824 0.0041516882969129098 0 -3.5635818274768485e-06 0.0061808323541476511 0 0.0019217287151295937 0.0046965975180791536 0 0.0042060403371479921 0.0059113200110474818 0 0.0019217287151295937 0.0046965975180791536 0 0.0042989431819031856 0.0029449862490657122 0 0.0042060403371479921 0.0059113200110474818 0 0.0062701548977030543 0.0039392539385385136 0 0.0042989431819031856 0.0029449862490657122 0 0.0042060403371479921 0.0059113200110474818 0 0.0063508237183484096 0.0056043195200724443 0 0.0062701548977030543 0.0039392539385385136 0 0.0042989431819031856 0.0029449862490657122 0 0.0030505764586478083 0.00074959459779132883 0 0.0012387853646775226 0.0021937069052175517 0 0.0069652860191061622 0.0020082202219999907 0 0.0042989431819031856 0.0029449862490657122 0 0.0051721403015599224 0.00030745748286684495 0 0.0042989431819031856 0.0029449862490657122 0 0.0051721403015599224 0.00030745748286684495 0 0.0030505764586478083 0.00074959459779132883 0 0.00062203944711310361 0.0018929079341971204 0 -0.0014646407235492126 0.0010900410942484189 0 0.0051721403015599224 0.00030745748286684495 0 0.0030505764586478083 0.00074959459779132883 0 0.0032867317025717028 -0.0014107524668938146 0 0.0030505764586478083 0.00074959459779132883 0 0.0012528139174589009 -0.00030179063793833857 0 0.0032867317025717028 -0.0014107524668938146 0 0.0030505764586478083 0.00074959459779132883 0 0.0012528139174589009 -0.00030179063793833857 0 0.0012387853646775226 0.0021937069052175517 0 -0.00062477091202117329 0.00098009852759533742 0 0.0012528139174589009 -0.00030179063793833857 0 0.0012387853646775226 0.0021937069052175517 0 -0.00074307437909115293 0.0023772068217144571 0 -0.00062477091202117329 0.00098009852759533742 0 0.0012387853646775226 0.0021937069052175517 0 -0.00062477091202117329 0.00098009852759533742 0 0.0012528139174589009 -0.00030179063793833857 0 -0.00093989966486865602 -0.0013039485884920779 0 0.0012528139174589009 -0.00030179063793833857 0 0.0013928213794421255 -0.0030626163265908002 0 -0.00093989966486865602 -0.0013039485884920779 0 -0.0047559098552771226 5.9651785585153958e-05 0 -0.0059140281886094961 0.0007907480120240613 0 -0.011231203461811487 0.0027595795886881792 0 -0.011226422381199681 0.0027627814294552714 0 -0.011291056485133113 0.0027706424565419004 0 -0.011260901573132165 0.002751778614577417 0 -0.011231203461811487 0.0027595795886881792 0 -0.011291056485133113 0.0027706424565419004 0 -0.011260901573132165 0.002751778614577417 0 -0.011231203461811487 0.0027595795886881792 0 -0.011236357096421181 0.0027462230592285807 0 -0.011220292765298765 0.002751478156817107 0 -0.011221943329017697 0.0027674623420588405 0 -0.011200054878654253 0.0027407471481370256 0 -0.01122732360043144 0.0027491089748976471 0 -0.011231203461811487 0.0027595795886881792 0 -0.011236357096421181 0.0027462230592285807 0 -0.011220292765298765 0.002751478156817107 0 -0.01122732360043144 0.0027491089748976471 0 -0.011231203461811487 0.0027595795886881792 0 -0.011220292765298765 0.002751478156817107 0 -0.011231203461811487 0.0027595795886881792 0 -0.011221943329017697 0.0027674623420588405 0 -0.0047672697980951249 5.6786926071012059e-05 0 -0.0047559098552771226 5.9651785585153958e-05 0 0.0012528139174589009 -0.00030179063793833857 0 0.0013928213794421255 -0.0030626163265908002 0 0.0032867317025717028 -0.0014107524668938146 0 -0.0047559098552771226 5.9651785585153958e-05 0 -0.0014646407235492126 0.0010900410942484189 0 0.0031527460328437235 -0.0011657785574501925 0 0.0044364836138682398 -0.0027079238091336551 0 0.0057061740046584816 -0.0014673487447923064 0 0.0050508426558878603 0.00044199788989860778 0 0.0031527460328437235 -0.0011657785574501925 0 0.0057061740046584816 -0.0014673487447923064 0 0.0044364836138682398 -0.0027079238091336551 0 0.0034991247796771876 -0.0044995640387521093 0 0.0062109842630684378 -0.0034309088737659236 0 0.0044364836138682398 -0.0027079238091336551 0 0.0057061740046584816 -0.0014673487447923064 0 0.0062109842630684378 -0.0034309088737659236 0 0.0044364836138682398 -0.0027079238091336551 0 0.0031450380989258967 -0.0028125233607798066 0 0.0034991247796771876 -0.0044995640387521093 0 0.0012597181267151691 -0.0027964558878709848 0 0.0031527460328437235 -0.0011657785574501925 0 0.0031450380989258967 -0.0028125233607798066 0 0.0012597181267151691 -0.0027964558878709848 0 0.0031450380989258967 -0.0028125233607798066 0 0.0034991247796771876 -0.0044995640387521093 0 0.0031527460328437235 -0.0011657785574501925 0 0.0044364836138682398 -0.0027079238091336551 0 0.0031450380989258967 -0.0028125233607798066 0 -0.0085826544081854441 0.0010475135789867803 0 -0.01089554395464762 0.00080177912436194139 0 -0.011152344001897716 0.002725452022828543 0 -0.011200054878654253 0.0027407471481370256 0 -0.011202622558789581 0.0027064664252441305 0 -0.020513113159316188 -0.0018874162729297466 0 -0.021660697663159079 -0.0010304458960886853 0 -0.022735032538138394 -0.0015866828522730588 0 -0.020513113159316188 -0.0018874162729297466 0 -0.022874971416893604 -0.0027932892390408262 0 -0.022735032538138394 -0.0015866828522730588 0 -0.0085826544081854441 0.0010475135789867803 0 -0.009207544251782945 0.0007366180476852547 0 -0.0085826544081854441 0.0010475135789867803 0 -0.0094372991099837423 0.0013762980745809391 0 -0.021660697663159079 -0.0010304458960886853 0 -0.020347128915457296 -0.00047898710483451433 0 -0.022049878683742731 0.0002599936284204296 0 -0.020543903298378643 -0.0018984886465474883 0 -0.021660697663159079 -0.0010304458960886853 0 -0.020347128915457296 -0.00047898710483451433 0 -0.020543903298378643 -0.0018984886465474883 0 -0.020347128915457296 -0.00047898710483451433 0 -0.019219992943366872 -0.0013956343067311112 0 -0.020347128915457296 -0.00047898710483451433 0 -0.019219992943366872 -0.0013956343067311112 0 -0.018805009533040661 7.3100727838739245e-05 0 -0.017913867638147157 -0.00089415585465023838 0 -0.019219992943366872 -0.0013956343067311112 0 -0.018805009533040661 7.3100727838739245e-05 0 -0.012293861410618862 0.00082534154985031475 0 -0.01089554395464762 0.00080177912436194139 0 -0.012293861410618862 0.00082534154985031475 0 -0.012604066084193405 0.00097049953501732753 0 -0.01778435019469355 -0.0010378051490169701 0 -0.017475761563355809 0.00086415614431896101 0 -0.015850310263962906 -0.00026049738262973345 0 -0.012293861410618862 0.00082534154985031475 0 -0.012813494883370833 0.00067165316418119493 0 -0.011260901573132165 0.002751778614577417 0 -0.011238981030677473 0.0027283115382567189 0 -0.011284230355886474 0.0027549577615397581 0 -0.011246309416331922 0.0026938629471299686 0 -0.011238981030677473 0.0027283115382567189 0 -0.011284230355886474 0.0027549577615397581 0 -0.012293861410618862 0.00082534154985031475 0 -0.012282913768298032 0.0015634171356544498 0 -0.011260901573132165 0.002751778614577417 0 -0.011238981030677473 0.0027283115382567189 0 -0.011236357096421181 0.0027462230592285807 0 -0.011238981030677473 0.0027283115382567189 0 -0.011236357096421181 0.0027462230592285807 0 -0.011221657148361087 0.0027385510097148839 0 -0.0047559098552771226 5.9651785585153958e-05 0 -0.0085826544081854441 0.0010475135789867803 0 -0.011221943329017697 0.0027674623420588405 0 -0.011152344001897716 0.002725452022828543 0 -0.011200054878654253 0.0027407471481370256 0 -0.01122732360043144 0.0027491089748976471 0 -0.011236357096421181 0.0027462230592285807 0 -0.011221657148361087 0.0027385510097148839 0 -0.011220292765298765 0.002751478156817107 0 -0.01122732360043144 0.0027491089748976471 0 -0.011221657148361087 0.0027385510097148839 0 -0.011220292765298765 0.002751478156817107 0 -0.011221657148361087 0.0027385510097148839 0 -0.011200054878654253 0.0027407471481370256 0 -0.011221657148361087 0.0027385510097148839 0 -0.011200054878654253 0.0027407471481370256 0 -0.011202622558789581 0.0027064664252441305 0 -0.011246309416331922 0.0026938629471299686 0 -0.011238981030677473 0.0027283115382567189 0 -0.011202622558789581 0.0027064664252441305 0 -0.011238981030677473 0.0027283115382567189 0 -0.011221657148361087 0.0027385510097148839 0 -0.011202622558789581 0.0027064664252441305 0 -0.028392609256502187 -0.0028879647379394724 0 -0.027480161739127519 -0.0029393191473424344 0 -0.026705751188393165 -0.0042562535253487096 0 -0.010701527013170216 0.0021433530264491677 0 -0.0099901306284456357 0.0019083228167241226 0 -0.02680760188362865 -0.0028918585422259492 0 -0.026705751188393165 -0.0042562535253487096 0 -0.025827539427986573 -0.0028277912466993585 0 -0.027480161739127519 -0.0029393191473424344 0 -0.02680760188362865 -0.0028918585422259492 0 -0.027370949948872833 -0.0022991074418213281 0 -0.027480161739127519 -0.0029393191473424344 0 -0.02680760188362865 -0.0028918585422259492 0 -0.026705751188393165 -0.0042562535253487096 0 -0.010083022308585684 0.0014585727676356794 0 -0.009460664737489799 0.00036648055481641598 0 -0.0085080678132289801 0.00073756216263169076 0 0.01146172404173839 -0.0013103555051832633 0 0.010455514973746298 -0.0017098546739688519 0 0.0096797620419925411 -0.00074683800121320238 0 -0.0084306450734440049 0.0022234940893080782 0 -0.0099901306284456357 0.0019083228167241226 0 -0.0023518072974854096 0.0016710431824493292 0 -0.0023918338287348979 0.001746181746999985 0 -0.002380357150725355 0.0016603916344546013 0 0.0096797620419925411 -0.00074683800121320238 0 0.0088725301072559385 -0.0023549089860568375 0 0.0084884724143556942 -0.0010463165898030129 0 0.010455514973746298 -0.0017098546739688519 0 0.0096797620419925411 -0.00074683800121320238 0 0.0088725301072559385 -0.0023549089860568375 0 0.0088809960606184846 1.6279062064752495e-05 0 0.0096797620419925411 -0.00074683800121320238 0 0.0084884724143556942 -0.0010463165898030129 0 -0.0099901306284456357 0.0019083228167241226 0 -0.0096584288355363989 0.0012286788620882723 0 -0.025256766763042619 -0.003697224752470018 0 -0.025827539427986573 -0.0028277912466993585 0 -0.024690544508942015 -0.0019869477994912807 0 -0.026705751188393165 -0.0042562535253487096 0 -0.025256766763042619 -0.003697224752470018 0 -0.025827539427986573 -0.0028277912466993585 0 -0.0096584288355363989 0.0012286788620882723 0 -0.009207544251782945 0.0007366180476852547 0 0.0088725301072559385 -0.0023549089860568375 0 0.0073343252382695274 -0.0016862314611982947 0 0.0062109842630684378 -0.0034309088737659236 0 -0.025256766763042619 -0.003697224752470018 0 -0.022874971416893604 -0.0027932892390408262 0 -0.024690544508942015 -0.0019869477994912807 0 0.0088725301072559385 -0.0023549089860568375 0 0.0073343252382695274 -0.0016862314611982947 0 0.0084884724143556942 -0.0010463165898030129 0 0.0073393657527586528 -9.8422624143628572e-05 0 0.0073343252382695274 -0.0016862314611982947 0 0.0084884724143556942 -0.0010463165898030129 0 0.0073393657527586528 -9.8422624143628572e-05 0 0.0073343252382695274 -0.0016862314611982947 0 0.0057061740046584816 -0.0014673487447923064 0 0.0073343252382695274 -0.0016862314611982947 0 0.0057061740046584816 -0.0014673487447923064 0 0.0062109842630684378 -0.0034309088737659236 0 -0.022735032538138394 -0.0015866828522730588 0 -0.023502172727810126 -0.00062994479613050311 0 -0.024690544508942015 -0.0019869477994912807 0 -0.022874971416893604 -0.0027932892390408262 0 -0.022735032538138394 -0.0015866828522730588 0 -0.024690544508942015 -0.0019869477994912807 0 -0.021660697663159079 -0.0010304458960886853 0 -0.022735032538138394 -0.0015866828522730588 0 -0.023502172727810126 -0.00062994479613050311 0 -0.021660697663159079 -0.0010304458960886853 0 -0.023502172727810126 -0.00062994479613050311 0 -0.022049878683742731 0.0002599936284204296 0 -0.023502172727810126 -0.00062994479613050311 0 -0.024870673792701564 -0.0007402835969844829 0 -0.024690544508942015 -0.0019869477994912807 0 -0.023502172727810126 -0.00062994479613050311 0 -0.024148196749288642 0.00017136941504456997 0 -0.023311497291538971 0.00044379412395580684 0 -0.023502172727810126 -0.00062994479613050311 0 -0.024870673792701564 -0.0007402835969844829 0 -0.024148196749288642 0.00017136941504456997 0 -0.024870673792701564 -0.0007402835969844829 0 -0.025156566100450941 0.00045300350565322215 0 -0.024148196749288642 0.00017136941504456997 0 -0.025827539427986573 -0.0028277912466993585 0 -0.024690544508942015 -0.0019869477994912807 0 -0.025628004336443522 -0.0015671342697371347 0 -0.025827539427986573 -0.0028277912466993585 0 -0.025628004336443522 -0.0015671342697371347 0 -0.026519120631322397 -0.0020393842728699896 0 -0.02680760188362865 -0.0028918585422259492 0 -0.025827539427986573 -0.0028277912466993585 0 -0.026519120631322397 -0.0020393842728699896 0 -0.025628004336443522 -0.0015671342697371347 0 -0.026119318356647811 -0.0007655642991096118 0 -0.026519120631322397 -0.0020393842728699896 0 -0.024870673792701564 -0.0007402835969844829 0 -0.024690544508942015 -0.0019869477994912807 0 -0.025628004336443522 -0.0015671342697371347 0 -0.024870673792701564 -0.0007402835969844829 0 -0.025628004336443522 -0.0015671342697371347 0 -0.026119318356647811 -0.0007655642991096118 0 -0.024870673792701564 -0.0007402835969844829 0 -0.026119318356647811 -0.0007655642991096118 0 -0.025156566100450941 0.00045300350565322215 0 -0.026119318356647811 -0.0007655642991096118 0 -0.0270218468880256 -0.00051170037269943666 0 -0.026351260558050784 0.00068150277826194931 0 -0.026119318356647811 -0.0007655642991096118 0 -0.0270218468880256 -0.00051170037269943666 0 -0.027166993334787719 -0.0014768189899768804 0 -0.027819106332338871 -0.0008327414977924247 0 -0.0270218468880256 -0.00051170037269943666 0 -0.027564238927727486 0.00020826202999561739 0 -0.027819106332338871 -0.0008327414977924247 0 -0.0270218468880256 -0.00051170037269943666 0 -0.027166993334787719 -0.0014768189899768804 0 -0.027933138357081895 -0.0016854790971660906 0 -0.027819106332338871 -0.0008327414977924247 0 -0.027166993334787719 -0.0014768189899768804 0 -0.027933138357081895 -0.0016854790971660906 0 -0.027166993334787719 -0.0014768189899768804 0 -0.027370949948872833 -0.0022991074418213281 0 -0.026119318356647811 -0.0007655642991096118 0 -0.027166993334787719 -0.0014768189899768804 0 -0.026519120631322397 -0.0020393842728699896 0 -0.027166993334787719 -0.0014768189899768804 0 -0.026519120631322397 -0.0020393842728699896 0 -0.027370949948872833 -0.0022991074418213281 0 -0.02680760188362865 -0.0028918585422259492 0 -0.026519120631322397 -0.0020393842728699896 0 -0.027370949948872833 -0.0022991074418213281 0 -0.02800530821344421 -0.0023641222081511866 0 -0.027480161739127519 -0.0029393191473424344 0 -0.027370949948872833 -0.0022991074418213281 0 -0.027245597829202713 0.0017039557952750431 0 -0.026351260558050784 0.00068150277826194931 0 -0.026066956760391172 0.0022368960179524329 0 -0.028413092717269647 0.0025055151511633768 0 -0.027245597829202713 0.0017039557952750431 0 -0.026859752443112655 0.0036259893411883042 0 -0.027245597829202713 0.0017039557952750431 0 -0.026066956760391172 0.0022368960179524329 0 -0.026859752443112655 0.0036259893411883042 0 -0.027245597829202713 0.0017039557952750431 0 -0.027564238927727486 0.00020826202999561739 0 -0.026351260558050784 0.00068150277826194931 0 -0.0270218468880256 -0.00051170037269943666 0 -0.027564238927727486 0.00020826202999561739 0 -0.026351260558050784 0.00068150277826194931 0 -0.026119318356647811 -0.0007655642991096118 0 -0.026351260558050784 0.00068150277826194931 0 -0.025156566100450941 0.00045300350565322215 0 -0.026351260558050784 0.00068150277826194931 0 -0.025156566100450941 0.00045300350565322215 0 -0.025248534955149393 0.0015781299702972574 0 -0.026066956760391172 0.0022368960179524329 0 -0.025248534955149393 0.0015781299702972574 0 -0.024737921491354026 0.0034419330872006854 0 -0.026351260558050784 0.00068150277826194931 0 -0.026066956760391172 0.0022368960179524329 0 -0.025248534955149393 0.0015781299702972574 0 -0.025199634254462335 0.00015848882670575136 0 -0.023573409417743402 0.0014787048512682911 0 -0.025659199139954417 0.0025137214885156203 0 -0.024336796180440087 0.0027760338275916712 0 -0.024747770848954777 0.003623115343964619 0 -0.025248534955149393 0.0015781299702972574 0 -0.024197579842875613 0.0013327262878322062 0 -0.024737921491354026 0.0034419330872006854 0 -0.025156566100450941 0.00045300350565322215 0 -0.025248534955149393 0.0015781299702972574 0 -0.024197579842875613 0.0013327262878322062 0 -0.024444359280404879 0.0026488174513771352 0 -0.024336796180440087 0.0027760338275916712 0 -0.025156566100450941 0.00045300350565322215 0 -0.024148196749288642 0.00017136941504456997 0 -0.02402219492438842 0.0012357979830512991 0 -0.024148196749288642 0.00017136941504456997 0 -0.02402219492438842 0.0012357979830512991 0 -0.023311497291538971 0.00044379412395580684 0 -0.023502172727810126 -0.00062994479613050311 0 -0.023311497291538971 0.00044379412395580684 0 -0.022049878683742731 0.0002599936284204296 0 -0.02402219492438842 0.0012357979830512991 0 -0.023311497291538971 0.00044379412395580684 0 -0.022935377578360172 0.0012186730295431732 0 -0.023311497291538971 0.00044379412395580684 0 -0.022935377578360172 0.0012186730295431732 0 -0.022049878683742731 0.0002599936284204296 0 -0.024336796180440087 0.0027760338275916712 0 -0.023634200142857265 0.0029834296800032595 0 -0.022935377578360172 0.0012186730295431732 0 -0.022513204600515264 0.0023235127768315945 0 -0.02182350963439797 0.0013501527246009594 0 -0.02402219492438842 0.0012357979830512991 0 -0.022935377578360172 0.0012186730295431732 0 -0.022513204600515264 0.0023235127768315945 0 -0.023573409417743402 0.0014787048512682911 0 -0.024145589463861493 0.0033684289050611555 0 -0.025659199139954417 0.0025137214885156203 0 -0.024145589463861493 0.0033684289050611555 0 -0.026082498794664892 0.0048499870188201573 0 -0.023413394278818781 0.0051516859616482823 0 -0.024747770848954777 0.003623115343964619 0 -0.025154665888594146 0.0048337755461928507 0 -0.024145589463861493 0.0033684289050611555 0 -0.025659199139954417 0.0025137214885156203 0 -0.026082498794664892 0.0048499870188201573 0 -0.026066956760391172 0.0022368960179524329 0 -0.024737921491354026 0.0034419330872006854 0 -0.026859752443112655 0.0036259893411883042 0 -0.024737921491354026 0.0034419330872006854 0 -0.026859752443112655 0.0036259893411883042 0 -0.025330547909512877 0.0054720848119285846 0 -0.026859752443112655 0.0036259893411883042 0 -0.027755295524539821 0.0057111087985467065 0 -0.025330547909512877 0.0054720848119285846 0 -0.02870483303676561 0.0040398667681388169 0 -0.026859752443112655 0.0036259893411883042 0 -0.027755295524539821 0.0057111087985467065 0 -0.019257019198664009 0.0015871381869538115 0 -0.019427628844104001 0.003121352798553518 0 -0.017730394759980929 0.0026378818026955688 0 -0.019257019198664009 0.0015871381869538115 0 -0.017475761563355809 0.00086415614431896101 0 -0.017730394759980929 0.0026378818026955688 0 -0.017475761563355809 0.00086415614431896101 0 -0.017730394759980929 0.0026378818026955688 0 -0.015280826156711056 0.0020129809165406092 0 -0.01778435019469355 -0.0010378051490169701 0 -0.017475761563355809 0.00086415614431896101 0 -0.018805009533040661 7.3100727838739245e-05 0 -0.019257019198664009 0.0015871381869538115 0 -0.018805009533040661 7.3100727838739245e-05 0 -0.019842529384640147 0.0004477979373700267 0 -0.019257019198664009 0.0015871381869538115 0 -0.017475761563355809 0.00086415614431896101 0 -0.018805009533040661 7.3100727838739245e-05 0 -0.019257019198664009 0.0015871381869538115 0 -0.019842529384640147 0.0004477979373700267 0 -0.020820624575924332 0.00091232226761220748 0 -0.020347128915457296 -0.00047898710483451433 0 -0.018805009533040661 7.3100727838739245e-05 0 -0.019842529384640147 0.0004477979373700267 0 -0.020347128915457296 -0.00047898710483451433 0 -0.019842529384640147 0.0004477979373700267 0 -0.020820624575924332 0.00091232226761220748 0 -0.020347128915457296 -0.00047898710483451433 0 -0.020820624575924332 0.00091232226761220748 0 -0.022049878683742731 0.0002599936284204296 0 -0.020820624575924332 0.00091232226761220748 0 -0.022049878683742731 0.0002599936284204296 0 -0.02182350963439797 0.0013501527246009594 0 -0.022935377578360172 0.0012186730295431732 0 -0.022049878683742731 0.0002599936284204296 0 -0.02182350963439797 0.0013501527246009594 0 -0.022513204600515264 0.0023235127768315945 0 -0.02182350963439797 0.0013501527246009594 0 -0.020813245922801163 0.0021263340652124497 0 -0.020820624575924332 0.00091232226761220748 0 -0.02182350963439797 0.0013501527246009594 0 -0.020813245922801163 0.0021263340652124497 0 -0.019257019198664009 0.0015871381869538115 0 -0.020813245922801163 0.0021263340652124497 0 -0.019427628844104001 0.003121352798553518 0 -0.019257019198664009 0.0015871381869538115 0 -0.020820624575924332 0.00091232226761220748 0 -0.020813245922801163 0.0021263340652124497 0 -0.021089225895845425 0.0033773422812388475 0 -0.019954257300364618 0.0043202544314910633 0 -0.019427628844104001 0.003121352798553518 0 -0.020813245922801163 0.0021263340652124497 0 -0.021089225895845425 0.0033773422812388475 0 -0.019427628844104001 0.003121352798553518 0 -0.022513204600515264 0.0023235127768315945 0 -0.020813245922801163 0.0021263340652124497 0 -0.021089225895845425 0.0033773422812388475 0 -0.023634200142857265 0.0029834296800032595 0 -0.022918832400626799 0.0033570654604834268 0 -0.023573409417743402 0.0014787048512682911 0 -0.024145589463861493 0.0033684289050611555 0 -0.021899164305684962 0.0027991002636635191 0 -0.024145589463861493 0.0033684289050611555 0 -0.021899164305684962 0.0027991002636635191 0 -0.023413394278818781 0.0051516859616482823 0 -0.021899164305684962 0.0027991002636635191 0 -0.023413394278818781 0.0051516859616482823 0 -0.021464500699712698 0.0054379902722159505 0 -0.022918832400626799 0.0033570654604834268 0 -0.022578583316425795 0.0035661474206693179 0 -0.021899164305684962 0.0027991002636635191 0 -0.019954257300364618 0.0043202544314910633 0 -0.021464500699712698 0.0054379902722159505 0 -0.019954257300364618 0.0043202544314910633 0 -0.019427628844104001 0.003121352798553518 0 -0.01793621765284065 0.0044749647098352805 0 -0.019427628844104001 0.003121352798553518 0 -0.017730394759980929 0.0026378818026955688 0 -0.01793621765284065 0.0044749647098352805 0 -0.017730394759980929 0.0026378818026955688 0 -0.01793621765284065 0.0044749647098352805 0 -0.016436760003775766 0.0035536460739362175 0 -0.01793621765284065 0.0044749647098352805 0 -0.015731244701508135 0.0051307499834514509 0 -0.016436760003775766 0.0035536460739362175 0 -0.015731244701508135 0.0051307499834514509 0 -0.014985302165716249 0.0035913248584684516 0 -0.016436760003775766 0.0035536460739362175 0 -0.01365787949964342 0.0054584734761843291 0 -0.013311139908819703 0.0059176937682592773 0 -0.015731244701508135 0.0051307499834514509 0 -0.014985302165716249 0.0035913248584684516 0 -0.013830906668871049 0.0054030095149922705 0 -0.014985302165716249 0.0035913248584684516 0 -0.015280826156711056 0.0020129809165406092 0 -0.014333648854429868 0.0023493791052309498 0 -0.014985302165716249 0.0035913248584684516 0 -0.013688223280146301 0.0026945125686526575 0 -0.014333648854429868 0.0023493791052309498 0 -0.014985302165716249 0.0035913248584684516 0 -0.016436760003775766 0.0035536460739362175 0 -0.015280826156711056 0.0020129809165406092 0 -0.017730394759980929 0.0026378818026955688 0 -0.016436760003775766 0.0035536460739362175 0 -0.015280826156711056 0.0020129809165406092 0 -0.012953065064134692 0.0038222830395131194 0 -0.011332180501488201 0.0047574967341787056 0 -0.012217029696250525 0.0058625516596309572 0 -0.012953065064134692 0.0038222830395131194 0 -0.012217029696250525 0.0058625516596309572 0 -0.013517207870408178 0.0054486796873022469 0 -0.014985302165716249 0.0035913248584684516 0 -0.012953065064134692 0.0038222830395131194 0 -0.013517207870408178 0.0054486796873022469 0 -0.014985302165716249 0.0035913248584684516 0 -0.013688223280146301 0.0026945125686526575 0 -0.012953065064134692 0.0038222830395131194 0 -0.013688223280146301 0.0026945125686526575 0 -0.012953065064134692 0.0038222830395131194 0 -0.012756673364080547 0.0026593458436154267 0 -0.012953065064134692 0.0038222830395131194 0 -0.011777300939494216 0.0023703365236369157 0 -0.011332180501488201 0.0047574967341787056 0 -0.01227379419167309 0.0049702526098842808 0 -0.013309621035363943 0.0058041610069163438 0 -0.012953065064134692 0.0038222830395131194 0 -0.012756673364080547 0.0026593458436154267 0 -0.011777300939494216 0.0023703365236369157 0 -0.01199725020533861 0.0045923952615290241 0 -0.012308713170727029 0.0048363725981349871 0 -0.01227379419167309 0.0049702526098842808 0 -0.012308713170727029 0.0048363725981349871 0 -0.0125294068719345 0.005272889431704164 0 -0.012612945168075757 0.0048876198184054252 0 -0.011905903541360266 0.0050525760786481336 0 -0.012756673364080547 0.0026593458436154267 0 -0.011777300939494216 0.0023703365236369157 0 -0.013474783921464466 0.001903308424559358 0 -0.01199725020533861 0.0045923952615290241 0 -0.01227379419167309 0.0049702526098842808 0 -0.011162983831764364 0.0052163522949740396 0 -0.011106605921321058 0.0054834330517540709 0 -0.010910540797824435 0.0052776585922614458 0 -0.013139910958498729 0.001464364998389038 0 -0.013474783921464466 0.001903308424559358 0 -0.013380020559594573 0.0013102121175462154 0 -0.013688223280146301 0.0026945125686526575 0 -0.012756673364080547 0.0026593458436154267 0 -0.013474783921464466 0.001903308424559358 0 -0.013688223280146301 0.0026945125686526575 0 -0.013474783921464466 0.001903308424559358 0 -0.014333648854429868 0.0023493791052309498 0 -0.013474783921464466 0.001903308424559358 0 -0.013380020559594573 0.0013102121175462154 0 -0.013900642202033945 0.0016447919021313911 0 -0.013474783921464466 0.001903308424559358 0 -0.014333648854429868 0.0023493791052309498 0 -0.013900642202033945 0.0016447919021313911 0 -0.013380020559594573 0.0013102121175462154 0 -0.013219778815325161 0.0014672633601950846 0 -0.01339930862938392 0.0014037557127723405 0 -0.013380020559594573 0.0013102121175462154 0 -0.013513099249007492 0.00091713892357147143 0 -0.013219778815325161 0.0014672633601950846 0 -0.013380020559594573 0.0013102121175462154 0 -0.013900642202033945 0.0016447919021313911 0 -0.013513099249007492 0.00091713892357147143 0 -0.013139910958498729 0.001464364998389038 0 -0.013380020559594573 0.0013102121175462154 0 -0.01339930862938392 0.0014037557127723405 0 -0.01141529746598887 0.0052875840449931183 0 -0.011544248567686637 0.0046931533951818068 0 -0.011109768557630911 0.0047993151130924522 0 -0.01199725020533861 0.0045923952615290241 0 -0.012060497248732788 0.0038633178976514538 0 -0.015280826156711056 0.0020129809165406092 0 -0.014333648854429868 0.0023493791052309498 0 -0.013900642202033945 0.0016447919021313911 0 -0.015280826156711056 0.0020129809165406092 0 -0.013900642202033945 0.0016447919021313911 0 -0.013513099249007492 0.00091713892357147143 0 -0.012935261750032609 0.00064316345330279751 0 -0.012813494883370833 0.00067165316418119493 0 -0.015280826156711056 0.0020129809165406092 0 -0.013513099249007492 0.00091713892357147143 0 -0.015850310263962906 -0.00026049738262973345 0 -0.017475761563355809 0.00086415614431896101 0 -0.015280826156711056 0.0020129809165406092 0 -0.015850310263962906 -0.00026049738262973345 0 -0.011983085306726857 0.0013486519186404488 0 -0.012632426663103973 0.0019016290831254052 0 -0.012007652066512997 0.0026719781881286864 0 -0.01110710678365465 0.0016913446694521174 0 -0.011983085306726857 0.0013486519186404488 0 -0.012007652066512997 0.0026719781881286864 0 -0.012430039633184033 0.0024683051094148162 0 -0.012632426663103973 0.0019016290831254052 0 -0.012007652066512997 0.0026719781881286864 0 -0.012430039633184033 0.0024683051094148162 0 -0.012773951439057248 0.0021628650151269972 0 -0.012556897032333267 0.0026340168010229674 0 -0.012430039633184033 0.0024683051094148162 0 -0.012632426663103973 0.0019016290831254052 0 -0.012773951439057248 0.0021628650151269972 0 -0.012632426663103973 0.0019016290831254052 0 -0.013219778815325161 0.0014672633601950846 0 -0.012773951439057248 0.0021628650151269972 0 -0.013513099249007492 0.00091713892357147143 0 -0.011983085306726857 0.0013486519186404488 0 -0.012632426663103973 0.0019016290831254052 0 -0.013513099249007492 0.00091713892357147143 0 -0.012632426663103973 0.0019016290831254052 0 -0.013219778815325161 0.0014672633601950846 0 -0.013219778815325161 0.0014672633601950846 0 -0.01339930862938392 0.0014037557127723405 0 -0.013142084786710573 0.0020004941700838149 0 -0.013219778815325161 0.0014672633601950846 0 -0.012773951439057248 0.0021628650151269972 0 -0.013142084786710573 0.0020004941700838149 0 -0.011544248567686637 0.0046931533951818068 0 -0.011402151878207487 0.0042857190265140847 0 -0.011674082765727366 0.0040975659861255693 0 -0.01339930862938392 0.0014037557127723405 0 -0.013314100360060982 0.0022059635901414674 0 -0.013142084786710573 0.0020004941700838149 0 -0.011544248567686637 0.0046931533951818068 0 -0.011113417735073178 0.0043350734016286167 0 -0.011109768557630911 0.0047993151130924522 0 -0.012060497248732788 0.0038633178976514538 0 -0.012050310050121815 0.0033837185276636519 0 -0.011544248567686637 0.0046931533951818068 0 -0.011402151878207487 0.0042857190265140847 0 -0.011113417735073178 0.0043350734016286167 0 -0.011674082765727366 0.0040975659861255693 0 -0.011276683781025466 0.0040168844269943115 0 -0.011247771784914498 0.0035722416869952084 0 -0.011402151878207487 0.0042857190265140847 0 -0.011276683781025466 0.0040168844269943115 0 -0.011113417735073178 0.0043350734016286167 0 -0.011402151878207487 0.0042857190265140847 0 -0.011674082765727366 0.0040975659861255693 0 -0.011276683781025466 0.0040168844269943115 0 -0.013177593727805798 0.0023337019123812301 0 -0.012784498345281141 0.0024692290863010486 0 -0.012205628582527358 0.0030290655806628165 0 -0.012773951439057248 0.0021628650151269972 0 -0.013142084786710573 0.0020004941700838149 0 -0.012784498345281141 0.0024692290863010486 0 -0.013177593727805798 0.0023337019123812301 0 -0.013142084786710573 0.0020004941700838149 0 -0.012784498345281141 0.0024692290863010486 0 -0.012050310050121815 0.0033837185276636519 0 -0.012049059131685819 0.0033694886756194613 0 -0.012773951439057248 0.0021628650151269972 0 -0.012784498345281141 0.0024692290863010486 0 -0.012556897032333267 0.0026340168010229674 0 -0.012050310050121815 0.0033837185276636519 0 -0.012077224256823373 0.0032851858118542452 0 -0.012205628582527358 0.0030290655806628165 0 -0.011790802306331149 0.0029769711881462301 0 -0.012390959101859708 0.0028520219897880351 0 -0.012556897032333267 0.0026340168010229674 0 -0.012205628582527358 0.0030290655806628165 0 -0.012390959101859708 0.0028520219897880351 0 -0.012784498345281141 0.0024692290863010486 0 -0.012556897032333267 0.0026340168010229674 0 -0.012205628582527358 0.0030290655806628165 0 -0.012072042964864815 0.0036528609336112963 0 -0.012205628582527358 0.0030290655806628165 0 -0.011494615076052006 0.0031102708893345605 0 -0.012050310050121815 0.0033837185276636519 0 -0.011707290828079983 0.0031467602215821118 0 -0.012205628582527358 0.0030290655806628165 0 -0.011790802306331149 0.0029769711881462301 0 -0.011494615076052006 0.0031102708893345605 0 -0.010668443612231284 0.002679645905726519 0 -0.01073944456501294 0.0027138553268075132 0 -0.011262518310432412 0.0026326455976336139 0 -0.011790802306331149 0.0029769711881462301 0 -0.011387849716954975 0.0029182343453648808 0 -0.011790802306331149 0.0029769711881462301 0 -0.011387849716954975 0.0029182343453648808 0 -0.011494615076052006 0.0031102708893345605 0 -0.011034056031922649 0.0026709927622954495 0 -0.011790802306331149 0.0029769711881462301 0 -0.012286490225030594 0.0029257271079988672 0 -0.011790802306331149 0.0029769711881462301 0 -0.012286490225030594 0.0029257271079988672 0 -0.012390959101859708 0.0028520219897880351 0 -0.011286167800804426 0.0026694197653994306 0 -0.011267676544143264 0.002783923453512859 0 -0.011291056485133113 0.0027706424565419004 0 -0.011267676544143264 0.002783923453512859 0 -0.011291056485133113 0.0027706424565419004 0 -0.011284230355886474 0.0027549577615397581 0 -0.011260901573132165 0.002751778614577417 0 -0.011291056485133113 0.0027706424565419004 0 -0.011284230355886474 0.0027549577615397581 0 -0.012286490225030594 0.0029257271079988672 0 -0.012007652066512997 0.0026719781881286864 0 -0.012390959101859708 0.0028520219897880351 0 -0.012430039633184033 0.0024683051094148162 0 -0.012007652066512997 0.0026719781881286864 0 -0.012390959101859708 0.0028520219897880351 0 -0.012268569647005283 0.0019697253592883602 0 -0.012282913768298032 0.0015634171356544498 0 -0.012430039633184033 0.0024683051094148162 0 -0.012556897032333267 0.0026340168010229674 0 -0.012390959101859708 0.0028520219897880351 0 -0.010039521124654326 0.0035577098275653514 0 -0.010339551659278582 0.0037389732151494942 0 -0.010122298741157495 0.0040291932106393032 0 -0.010039521124654326 0.0035577098275653514 0 -0.010355209728855579 0.0032474380734045009 0 -0.010339551659278582 0.0037389732151494942 0 -0.010039521124654326 0.0035577098275653514 0 -0.0098159922602020968 0.0037976020163997632 0 -0.010122298741157495 0.0040291932106393032 0 -0.0096431810031300663 0.0034467301855421665 0 -0.0095019424440103261 0.0039299637343556742 0 -0.0092989555789617876 0.0036434261167128936 0 -0.0098159922602020968 0.0037976020163997632 0 -0.0096431810031300663 0.0034467301855421665 0 -0.0095019424440103261 0.0039299637343556742 0 -0.010039521124654326 0.0035577098275653514 0 -0.0098159922602020968 0.0037976020163997632 0 -0.0096431810031300663 0.0034467301855421665 0 -0.0098223336587945492 0.0029334188475705191 0 -0.0096431810031300663 0.0034467301855421665 0 -0.0092771481964717926 0.0030388120717487963 0 -0.0096431810031300663 0.0034467301855421665 0 -0.0092771481964717926 0.0030388120717487963 0 -0.0092989555789617876 0.0036434261167128936 0 -0.0098223336587945492 0.0029334188475705191 0 -0.0096431810031300663 0.0034467301855421665 0 -0.010025152420877407 0.0032417879175023097 0 -0.0098223336587945492 0.0029334188475705191 0 -0.010206154109334752 0.0028965030267985928 0 -0.010025152420877407 0.0032417879175023097 0 -0.010039521124654326 0.0035577098275653514 0 -0.0096431810031300663 0.0034467301855421665 0 -0.010025152420877407 0.0032417879175023097 0 -0.010039521124654326 0.0035577098275653514 0 -0.010025152420877407 0.0032417879175023097 0 -0.010355209728855579 0.0032474380734045009 0 -0.010206154109334752 0.0028965030267985928 0 -0.010477229490513896 0.0029820232597365494 0 -0.010355209728855579 0.0032474380734045009 0 -0.010206154109334752 0.0028965030267985928 0 -0.010025152420877407 0.0032417879175023097 0 -0.010355209728855579 0.0032474380734045009 0 -0.010477229490513896 0.0029820232597365494 0 -0.010355209728855579 0.0032474380734045009 0 -0.010809628587847569 0.0030380716129904716 0 -0.010355209728855579 0.0032474380734045009 0 -0.010809628587847569 0.0030380716129904716 0 -0.010668874587870627 0.003582334004259996 0 -0.011437319015722848 0.0029314041197343126 0 -0.011707290828079983 0.0031467602215821118 0 -0.010809628587847569 0.0030380716129904716 0 -0.011247771784914498 0.0035722416869952084 0 -0.010668874587870627 0.003582334004259996 0 -0.011387849716954975 0.0029182343453648808 0 -0.010988984843285639 0.0029132971138097616 0 -0.011494615076052006 0.0031102708893345605 0 -0.011262518310432412 0.0026326455976336139 0 -0.011387849716954975 0.0029182343453648808 0 -0.010988984843285639 0.0029132971138097616 0 -0.011247771784914498 0.0035722416869952084 0 -0.010668874587870627 0.003582334004259996 0 -0.010957076324055241 0.0038969168133703952 0 -0.011276683781025466 0.0040168844269943115 0 -0.011247771784914498 0.0035722416869952084 0 -0.010957076324055241 0.0038969168133703952 0 -0.010339551659278582 0.0037389732151494942 0 -0.010668874587870627 0.003582334004259996 0 -0.010617280145835305 0.0041055312732919463 0 -0.010355209728855579 0.0032474380734045009 0 -0.010339551659278582 0.0037389732151494942 0 -0.010668874587870627 0.003582334004259996 0 -0.010668874587870627 0.003582334004259996 0 -0.010617280145835305 0.0041055312732919463 0 -0.010957076324055241 0.0038969168133703952 0 -0.010339551659278582 0.0037389732151494942 0 -0.010617280145835305 0.0041055312732919463 0 -0.010122298741157495 0.0040291932106393032 0 -0.010617280145835305 0.0041055312732919463 0 -0.010300705685779309 0.0044018796552438141 0 -0.010122298741157495 0.0040291932106393032 0 -0.010617280145835305 0.0041055312732919463 0 -0.010957076324055241 0.0038969168133703952 0 -0.011113417735073178 0.0043350734016286167 0 -0.011276683781025466 0.0040168844269943115 0 -0.010957076324055241 0.0038969168133703952 0 -0.011113417735073178 0.0043350734016286167 0 -0.010617280145835305 0.0041055312732919463 0 -0.011113417735073178 0.0043350734016286167 0 -0.010691722874270998 0.004613397083872808 0 -0.011113417735073178 0.0043350734016286167 0 -0.010691722874270998 0.004613397083872808 0 -0.011109768557630911 0.0047993151130924522 0 -0.010691722874270998 0.004613397083872808 0 -0.010300705685779309 0.0044018796552438141 0 -0.010145574639159367 0.0048442078053565433 0 -0.010617280145835305 0.0041055312732919463 0 -0.010691722874270998 0.004613397083872808 0 -0.010300705685779309 0.0044018796552438141 0 -0.010300705685779309 0.0044018796552438141 0 -0.0098414873787334468 0.0044434828956940176 0 -0.010145574639159367 0.0048442078053565433 0 -0.010122298741157495 0.0040291932106393032 0 -0.0097780002924233826 0.0040971755687948253 0 -0.0098414873787334468 0.0044434828956940176 0 -0.010300705685779309 0.0044018796552438141 0 -0.010122298741157495 0.0040291932106393032 0 -0.0098414873787334468 0.0044434828956940176 0 -0.0098159922602020968 0.0037976020163997632 0 -0.010122298741157495 0.0040291932106393032 0 -0.0097780002924233826 0.0040971755687948253 0 -0.0095019424440103261 0.0039299637343556742 0 -0.0094887341586966448 0.0042095808886847205 0 -0.00918768602978688 0.0040560637160409873 0 -0.0095019424440103261 0.0039299637343556742 0 -0.0097780002924233826 0.0040971755687948253 0 -0.0094887341586966448 0.0042095808886847205 0 -0.0098159922602020968 0.0037976020163997632 0 -0.0095019424440103261 0.0039299637343556742 0 -0.0097780002924233826 0.0040971755687948253 0 -0.0097780002924233826 0.0040971755687948253 0 -0.0094887341586966448 0.0042095808886847205 0 -0.0098414873787334468 0.0044434828956940176 0 -0.0098414873787334468 0.0044434828956940176 0 -0.0095117758216080456 0.004603132299666606 0 -0.010145574639159367 0.0048442078053565433 0 -0.010699355404582615 0.0044377225801970717 0 -0.010884891287816955 0.0044720769625655509 0 -0.0038323888679866413 0.0054582061428704448 0 -0.002632419625140007 0.0055226279074764963 0 -0.0098414873787334468 0.0044434828956940176 0 -0.0095117758216080456 0.004603132299666606 0 -0.0091919114568171176 0.004428468892076879 0 -0.0094887341586966448 0.0042095808886847205 0 -0.0098414873787334468 0.0044434828956940176 0 -0.0091689257338342916 0.0044797472382388567 0 -0.0095117758216080456 0.004603132299666606 0 -0.0095298951334168245 0.0048594573136711682 0 -0.010143081353529685 0.0048241271905004341 0 -0.0095117758216080456 0.004603132299666606 0 -0.0095298951334168245 0.0048594573136711682 0 -0.0092205535088415308 0.0047589915314285242 0 -0.0095298951334168245 0.0048594573136711682 0 -0.0096465045662661644 0.0050907230118543848 0 -0.010143081353529685 0.0048241271905004341 0 -0.0095298951334168245 0.0048594573136711682 0 -0.0096465045662661644 0.0050907230118543848 0 -0.0091141691605114636 0.0050281763025314388 0 -0.0096465045662661644 0.0050907230118543848 0 -0.0099751075757295807 0.0051364167422592848 0 -0.0097639693949841868 0.0053118341609776744 0 -0.010143081353529685 0.0048241271905004341 0 -0.0099751075757295807 0.0051364167422592848 0 -0.010247164656659497 0.0053736171620816994 0 -0.0096465045662661644 0.0050907230118543848 0 -0.010143081353529685 0.0048241271905004341 0 -0.0099751075757295807 0.0051364167422592848 0 -0.0099751075757295807 0.0051364167422592848 0 -0.010247164656659497 0.0053736171620816994 0 -0.0097639693949841868 0.0053118341609776744 0 -0.010247164656659497 0.0053736171620816994 0 -0.0097982105810932672 0.0054566093867211823 0 -0.01006729947130256 0.0055326258268787966 0 -0.0078454879368337494 0.0057238900778069585 0 -0.0072780857596772639 0.0058656149160763961 0 -0.010247164656659497 0.0053736171620816994 0 -0.010440881521783286 0.0056243102560095161 0 -0.01006729947130256 0.0055326258268787966 0 -0.010247164656659497 0.0053736171620816994 0 -0.0095371263863667979 0.0056250661725762664 0 -0.0097639693949841868 0.0053118341609776744 0 -0.0096465045662661644 0.0050907230118543848 0 -0.0097639693949841868 0.0053118341609776744 0 -0.0094051194157022192 0.0053325781658085302 0 -0.0095371263863667979 0.0056250661725762664 0 -0.0097639693949841868 0.0053118341609776744 0 -0.0094051194157022192 0.0053325781658085302 0 -0.01199725020533861 0.0045923952615290241 0 -0.01134026482530189 0.0045354465166326033 0 -0.01141529746598887 0.0052875840449931183 0 -0.011109768557630911 0.0047993151130924522 0 -0.01078306645670489 0.0050663333993395537 0 -0.011162983831764364 0.0052163522949740396 0 -0.010675080862294998 0.0050372751082941956 0 -0.010910540797824435 0.0052776585922614458 0 -0.010691722874270998 0.004613397083872808 0 -0.011109768557630911 0.0047993151130924522 0 -0.01078306645670489 0.0050663333993395537 0 -0.010691722874270998 0.004613397083872808 0 -0.010145574639159367 0.0048442078053565433 0 -0.01078306645670489 0.0050663333993395537 0 -0.010884891287816955 0.0044720769625655509 0 -0.01134026482530189 0.0045354465166326033 0 -0.010143081353529685 0.0048241271905004341 0 -0.010247164656659497 0.0053736171620816994 0 -0.010675080862294998 0.0050372751082941956 0 -0.010247164656659497 0.0053736171620816994 0 -0.010697840566369297 0.0053759992262881126 0 -0.010440881521783286 0.0056243102560095161 0 -0.010247164656659497 0.0053736171620816994 0 -0.010675080862294998 0.0050372751082941956 0 -0.010697840566369297 0.0053759992262881126 0 -0.011106605921321058 0.0054834330517540709 0 -0.010697840566369297 0.0053759992262881126 0 -0.010440881521783286 0.0056243102560095161 0 -0.011106605921321058 0.0054834330517540709 0 -0.010697840566369297 0.0053759992262881126 0 -0.010910540797824435 0.0052776585922614458 0 -0.010675080862294998 0.0050372751082941956 0 -0.010697840566369297 0.0053759992262881126 0 -0.010910540797824435 0.0052776585922614458 0 -0.011749924201614277 0.0052893514109374953 0 -0.011366149366317569 0.0056842091648978263 0 -0.011549181264282973 0.0062018227823112931 0 -0.011749924201614277 0.0052893514109374953 0 -0.011366149366317569 0.0056842091648978263 0 -0.010846017666988597 0.0055016434615385666 0 -0.01227379419167309 0.0049702526098842808 0 -0.011365213296316399 0.0052281693746562335 0 -0.011366149366317569 0.0056842091648978263 0 -0.010846017666988597 0.0055016434615385666 0 -0.01103430257541853 0.0060223263161247537 0 -0.010846017666988597 0.0055016434615385666 0 -0.01103430257541853 0.0060223263161247537 0 -0.01050708197740911 0.0061086241189471698 0 -0.01103430257541853 0.0060223263161247537 0 -0.01050708197740911 0.0061086241189471698 0 -0.010898726760372611 0.0066073623030443677 0 -0.01103430257541853 0.0060223263161247537 0 -0.011549181264282973 0.0062018227823112931 0 -0.010898726760372611 0.0066073623030443677 0 -0.011366149366317569 0.0056842091648978263 0 -0.01103430257541853 0.0060223263161247537 0 -0.011549181264282973 0.0062018227823112931 0 -0.0099110255870495396 0.0057353831665102536 0 -0.0095653629312873693 0.0057287448900462477 0 -0.0096548251008658457 0.0060556944786175973 0 -0.0097982105810932672 0.0054566093867211823 0 -0.0099110255870495396 0.0057353831665102536 0 -0.0095653629312873693 0.0057287448900462477 0 -0.0097982105810932672 0.0054566093867211823 0 -0.0099110255870495396 0.0057353831665102536 0 -0.01006729947130256 0.0055326258268787966 0 -0.010440881521783286 0.0056243102560095161 0 -0.0099110255870495396 0.0057353831665102536 0 -0.01006729947130256 0.0055326258268787966 0 -0.011365213296316399 0.0052281693746562335 0 -0.011023600036779255 0.0053224299669094744 0 -0.010846017666988597 0.0055016434615385666 0 -0.0099110255870495396 0.0057353831665102536 0 -0.01050708197740911 0.0061086241189471698 0 -0.0099110255870495396 0.0057353831665102536 0 -0.01050708197740911 0.0061086241189471698 0 -0.010039000380602301 0.0061733474441594506 0 -0.01050708197740911 0.0061086241189471698 0 -0.010039000380602301 0.0061733474441594506 0 -0.010272264902846488 0.0066732270441293793 0 -0.0099110255870495396 0.0057353831665102536 0 -0.010039000380602301 0.0061733474441594506 0 -0.0096548251008658457 0.0060556944786175973 0 -0.010039000380602301 0.0061733474441594506 0 -0.009788855549470803 0.0064487813365303277 0 -0.0096548251008658457 0.0060556944786175973 0 -0.009788855549470803 0.0064487813365303277 0 -0.010272264902846488 0.0066732270441293793 0 -0.0097495560564233551 0.0069619830083991648 0 -0.010039000380602301 0.0061733474441594506 0 -0.009788855549470803 0.0064487813365303277 0 -0.010272264902846488 0.0066732270441293793 0 -0.010272264902846488 0.0066732270441293793 0 -0.010531392610363116 0.0070727838181513349 0 -0.010898726760372611 0.0066073623030443677 0 -0.01050708197740911 0.0061086241189471698 0 -0.010272264902846488 0.0066732270441293793 0 -0.010898726760372611 0.0066073623030443677 0 -0.010272264902846488 0.0066732270441293793 0 -0.010531392610363116 0.0070727838181513349 0 -0.010197909636881318 0.0072385451558672183 0 -0.010531392610363116 0.0070727838181513349 0 -0.010197909636881318 0.0072385451558672183 0 -0.010672764505824097 0.0074158866168318946 0 -0.010197909636881318 0.0072385451558672183 0 -0.0097495560564233551 0.0069619830083991648 0 -0.0097574893248229839 0.0076624265725843046 0 -0.010272264902846488 0.0066732270441293793 0 -0.010197909636881318 0.0072385451558672183 0 -0.0097495560564233551 0.0069619830083991648 0 -0.010197909636881318 0.0072385451558672183 0 -0.0097574893248229839 0.0076624265725843046 0 -0.010342867203376047 0.0076965734017465787 0 -0.010197909636881318 0.0072385451558672183 0 -0.010342867203376047 0.0076965734017465787 0 -0.010672764505824097 0.0074158866168318946 0 -0.010342867203376047 0.0076965734017465787 0 -0.010709080579641927 0.007897328285365603 0 -0.010672764505824097 0.0074158866168318946 0 -0.010342867203376047 0.0076965734017465787 0 -0.01037628936077124 0.0082668235177107054 0 -0.010709080579641927 0.007897328285365603 0 -0.01037628936077124 0.0082668235177107054 0 -0.010811278608468 0.0082546020497857309 0 -0.010709080579641927 0.007897328285365603 0 -0.02720102880591015 -0.00078865429193150107 0 -0.026868616850004249 -0.0011213798276515675 0 -0.027327208335762639 -0.0011394077025612453 0 -0.0097574893248229839 0.0076624265725843046 0 -0.010342867203376047 0.0076965734017465787 0 -0.01037628936077124 0.0082668235177107054 0 -0.018725584580804033 0.0037132490061114274 0 -0.019357223099329385 0.0040691504698375132 0 -0.01106189480027308 0.0095669915174409949 0 -0.010576483093117352 0.0094857511263652869 0 -0.010978975698361924 0.009085303222316354 0 -0.011813235347935575 0.0092418147913312688 0 -0.011436715627531385 0.0098578690167941008 0 -0.012106505498841371 0.009921387641975022 0 -0.01106189480027308 0.0095669915174409949 0 -0.011813235347935575 0.0092418147913312688 0 -0.011436715627531385 0.0098578690167941008 0 -0.01106189480027308 0.0095669915174409949 0 -0.010978975698361924 0.009085303222316354 0 -0.011813235347935575 0.0092418147913312688 0 -0.011436715627531385 0.0098578690167941008 0 -0.012106505498841371 0.009921387641975022 0 -0.011423398237504235 0.010491841087603294 0 -0.01106189480027308 0.0095669915174409949 0 -0.010576483093117352 0.0094857511263652869 0 -0.010839982102777127 0.010161669464227863 0 -0.011436715627531385 0.0098578690167941008 0 -0.010839982102777127 0.010161669464227863 0 -0.011423398237504235 0.010491841087603294 0 -0.01106189480027308 0.0095669915174409949 0 -0.011436715627531385 0.0098578690167941008 0 -0.010839982102777127 0.010161669464227863 0 -0.011167925032013894 0.0079867643102693401 0 -0.010811278608468 0.0082546020497857309 0 -0.010709080579641927 0.007897328285365603 0 -0.011167925032013894 0.0079867643102693401 0 -0.010709080579641927 0.007897328285365603 0 -0.010911545726565936 0.0076583808689045406 0 -0.010709080579641927 0.007897328285365603 0 -0.010911545726565936 0.0076583808689045406 0 -0.010672764505824097 0.0074158866168318946 0 -0.011167925032013894 0.0079867643102693401 0 -0.010911545726565936 0.0076583808689045406 0 -0.011029766842860757 0.0074193554239042718 0 -0.010911545726565936 0.0076583808689045406 0 -0.010672764505824097 0.0074158866168318946 0 -0.011029766842860757 0.0074193554239042718 0 -0.011167925032013894 0.0079867643102693401 0 -0.011029766842860757 0.0074193554239042718 0 -0.011352637574080079 0.0071013905417402828 0 -0.016826200708301989 0.0068412326743412383 0 -0.014681861456085099 0.0066835926137091906 0 -0.010978975698361924 0.009085303222316354 0 -0.010936798116858481 0.0071064755751927304 0 -0.01219208411893735 0.0072396403950449363 0 -0.012334242832928239 0.0072088722549637939 0 -0.01268372770135741 0.0067471387383567357 0 -0.010576483093117352 0.0094857511263652869 0 -0.010978975698361924 0.009085303222316354 0 -0.010936798116858481 0.0071064755751927304 0 -0.010978975698361924 0.009085303222316354 0 -0.011813235347935575 0.0092418147913312688 0 -0.012477381030631139 0.007229053066255914 0 -0.010531392610363116 0.0070727838181513349 0 -0.010910461882711697 0.0071063203921560587 0 -0.010898726760372611 0.0066073623030443677 0 -0.011352637574080079 0.0071013905417402828 0 -0.010910461882711697 0.0071063203921560587 0 -0.010898726760372611 0.0066073623030443677 0 -0.010672764505824097 0.0074158866168318946 0 -0.011029766842860757 0.0074193554239042718 0 -0.010910461882711697 0.0071063203921560587 0 -0.010531392610363116 0.0070727838181513349 0 -0.010672764505824097 0.0074158866168318946 0 -0.010910461882711697 0.0071063203921560587 0 -0.011029766842860757 0.0074193554239042718 0 -0.011352637574080079 0.0071013905417402828 0 -0.010910461882711697 0.0071063203921560587 0 -0.011332180501488201 0.0047574967341787056 0 -0.010936798116858481 0.0071064755751927304 0 -0.012217029696250525 0.0058625516596309572 0 -0.013309621035363943 0.0058041610069163438 0 -0.014681861456085099 0.0066835926137091906 0 -0.011549181264282973 0.0062018227823112931 0 -0.011352637574080079 0.0071013905417402828 0 -0.010898726760372611 0.0066073623030443677 0 -0.012217029696250525 0.0058625516596309572 0 -0.013517207870408178 0.0054486796873022469 0 -0.01219208411893735 0.0072396403950449363 0 -0.013311139908819703 0.0059176937682592773 0 -0.01268372770135741 0.0067471387383567357 0 -0.013830906668871049 0.0054030095149922705 0 -0.01379369382293098 0.0070965896118825337 0 -0.015061342093798545 0.0067192114118587911 0 -0.01379369382293098 0.0070965896118825337 0 -0.015061342093798545 0.0067192114118587911 0 -0.014283332090376574 0.0080567434114390928 0 -0.013830906668871049 0.0054030095149922705 0 -0.01379369382293098 0.0070965896118825337 0 -0.012477381030631139 0.007229053066255914 0 -0.010936798116858481 0.0071064755751927304 0 -0.012217029696250525 0.0058625516596309572 0 -0.01219208411893735 0.0072396403950449363 0 -0.01379369382293098 0.0070965896118825337 0 -0.012477381030631139 0.007229053066255914 0 -0.013320238248800175 0.0080972000893151496 0 -0.01793621765284065 0.0044749647098352805 0 -0.015731244701508135 0.0051307499834514509 0 -0.017021191536577319 0.0063523762106287053 0 -0.015731244701508135 0.0051307499834514509 0 -0.017021191536577319 0.0063523762106287053 0 -0.015061342093798545 0.0067192114118587911 0 -0.015731244701508135 0.0051307499834514509 0 -0.013830906668871049 0.0054030095149922705 0 -0.015061342093798545 0.0067192114118587911 0 -0.015061342093798545 0.0067192114118587911 0 -0.016017294064641273 0.0083450804764946193 0 -0.014283332090376574 0.0080567434114390928 0 -0.017021191536577319 0.0063523762106287053 0 -0.016017294064641273 0.0083450804764946193 0 -0.017864734909614578 0.0080630553608404109 0 -0.017021191536577319 0.0063523762106287053 0 -0.015061342093798545 0.0067192114118587911 0 -0.016017294064641273 0.0083450804764946193 0 -0.016017294064641273 0.0083450804764946193 0 -0.017864734909614578 0.0080630553608404109 0 -0.017533528186381046 0.010162176766750112 0 -0.016017294064641273 0.0083450804764946193 0 -0.014648392648316267 0.0091389298881874026 0 -0.014283332090376574 0.0080567434114390928 0 -0.015446931476961663 0.0099895341832085035 0 -0.014648392648316267 0.0091389298881874026 0 -0.014048684670016298 0.010013655300369892 0 -0.015446931476961663 0.0099895341832085035 0 -0.014048684670016298 0.010013655300369892 0 -0.014537154260642081 0.010931364537226233 0 -0.016017294064641273 0.0083450804764946193 0 -0.015446931476961663 0.0099895341832085035 0 -0.014648392648316267 0.0091389298881874026 0 -0.016017294064641273 0.0083450804764946193 0 -0.015446931476961663 0.0099895341832085035 0 -0.017533528186381046 0.010162176766750112 0 -0.011813235347935575 0.0092418147913312688 0 -0.012477381030631139 0.007229053066255914 0 -0.012673420674434104 0.0089389285409905584 0 -0.012477381030631139 0.007229053066255914 0 -0.012673420674434104 0.0089389285409905584 0 -0.013320238248800175 0.0080972000893151496 0 -0.012673420674434104 0.0089389285409905584 0 -0.013320238248800175 0.0080972000893151496 0 -0.013571903661476275 0.0091833024205195089 0 -0.01379369382293098 0.0070965896118825337 0 -0.013320238248800175 0.0080972000893151496 0 -0.014283332090376574 0.0080567434114390928 0 -0.014648392648316267 0.0091389298881874026 0 -0.014283332090376574 0.0080567434114390928 0 -0.013571903661476275 0.0091833024205195089 0 -0.013320238248800175 0.0080972000893151496 0 -0.014283332090376574 0.0080567434114390928 0 -0.013571903661476275 0.0091833024205195089 0 -0.013571903661476275 0.0091833024205195089 0 -0.014048684670016298 0.010013655300369892 0 -0.012942230464451126 0.0098735927260742689 0 -0.014648392648316267 0.0091389298881874026 0 -0.013571903661476275 0.0091833024205195089 0 -0.014048684670016298 0.010013655300369892 0 -0.014048684670016298 0.010013655300369892 0 -0.012942230464451126 0.0098735927260742689 0 -0.01313746265615862 0.010701293218193596 0 -0.012942230464451126 0.0098735927260742689 0 -0.012499352561295429 0.010504761777588509 0 -0.01313746265615862 0.010701293218193596 0 -0.012673420674434104 0.0089389285409905584 0 -0.013571903661476275 0.0091833024205195089 0 -0.012942230464451126 0.0098735927260742689 0 -0.012673420674434104 0.0089389285409905584 0 -0.012942230464451126 0.0098735927260742689 0 -0.012106505498841371 0.009921387641975022 0 -0.011813235347935575 0.0092418147913312688 0 -0.012673420674434104 0.0089389285409905584 0 -0.012106505498841371 0.009921387641975022 0 -0.012942230464451126 0.0098735927260742689 0 -0.012106505498841371 0.009921387641975022 0 -0.012499352561295429 0.010504761777588509 0 -0.012106505498841371 0.009921387641975022 0 -0.011949223645208387 0.010687751204842718 0 -0.012499352561295429 0.010504761777588509 0 -0.011949223645208387 0.010687751204842718 0 -0.012499352561295429 0.010504761777588509 0 -0.012363855608800951 0.011336613299223471 0 -0.011949223645208387 0.010687751204842718 0 -0.012363855608800951 0.011336613299223471 0 -0.011537772372762127 0.011408864846457737 0 -0.012363855608800951 0.011336613299223471 0 -0.012993319951396718 0.011515439856633513 0 -0.01313746265615862 0.010701293218193596 0 -0.012499352561295429 0.010504761777588509 0 -0.012363855608800951 0.011336613299223471 0 -0.01313746265615862 0.010701293218193596 0 -0.020398969347782726 0.009143568618348882 0 -0.020639549097102538 0.0088827323771827355 0 -0.014048684670016298 0.010013655300369892 0 -0.014537154260642081 0.010931364537226233 0 -0.013956776658043736 0.011457620695799484 0 -0.014048684670016298 0.010013655300369892 0 -0.01313746265615862 0.010701293218193596 0 -0.013792202388321925 0.011531313665436962 0 -0.020456513428533264 0.0090132263829164026 0 -0.020639549097102538 0.0088827323771827355 0 -0.012993319951396718 0.011515439856633513 0 -0.01313746265615862 0.010701293218193596 0 -0.013792202388321925 0.011531313665436962 0 -0.014537154260642081 0.010931364537226233 0 -0.014134642977809029 0.01135294249117323 0 -0.014406874398989916 0.012365263442444492 0 -0.014134642977809029 0.01135294249117323 0 -0.014406874398989916 0.012365263442444492 0 -0.013950661246507094 0.012947883571573473 0 -0.022394290930605704 0.0071849087530566043 0 -0.022735241859779515 0.0068834050618134792 0 -0.022480831109627831 0.0066246166343434517 0 -0.020639549097102538 0.0088827323771827355 0 -0.022114378697016119 0.0081187199560272347 0 -0.012680115889027293 0.012489853235250255 0 -0.011582701501341603 0.013450191687792434 0 -0.011593148044871012 0.012394424848321772 0 -0.020887826143213297 0.0076243744547563261 0 -0.021857457275077378 0.0057745571921464772 0 -0.012363855608800951 0.011336613299223471 0 -0.012680115889027293 0.012489853235250255 0 -0.011593148044871012 0.012394424848321772 0 -0.012993319951396718 0.011515439856633513 0 -0.013792202388321925 0.011531313665436962 0 -0.012680115889027293 0.012489853235250255 0 -0.020639549097102538 0.0088827323771827355 0 -0.020887826143213297 0.0076243744547563261 0 -0.012363855608800951 0.011336613299223471 0 -0.012993319951396718 0.011515439856633513 0 -0.012680115889027293 0.012489853235250255 0 -0.017121667702237851 0.010535687123780162 0 -0.018145242346770937 0.0098066009564364114 0 -0.015446931476961663 0.0099895341832085035 0 -0.015755112891371773 0.011309691527642296 0 -0.017533528186381046 0.010162176766750112 0 -0.016632073827027485 0.010780407173772625 0 -0.017620045660434965 0.011846549459414399 0 -0.018716445879572292 0.0094255622981474375 0 -0.015446931476961663 0.0099895341832085035 0 -0.014537154260642081 0.010931364537226233 0 -0.015755112891371773 0.011309691527642296 0 -0.014406874398989916 0.012365263442444492 0 -0.016632073827027485 0.010780407173772625 0 -0.01626155957254849 0.012557922028854999 0 -0.014537154260642081 0.010931364537226233 0 -0.014406874398989916 0.012365263442444492 0 -0.015755112891371773 0.011309691527642296 0 -0.016631094983811146 0.010888965245273304 0 -0.017121667702237851 0.010535687123780162 0 -0.016632073827027485 0.010780407173772625 0 -0.01626155957254849 0.012557922028854999 0 -0.017620045660434965 0.011846549459414399 0 -0.017620045660434965 0.011846549459414399 0 -0.017916152798234757 0.013617481775371221 0 -0.019067771103182345 0.011938035304817306 0 -0.01626155957254849 0.012557922028854999 0 -0.017916152798234757 0.013617481775371221 0 -0.01624391341082072 0.014133576347135563 0 -0.01626155957254849 0.012557922028854999 0 -0.017620045660434965 0.011846549459414399 0 -0.017916152798234757 0.013617481775371221 0 -0.01626155957254849 0.012557922028854999 0 -0.01624391341082072 0.014133576347135563 0 -0.015126393223893609 0.013317851491365803 0 -0.014406874398989916 0.012365263442444492 0 -0.01626155957254849 0.012557922028854999 0 -0.015126393223893609 0.013317851491365803 0 -0.01624391341082072 0.014133576347135563 0 -0.015126393223893609 0.013317851491365803 0 -0.014947251782718702 0.014315587400453836 0 -0.01624391341082072 0.014133576347135563 0 -0.01593793143270918 0.015509107606046523 0 -0.017553452162658613 0.015359759526180745 0 -0.01624391341082072 0.014133576347135563 0 -0.01593793143270918 0.015509107606046523 0 -0.014947251782718702 0.014315587400453836 0 -0.017916152798234757 0.013617481775371221 0 -0.017553452162658613 0.015359759526180745 0 -0.01879364573436498 0.01517859019967502 0 -0.017916152798234757 0.013617481775371221 0 -0.01624391341082072 0.014133576347135563 0 -0.017553452162658613 0.015359759526180745 0 -0.022713743822433526 0.0065398940456561422 0 -0.022480831109627831 0.0066246166343434517 0 -0.022566830531638226 0.006069456402174358 0 -0.024058541147969285 0.0065205781606615413 0 -0.021857457275077378 0.0057745571921464772 0 -0.022713743822433526 0.0065398940456561422 0 -0.022566830531638226 0.006069456402174358 0 -0.023072202808477139 0.0065835727757592661 0 -0.022735241859779515 0.0068834050618134792 0 -0.022713743822433526 0.0065398940456561422 0 -0.023072202808477139 0.0065835727757592661 0 -0.022735241859779515 0.0068834050618134792 0 -0.022713743822433526 0.0065398940456561422 0 -0.022480831109627831 0.0066246166343434517 0 -0.022114378697016119 0.0081187199560272347 0 -0.024058541147969285 0.0065205781606615413 0 -0.013950661246507094 0.012947883571573473 0 -0.014947251782718702 0.014315587400453836 0 -0.013652294457279291 0.015037718122764488 0 -0.014406874398989916 0.012365263442444492 0 -0.013950661246507094 0.012947883571573473 0 -0.015126393223893609 0.013317851491365803 0 -0.013950661246507094 0.012947883571573473 0 -0.015126393223893609 0.013317851491365803 0 -0.014947251782718702 0.014315587400453836 0 -0.01593793143270918 0.015509107606046523 0 -0.014947251782718702 0.014315587400453836 0 -0.013652294457279291 0.015037718122764488 0 -0.027658042897815777 0.0030641707162846485 0 -0.027755626578519221 0.0030604398654130362 0 -0.027745060620500278 0.0031505577007422728 0 -0.027658042897815777 0.0030641707162846485 0 -0.027755626578519221 0.0030604398654130362 0 -0.027710995696836278 0.003012156932093577 0 -0.027755626578519221 0.0030604398654130362 0 -0.027745060620500278 0.0031505577007422728 0 -0.027805723528446839 0.0030916883787900527 0 -0.027755626578519221 0.0030604398654130362 0 -0.027807795220335774 0.0030354005813363568 0 -0.02778972392987783 0.0030012680201171615 0 -0.027755626578519221 0.0030604398654130362 0 -0.027805723528446839 0.0030916883787900527 0 -0.027807795220335774 0.0030354005813363568 0 -0.021857457275077378 0.0057745571921464772 0 -0.022975765526713002 0.0045171425877471531 0 -0.021691181687939865 0.0051784894045563369 0 -0.021919764869534196 0.0052495747685068041 0 -0.021940471372934107 0.0049574191561448638 0 -0.027348787166204681 0.0023584035479856549 0 -0.027403078210418898 0.0023476821204386029 0 -0.027323316768635003 0.0024389914874114217 0 -0.021919764869534196 0.0052495747685068041 0 -0.022110389477760898 0.0051005367395223567 0 -0.022028600440695351 0.0054621234134718455 0 -0.021919764869534196 0.0052495747685068041 0 -0.022110389477760898 0.0051005367395223567 0 -0.021940471372934107 0.0049574191561448638 0 -0.022975765526713002 0.0045171425877471531 0 -0.023715802406020777 0.0035187538194568148 0 -0.022397986404345774 0.0039703319680801921 0 -0.023715802406020777 0.0035187538194568148 0 -0.022110389477760898 0.0051005367395223567 0 -0.021940471372934107 0.0049574191561448638 0 -0.022192988184839228 0.0047347977195341499 0 -0.027805723528446839 0.0030916883787900527 0 -0.027807795220335774 0.0030354005813363568 0 -0.027848086571826618 0.0030372513919786114 0 -0.027369006187507209 0.0022893973254578732 0 -0.027396056327492768 0.0022851382240585386 0 -0.027412245441651155 0.0023067739870148256 0 -0.027369006187507209 0.0022893973254578732 0 -0.027412245441651155 0.0023067739870148256 0 -0.027403078210418898 0.0023476821204386029 0 -0.027412245441651155 0.0023067739870148256 0 -0.027455302284752004 0.002341444420303877 0 -0.027416778328428655 0.0022532720085385997 0 -0.027348787166204681 0.0023584035479856549 0 -0.027369006187507209 0.0022893973254578732 0 -0.027403078210418898 0.0023476821204386029 0 -0.027396056327492768 0.0022851382240585386 0 -0.027412245441651155 0.0023067739870148256 0 -0.027416778328428655 0.0022532720085385997 0 -0.027412245441651155 0.0023067739870148256 0 -0.027455302284752004 0.002341444420303877 0 -0.027403078210418898 0.0023476821204386029 0 -0.026001606258130514 0.0027295654370641958 0 -0.025901728380823979 0.0027438113069450805 0 -0.027485102010956813 0.0023461328020883783 0 -0.027455302284752004 0.002341444420303877 0 -0.027532599659577727 0.0023551641521847876 0 -0.027476293674637855 0.0023481007565798384 0 -0.027485102010956813 0.0023461328020883783 0 -0.02747091733162816 0.0023380076907496506 0 -0.027485102010956813 0.0023461328020883783 0 -0.02747091733162816 0.0023380076907496506 0 -0.027455302284752004 0.002341444420303877 0 -0.02747091733162816 0.0023380076907496506 0 -0.027445737314804989 0.0023727678275288133 0 -0.027479060105688874 0.0023321516356336574 0 -0.02747091733162816 0.0023380076907496506 0 -0.027455302284752004 0.002341444420303877 0 -0.027445737314804989 0.0023727678275288133 0 -0.025368507217550684 0.0022960754152539418 0 -0.028159834259371335 0.0010371273379106477 0 -0.027445737314804989 0.0023727678275288133 0 -0.027403078210418898 0.0023476821204386029 0 -0.027323316768635003 0.0024389914874114217 0 -0.027455302284752004 0.002341444420303877 0 -0.027445737314804989 0.0023727678275288133 0 -0.027403078210418898 0.0023476821204386029 0 -0.027002675489670565 -0.0017274865919715836 0 -0.026820048127810723 -0.0014398146445286743 0 -0.026541528508099588 -0.0014913609739497348 0 -0.025368507217550684 0.0022960754152539418 0 -0.020856882983929931 0.0046188592674098741 0 -0.027002675489670565 -0.0017274865919715836 0 -0.027155439286667395 -0.0014113549704948413 0 -0.027343634421933587 -0.0016182900269208766 0 -0.027002675489670565 -0.0017274865919715836 0 -0.026820048127810723 -0.0014398146445286743 0 -0.027155439286667395 -0.0014113549704948413 0 -0.026868616850004249 -0.0011213798276515675 0 -0.027155439286667395 -0.0014113549704948413 0 -0.027327208335762639 -0.0011394077025612453 0 -0.019357223099329385 0.0040691504698375132 0 -0.020432740002386995 0.0048346889759944842 0 -0.026868616850004249 -0.0011213798276515675 0 -0.026820048127810723 -0.0014398146445286743 0 -0.027155439286667395 -0.0014113549704948413 0 -0.026868616850004249 -0.0011213798276515675 0 -0.026820048127810723 -0.0014398146445286743 0 -0.026532067679262025 -0.0014476855222930959 0 -0.011167925032013894 0.0079867643102693401 0 -0.010811278608468 0.0082546020497857309 0 -0.010991121368647253 0.0088670486661709229 0 -0.010576483093117352 0.0094857511263652869 0 -0.010839982102777127 0.010161669464227863 0 -0.010081208756673799 0.011943209100431271 0 -0.016826200708301989 0.0068412326743412383 0 -0.020432740002386995 0.0048346889759944842 0 -0.01037628936077124 0.0082668235177107054 0 -0.010811278608468 0.0082546020497857309 0 -0.010991121368647253 0.0088670486661709229 0 -0.010839982102777127 0.010161669464227863 0 -0.010864301138440278 0.010797843936148185 0 -0.010081208756673799 0.011943209100431271 0 -0.010839982102777127 0.010161669464227863 0 -0.010864301138440278 0.010797843936148185 0 -0.011423398237504235 0.010491841087603294 0 -0.010864301138440278 0.010797843936148185 0 -0.011423398237504235 0.010491841087603294 0 -0.011249831862056326 0.010942927894525868 0 -0.011949223645208387 0.010687751204842718 0 -0.011249831862056326 0.010942927894525868 0 -0.011537772372762127 0.011408864846457737 0 -0.012106505498841371 0.009921387641975022 0 -0.011949223645208387 0.010687751204842718 0 -0.011423398237504235 0.010491841087603294 0 -0.011949223645208387 0.010687751204842718 0 -0.011423398237504235 0.010491841087603294 0 -0.011249831862056326 0.010942927894525868 0 -0.010864301138440278 0.010797843936148185 0 -0.010908632190238526 0.011376772502154686 0 -0.010081208756673799 0.011943209100431271 0 -0.011249831862056326 0.010942927894525868 0 -0.011537772372762127 0.011408864846457737 0 -0.010908632190238526 0.011376772502154686 0 -0.010864301138440278 0.010797843936148185 0 -0.011249831862056326 0.010942927894525868 0 -0.010908632190238526 0.011376772502154686 0 -0.011537772372762127 0.011408864846457737 0 -0.011128580878401311 0.011651955817658679 0 -0.010908632190238526 0.011376772502154686 0 -0.011128580878401311 0.011651955817658679 0 -0.010908632190238526 0.011376772502154686 0 -0.010696052660934362 0.011821129987333829 0 -0.021691181687939865 0.0051784894045563369 0 -0.021919764869534196 0.0052495747685068041 0 -0.021990547596407967 0.0054815720140254532 0 -0.010696052660934362 0.011821129987333829 0 -0.011593148044871012 0.012394424848321772 0 -0.010210828591625611 0.012068948206178241 0 -0.021857457275077378 0.0057745571921464772 0 -0.020570228669196507 0.0048389824555163585 0 -0.011128580878401311 0.011651955817658679 0 -0.010696052660934362 0.011821129987333829 0 -0.011593148044871012 0.012394424848321772 0 -0.011582701501341603 0.013450191687792434 0 -0.011593148044871012 0.012394424848321772 0 -0.010210828591625611 0.012068948206178241 0 -0.012363855608800951 0.011336613299223471 0 -0.011537772372762127 0.011408864846457737 0 -0.011593148044871012 0.012394424848321772 0 -0.011537772372762127 0.011408864846457737 0 -0.011128580878401311 0.011651955817658679 0 -0.011593148044871012 0.012394424848321772 0 -0.021919764869534196 0.0052495747685068041 0 -0.022028600440695351 0.0054621234134718455 0 -0.021990547596407967 0.0054815720140254532 0 -0.026820048127810723 -0.0014398146445286743 0 -0.026532067679262025 -0.0014476855222930959 0 -0.026541528508099588 -0.0014913609739497348 0 -0.022397986404345774 0.0039703319680801921 0 -0.020856882983929931 0.0046188592674098741 0 -0.010908632190238526 0.011376772502154686 0 -0.010696052660934362 0.011821129987333829 0 -0.010081208756673799 0.011943209100431271 0 -0.020432740002386995 0.0048346889759944842 0 -0.020570228669196507 0.0048389824555163585 0 -0.020393584594174691 0.0049372869083675278 0 -0.020570228669196507 0.0048389824555163585 0 -0.010696052660934362 0.011821129987333829 0 -0.010081208756673799 0.011943209100431271 0 -0.010207904476649619 0.012069854115169375 0 -0.020432740002386995 0.0048346889759944842 0 -0.020856882983929931 0.0046188592674098741 0 -0.019315126930281614 0.0040186636098844932 0 -0.018447179897891991 0.008026176558264644 0 -0.021658407218204119 0.0063872203999400393 0 -0.020856882983929931 0.0046188592674098741 0 -0.020570228669196507 0.0048389824555163585 0 -0.027987339631279119 0.0083329815773407617 0 -0.028087156914901653 0.0093879540093216481 0 -0.027601512542118612 0.0093264462444519677 0 -0.027601512542118612 0.0093264462444519677 0 -0.026746059949294878 0.0089185403525334252 0 -0.027318506467101197 0.010021462169725553 0 -0.027987339631279119 0.0083329815773407617 0 -0.027601512542118612 0.0093264462444519677 0 -0.026746059949294878 0.0089185403525334252 0 -0.028087156914901653 0.0093879540093216481 0 -0.027601512542118612 0.0093264462444519677 0 -0.02784137422816749 0.0099053659274900546 0 -0.025604526323957232 0.0063971884062032141 0 -0.025471337158368402 0.0059121564200198167 0 -0.026746059949294878 0.0089185403525334252 0 -0.027323196855611839 0.0071575088921994514 0 -0.025973369079311186 0.0073052873057944242 0 -0.026746059949294878 0.0089185403525334252 0 -0.026478322910402158 0.0070006348274597521 0 -0.025490833366122616 0.0084695715636954293 0 -0.027987339631279119 0.0083329815773407617 0 -0.026746059949294878 0.0089185403525334252 0 -0.027323196855611839 0.0071575088921994514 0 -0.027323196855611839 0.0071575088921994514 0 -0.027755295524539821 0.0057111087985467065 0 -0.025330547909512877 0.0054720848119285846 0 -0.025471337158368402 0.0059121564200198167 0 -0.025154665888594146 0.0048337755461928507 0 -0.027323196855611839 0.0071575088921994514 0 -0.025973369079311186 0.0073052873057944242 0 -0.025330547909512877 0.0054720848119285846 0 -0.026478322910402158 0.0070006348274597521 0 -0.026082498794664892 0.0048499870188201573 0 -0.024419195663267872 0.0071169979651510172 0 -0.026082498794664892 0.0048499870188201573 0 -0.023413394278818781 0.0051516859616482823 0 -0.024419195663267872 0.0071169979651510172 0 -0.024419195663267872 0.0071169979651510172 0 -0.025490833366122616 0.0084695715636954293 0 -0.023991809738619602 0.0089663777045772327 0 -0.025490833366122616 0.0084695715636954293 0 -0.023991809738619602 0.0089663777045772327 0 -0.026422749528562519 0.010598582898637774 0 -0.026746059949294878 0.0089185403525334252 0 -0.025490833366122616 0.0084695715636954293 0 -0.026422749528562519 0.010598582898637774 0 -0.026478322910402158 0.0070006348274597521 0 -0.024419195663267872 0.0071169979651510172 0 -0.025490833366122616 0.0084695715636954293 0 -0.023991809738619602 0.0089663777045772327 0 -0.022072830480281733 0.0093188139243340247 0 -0.02382417065828675 0.010440444572012923 0 -0.022072830480281733 0.0093188139243340247 0 -0.020601511090978492 0.0082409894637655579 0 -0.020632353241556226 0.010480894107495142 0 -0.019672741385019066 0.0087202288925804106 0 -0.019173427347455609 0.0090768537566206283 0 -0.022072830480281733 0.0093188139243340247 0 -0.021988194207133344 0.007248656195699428 0 -0.020601511090978492 0.0082409894637655579 0 -0.024419195663267872 0.0071169979651510172 0 -0.023991809738619602 0.0089663777045772327 0 -0.021988194207133344 0.007248656195699428 0 -0.023991809738619602 0.0089663777045772327 0 -0.022072830480281733 0.0093188139243340247 0 -0.021988194207133344 0.007248656195699428 0 -0.023413394278818781 0.0051516859616482823 0 -0.024419195663267872 0.0071169979651510172 0 -0.021988194207133344 0.007248656195699428 0 -0.023413394278818781 0.0051516859616482823 0 -0.021464500699712698 0.0054379902722159505 0 -0.021988194207133344 0.007248656195699428 0 -0.019954257300364618 0.0043202544314910633 0 -0.021464500699712698 0.0054379902722159505 0 -0.019376191916254719 0.0064169704402247726 0 -0.021988194207133344 0.007248656195699428 0 -0.019376191916254719 0.0064169704402247726 0 -0.019550770680304693 0.0089147309433061737 0 -0.021464500699712698 0.0054379902722159505 0 -0.021988194207133344 0.007248656195699428 0 -0.019376191916254719 0.0064169704402247726 0 -0.019954257300364618 0.0043202544314910633 0 -0.01793621765284065 0.0044749647098352805 0 -0.019376191916254719 0.0064169704402247726 0 -0.01793621765284065 0.0044749647098352805 0 -0.017021191536577319 0.0063523762106287053 0 -0.019376191916254719 0.0064169704402247726 0 -0.017021191536577319 0.0063523762106287053 0 -0.019376191916254719 0.0064169704402247726 0 -0.017864734909614578 0.0080630553608404109 0 -0.017864734909614578 0.0080630553608404109 0 -0.019550770680304693 0.0089147309433061737 0 -0.017533528186381046 0.010162176766750112 0 -0.019376191916254719 0.0064169704402247726 0 -0.017864734909614578 0.0080630553608404109 0 -0.019550770680304693 0.0089147309433061737 0 -0.020601511090978492 0.0082409894637655579 0 -0.018716445879572292 0.0094255622981474375 0 -0.020632353241556226 0.010480894107495142 0 -0.019173427347455609 0.0090768537566206283 0 -0.018145242346770937 0.0098066009564364114 0 -0.017620045660434965 0.011846549459414399 0 -0.018716445879572292 0.0094255622981474375 0 -0.019067771103182345 0.011938035304817306 0 -0.018716445879572292 0.0094255622981474375 0 -0.020632353241556226 0.010480894107495142 0 -0.019067771103182345 0.011938035304817306 0 -0.020632353241556226 0.010480894107495142 0 -0.019067771103182345 0.011938035304817306 0 -0.020893534523691575 0.012526765920224763 0 -0.026805819470551343 0.010347995995703166 0 -0.027193858550422449 0.010139469365881185 0 -0.017916152798234757 0.013617481775371221 0 -0.019067771103182345 0.011938035304817306 0 -0.019557415491732181 0.014120049420543252 0 -0.017916152798234757 0.013617481775371221 0 -0.019557415491732181 0.014120049420543252 0 -0.01879364573436498 0.01517859019967502 0 -0.019557415491732181 0.014120049420543252 0 -0.01879364573436498 0.01517859019967502 0 -0.020146638429644845 0.016153502708578359 0 -0.027193858550422449 0.010139469365881185 0 -0.028190707848491786 0.0090564198005830352 0 -0.019543333233600361 0.013883520627135026 0 -0.021158936121485453 0.014434857069359782 0 -0.020098897356594043 0.015745119900531457 0 -0.027359816706380193 0.0099658769533456787 0 -0.028190707848491786 0.0090564198005830352 0 -0.021158936121485453 0.014434857069359782 0 -0.021446381396221379 0.015598174336588796 0 -0.020088266266206752 0.015778228967116215 0 -0.019067771103182345 0.011938035304817306 0 -0.019543333233600361 0.013883520627135026 0 -0.020893534523691575 0.012526765920224763 0 -0.019543333233600361 0.013883520627135026 0 -0.020893534523691575 0.012526765920224763 0 -0.021158936121485453 0.014434857069359782 0 -0.020893534523691575 0.012526765920224763 0 -0.022068150815301054 0.013338408893661011 0 -0.021158936121485453 0.014434857069359782 0 -0.021158936121485453 0.014434857069359782 0 -0.022701606011825682 0.015189526774122435 0 -0.021446381396221379 0.015598174336588796 0 -0.022068150815301054 0.013338408893661011 0 -0.021158936121485453 0.014434857069359782 0 -0.022701606011825682 0.015189526774122435 0 -0.022701606011825682 0.015189526774122435 0 -0.023666608149290152 0.013258949348379108 0 -0.02440279102150103 0.014768795212098208 0 -0.022068150815301054 0.013338408893661011 0 -0.022701606011825682 0.015189526774122435 0 -0.023666608149290152 0.013258949348379108 0 -0.022068150815301054 0.013338408893661011 0 -0.023666608149290152 0.013258949348379108 0 -0.022462525473594015 0.01160121442679707 0 -0.023666608149290152 0.013258949348379108 0 -0.022462525473594015 0.01160121442679707 0 -0.02443581349744188 0.011785979223876074 0 -0.022462525473594015 0.01160121442679707 0 -0.02382417065828675 0.010440444572012923 0 -0.02443581349744188 0.011785979223876074 0 -0.020632353241556226 0.010480894107495142 0 -0.020893534523691575 0.012526765920224763 0 -0.022462525473594015 0.01160121442679707 0 -0.020893534523691575 0.012526765920224763 0 -0.022068150815301054 0.013338408893661011 0 -0.022462525473594015 0.01160121442679707 0 -0.022072830480281733 0.0093188139243340247 0 -0.020632353241556226 0.010480894107495142 0 -0.022462525473594015 0.01160121442679707 0 -0.022072830480281733 0.0093188139243340247 0 -0.022462525473594015 0.01160121442679707 0 -0.02382417065828675 0.010440444572012923 0 -0.023991809738619602 0.0089663777045772327 0 -0.02382417065828675 0.010440444572012923 0 -0.026422749528562519 0.010598582898637774 0 -0.026725576376096072 0.010389400909037425 0 -0.026722832254225226 0.010450743115907967 0 -0.026422749528562519 0.010598582898637774 0 -0.02443581349744188 0.011785979223876074 0 -0.02606601339802456 0.013077338405370467 0 -0.026422749528562519 0.010598582898637774 0 -0.02797477992994965 0.010660370871855659 0 -0.027418998633137334 0.010598452561827612 0 -0.02382417065828675 0.010440444572012923 0 -0.026422749528562519 0.010598582898637774 0 -0.02443581349744188 0.011785979223876074 0 -0.023666608149290152 0.013258949348379108 0 -0.02440279102150103 0.014768795212098208 0 -0.02606601339802456 0.013077338405370467 0 -0.023666608149290152 0.013258949348379108 0 -0.02443581349744188 0.011785979223876074 0 -0.02606601339802456 0.013077338405370467 0 -0.02440279102150103 0.014768795212098208 0 -0.025796730541620707 0.015198364869589901 0 -0.02606601339802456 0.013077338405370467 0 -0.026688992221343088 0.010316677327505776 0 -0.026722832254225226 0.010450743115907967 0 -0.029601235948119493 0.0097693388760854462 0 -0.02797477992994965 0.010660370871855659 0 -0.028412334405262189 0.010147093239153452 0 -0.029601235948119493 0.0097693388760854462 0 -0.028412334405262189 0.010147093239153452 0 -0.028668634113944345 0.0093419350283143222 0 -0.02797477992994965 0.010660370871855659 0 -0.027859231584822342 0.010383875437203505 0 -0.027418998633137334 0.010598452561827612 0 -0.02797477992994965 0.010660370871855659 0 -0.027859231584822342 0.010383875437203505 0 -0.028412334405262189 0.010147093239153452 0 -0.027859231584822342 0.010383875437203505 0 -0.028412334405262189 0.010147093239153452 0 -0.028122503299488476 0.0099886007946248193 0 -0.028412334405262189 0.010147093239153452 0 -0.028122503299488476 0.0099886007946248193 0 -0.028668634113944345 0.0093419350283143222 0 -0.027859231584822342 0.010383875437203505 0 -0.028122503299488476 0.0099886007946248193 0 -0.027661382094788748 0.010005729090097733 0 -0.027708937418701826 0.010331922479455906 0 -0.027859231584822342 0.010383875437203505 0 -0.027661382094788748 0.010005729090097733 0 -0.027859231584822342 0.010383875437203505 0 -0.027695641559839966 0.01046037713528624 0 -0.027418998633137334 0.010598452561827612 0 -0.027708937418701826 0.010331922479455906 0 -0.027859231584822342 0.010383875437203505 0 -0.027695641559839966 0.01046037713528624 0 -0.027852556220165425 0.01026375132359527 0 -0.027695641559839966 0.01046037713528624 0 -0.027619206567109377 0.010301963769770437 0 -0.027852556220165425 0.01026375132359527 0 -0.027619206567109377 0.010301963769770437 0 -0.02784137422816749 0.0099053659274900546 0 -0.027695641559839966 0.01046037713528624 0 -0.027619206567109377 0.010301963769770437 0 -0.027418998633137334 0.010598452561827612 0 -0.026422749528562519 0.010598582898637774 0 -0.027418998633137334 0.010598452561827612 0 -0.027318506467101197 0.010021462169725553 0 -0.027619206567109377 0.010301963769770437 0 -0.027418998633137334 0.010598452561827612 0 -0.027318506467101197 0.010021462169725553 0 -0.026746059949294878 0.0089185403525334252 0 -0.026422749528562519 0.010598582898637774 0 -0.027318506467101197 0.010021462169725553 0 -0.027601512542118612 0.0093264462444519677 0 -0.027318506467101197 0.010021462169725553 0 -0.02784137422816749 0.0099053659274900546 0 -0.027619206567109377 0.010301963769770437 0 -0.027318506467101197 0.010021462169725553 0 -0.02784137422816749 0.0099053659274900546 0 -0.030367103376545936 0.0020664507168649889 0 -0.030534968148226368 0.0017426500732513166 0 -0.02372877146071856 0.00032354339565398161 0 -0.025843272785783536 0.0018513259929365958 0 -0.027164499871042989 -0.00042445695061097972 0 -0.025843272785783536 0.0018513259929365958 0 -0.027535612068630071 0.0019742053298107869 0 -0.026539380379510709 0.0034183229632650837 0 -0.02372877146071856 0.00032354339565398161 0 -0.025843272785783536 0.0018513259929365958 0 -0.024795156764870461 0.0022855949808022586 0 -0.025843272785783536 0.0018513259929365958 0 -0.027535612068630071 0.0019742053298107869 0 -0.027164499871042989 -0.00042445695061097972 0 -0.028860902217109151 0.00097141465061276037 0 -0.027535612068630071 0.0019742053298107869 0 -0.027164499871042989 -0.00042445695061097972 0 -0.028860902217109151 0.00097141465061276037 0 -0.031643210554773829 -0.00079809356404568065 0 -0.027164499871042989 -0.00042445695061097972 0 -0.028860902217109151 0.00097141465061276037 0 -0.030401542455896265 0.00081392500219488171 0 -0.031643210554773829 -0.00079809356404568065 0 -0.030401542455896265 0.00081392500219488171 0 -0.029039438308691413 0.0023552838084537515 0 -0.030078125247302988 0.0023282532191647434 0 -0.028860902217109151 0.00097141465061276037 0 -0.030401542455896265 0.00081392500219488171 0 -0.029039438308691413 0.0023552838084537515 0 -0.028860902217109151 0.00097141465061276037 0 -0.029039438308691413 0.0023552838084537515 0 -0.027535612068630071 0.0019742053298107869 0 -0.029039438308691413 0.0023552838084537515 0 -0.027535612068630071 0.0019742053298107869 0 -0.027822829649188002 0.0033698166393552661 0 -0.029039438308691413 0.0023552838084537515 0 -0.027822829649188002 0.0033698166393552661 0 -0.028744871121117673 0.0042164025229977486 0 -0.027822829649188002 0.0033698166393552661 0 -0.027433872835954498 0.0048951797816762874 0 -0.026539380379510709 0.0034183229632650837 0 -0.029039438308691413 0.0023552838084537515 0 -0.028744871121117673 0.0042164025229977486 0 -0.030034901783603189 0.0034268410555006821 0 -0.029039438308691413 0.0023552838084537515 0 -0.030034901783603189 0.0034268410555006821 0 -0.030078125247302988 0.0023282532191647434 0 -0.028744871121117673 0.0042164025229977486 0 -0.027433872835954498 0.0048951797816762874 0 -0.028808432946935868 0.0061874626211330707 0 -0.028744871121117673 0.0042164025229977486 0 -0.029985260616503431 0.0048594947939081153 0 -0.030034901783603189 0.0034268410555006821 0 -0.028744871121117673 0.0042164025229977486 0 -0.028808432946935868 0.0061874626211330707 0 -0.029985260616503431 0.0048594947939081153 0 -0.027822829649188002 0.0033698166393552661 0 -0.028744871121117673 0.0042164025229977486 0 -0.027433872835954498 0.0048951797816762874 0 -0.027433872835954498 0.0048951797816762874 0 -0.026122979774692485 0.00458523367985216 0 -0.026539380379510709 0.0034183229632650837 0 -0.027535612068630071 0.0019742053298107869 0 -0.027822829649188002 0.0033698166393552661 0 -0.026539380379510709 0.0034183229632650837 0 -0.026122979774692485 0.00458523367985216 0 -0.026539380379510709 0.0034183229632650837 0 -0.025246125639287714 0.0035211084091121758 0 -0.025843272785783536 0.0018513259929365958 0 -0.024795156764870461 0.0022855949808022586 0 -0.025246125639287714 0.0035211084091121758 0 -0.025843272785783536 0.0018513259929365958 0 -0.026539380379510709 0.0034183229632650837 0 -0.025246125639287714 0.0035211084091121758 0 -0.024350256877418399 0.0034322995220045804 0 -0.024795156764870461 0.0022855949808022586 0 -0.025246125639287714 0.0035211084091121758 0 -0.024139186593729215 0.0039182101398053063 0 -0.025246125639287714 0.0035211084091121758 0 -0.02504654368804364 0.0047617491081852203 0 -0.026122979774692485 0.00458523367985216 0 -0.025246125639287714 0.0035211084091121758 0 -0.02504654368804364 0.0047617491081852203 0 -0.024340865638630273 0.0056916969127501519 0 -0.02504654368804364 0.0047617491081852203 0 -0.026202529509461472 0.0060837131950796765 0 -0.026122979774692485 0.00458523367985216 0 -0.02504654368804364 0.0047617491081852203 0 -0.026202529509461472 0.0060837131950796765 0 -0.027433872835954498 0.0048951797816762874 0 -0.026122979774692485 0.00458523367985216 0 -0.026202529509461472 0.0060837131950796765 0 -0.025966406727236543 0.0062134755918149013 0 -0.025944810129830555 0.0075832049488591567 0 -0.027229609514820653 0.0079913377391491215 0 -0.024723915982883898 0.0071026407462170173 0 -0.025966406727236543 0.0062134755918149013 0 -0.025944810129830555 0.0075832049488591567 0 -0.024723915982883898 0.0071026407462170173 0 -0.025944810129830555 0.0075832049488591567 0 -0.025459884739226439 0.0092775252372230364 0 -0.025944810129830555 0.0075832049488591567 0 -0.025459884739226439 0.0092775252372230364 0 -0.027229609514820653 0.0079913377391491215 0 -0.02784740168899252 0.0061308216317017888 0 -0.027950459878185379 0.0063439648084616255 0 -0.025459884739226439 0.0092775252372230364 0 -0.028668634113944345 0.0093419350283143222 0 -0.027229609514820653 0.0079913377391491215 0 -0.028122503299488476 0.0099886007946248193 0 -0.027661382094788748 0.010005729090097733 0 -0.028668634113944345 0.0093419350283143222 0 -0.028668634113944345 0.0093419350283143222 0 -0.027229609514820653 0.0079913377391491215 0 -0.029256731709569279 0.0079589834736393753 0 -0.027433872835954498 0.0048951797816762874 0 -0.026202529509461472 0.0060837131950796765 0 -0.028808432946935868 0.0061874626211330707 0 -0.028104250107945924 0.0040782295559373908 0 -0.028095132848956372 0.0041499167018570543 0 -0.027229609514820653 0.0079913377391491215 0 -0.028808432946935868 0.0061874626211330707 0 -0.029256731709569279 0.0079589834736393753 0 -0.025966406727236543 0.0062134755918149013 0 -0.027229609514820653 0.0079913377391491215 0 -0.028808432946935868 0.0061874626211330707 0 -0.028808432946935868 0.0061874626211330707 0 -0.031194589927798364 0.0065951371947730224 0 -0.029985260616503431 0.0048594947939081153 0 -0.028808432946935868 0.0061874626211330707 0 -0.031194589927798364 0.0065951371947730224 0 -0.029256731709569279 0.0079589834736393753 0 -0.031194589927798364 0.0065951371947730224 0 -0.03088328249028215 0.0040577484240681711 0 -0.029985260616503431 0.0048594947939081153 0 -0.025796730541620707 0.015198364869589901 0 -0.025575139372634208 0.017288211274308778 0 -0.024809873981708388 0.016087328456295191 0 -0.029601235948119493 0.0097693388760854462 0 -0.031194589927798364 0.0065951371947730224 0 -0.029256731709569279 0.0079589834736393753 0 -0.026688992221343088 0.010316677327505776 0 -0.026568055827838697 0.0096480906436408106 0 -0.029601235948119493 0.0097693388760854462 0 -0.028668634113944345 0.0093419350283143222 0 -0.029256731709569279 0.0079589834736393753 0 -0.02440279102150103 0.014768795212098208 0 -0.024809873981708388 0.016087328456295191 0 -0.023928836871221694 0.016036687018417185 0 -0.02440279102150103 0.014768795212098208 0 -0.025796730541620707 0.015198364869589901 0 -0.024809873981708388 0.016087328456295191 0 -0.024809873981708388 0.016087328456295191 0 -0.024341154950918129 0.017130735106859737 0 -0.023928836871221694 0.016036687018417185 0 -0.025575139372634208 0.017288211274308778 0 -0.024809873981708388 0.016087328456295191 0 -0.024341154950918129 0.017130735106859737 0 -0.025575139372634208 0.017288211274308778 0 -0.024341154950918129 0.017130735106859737 0 -0.024732847376441804 0.01800674269252726 0 -0.024341154950918129 0.017130735106859737 0 -0.024732847376441804 0.01800674269252726 0 -0.023638484884147944 0.018186333814499144 0 -0.025575139372634208 0.017288211274308778 0 -0.024732847376441804 0.01800674269252726 0 -0.025385543528981248 0.019359970340193034 0 -0.03311726990200594 0.00153006899072825 0 -0.032292285138569854 0.0014938422649080261 0 -0.033580417128554016 0.0022049554327594734 0 -0.026292771040231477 0.008210211464741525 0 -0.027406077176907774 0.0088837022342522429 0 -0.024732847376441804 0.01800674269252726 0 -0.025385543528981248 0.019359970340193034 0 -0.023638484884147944 0.018186333814499144 0 -0.031194589927798364 0.0065951371947730224 0 -0.03088328249028215 0.0040577484240681711 0 -0.032122314849019493 0.0028560273770835334 0 -0.026568055827838697 0.0096480906436408106 0 -0.026292771040231477 0.008210211464741525 0 -0.03088328249028215 0.0040577484240681711 0 -0.029985260616503431 0.0048594947939081153 0 -0.030034901783603189 0.0034268410555006821 0 -0.03088328249028215 0.0040577484240681711 0 -0.030034901783603189 0.0034268410555006821 0 -0.030819437231596646 0.0026574555396289075 0 -0.030034901783603189 0.0034268410555006821 0 -0.030819437231596646 0.0026574555396289075 0 -0.030078125247302988 0.0023282532191647434 0 -0.03088328249028215 0.0040577484240681711 0 -0.030819437231596646 0.0026574555396289075 0 -0.032122314849019493 0.0028560273770835334 0 -0.032226113813654339 0.0010603624462889594 0 -0.031705757558654971 0.00016179895001307461 0 -0.031953281735175657 -0.00060209023018737231 0 -0.026292771040231477 0.008210211464741525 0 -0.026308359323080874 0.008151085951070329 0 -0.030401542455896265 0.00081392500219488171 0 -0.032195657223677031 0.0014936957598297351 0 -0.032226113813654339 0.0010603624462889594 0 -0.030401542455896265 0.00081392500219488171 0 -0.032226113813654339 0.0010603624462889594 0 -0.031705757558654971 0.00016179895001307461 0 -0.030401542455896265 0.00081392500219488171 0 -0.030819437231596646 0.0026574555396289075 0 -0.030078125247302988 0.0023282532191647434 0 -0.02636861782051023 0.0079117581971398284 0 -0.026292771040231477 0.008210211464741525 0 -0.030401542455896265 0.00081392500219488171 0 -0.030819437231596646 0.0026574555396289075 0 -0.032122314849019493 0.0028560273770835334 0 -0.030401542455896265 0.00081392500219488171 0 -0.031705757558654971 0.00016179895001307461 0 -0.031643210554773829 -0.00079809356404568065 0 -0.033759387910357305 0.00037630119640894157 0 -0.033772825979393462 0.00025805382451498098 0 -0.03311726990200594 0.00153006899072825 0 -0.033555897584184154 0.0012270124830637546 0 -0.033288190875810843 0.00098888490554777152 0 -0.03311726990200594 0.00153006899072825 0 -0.032226113813654339 0.0010603624462889594 0 -0.031953281735175657 -0.00060209023018737231 0 -0.03311726990200594 0.00153006899072825 0 -0.033288190875810843 0.00098888490554777152 0 -0.032939853177053308 0.00087731708881121345 0 -0.03311726990200594 0.00153006899072825 0 -0.032292285138569854 0.0014938422649080261 0 -0.032226113813654339 0.0010603624462889594 0 -0.033924882759648604 0.0014526476367042465 0 -0.033555897584184154 0.0012270124830637546 0 -0.033633839557855205 0.0017001082028942499 0 -0.03311726990200594 0.00153006899072825 0 -0.033555897584184154 0.0012270124830637546 0 -0.033633839557855205 0.0017001082028942499 0 -0.033555897584184154 0.0012270124830637546 0 -0.03386851046389211 0.0011175127946332359 0 -0.033603484524032751 0.00079864983642120261 0 -0.033924882759648604 0.0014526476367042465 0 -0.033555897584184154 0.0012270124830637546 0 -0.03386851046389211 0.0011175127946332359 0 -0.033924882759648604 0.0014526476367042465 0 -0.03386851046389211 0.0011175127946332359 0 -0.034147781173308897 0.0012462265060077633 0 -0.03386851046389211 0.0011175127946332359 0 -0.034147781173308897 0.0012462265060077633 0 -0.034114411897682204 0.0009034336758422058 0 -0.034147781173308897 0.0012462265060077633 0 -0.034550141745527306 0.0012426257373141035 0 -0.034114411897682204 0.0009034336758422058 0 -0.034147781173308897 0.0012462265060077633 0 -0.034323724939072674 0.0016188504140946822 0 -0.034550141745527306 0.0012426257373141035 0 -0.033924882759648604 0.0014526476367042465 0 -0.034147781173308897 0.0012462265060077633 0 -0.034323724939072674 0.0016188504140946822 0 -0.033924882759648604 0.0014526476367042465 0 -0.034323724939072674 0.0016188504140946822 0 -0.034162206062366668 0.0020116000111670895 0 -0.034323724939072674 0.0016188504140946822 0 -0.034162206062366668 0.0020116000111670895 0 -0.034782948935968706 0.0021683845573540099 0 -0.034162206062366668 0.0020116000111670895 0 -0.033633839557855205 0.0017001082028942499 0 -0.033580417128554016 0.0022049554327594734 0 -0.033924882759648604 0.0014526476367042465 0 -0.034162206062366668 0.0020116000111670895 0 -0.033633839557855205 0.0017001082028942499 0 -0.03311726990200594 0.00153006899072825 0 -0.033633839557855205 0.0017001082028942499 0 -0.033580417128554016 0.0022049554327594734 0 -0.024341154950918129 0.017130735106859737 0 -0.023638484884147944 0.018186333814499144 0 -0.02319865441644979 0.016884227412690522 0 -0.023638484884147944 0.018186333814499144 0 -0.02319865441644979 0.016884227412690522 0 -0.021858597914095841 0.01699031016539905 0 -0.027406077176907774 0.0088837022342522429 0 -0.027891838876637168 0.0090703093297263317 0 -0.022701606011825682 0.015189526774122435 0 -0.02440279102150103 0.014768795212098208 0 -0.023928836871221694 0.016036687018417185 0 -0.022701606011825682 0.015189526774122435 0 -0.02319865441644979 0.016884227412690522 0 -0.023928836871221694 0.016036687018417185 0 -0.022701606011825682 0.015189526774122435 0 -0.02319865441644979 0.016884227412690522 0 -0.021858597914095841 0.01699031016539905 0 -0.024341154950918129 0.017130735106859737 0 -0.02319865441644979 0.016884227412690522 0 -0.023928836871221694 0.016036687018417185 0 -0.022701606011825682 0.015189526774122435 0 -0.021446381396221379 0.015598174336588796 0 -0.021858597914095841 0.01699031016539905 0 -0.021446381396221379 0.015598174336588796 0 -0.021858597914095841 0.01699031016539905 0 -0.020088266266206752 0.015778228967116215 0 -0.034162206062366668 0.0020116000111670895 0 -0.034248241590648362 0.0026277484797700562 0 -0.034782948935968706 0.0021683845573540099 0 -0.034162206062366668 0.0020116000111670895 0 -0.033580417128554016 0.0022049554327594734 0 -0.034248241590648362 0.0026277484797700562 0 -0.034248241590648362 0.0026277484797700562 0 -0.034938921752317928 0.0031164833252417846 0 -0.034782948935968706 0.0021683845573540099 0 -0.034690787987064597 0.0031387872193749328 0 -0.035169866387174537 0.0025413370875896554 0 -0.034535687743034935 0.0021624103770261859 0 -0.028190707848491786 0.0090564198005830352 0 -0.029410916280832939 0.0056765686228173766 0 -0.027891838876637168 0.0090703093297263317 0 -0.028190707848491786 0.0090564198005830352 0 -0.020146638429644845 0.016153502708578359 0 -0.018655192405829819 0.016380374840727883 0 -0.018898286559142663 0.017693099447683134 0 -0.028190707848491786 0.0090564198005830352 0 -0.027875110847331644 0.0074881353309256575 0 -0.017553452162658613 0.015359759526180745 0 -0.01879364573436498 0.01517859019967502 0 -0.018655192405829819 0.016380374840727883 0 -0.01879364573436498 0.01517859019967502 0 -0.020146638429644845 0.016153502708578359 0 -0.018655192405829819 0.016380374840727883 0 -0.018655192405829819 0.016380374840727883 0 -0.018898286559142663 0.017693099447683134 0 -0.017511575712662406 0.017117707147863998 0 -0.035169866387174537 0.0025413370875896554 0 -0.03520106289797692 0.0021097134975959042 0 -0.034535687743034935 0.0021624103770261859 0 -0.035169866387174537 0.0025413370875896554 0 -0.03520106289797692 0.0021097134975959042 0 -0.035594153108150395 0.0020036752355750056 0 -0.027875110847331644 0.0074881353309256575 0 -0.028029022599109783 0.0053756385707269989 0 -0.03520106289797692 0.0021097134975959042 0 -0.035309154113646851 0.0017135325403018185 0 -0.035594153108150395 0.0020036752355750056 0 -0.035309154113646851 0.0017135325403018185 0 -0.034905270661826485 0.0018523342547046957 0 -0.03474585294040463 0.0014173978145456065 0 -0.03520106289797692 0.0021097134975959042 0 -0.034905270661826485 0.0018523342547046957 0 -0.034535687743034935 0.0021624103770261859 0 -0.03520106289797692 0.0021097134975959042 0 -0.035309154113646851 0.0017135325403018185 0 -0.034905270661826485 0.0018523342547046957 0 -0.029410916280832939 0.0056765686228173766 0 -0.030039631192536911 0.0040523020210525718 0 -0.034323724939072674 0.0016188504140946822 0 -0.034782948935968706 0.0021683845573540099 0 -0.034550141745527306 0.0012426257373141035 0 -0.034905270661826485 0.0018523342547046957 0 -0.034535687743034935 0.0021624103770261859 0 -0.03474585294040463 0.0014173978145456065 0 -0.034535687743034935 0.0021624103770261859 0 -0.03474585294040463 0.0014173978145456065 0 -0.034386621690482524 0.0012632970917632962 0 -0.034386621690482524 0.0012632970917632962 0 -0.034761127530503651 0.0011536655364770864 0 -0.034500839618609745 0.00087063794190699159 0 -0.03474585294040463 0.0014173978145456065 0 -0.034386621690482524 0.0012632970917632962 0 -0.034761127530503651 0.0011536655364770864 0 -0.028974224856525538 0.0051259576879961084 0 -0.029396606828701134 0.0050750403367858478 0 -0.035258507630484867 0.0016916607758491456 0 -0.03474585294040463 0.0014173978145456065 0 -0.034761127530503651 0.0011536655364770864 0 -0.028974224856525538 0.0051259576879961084 0 -0.029457456597717677 0.0051567881424167978 0 -0.035187968724895539 0.001612632273758472 0 -0.034761127530503651 0.0011536655364770864 0 -0.035026935010546226 0.0012006184942031646 0 -0.035187968724895539 0.001612632273758472 0 -0.035026935010546226 0.0012006184942031646 0 -0.035480700588931394 0.0017392229587368841 0 -0.030012802057450858 0.0043285287915564297 0 -0.028797479623126423 0.0047160162550187058 0 -0.03481174317365316 0.00075153973881892896 0 -0.034943795401996089 0.00076050384164506001 0 -0.034905103120074409 0.0006753113528319176 0 -0.03481174317365316 0.00075153973881892896 0 -0.034828321836378788 0.00059693057791360366 0 -0.034565648367088211 0.00058745093903351067 0 -0.034828321836378788 0.00059693057791360366 0 -0.034890071577148588 0.00050011652196973761 0 -0.034942808632745535 0.00058758537356656056 0 -0.034828321836378788 0.00059693057791360366 0 -0.034942808632745535 0.00058758537356656056 0 -0.034905103120074409 0.0006753113528319176 0 -0.03481174317365316 0.00075153973881892896 0 -0.034828321836378788 0.00059693057791360366 0 -0.034905103120074409 0.0006753113528319176 0 -0.034761127530503651 0.0011536655364770864 0 -0.035026935010546226 0.0012006184942031646 0 -0.034565648367088211 0.00058745093903351067 0 -0.034761127530503651 0.0011536655364770864 0 -0.034500839618609745 0.00087063794190699159 0 -0.034565648367088211 0.00058745093903351067 0 -0.034828321836378788 0.00059693057791360366 0 -0.034565648367088211 0.00058745093903351067 0 -0.034755995810333035 0.00049936652519386355 0 -0.030012802057450858 0.0043285287915564297 0 -0.030346866303204063 0.0041457271395022475 0 -0.034500839618609745 0.00087063794190699159 0 -0.034565648367088211 0.00058745093903351067 0 -0.034309621357754568 0.00048723020289526939 0 -0.034565648367088211 0.00058745093903351067 0 -0.034755995810333035 0.00049936652519386355 0 -0.034596079615432263 0.00026739521784313911 0 -0.034565648367088211 0.00058745093903351067 0 -0.034596079615432263 0.00026739521784313911 0 -0.034309621357754568 0.00048723020289526939 0 -0.034755995810333035 0.00049936652519386355 0 -0.034596079615432263 0.00026739521784313911 0 -0.034829517516115571 0.00018104466402222446 0 -0.034755995810333035 0.00049936652519386355 0 -0.034829517516115571 0.00018104466402222446 0 -0.035032686025934998 3.9852113182579801e-05 0 -0.034755995810333035 0.00049936652519386355 0 -0.034890071577148588 0.00050011652196973761 0 -0.034926800899497068 0.00035560404608602305 0 -0.034796794342364691 0.00021470109173577832 0 -0.034830557965217904 0.00015932780103053475 0 -0.034828321836378788 0.00059693057791360366 0 -0.034755995810333035 0.00049936652519386355 0 -0.034890071577148588 0.00050011652196973761 0 -0.034829517516115571 0.00018104466402222446 0 -0.034902383034945264 -3.4108962490680526e-05 0 -0.035032686025934998 3.9852113182579801e-05 0 -0.034999894917946729 -4.9624496404079384e-08 0 -0.034902383034945264 -3.4108962490680526e-05 0 -0.034999865013010889 2.124524667882691e-08 0 -0.034999894917946729 -4.9624496404079384e-08 0 -0.034902383034945264 -3.4108962490680526e-05 0 -0.035032686025934998 3.9852113182579801e-05 0 -0.034902383034945264 -3.4108962490680526e-05 0 -0.034999865013010889 2.124524667882691e-08 0 -0.034994545784683841 -3.3081951192825247e-05 0 -0.034596079615432263 0.00026739521784313911 0 -0.034829517516115571 0.00018104466402222446 0 -0.034902383034945264 -3.4108962490680526e-05 0 -0.034613654150187766 7.815685072713189e-05 0 -0.034596149979588785 8.550990494667006e-05 0 -0.034596079615432263 0.00026739521784313911 0 -0.034902383034945264 -3.4108962490680526e-05 0 -0.034373141141750552 -3.3214630397161647e-05 0 -0.034373141141750552 -3.3214630397161647e-05 0 -0.034084840931310069 0.00028362634668005482 0 -0.03434162085563279 0.00025128080391333721 0 -0.034596079615432263 0.00026739521784313911 0 -0.034373141141750552 -3.3214630397161647e-05 0 -0.03434162085563279 0.00025128080391333721 0 -0.034373141141750552 -3.3214630397161647e-05 0 -0.033869915849795942 6.1619145244437755e-05 0 -0.034084840931310069 0.00028362634668005482 0 -0.034596149979588785 8.550990494667006e-05 0 -0.034571100318830254 0.00010188462251264728 0 -0.034999865013010889 2.124524667882691e-08 0 -0.034994545784683841 -3.3081951192825247e-05 0 -0.035000102166428751 -3.3251357777411308e-08 0 -0.034994545784683841 -3.3081951192825247e-05 0 -0.035000102166428751 -3.3251357777411308e-08 0 -0.035013567021888313 -3.7747485676956866e-05 0 -0.034998434322804826 5.3372412087356197e-08 0 -0.034571100318830254 0.00010188462251264728 0 -0.035000048319282696 1.4419263495785698e-08 0 -0.035009351783887886 2.5310519544525586e-05 0 -0.034998993739744494 1.483579242342991e-05 0 -0.034571100318830254 0.00010188462251264728 0 -0.034244008459132835 0.00013477575225472757 0 -0.033755175393303603 -0.00021959594544555607 0 -0.033676048592327645 0.00028752460418511979 0 -0.033178309145781931 -2.9097103724977307e-05 0 -0.033770522078215112 0.00041849346365709057 0 -0.034084840931310069 0.00028362634668005482 0 -0.033997088217697882 0.00058613731086455722 0 -0.034571100318830254 0.00010188462251264728 0 -0.034501043347941081 0.0002113882301737541 0 -0.033869915849795942 6.1619145244437755e-05 0 -0.033770522078215112 0.00041849346365709057 0 -0.034084840931310069 0.00028362634668005482 0 -0.034084840931310069 0.00028362634668005482 0 -0.03434162085563279 0.00025128080391333721 0 -0.034309621357754568 0.00048723020289526939 0 -0.034596079615432263 0.00026739521784313911 0 -0.03434162085563279 0.00025128080391333721 0 -0.034309621357754568 0.00048723020289526939 0 -0.034084840931310069 0.00028362634668005482 0 -0.034309621357754568 0.00048723020289526939 0 -0.033997088217697882 0.00058613731086455722 0 -0.034309621357754568 0.00048723020289526939 0 -0.033997088217697882 0.00058613731086455722 0 -0.034114411897682204 0.0009034336758422058 0 -0.034550141745527306 0.0012426257373141035 0 -0.034309621357754568 0.00048723020289526939 0 -0.034114411897682204 0.0009034336758422058 0 -0.030039631192536911 0.0040523020210525718 0 -0.030234531407317494 0.0035070495066085853 0 -0.034386621690482524 0.0012632970917632962 0 -0.034500839618609745 0.00087063794190699159 0 -0.034309621357754568 0.00048723020289526939 0 -0.03386851046389211 0.0011175127946332359 0 -0.034114411897682204 0.0009034336758422058 0 -0.033603484524032751 0.00079864983642120261 0 -0.033555897584184154 0.0012270124830637546 0 -0.033603484524032751 0.00079864983642120261 0 -0.033288190875810843 0.00098888490554777152 0 -0.033676048592327645 0.00028752460418511979 0 -0.033603484524032751 0.00079864983642120261 0 -0.033210562530759206 0.00047609562912432718 0 -0.034501043347941081 0.0002113882301737541 0 -0.034474857578278645 0.00026501094089642299 0 -0.033770522078215112 0.00041849346365709057 0 -0.033997088217697882 0.00058613731086455722 0 -0.033603484524032751 0.00079864983642120261 0 -0.033997088217697882 0.00058613731086455722 0 -0.034114411897682204 0.0009034336758422058 0 -0.033603484524032751 0.00079864983642120261 0 -0.033603484524032751 0.00079864983642120261 0 -0.033288190875810843 0.00098888490554777152 0 -0.033210562530759206 0.00047609562912432718 0 -0.033288190875810843 0.00098888490554777152 0 -0.032939853177053308 0.00087731708881121345 0 -0.033210562530759206 0.00047609562912432718 0 -0.032939853177053308 0.00087731708881121345 0 -0.032612358981311249 0.00016123397230728321 0 -0.033210562530759206 0.00047609562912432718 0 -0.031953281735175657 -0.00060209023018737231 0 -0.031810407041642813 0.00029527665969162898 0 -0.032252635300273939 -0.00029457624742409332 0 -0.031705757558654971 0.00016179895001307461 0 -0.031953281735175657 -0.00060209023018737231 0 -0.031643210554773829 -0.00079809356404568065 0 -0.031953281735175657 -0.00060209023018737231 0 -0.031643210554773829 -0.00079809356404568065 0 -0.032252635300273939 -0.00029457624742409332 0 -0.033772825979393462 0.00025805382451498098 0 -0.033948586807014965 0.00016895723679628759 0 -0.033948586807014965 0.00016895723679628759 0 -0.034244008459132835 0.00013477575225472757 0 -0.032612358981311249 0.00016123397230728321 0 -0.033210562530759206 0.00047609562912432718 0 -0.033178309145781931 -2.9097103724977307e-05 0 -0.033676048592327645 0.00028752460418511979 0 -0.033210562530759206 0.00047609562912432718 0 -0.033178309145781931 -2.9097103724977307e-05 0 -0.035009351783887886 2.5310519544525586e-05 0 -0.034993752068678594 3.8153611820378396e-05 0 -0.034998993739744494 1.483579242342991e-05 0 -0.034993752068678594 3.8153611820378396e-05 0 -0.034998993739744494 1.483579242342991e-05 0 -0.034983910481162055 2.6995015344450426e-05 0 -0.034999948616438264 -1.0076241077050416e-09 0 -0.034998993739744494 1.483579242342991e-05 0 -0.034983910481162055 2.6995015344450426e-05 0 -0.035000048319282696 1.4419263495785698e-08 0 -0.034999948616438264 -1.0076241077050416e-09 0 -0.034998993739744494 1.483579242342991e-05 0 -0.034999948616438264 -1.0076241077050416e-09 0 -0.034953949760464752 3.0435409078399853e-05 0 -0.03492567473280879 -1.3388312036076338e-08 0 -0.034999948616438264 -1.0076241077050416e-09 0 -0.034983910481162055 2.6995015344450426e-05 0 -0.034953949760464752 3.0435409078399853e-05 0 -0.033948586807014965 0.00016895723679628759 0 -0.034007856291626552 0.00010869209627191349 0 -0.034970057816145893 5.1311099114370523e-05 0 -0.034983910481162055 2.6995015344450426e-05 0 -0.034953949760464752 3.0435409078399853e-05 0 -0.034970057816145893 5.1311099114370523e-05 0 -0.034993752068678594 3.8153611820378396e-05 0 -0.034983910481162055 2.6995015344450426e-05 0 -0.034195999099531478 6.1811422618613926e-06 0 -0.034293958645089245 -1.557020540894982e-05 0 -0.034079925431914973 -4.0544816955681134e-05 0 -0.034293958645089245 -1.557020540894982e-05 0 -0.034653065746418882 2.4802319107373298e-05 0 -0.034350935724799116 3.0786606091795106e-05 0 -0.034293958645089245 -1.557020540894982e-05 0 -0.034350935724799116 3.0786606091795106e-05 0 -0.034079925431914973 -4.0544816955681134e-05 0 -0.034293958645089245 -1.557020540894982e-05 0 -0.034653065746418882 2.4802319107373298e-05 0 -0.034924482714642879 2.8861171543297277e-07 0 -0.034007856291626552 0.00010869209627191349 0 -0.034026939854455422 7.9813598246561112e-05 0 -0.034653065746418882 2.4802319107373298e-05 0 -0.034924482714642879 2.8861171543297277e-07 0 -0.034748603386606555 5.8675328711857995e-05 0 -0.034999916256294776 1.0179182676733228e-07 0 -0.034924482714642879 2.8861171543297277e-07 0 -0.034748603386606555 5.8675328711857995e-05 0 -0.034653065746418882 2.4802319107373298e-05 0 -0.034748603386606555 5.8675328711857995e-05 0 -0.034350935724799116 3.0786606091795106e-05 0 -0.034907847870144261 4.7179650739614839e-05 0 -0.034748603386606555 5.8675328711857995e-05 0 -0.034350935724799116 3.0786606091795106e-05 0 -0.034803217003138411 -0.00032820036029984758 0 -0.034350935724799116 3.0786606091795106e-05 0 -0.034291656371049098 -0.00052905643926845632 0 -0.034350935724799116 3.0786606091795106e-05 0 -0.033669840497040443 -5.8530452411855215e-05 0 -0.034291656371049098 -0.00052905643926845632 0 -0.034195999099531478 6.1811422618613926e-06 0 -0.034079925431914973 -4.0544816955681134e-05 0 -0.033669840497040443 -5.8530452411855215e-05 0 -0.033948586807014965 0.00016895723679628759 0 -0.033929553487911143 0.00016354957663480612 0 -0.034350935724799116 3.0786606091795106e-05 0 -0.034079925431914973 -4.0544816955681134e-05 0 -0.033669840497040443 -5.8530452411855215e-05 0 -0.031810407041642813 0.00029527665969162898 0 -0.032252635300273939 -0.00029457624742409332 0 -0.033669840497040443 -5.8530452411855215e-05 0 -0.032252635300273939 -0.00029457624742409332 0 -0.033669840497040443 -5.8530452411855215e-05 0 -0.033759040865008756 -0.001302762788606667 0 -0.030650355843824726 0.0016292668013248531 0 -0.030534968148226368 0.0017426500732513166 0 -0.031643210554773829 -0.00079809356404568065 0 -0.032252635300273939 -0.00029457624742409332 0 -0.033759040865008756 -0.001302762788606667 0 -0.033669840497040443 -5.8530452411855215e-05 0 -0.034291656371049098 -0.00052905643926845632 0 -0.033759040865008756 -0.001302762788606667 0 -0.034846412635790892 -0.0013650627215355674 0 -0.034291656371049098 -0.00052905643926845632 0 -0.033759040865008756 -0.001302762788606667 0 -0.027830137181365698 0.002951457426827737 0 -0.027807853322496846 0.0029569781987757908 0 -0.027823121218717887 0.0029375507238686084 0 -0.027830137181365698 0.002951457426827737 0 -0.027807853322496846 0.0029569781987757908 0 -0.027814641739839597 0.0029705288011146799 0 -0.027830137181365698 0.002951457426827737 0 -0.027850385276195315 0.0029589298664756221 0 -0.02783589961196991 0.0029693430144184865 0 -0.027807853322496846 0.0029569781987757908 0 -0.027806494041329038 0.0029428877140075262 0 -0.027803804571017443 0.0029544735377195668 0 -0.027807853322496846 0.0029569781987757908 0 -0.027806494041329038 0.0029428877140075262 0 -0.027823121218717887 0.0029375507238686084 0 -0.027806494041329038 0.0029428877140075262 0 -0.027823121218717887 0.0029375507238686084 0 -0.027822653857501774 0.0029095661656835772 0 -0.027806494041329038 0.0029428877140075262 0 -0.027822653857501774 0.0029095661656835772 0 -0.027811802127647132 0.0029037776193416563 0 -0.027830137181365698 0.002951457426827737 0 -0.027823121218717887 0.0029375507238686084 0 -0.027843817315418993 0.0029272347197228715 0 -0.027823121218717887 0.0029375507238686084 0 -0.027843817315418993 0.0029272347197228715 0 -0.027822653857501774 0.0029095661656835772 0 -0.029372536830572001 0.0013053851678462235 0 -0.029906608740514155 0.0012082495389905583 0 -0.03081328809583404 0.00070630561700710281 0 -0.03082393767921637 0.00064115883500712916 0 -0.030880529980626743 0.00076723355228999106 0 -0.027742052768139937 0.002693899482188847 0 -0.027637495145024088 0.0025636285931591851 0 -0.027699140800200948 0.0027814598398953482 0 -0.027536306127694404 0.0025269149081005478 0 -0.027637495145024088 0.0025636285931591851 0 -0.027699140800200948 0.0027814598398953482 0 -0.030825653238997237 0.00075819456551334298 0 -0.03081328809583404 0.00070630561700710281 0 -0.030880529980626743 0.00076723355228999106 0 -0.032182317016418632 0.00073674501783610859 0 -0.031571379661956576 0.0008667740242720973 0 -0.028160027647340779 0.0032130713661721751 0 -0.028194889142159129 0.0031291208070130792 0 -0.028374475600993224 0.0033530863739858496 0 -0.030825653238997237 0.00075819456551334298 0 -0.03081328809583404 0.00070630561700710281 0 -0.030751338491268855 0.0007025313615913679 0 -0.0307520539222279 0.0010051875660376092 0 -0.031571379661956576 0.0008667740242720973 0 -0.03081328809583404 0.00070630561700710281 0 -0.030785006049759294 0.00066256758268384115 0 -0.030751338491268855 0.0007025313615913679 0 -0.03081328809583404 0.00070630561700710281 0 -0.030785006049759294 0.00066256758268384115 0 -0.03082393767921637 0.00064115883500712916 0 -0.030785006049759294 0.00066256758268384115 0 -0.03082393767921637 0.00064115883500712916 0 -0.030784461503137725 0.0006148749884233865 0 -0.030785006049759294 0.00066256758268384115 0 -0.030784461503137725 0.0006148749884233865 0 -0.030750761484040118 0.00063059568447371747 0 -0.025938807590812605 0.0029554386973205506 0 -0.025587403804080817 0.0027921950293140867 0 -0.027830137181365698 0.002951457426827737 0 -0.027843817315418993 0.0029272347197228715 0 -0.027850385276195315 0.0029589298664756221 0 -0.027742052768139937 0.002693899482188847 0 -0.027637495145024088 0.0025636285931591851 0 -0.027650569526958099 0.002469191891212765 0 -0.027536306127694404 0.0025269149081005478 0 -0.027637495145024088 0.0025636285931591851 0 -0.027626379637934337 0.0024877873636638716 0 -0.02560927909160942 0.0027733023974777075 0 -0.025587403804080817 0.0027921950293140867 0 -0.025587403804080817 0.0027921950293140867 0 -0.02476643717988463 0.0030400881896751118 0 -0.027389571328283832 0.0021735697413803566 0 -0.027379701891604404 0.0022302936176612498 0 -0.027416778328428655 0.0022532720085385997 0 -0.027850385276195315 0.0029589298664756221 0 -0.027848480967879837 0.0029880363158555109 0 -0.02783589961196991 0.0029693430144184865 0 -0.027626379637934337 0.0024877873636638716 0 -0.027531561581918312 0.0024210204951183646 0 -0.027532599659577727 0.0023551641521847876 0 -0.025587403804080817 0.0027921950293140867 0 -0.025901728380823979 0.0027438113069450805 0 -0.027536306127694404 0.0025269149081005478 0 -0.027626379637934337 0.0024877873636638716 0 -0.027531561581918312 0.0024210204951183646 0 -0.03082393767921637 0.00064115883500712916 0 -0.030784461503137725 0.0006148749884233865 0 -0.030774045928068483 0.0005139753000761838 0 -0.027536306127694404 0.0025269149081005478 0 -0.027531561581918312 0.0024210204951183646 0 -0.027465491062763674 0.0023683065126059578 0 -0.029372536830572001 0.0013053851678462235 0 -0.028828527027322266 0.0012648721019981153 0 -0.030784461503137725 0.0006148749884233865 0 -0.030774045928068483 0.0005139753000761838 0 -0.030761448625449737 0.00058805202126723487 0 -0.027531561581918312 0.0024210204951183646 0 -0.027499376081547906 0.0023671258300382979 0 -0.027465491062763674 0.0023683065126059578 0 -0.027531561581918312 0.0024210204951183646 0 -0.027499376081547906 0.0023671258300382979 0 -0.027532599659577727 0.0023551641521847876 0 -0.027499376081547906 0.0023671258300382979 0 -0.027498048825013548 0.0023561725034111198 0 -0.027532599659577727 0.0023551641521847876 0 -0.027485102010956813 0.0023461328020883783 0 -0.027498048825013548 0.0023561725034111198 0 -0.027532599659577727 0.0023551641521847876 0 -0.027476293674637855 0.0023481007565798384 0 -0.027499376081547906 0.0023671258300382979 0 -0.027465491062763674 0.0023683065126059578 0 -0.027476293674637855 0.0023481007565798384 0 -0.027499376081547906 0.0023671258300382979 0 -0.027498048825013548 0.0023561725034111198 0 -0.027476293674637855 0.0023481007565798384 0 -0.027485102010956813 0.0023461328020883783 0 -0.027498048825013548 0.0023561725034111198 0 -0.027362479591899622 0.0022946183319916338 0 -0.027379701891604404 0.0022302936176612498 0 -0.02739699224566082 0.0022652171152925124 0 -0.023715802406020777 0.0035187538194568148 0 -0.02476643717988463 0.0030400881896751118 0 -0.027379701891604404 0.0022302936176612498 0 -0.027416778328428655 0.0022532720085385997 0 -0.02739699224566082 0.0022652171152925124 0 -0.027396056327492768 0.0022851382240585386 0 -0.027416778328428655 0.0022532720085385997 0 -0.02739699224566082 0.0022652171152925124 0 -0.027369006187507209 0.0022893973254578732 0 -0.027396056327492768 0.0022851382240585386 0 -0.02739699224566082 0.0022652171152925124 0 -0.023715802406020777 0.0035187538194568148 0 -0.023863326437621173 0.0034143152116576734 0 -0.027824990504659031 0.0029996521045933767 0 -0.027814641739839597 0.0029705288011146799 0 -0.02778972392987783 0.0030012680201171615 0 -0.027807795220335774 0.0030354005813363568 0 -0.027848086571826618 0.0030372513919786114 0 -0.027824990504659031 0.0029996521045933767 0 -0.027848086571826618 0.0030372513919786114 0 -0.027848480967879837 0.0029880363158555109 0 -0.027824990504659031 0.0029996521045933767 0 -0.027807795220335774 0.0030354005813363568 0 -0.027824990504659031 0.0029996521045933767 0 -0.02778972392987783 0.0030012680201171615 0 -0.027824990504659031 0.0029996521045933767 0 -0.027814641739839597 0.0029705288011146799 0 -0.02783589961196991 0.0029693430144184865 0 -0.027848480967879837 0.0029880363158555109 0 -0.027824990504659031 0.0029996521045933767 0 -0.02783589961196991 0.0029693430144184865 0 -0.027830137181365698 0.002951457426827737 0 -0.027814641739839597 0.0029705288011146799 0 -0.02783589961196991 0.0029693430144184865 0 -0.027814641739839597 0.0029705288011146799 0 -0.027797587971833418 0.0029727090392354994 0 -0.02778972392987783 0.0030012680201171615 0 -0.027807853322496846 0.0029569781987757908 0 -0.027797587971833418 0.0029727090392354994 0 -0.027800532365958138 0.0029618811622004748 0 -0.027807853322496846 0.0029569781987757908 0 -0.027814641739839597 0.0029705288011146799 0 -0.027797587971833418 0.0029727090392354994 0 -0.027755626578519221 0.0030604398654130362 0 -0.02778972392987783 0.0030012680201171615 0 -0.027710995696836278 0.003012156932093577 0 -0.02778972392987783 0.0030012680201171615 0 -0.027710995696836278 0.003012156932093577 0 -0.027673715678995341 0.0029480101457420339 0 -0.024058541147969285 0.0065205781606615413 0 -0.025892332132126192 0.0046628239135191821 0 -0.027797587971833418 0.0029727090392354994 0 -0.02778972392987783 0.0030012680201171615 0 -0.027793811774067756 0.0029691847925502933 0 -0.02613230832644816 0.004629117627629251 0 -0.025892332132126192 0.0046628239135191821 0 -0.027658042897815777 0.0030641707162846485 0 -0.027710995696836278 0.003012156932093577 0 -0.027673715678995341 0.0029480101457420339 0 -0.025546128474476411 0.0039000800490930302 0 -0.025362931502185423 0.0051617246643923028 0 -0.026667809370572532 0.0050235517634891922 0 -0.024058541147969285 0.0065205781606615413 0 -0.025665208992725116 0.0064059948145637896 0 -0.01593793143270918 0.015509107606046523 0 -0.013652294457279291 0.015037718122764488 0 -0.015711508017005212 0.017081502173230324 0 -0.025362931502185423 0.0051617246643923028 0 -0.026667809370572532 0.0050235517634891922 0 -0.026666264802981482 0.0052952800191452707 0 -0.025892332132126192 0.0046628239135191821 0 -0.027210303304775675 0.0046514769498923513 0 -0.025362931502185423 0.0051617246643923028 0 -0.026666264802981482 0.0052952800191452707 0 -0.026447334467716552 0.0057004065931278991 0 -0.027809153829047372 0.002962285932889381 0 -0.027798636364996975 0.002957059827484159 0 -0.027820608347188251 0.0029644629195912935 0 -0.027809153829047372 0.002962285932889381 0 -0.027797742076507162 0.0029632378801562648 0 -0.027802970676841818 0.0029604078584112956 0 -0.027797742076507162 0.0029632378801562648 0 -0.027800532365958138 0.0029618811622004748 0 -0.027802970676841818 0.0029604078584112956 0 -0.027797587971833418 0.0029727090392354994 0 -0.027797742076507162 0.0029632378801562648 0 -0.027800532365958138 0.0029618811622004748 0 -0.027797587971833418 0.0029727090392354994 0 -0.027797742076507162 0.0029632378801562648 0 -0.027793811774067756 0.0029691847925502933 0 -0.027809153829047372 0.002962285932889381 0 -0.027797742076507162 0.0029632378801562648 0 -0.027798636364996975 0.002957059827484159 0 -0.025902663453232697 0.0046348881838917761 0 -0.025892332132126192 0.0046628239135191821 0 -0.017553452162658613 0.015359759526180745 0 -0.018655192405829819 0.016380374840727883 0 -0.017511575712662406 0.017117707147863998 0 -0.01593793143270918 0.015509107606046523 0 -0.017553452162658613 0.015359759526180745 0 -0.017511575712662406 0.017117707147863998 0 -0.01593793143270918 0.015509107606046523 0 -0.017511575712662406 0.017117707147863998 0 -0.015711508017005212 0.017081502173230324 0 -0.026666264802981482 0.0052952800191452707 0 -0.026447334467716552 0.0057004065931278991 0 -0.027528991878521508 0.0062329390063369074 0 -0.026667809370572532 0.0050235517634891922 0 -0.026666264802981482 0.0052952800191452707 0 -0.027804765037407864 0.0061623500588647226 0 -0.028471485488695644 0.004711375502868936 0 -0.028606130600246613 0.0047082477774765628 0 -0.018898286559142663 0.017693099447683134 0 -0.017511575712662406 0.017117707147863998 0 -0.017756067010127156 0.019106537098111671 0 -0.025665208992725116 0.0064059948145637896 0 -0.028029022599109783 0.0053756385707269989 0 -0.017511575712662406 0.017117707147863998 0 -0.015711508017005212 0.017081502173230324 0 -0.017756067010127156 0.019106537098111671 0 -0.026666264802981482 0.0052952800191452707 0 -0.027804765037407864 0.0061623500588647226 0 -0.027542817926791231 0.0062521062069479513 0 -0.029262098339254871 0.0055563582648249519 0 -0.026880490199414443 0.0031489795296368878 0 -0.025989333102837051 0.0042529236245561789 0 -0.028974224856525538 0.0051259576879961084 0 -0.028029022599109783 0.0053756385707269989 0 -0.028974224856525538 0.0051259576879961084 0 -0.028797479623126423 0.0047160162550187058 0 -0.027804765037407864 0.0061623500588647226 0 -0.027542817926791231 0.0062521062069479513 0 -0.027643894108559379 0.0063628944812145552 0 -0.028029022599109783 0.0053756385707269989 0 -0.028797479623126423 0.0047160162550187058 0 -0.028606130600246613 0.0047082477774765628 0 -0.028797479623126423 0.0047160162550187058 0 -0.027760257040916274 0.002960873382164747 0 -0.027745045633068399 0.0029497592411911484 0 -0.027809909436650949 0.0029491080806253386 0 -0.027210303304775675 0.0046514769498923513 0 -0.028606130600246613 0.0047082477774765628 0 -0.027745045633068399 0.0029497592411911484 0 -0.027809909436650949 0.0029491080806253386 0 -0.027820197046934572 0.0028013352400581091 0 -0.027820608347188251 0.0029644629195912935 0 -0.027760257040916274 0.002960873382164747 0 -0.027809909436650949 0.0029491080806253386 0 -0.027809909436650949 0.0029491080806253386 0 -0.027813736744398469 0.002956090372057386 0 -0.027812654236862109 0.0029524462271005259 0 -0.027820608347188251 0.0029644629195912935 0 -0.027809909436650949 0.0029491080806253386 0 -0.027813736744398469 0.002956090372057386 0 -0.027820197046934572 0.0028013352400581091 0 -0.02802114826455545 0.0028029019451995042 0 -0.027972148062737665 0.0026003193426843716 0 -0.027809909436650949 0.0029491080806253386 0 -0.027820197046934572 0.0028013352400581091 0 -0.02802114826455545 0.0028029019451995042 0 -0.029927230186456693 0.002675130737487283 0 -0.030254084888933615 0.002462900855417212 0 -0.034953978605363714 0.00090413613177624404 0 -0.035065904727950098 0.00076542068026966216 0 -0.034943795401996089 0.00076050384164506001 0 -0.028797479623126423 0.0047160162550187058 0 -0.030157758746004997 0.0031280928417891487 0 -0.03481174317365316 0.00075153973881892896 0 -0.034953978605363714 0.00090413613177624404 0 -0.034943795401996089 0.00076050384164506001 0 -0.035065904727950098 0.00076542068026966216 0 -0.034943795401996089 0.00076050384164506001 0 -0.034992091049443667 0.0006808052337429583 0 -0.034943795401996089 0.00076050384164506001 0 -0.034905103120074409 0.0006753113528319176 0 -0.034992091049443667 0.0006808052337429583 0 -0.027803804571017443 0.0029544735377195668 0 -0.027808208618585507 0.0029558603220632613 0 -0.027808689507212943 0.0029502066983836867 0 -0.027806494041329038 0.0029428877140075262 0 -0.027803804571017443 0.0029544735377195668 0 -0.027808689507212943 0.0029502066983836867 0 -0.027807853322496846 0.0029569781987757908 0 -0.027800532365958138 0.0029618811622004748 0 -0.027803804571017443 0.0029544735377195668 0 -0.027800532365958138 0.0029618811622004748 0 -0.027803804571017443 0.0029544735377195668 0 -0.027802970676841818 0.0029604078584112956 0 -0.027803804571017443 0.0029544735377195668 0 -0.027802970676841818 0.0029604078584112956 0 -0.027808208618585507 0.0029558603220632613 0 -0.027813736744398469 0.002956090372057386 0 -0.027808208618585507 0.0029558603220632613 0 -0.027812654236862109 0.0029524462271005259 0 -0.027809153829047372 0.002962285932889381 0 -0.027813736744398469 0.002956090372057386 0 -0.027808208618585507 0.0029558603220632613 0 -0.027809153829047372 0.002962285932889381 0 -0.027802970676841818 0.0029604078584112956 0 -0.027808208618585507 0.0029558603220632613 0 -0.027809153829047372 0.002962285932889381 0 -0.027820608347188251 0.0029644629195912935 0 -0.027813736744398469 0.002956090372057386 0 -0.027808208618585507 0.0029558603220632613 0 -0.027812654236862109 0.0029524462271005259 0 -0.027808689507212943 0.0029502066983836867 0 -0.031099773835682413 0.0017261171464537136 0 -0.031339894560975683 0.001736836721966749 0 -0.027812654236862109 0.0029524462271005259 0 -0.027808689507212943 0.0029502066983836867 0 -0.027811892516493915 0.0029532327263959534 0 -0.027806494041329038 0.0029428877140075262 0 -0.027808689507212943 0.0029502066983836867 0 -0.027811892516493915 0.0029532327263959534 0 -0.031339894560975683 0.001736836721966749 0 -0.031834197328424504 0.0013159778495948958 0 -0.028250011806488822 0.0026023774245171605 0 -0.027972148062737665 0.0026003193426843716 0 -0.028140903865766152 0.0023928883779141389 0 -0.030254084888933615 0.002462900855417212 0 -0.031339894560975683 0.001736836721966749 0 -0.02802114826455545 0.0028029019451995042 0 -0.028250011806488822 0.0026023774245171605 0 -0.027972148062737665 0.0026003193426843716 0 -0.035171916952880813 0.0006213846478077508 0 -0.035172060636408611 0.00045005361055901302 0 -0.035273798418294589 0.00048717131630259355 0 -0.03110506261710054 0.0020312261862676238 0 -0.03191271386179672 0.0010942415460849569 0 -0.035172060636408611 0.00045005361055901302 0 -0.035273798418294589 0.00048717131630259355 0 -0.03520653815903653 0.0003610369729484357 0 -0.032145556551510614 0.00051629799168395813 0 -0.032291347125291053 0.00078652099071903987 0 -0.031908823106349134 0.00073532832112406337 0 -0.032291347125291053 0.00078652099071903987 0 -0.032114327153776885 0.0010057882793064381 0 -0.031908823106349134 0.00073532832112406337 0 -0.03191271386179672 0.0010942415460849569 0 -0.032509705381171969 0.00067397544445765953 0 -0.031339894560975683 0.001736836721966749 0 -0.03191271386179672 0.0010942415460849569 0 -0.034942808632745535 0.00058758537356656056 0 -0.034905103120074409 0.0006753113528319176 0 -0.034992091049443667 0.0006808052337429583 0 -0.034942808632745535 0.00058758537356656056 0 -0.034992091049443667 0.0006808052337429583 0 -0.035063615286369226 0.00059606731750805526 0 -0.030157758746004997 0.0031280928417891487 0 -0.03110506261710054 0.0020312261862676238 0 -0.035065904727950098 0.00076542068026966216 0 -0.035171916952880813 0.0006213846478077508 0 -0.035063615286369226 0.00059606731750805526 0 -0.035065904727950098 0.00076542068026966216 0 -0.034992091049443667 0.0006808052337429583 0 -0.035063615286369226 0.00059606731750805526 0 -0.035171916952880813 0.0006213846478077508 0 -0.035063615286369226 0.00059606731750805526 0 -0.035086273424125305 0.00048939859316938757 0 -0.035171916952880813 0.0006213846478077508 0 -0.035172060636408611 0.00045005361055901302 0 -0.035086273424125305 0.00048939859316938757 0 -0.035172060636408611 0.00045005361055901302 0 -0.035086273424125305 0.00048939859316938757 0 -0.035114201151856865 0.00041009157705631041 0 -0.035086273424125305 0.00048939859316938757 0 -0.034989802570826366 0.0004801722998002222 0 -0.035050105038296989 0.00038247845310428972 0 -0.035063615286369226 0.00059606731750805526 0 -0.035086273424125305 0.00048939859316938757 0 -0.034989802570826366 0.0004801722998002222 0 -0.034890071577148588 0.00050011652196973761 0 -0.034989802570826366 0.0004801722998002222 0 -0.034926800899497068 0.00035560404608602305 0 -0.034942808632745535 0.00058758537356656056 0 -0.035063615286369226 0.00059606731750805526 0 -0.034989802570826366 0.0004801722998002222 0 -0.034890071577148588 0.00050011652196973761 0 -0.034942808632745535 0.00058758537356656056 0 -0.034989802570826366 0.0004801722998002222 0 -0.034926800899497068 0.00035560404608602305 0 -0.035050105038296989 0.00038247845310428972 0 -0.035092724262897862 0.0002817464923882281 0 -0.034989802570826366 0.0004801722998002222 0 -0.034926800899497068 0.00035560404608602305 0 -0.035050105038296989 0.00038247845310428972 0 -0.035050105038296989 0.00038247845310428972 0 -0.035103264474057469 0.00035717611689562942 0 -0.035092724262897862 0.0002817464923882281 0 -0.035086273424125305 0.00048939859316938757 0 -0.035050105038296989 0.00038247845310428972 0 -0.035114201151856865 0.00041009157705631041 0 -0.035172060636408611 0.00045005361055901302 0 -0.035114201151856865 0.00041009157705631041 0 -0.035156087870446093 0.00035508355918231754 0 -0.035050105038296989 0.00038247845310428972 0 -0.035114201151856865 0.00041009157705631041 0 -0.035103264474057469 0.00035717611689562942 0 -0.035114201151856865 0.00041009157705631041 0 -0.035103264474057469 0.00035717611689562942 0 -0.035156087870446093 0.00035508355918231754 0 -0.035103264474057469 0.00035717611689562942 0 -0.035092724262897862 0.0002817464923882281 0 -0.035156087870446093 0.00035508355918231754 0 -0.035092724262897862 0.0002817464923882281 0 -0.035156087870446093 0.00035508355918231754 0 -0.035204838746055366 0.00036065223078393297 0 -0.034926800899497068 0.00035560404608602305 0 -0.035092724262897862 0.0002817464923882281 0 -0.035084132429821571 0.00018558950198593096 0 -0.035092724262897862 0.0002817464923882281 0 -0.035111928031815037 0.00018708563133696635 0 -0.035204838746055366 0.00036065223078393297 0 -0.035092724262897862 0.0002817464923882281 0 -0.035111928031815037 0.00018708563133696635 0 -0.035084132429821571 0.00018558950198593096 0 -0.034999961075893517 -7.3034139421067521e-08 0 -0.035024555077594478 4.5794997139041491e-05 0 -0.034903295954380804 7.3039702714457364e-08 0 -0.034860510089574796 6.7818644749943302e-05 0 -0.034863534551513996 7.1725673179975869e-05 0 -0.034992693301381064 3.7294509036910022e-06 0 -0.034860510089574796 6.7818644749943302e-05 0 -0.034999894917946729 -4.9624496404079384e-08 0 -0.035032686025934998 3.9852113182579801e-05 0 -0.034903426146034158 5.0077546842050178e-08 0 -0.034830557965217904 0.00015932780103053475 0 -0.034863534551513996 7.1725673179975869e-05 0 -0.033647044157147921 0.00016373819812870078 0 -0.033811166258867181 0.00018261166392651986 0 -0.033712589609648416 0.00025069214444740576 0 -0.032509705381171969 0.00067397544445765953 0 -0.033091624830853046 0.0007185394239934607 0 -0.033613293669593258 0.00020517672026728351 0 -0.033712589609648416 0.00025069214444740576 0 -0.033608295398436475 0.0002780979132096116 0 -0.033613293669593258 0.00020517672026728351 0 -0.033647044157147921 0.00016373819812870078 0 -0.033712589609648416 0.00025069214444740576 0 -0.03252137512811467 0.00066287868626163898 0 -0.032509705381171969 0.00067397544445765953 0 -0.03191271386179672 0.0010942415460849569 0 -0.033091624830853046 0.0007185394239934607 0 -0.032146823263541568 0.00023336505926905337 0 -0.032084492599337981 0.00031034031016661926 0 -0.032195995068677985 0.00032340785958929721 0 -0.035172060636408611 0.00045005361055901302 0 -0.035156087870446093 0.00035508355918231754 0 -0.03520653815903653 0.0003610369729484357 0 -0.033121551929831961 0.00071971901950979261 0 -0.033091624830853046 0.0007185394239934607 0 -0.03391350885485369 0.00037068836504725147 0 -0.033711353637476578 0.0003592301124943013 0 -0.033712589609648416 0.00025069214444740576 0 -0.034999999850127805 1.3079870647984036e-10 0 -0.034999986113510198 2.6859228029894723e-08 0 -0.034999999699841203 2.7347527367322992e-10 0 -0.034860510089574796 6.7818644749943302e-05 0 -0.034692604909630498 4.4867340072264005e-05 0 -0.034999986113510198 2.6859228029894723e-08 0 -0.034999999699841203 2.7347527367322992e-10 0 -0.034999968462379162 2.9992478238273778e-08 0 -0.03391350885485369 0.00037068836504725147 0 -0.033811166258867181 0.00018261166392651986 0 -0.033712589609648416 0.00025069214444740576 0 -0.034860510089574796 6.7818644749943302e-05 0 -0.033091624830853046 0.0007185394239934607 0 -0.034999999699841203 2.7347527367322992e-10 0 -0.034999968462379162 2.9992478238273778e-08 0 -0.03499999998142795 -5.3019528236783341e-10 0 -0.034692604909630498 4.4867340072264005e-05 0 -0.034674126572251163 1.3911163198786243e-05 0 -0.033711353637476578 0.0003592301124943013 0 -0.033608295398436475 0.0002780979132096116 0 -0.033508953729803455 0.00034772257836618623 0 -0.033711353637476578 0.0003592301124943013 0 -0.033712589609648416 0.00025069214444740576 0 -0.033608295398436475 0.0002780979132096116 0 -0.034999968462379162 2.9992478238273778e-08 0 -0.03499999998142795 -5.3019528236783341e-10 0 -0.034999958655383114 -6.2273422328108363e-08 0 -0.033508953729803455 0.00034772257836618623 0 -0.033361974231093702 0.00018432435014271352 0 -0.033494689584336754 0.00022738070495440541 0 -0.034995481912754693 1.5847615640674793e-06 0 -0.034674126572251163 1.3911163198786243e-05 0 -0.035000066414486594 1.1222334137145563e-08 0 -0.034999929602202155 -1.2092134830004329e-08 0 -0.034992149356701426 -3.9526315539514589e-05 0 -0.033608295398436475 0.0002780979132096116 0 -0.033508953729803455 0.00034772257836618623 0 -0.033494689584336754 0.00022738070495440541 0 -0.034999929602202155 -1.2092134830004329e-08 0 -0.034992149356701426 -3.9526315539514589e-05 0 -0.034727205933314194 -0.00013936168240418479 0 -0.034992149356701426 -3.9526315539514589e-05 0 -0.034821028805179635 -0.00022700494096754983 0 -0.034727205933314194 -0.00013936168240418479 0 -0.034998056877000437 7.5232780588514683e-07 0 -0.03397777397706897 5.4814808526015403e-06 0 -0.034999998935764484 1.3575616386197431e-09 0 -0.03499942314830512 1.6442440072199504e-07 0 -0.034999999266990191 -5.5252906638487718e-10 0 -0.034674126572251163 1.3911163198786243e-05 0 -0.033436413529740902 0.00024155532865918162 0 -0.033436413529740902 0.00024155532865918162 0 -0.03397777397706897 5.4814808526015403e-06 0 -0.033361974231093702 0.00018432435014271352 0 -0.033415039424530897 0.00013510037144216289 0 -0.033494689584336754 0.00022738070495440541 0 -0.033436413529740902 0.00024155532865918162 0 -0.032779919850957739 0.00057553279423043187 0 -0.03371987382257393 0.0011610093706551389 0 -0.034530422536161363 0.000409384942105802 0 -0.032879549021713521 0.00022110662428511044 0 -0.027834001471561214 0.0028588199187022621 0 -0.027857441582001315 0.0028890788511496297 0 -0.02792549713631411 0.0028396923893473035 0 -0.032779919850957739 0.00057553279423043187 0 -0.033104657571429705 0.00031613104494360926 0 -0.033436413529740902 0.00024155532865918162 0 -0.033104657571429705 0.00031613104494360926 0 -0.033944401020293946 9.3842051141398964e-05 0 -0.033930215329100899 7.7915145073698079e-05 0 -0.033927044701371138 9.3494862918118874e-05 0 -0.033613293669593258 0.00020517672026728351 0 -0.033647190129504588 0.00016298734464923441 0 -0.033415039424530897 0.00013510037144216289 0 -0.033613293669593258 0.00020517672026728351 0 -0.033415039424530897 0.00013510037144216289 0 -0.033494689584336754 0.00022738070495440541 0 -0.032509705381171969 0.00067397544445765953 0 -0.032779919850957739 0.00057553279423043187 0 -0.033613293669593258 0.00020517672026728351 0 -0.033608295398436475 0.0002780979132096116 0 -0.033494689584336754 0.00022738070495440541 0 -0.032114327153776885 0.0010057882793064381 0 -0.031672439974168271 0.00095418116557322615 0 -0.031908823106349134 0.00073532832112406337 0 -0.027813230213217629 0.0028849149994006132 0 -0.027829273308636042 0.0028883437030980249 0 -0.027811802127647132 0.0029037776193416563 0 -0.027834001471561214 0.0028588199187022621 0 -0.027813230213217629 0.0028849149994006132 0 -0.027829273308636042 0.0028883437030980249 0 -0.032779919850957739 0.00057553279423043187 0 -0.031834197328424504 0.0013159778495948958 0 -0.030064226974008377 0.0012316544756232899 0 -0.030115617195228764 0.0011266397387427454 0 -0.027857441582001315 0.0028890788511496297 0 -0.02782742069348303 0.00288358407598476 0 -0.02776311809982281 0.002864785645384102 0 -0.027857441582001315 0.0028890788511496297 0 -0.027951131651055686 0.0030766153753925213 0 -0.027939973450370293 0.0029276476786372122 0 -0.027834001471561214 0.0028588199187022621 0 -0.027857441582001315 0.0028890788511496297 0 -0.027829273308636042 0.0028883437030980249 0 -0.027857441582001315 0.0028890788511496297 0 -0.027939973450370293 0.0029276476786372122 0 -0.02792549713631411 0.0028396923893473035 0 -0.027857441582001315 0.0028890788511496297 0 -0.027829273308636042 0.0028883437030980249 0 -0.02782742069348303 0.00288358407598476 0 -0.025938807590812605 0.0029554386973205506 0 -0.02605206893214243 0.0030076050135430334 0 -0.027829273308636042 0.0028883437030980249 0 -0.02782742069348303 0.00288358407598476 0 -0.027822653857501774 0.0029095661656835772 0 -0.027843817315418993 0.0029272347197228715 0 -0.02782742069348303 0.00288358407598476 0 -0.027822653857501774 0.0029095661656835772 0 -0.027829273308636042 0.0028883437030980249 0 -0.027822653857501774 0.0029095661656835772 0 -0.027811802127647132 0.0029037776193416563 0 -0.027806494041329038 0.0029428877140075262 0 -0.02779139856115842 0.0029027214927021894 0 -0.027811802127647132 0.0029037776193416563 0 -0.02779139856115842 0.0029027214927021894 0 -0.027813230213217629 0.0028849149994006132 0 -0.027811802127647132 0.0029037776193416563 0 -0.034791011700810712 9.7114603954080294e-07 0 -0.034828962555457317 -4.1677722438721822e-05 0 -0.034857502297033639 -1.1536516608987996e-05 0 -0.034791011700810712 9.7114603954080294e-07 0 -0.034753328744587073 -4.5536324972865965e-05 0 -0.034790244319348566 -4.3618548305800633e-05 0 -0.034791011700810712 9.7114603954080294e-07 0 -0.034790244319348566 -4.3618548305800633e-05 0 -0.034828962555457317 -4.1677722438721822e-05 0 -0.028160027647340779 0.0032130713661721751 0 -0.028194889142159129 0.0031291208070130792 0 -0.027951131651055686 0.0030766153753925213 0 -0.027742052768139937 0.002693899482188847 0 -0.02782742069348303 0.00288358407598476 0 -0.027699140800200948 0.0027814598398953482 0 -0.028194889142159129 0.0031291208070130792 0 -0.027951131651055686 0.0030766153753925213 0 -0.028020537398423962 0.0029170677004437245 0 -0.0307520539222279 0.0010051875660376092 0 -0.030115617195228764 0.0011266397387427454 0 -0.030825653238997237 0.00075819456551334298 0 -0.030880529980626743 0.00076723355228999106 0 -0.030901258848011204 0.00081361921419212326 0 -0.029906608740514155 0.0012082495389905583 0 -0.030115617195228764 0.0011266397387427454 0 -0.02782742069348303 0.00288358407598476 0 -0.027699140800200948 0.0027814598398953482 0 -0.02776311809982281 0.002864785645384102 0 -0.032182317016418632 0.00073674501783610859 0 -0.032810974702740837 0.00044474687597492675 0 -0.034731010517263142 -6.7571928453713428e-05 0 -0.034787350437945445 -9.0599956404852278e-05 0 -0.034699552291802098 -0.00010119520435381833 0 -0.034791011700810712 9.7114603954080294e-07 0 -0.034753328744587073 -4.5536324972865965e-05 0 -0.034730668975753311 -6.5394890530314208e-05 0 -0.032832084539180663 0.00045338157992917319 0 -0.032810974702740837 0.00044474687597492675 0 -0.027951131651055686 0.0030766153753925213 0 -0.027939973450370293 0.0029276476786372122 0 -0.028020537398423962 0.0029170677004437245 0 -0.032810974702740837 0.00044474687597492675 0 -0.033104657571429705 0.00031613104494360926 0 -0.027939973450370293 0.0029276476786372122 0 -0.028020537398423962 0.0029170677004437245 0 -0.02792549713631411 0.0028396923893473035 0 -0.034753328744587073 -4.5536324972865965e-05 0 -0.034731010517263142 -6.7571928453713428e-05 0 -0.034787350437945445 -9.0599956404852278e-05 0 -0.034753328744587073 -4.5536324972865965e-05 0 -0.034787350437945445 -9.0599956404852278e-05 0 -0.034790244319348566 -4.3618548305800633e-05 0 -0.034787350437945445 -9.0599956404852278e-05 0 -0.034790244319348566 -4.3618548305800633e-05 0 -0.034828962555457317 -4.1677722438721822e-05 0 -0.033885892034203002 7.2704787850099654e-05 0 -0.033882692866863261 8.9440409103993992e-05 0 -0.033843781485178047 6.7480873393724677e-05 0 -0.033885892034203002 7.2704787850099654e-05 0 -0.033882692866863261 8.9440409103993992e-05 0 -0.033909856858074176 8.9550683322919524e-05 0 -0.034999403154937804 -1.3338464136294918e-06 0 -0.034999622955773059 -2.5807027327082128e-07 0 -0.034998396155887665 -8.0774820849259548e-07 0 -0.033882692866863261 8.9440409103993992e-05 0 -0.033909856858074176 8.9550683322919524e-05 0 -0.033923890995148677 0.00011268390426097768 0 -0.034110919087147848 0.00012825881123316188 0 -0.03397777397706897 5.4814808526015403e-06 0 -0.033885892034203002 7.2704787850099654e-05 0 -0.033930215329100899 7.7915145073698079e-05 0 -0.033909856858074176 8.9550683322919524e-05 0 -0.034999403154937804 -1.3338464136294918e-06 0 -0.034999542962067372 -1.7899563476148105e-07 0 -0.034999621463324034 -2.5780333532944068e-08 0 -0.033728074893792696 0.00026709273384258161 0 -0.033104657571429705 0.00031613104494360926 0 -0.033930215329100899 7.7915145073698079e-05 0 -0.033909856858074176 8.9550683322919524e-05 0 -0.033927044701371138 9.3494862918118874e-05 0 -0.033909856858074176 8.9550683322919524e-05 0 -0.033927044701371138 9.3494862918118874e-05 0 -0.033923890995148677 0.00011268390426097768 0 -0.033944401020293946 9.3842051141398964e-05 0 -0.033927044701371138 9.3494862918118874e-05 0 -0.033923890995148677 0.00011268390426097768 0 -0.03499942314830512 1.6442440072199504e-07 0 -0.034999621463324034 -2.5780333532944068e-08 0 -0.034999999266990191 -5.5252906638487718e-10 0 -0.03397777397706897 5.4814808526015403e-06 0 -0.033984264434956571 1.7560636992489774e-06 0 -0.034999621463324034 -2.5780333532944068e-08 0 -0.034999999266990191 -5.5252906638487718e-10 0 -0.034999622955773059 -2.5807027327082128e-07 0 -0.034999622955773059 -2.5807027327082128e-07 0 -0.034999998211621725 2.5915517963585819e-10 0 -0.034998396155887665 -8.0774820849259548e-07 0 -0.034999999266990191 -5.5252906638487718e-10 0 -0.034999622955773059 -2.5807027327082128e-07 0 -0.034999998211621725 2.5915517963585819e-10 0 -0.034999403154937804 -1.3338464136294918e-06 0 -0.034999621463324034 -2.5780333532944068e-08 0 -0.034999622955773059 -2.5807027327082128e-07 0 -0.034999998211621725 2.5915517963585819e-10 0 -0.034997136943114918 -1.3550244744155862e-07 0 -0.034998396155887665 -8.0774820849259548e-07 0 -0.034997136943114918 -1.3550244744155862e-07 0 -0.034991818487423387 -1.1064139521388962e-06 0 -0.03499998819672414 1.5085145269814963e-09 0 -0.034999998211621725 2.5915517963585819e-10 0 -0.034997136943114918 -1.3550244744155862e-07 0 -0.03499998819672414 1.5085145269814963e-09 0 -0.034997136943114918 -1.3550244744155862e-07 0 -0.034991818487423387 -1.1064139521388962e-06 0 -0.034995656993797475 -1.9541422601242771e-06 0 -0.034991818487423387 -1.1064139521388962e-06 0 -0.034993450823621278 -2.9564708251062179e-06 0 -0.034995656993797475 -1.9541422601242771e-06 0 -0.034999403154937804 -1.3338464136294918e-06 0 -0.034998396155887665 -8.0774820849259548e-07 0 -0.034996398807463275 -4.1254768804169034e-06 0 -0.034995656993797475 -1.9541422601242771e-06 0 -0.034998396155887665 -8.0774820849259548e-07 0 -0.034996398807463275 -4.1254768804169034e-06 0 -0.034993450823621278 -2.9564708251062179e-06 0 -0.034995656993797475 -1.9541422601242771e-06 0 -0.034996398807463275 -4.1254768804169034e-06 0 -0.034110919087147848 0.00012825881123316188 0 -0.034148685848065526 0.00022405111318649779 0 -0.034997136943114918 -1.3550244744155862e-07 0 -0.034995656993797475 -1.9541422601242771e-06 0 -0.034998396155887665 -8.0774820849259548e-07 0 -0.034999990899175326 -3.9354282817170331e-09 0 -0.034989967039296126 -1.944256851216505e-06 0 -0.034995268684855169 -2.1636356293999269e-06 0 -0.034991818487423387 -1.1064139521388962e-06 0 -0.03499998819672414 1.5085145269814963e-09 0 -0.034989967039296126 -1.944256851216505e-06 0 -0.034999990899175326 -3.9354282817170331e-09 0 -0.03499998819672414 1.5085145269814963e-09 0 -0.034989967039296126 -1.944256851216505e-06 0 -0.034991818487423387 -1.1064139521388962e-06 0 -0.034989967039296126 -1.944256851216505e-06 0 -0.034981539349456824 -3.1879345128735254e-06 0 -0.034989967039296126 -1.944256851216505e-06 0 -0.034981002274764542 -3.449781257267145e-06 0 -0.034995268684855169 -2.1636356293999269e-06 0 -0.034981002274764542 -3.449781257267145e-06 0 -0.034992840803422416 -9.077860015836353e-07 0 -0.034995268684855169 -2.1636356293999269e-06 0 -0.034981002274764542 -3.449781257267145e-06 0 -0.034965637526603928 1.0194480521612188e-05 0 -0.034992840803422416 -9.077860015836353e-07 0 -0.034989967039296126 -1.944256851216505e-06 0 -0.034981002274764542 -3.449781257267145e-06 0 -0.034981539349456824 -3.1879345128735254e-06 0 -0.034981002274764542 -3.449781257267145e-06 0 -0.034981539349456824 -3.1879345128735254e-06 0 -0.034965697521233789 -5.9012885275646145e-06 0 -0.034981539349456824 -3.1879345128735254e-06 0 -0.034965697521233789 -5.9012885275646145e-06 0 -0.034988354821538337 -6.678661482266756e-06 0 -0.034339290436257032 0.00026133641241317298 0 -0.034293137020902476 0.00025251354766607666 0 -0.034981002274764542 -3.449781257267145e-06 0 -0.034965697521233789 -5.9012885275646145e-06 0 -0.034965637526603928 1.0194480521612188e-05 0 -0.034965697521233789 -5.9012885275646145e-06 0 -0.034947526583211729 1.3789596936001337e-05 0 -0.034912573063458047 -3.2211259892829481e-06 0 -0.034965697521233789 -5.9012885275646145e-06 0 -0.034947526583211729 1.3789596936001337e-05 0 -0.034965637526603928 1.0194480521612188e-05 0 -0.034947526583211729 1.3789596936001337e-05 0 -0.034965637526603928 1.0194480521612188e-05 0 -0.0349563973200352 2.6143707615705384e-05 0 -0.034965637526603928 1.0194480521612188e-05 0 -0.03497144170122423 1.5775451692887504e-05 0 -0.034973620185971908 7.8044597230220136e-06 0 -0.034965637526603928 1.0194480521612188e-05 0 -0.03497144170122423 1.5775451692887504e-05 0 -0.034966269246598819 2.5580087659354502e-05 0 -0.034983151339677152 4.5181403830544952e-06 0 -0.034985062911333055 3.2342912311225739e-06 0 -0.034787350437945445 -9.0599956404852278e-05 0 -0.034828962555457317 -4.1677722438721822e-05 0 -0.034865468861800086 -7.8247254996445967e-05 0 -0.033728074893792696 0.00026709273384258161 0 -0.034148685848065526 0.00022405111318649779 0 -0.034879551371362755 -4.0751495431823967e-05 0 -0.034828962555457317 -4.1677722438721822e-05 0 -0.034865468861800086 -7.8247254996445967e-05 0 -0.034993450823621278 -2.9564708251062179e-06 0 -0.034996398807463275 -4.1254768804169034e-06 0 -0.034988354821538337 -6.678661482266756e-06 0 -0.034148685848065526 0.00022405111318649779 0 -0.034293137020902476 0.00025251354766607666 0 -0.034991818487423387 -1.1064139521388962e-06 0 -0.034993450823621278 -2.9564708251062179e-06 0 -0.034988354821538337 -6.678661482266756e-06 0 -0.034991818487423387 -1.1064139521388962e-06 0 -0.034981539349456824 -3.1879345128735254e-06 0 -0.034988354821538337 -6.678661482266756e-06 0 -0.034879551371362755 -4.0751495431823967e-05 0 -0.034865468861800086 -7.8247254996445967e-05 0 -0.034916063805375971 -4.6302188304058373e-05 0 -0.034879551371362755 -4.0751495431823967e-05 0 -0.034916063805375971 -4.6302188304058373e-05 0 -0.034912573063458047 -3.2211259892829481e-06 0 -0.034965697521233789 -5.9012885275646145e-06 0 -0.034916063805375971 -4.6302188304058373e-05 0 -0.034912573063458047 -3.2211259892829481e-06 0 -0.034947526583211729 1.3789596936001337e-05 0 -0.034912573063458047 -3.2211259892829481e-06 0 -0.034919392481019544 2.3750815303602809e-05 0 -0.034912573063458047 -3.2211259892829481e-06 0 -0.03486798419078134 2.4209647657319093e-05 0 -0.034919392481019544 2.3750815303602809e-05 0 -0.034791011700810712 9.7114603954080294e-07 0 -0.034857502297033639 -1.1536516608987996e-05 0 -0.03486798419078134 2.4209647657319093e-05 0 -0.034912573063458047 -3.2211259892829481e-06 0 -0.034857502297033639 -1.1536516608987996e-05 0 -0.03486798419078134 2.4209647657319093e-05 0 -0.034879551371362755 -4.0751495431823967e-05 0 -0.034912573063458047 -3.2211259892829481e-06 0 -0.034857502297033639 -1.1536516608987996e-05 0 -0.034879551371362755 -4.0751495431823967e-05 0 -0.034828962555457317 -4.1677722438721822e-05 0 -0.034857502297033639 -1.1536516608987996e-05 0 -0.034791011700810712 9.7114603954080294e-07 0 -0.03486798419078134 2.4209647657319093e-05 0 -0.034843022673470898 5.7433460608685793e-05 0 -0.034843022673470898 5.7433460608685793e-05 0 -0.034888150991607546 8.3881932624620115e-05 0 -0.034900258856325223 4.2893670528182258e-05 0 -0.03486798419078134 2.4209647657319093e-05 0 -0.034843022673470898 5.7433460608685793e-05 0 -0.034900258856325223 4.2893670528182258e-05 0 -0.030785006049759294 0.00066256758268384115 0 -0.030751338491268855 0.0007025313615913679 0 -0.030750761484040118 0.00063059568447371747 0 -0.030817859498168267 0.00076737002839798629 0 -0.03072360087662766 0.00063920147123172676 0 -0.030718057520989578 0.00069573394735725842 0 -0.030751338491268855 0.0007025313615913679 0 -0.030691034055193297 0.00061726246960717404 0 -0.030750761484040118 0.00063059568447371747 0 -0.031571379661956576 0.0008667740242720973 0 -0.031370227102536966 0.00070109670046105646 0 -0.031571379661956576 0.0008667740242720973 0 -0.032020432070243514 0.00069039022910318785 0 -0.030691034055193297 0.00061726246960717404 0 -0.030750761484040118 0.00063059568447371747 0 -0.030724245833584445 0.00058854211156358926 0 -0.030784461503137725 0.0006148749884233865 0 -0.030750761484040118 0.00063059568447371747 0 -0.030761448625449737 0.00058805202126723487 0 -0.034924887910781889 0.00011419710764377226 0 -0.034888150991607546 8.3881932624620115e-05 0 -0.034900258856325223 4.2893670528182258e-05 0 -0.03236560419119424 0.00048527158208528753 0 -0.032554216446495671 0.0005519333113923493 0 -0.034931423775854273 5.8251079715350621e-05 0 -0.034928750886691506 4.6690101326874221e-05 0 -0.034900258856325223 4.2893670528182258e-05 0 -0.03072360087662766 0.00063920147123172676 0 -0.030626962603544423 0.0006253988645266086 0 -0.030718057520989578 0.00069573394735725842 0 -0.03236560419119424 0.00048527158208528753 0 -0.032020432070243514 0.00069039022910318785 0 -0.034928750886691506 4.6690101326874221e-05 0 -0.034926876356816357 3.6556952451901928e-05 0 -0.034900258856325223 4.2893670528182258e-05 0 -0.03486798419078134 2.4209647657319093e-05 0 -0.034900258856325223 4.2893670528182258e-05 0 -0.034919392481019544 2.3750815303602809e-05 0 -0.034926876356816357 3.6556952451901928e-05 0 -0.034900258856325223 4.2893670528182258e-05 0 -0.034919392481019544 2.3750815303602809e-05 0 -0.034926876356816357 3.6556952451901928e-05 0 -0.034919392481019544 2.3750815303602809e-05 0 -0.034938876207334664 2.7905697413891474e-05 0 -0.034947526583211729 1.3789596936001337e-05 0 -0.034938876207334664 2.7905697413891474e-05 0 -0.0349563973200352 2.6143707615705384e-05 0 -0.034938876207334664 2.7905697413891474e-05 0 -0.0349563973200352 2.6143707615705384e-05 0 -0.034941692142539761 3.7839526108441156e-05 0 -0.034947526583211729 1.3789596936001337e-05 0 -0.034919392481019544 2.3750815303602809e-05 0 -0.034938876207334664 2.7905697413891474e-05 0 -0.0349563973200352 2.6143707615705384e-05 0 -0.034941692142539761 3.7839526108441156e-05 0 -0.034951840284911835 4.0718210630153929e-05 0 -0.034926876356816357 3.6556952451901928e-05 0 -0.034938876207334664 2.7905697413891474e-05 0 -0.034941692142539761 3.7839526108441156e-05 0 -0.034928750886691506 4.6690101326874221e-05 0 -0.034926876356816357 3.6556952451901928e-05 0 -0.034941692142539761 3.7839526108441156e-05 0 -0.0349563973200352 2.6143707615705384e-05 0 -0.034966269246598819 2.5580087659354502e-05 0 -0.034959524822035001 3.2887038145308254e-05 0 -0.034965637526603928 1.0194480521612188e-05 0 -0.0349563973200352 2.6143707615705384e-05 0 -0.034966269246598819 2.5580087659354502e-05 0 -0.0349563973200352 2.6143707615705384e-05 0 -0.034959524822035001 3.2887038145308254e-05 0 -0.034951840284911835 4.0718210630153929e-05 0 -0.034966269246598819 2.5580087659354502e-05 0 -0.034963345205838756 3.944977160413798e-05 0 -0.034975060054445124 2.6320905120673902e-05 0 -0.034966269246598819 2.5580087659354502e-05 0 -0.034959524822035001 3.2887038145308254e-05 0 -0.034963345205838756 3.944977160413798e-05 0 -0.034963345205838756 3.944977160413798e-05 0 -0.034950482586415837 5.1705167460092228e-05 0 -0.03496065802926094 5.7036393180724043e-05 0 -0.034959524822035001 3.2887038145308254e-05 0 -0.034963345205838756 3.944977160413798e-05 0 -0.034951840284911835 4.0718210630153929e-05 0 -0.034963345205838756 3.944977160413798e-05 0 -0.034950482586415837 5.1705167460092228e-05 0 -0.034951840284911835 4.0718210630153929e-05 0 -0.034928750886691506 4.6690101326874221e-05 0 -0.034941692142539761 3.7839526108441156e-05 0 -0.034939472954851919 5.1672505077349169e-05 0 -0.034941692142539761 3.7839526108441156e-05 0 -0.034951840284911835 4.0718210630153929e-05 0 -0.034939472954851919 5.1672505077349169e-05 0 -0.034950482586415837 5.1705167460092228e-05 0 -0.034939472954851919 5.1672505077349169e-05 0 -0.034942645855739002 5.5210921025521659e-05 0 -0.034950482586415837 5.1705167460092228e-05 0 -0.034951840284911835 4.0718210630153929e-05 0 -0.034939472954851919 5.1672505077349169e-05 0 -0.034939472954851919 5.1672505077349169e-05 0 -0.034935740001350787 5.8280256823561472e-05 0 -0.034942645855739002 5.5210921025521659e-05 0 -0.034931423775854273 5.8251079715350621e-05 0 -0.034939472954851919 5.1672505077349169e-05 0 -0.034935740001350787 5.8280256823561472e-05 0 -0.034931423775854273 5.8251079715350621e-05 0 -0.034928750886691506 4.6690101326874221e-05 0 -0.034939472954851919 5.1672505077349169e-05 0 -0.03236560419119424 0.00048527158208528753 0 -0.032396060392651201 0.00049730174898163584 0 -0.03236560419119424 0.00048527158208528753 0 -0.032148358383858017 0.00017636907695556115 0 -0.030626962603544423 0.0006253988645266086 0 -0.030581260391166525 0.00051214296911054511 0 -0.030635493785419913 0.00052752032988249487 0 -0.034930681776257112 5.5699432463796358e-05 0 -0.034935740001350787 5.8280256823561472e-05 0 -0.034938238525274085 6.814877569599226e-05 0 -0.034935740001350787 5.8280256823561472e-05 0 -0.034942645855739002 5.5210921025521659e-05 0 -0.034945284430457045 6.0914451505114919e-05 0 -0.034950482586415837 5.1705167460092228e-05 0 -0.034942645855739002 5.5210921025521659e-05 0 -0.034945284430457045 6.0914451505114919e-05 0 -0.034935740001350787 5.8280256823561472e-05 0 -0.034945284430457045 6.0914451505114919e-05 0 -0.034938238525274085 6.814877569599226e-05 0 -0.034950482586415837 5.1705167460092228e-05 0 -0.034945284430457045 6.0914451505114919e-05 0 -0.03496065802926094 5.7036393180724043e-05 0 -0.034945284430457045 6.0914451505114919e-05 0 -0.03496065802926094 5.7036393180724043e-05 0 -0.034950851162695654 7.0450800157955198e-05 0 -0.03496065802926094 5.7036393180724043e-05 0 -0.034950851162695654 7.0450800157955198e-05 0 -0.034963211332571097 6.9196642911559323e-05 0 -0.034950851162695654 7.0450800157955198e-05 0 -0.034943579155251425 8.2105505300658846e-05 0 -0.034953926601716034 8.2418224667214434e-05 0 -0.034950851162695654 7.0450800157955198e-05 0 -0.034963211332571097 6.9196642911559323e-05 0 -0.034953926601716034 8.2418224667214434e-05 0 -0.030581260391166525 0.00051214296911054511 0 -0.030587510180762754 0.00046367784551843962 0 -0.030544616136143711 0.00042269847997175337 0 -0.032148358383858017 0.00017636907695556115 0 -0.031840304647141653 -0.00022856460042725631 0 -0.034950851162695654 7.0450800157955198e-05 0 -0.034938238525274085 6.814877569599226e-05 0 -0.034943579155251425 8.2105505300658846e-05 0 -0.030581260391166525 0.00051214296911054511 0 -0.030604350418335403 0.00048518793747363061 0 -0.030635493785419913 0.00052752032988249487 0 -0.030581260391166525 0.00051214296911054511 0 -0.030604350418335403 0.00048518793747363061 0 -0.030587510180762754 0.00046367784551843962 0 -0.034945284430457045 6.0914451505114919e-05 0 -0.034950851162695654 7.0450800157955198e-05 0 -0.034938238525274085 6.814877569599226e-05 0 -0.030587510180762754 0.00046367784551843962 0 -0.030615100965682443 0.00045340740836081675 0 -0.030544616136143711 0.00042269847997175337 0 -0.030604350418335403 0.00048518793747363061 0 -0.030615100965682443 0.00045340740836081675 0 -0.030631829719943843 0.0004772776809772889 0 -0.030604350418335403 0.00048518793747363061 0 -0.030587510180762754 0.00046367784551843962 0 -0.030615100965682443 0.00045340740836081675 0 -0.030615100965682443 0.00045340740836081675 0 -0.030631829719943843 0.0004772776809772889 0 -0.030659631277540098 0.00046686317966853497 0 -0.030659631277540098 0.00046686317966853497 0 -0.030727107668786183 0.00046027258490395184 0 -0.030640309072869555 0.00042942926428112313 0 -0.030615100965682443 0.00045340740836081675 0 -0.030659631277540098 0.00046686317966853497 0 -0.030640309072869555 0.00042942926428112313 0 -0.030631829719943843 0.0004772776809772889 0 -0.030657641185137825 0.0004963575741692034 0 -0.030659631277540098 0.00046686317966853497 0 -0.030631829719943843 0.0004772776809772889 0 -0.030657641185137825 0.0004963575741692034 0 -0.030635493785419913 0.00052752032988249487 0 -0.030604350418335403 0.00048518793747363061 0 -0.030631829719943843 0.0004772776809772889 0 -0.030635493785419913 0.00052752032988249487 0 -0.030678597985310078 0.0005240269580877834 0 -0.030657641185137825 0.0004963575741692034 0 -0.030635493785419913 0.00052752032988249487 0 -0.030657641185137825 0.0004963575741692034 0 -0.030682503910652293 0.0004865298837103269 0 -0.030659631277540098 0.00046686317966853497 0 -0.030678597985310078 0.0005240269580877834 0 -0.030657641185137825 0.0004963575741692034 0 -0.030682503910652293 0.0004865298837103269 0 -0.030682503910652293 0.0004865298837103269 0 -0.030659631277540098 0.00046686317966853497 0 -0.030727107668786183 0.00046027258490395184 0 -0.030727107668786183 0.00046027258490395184 0 -0.030774045928068483 0.0005139753000761838 0 -0.030662914401791065 0.00030032238490718241 0 -0.030727107668786183 0.00046027258490395184 0 -0.030774045928068483 0.0005139753000761838 0 -0.030735567685135082 0.00052026204020406747 0 -0.030774045928068483 0.0005139753000761838 0 -0.030735567685135082 0.00052026204020406747 0 -0.030741245190579258 0.00055178170619461472 0 -0.030727107668786183 0.00046027258490395184 0 -0.030735567685135082 0.00052026204020406747 0 -0.030705658102650874 0.00050777392039711767 0 -0.030682503910652293 0.0004865298837103269 0 -0.030727107668786183 0.00046027258490395184 0 -0.030705658102650874 0.00050777392039711767 0 -0.030735567685135082 0.00052026204020406747 0 -0.030705658102650874 0.00050777392039711767 0 -0.030711534195677671 0.00054546005400784605 0 -0.030678597985310078 0.0005240269580877834 0 -0.030682503910652293 0.0004865298837103269 0 -0.030705658102650874 0.00050777392039711767 0 -0.030678597985310078 0.0005240269580877834 0 -0.030711534195677671 0.00054546005400784605 0 -0.030687546172515883 0.00056056555627158929 0 -0.030678597985310078 0.0005240269580877834 0 -0.030705658102650874 0.00050777392039711767 0 -0.030711534195677671 0.00054546005400784605 0 -0.030711534195677671 0.00054546005400784605 0 -0.030741245190579258 0.00055178170619461472 0 -0.030724245833584445 0.00058854211156358926 0 -0.030711534195677671 0.00054546005400784605 0 -0.030724245833584445 0.00058854211156358926 0 -0.030687546172515883 0.00056056555627158929 0 -0.030774045928068483 0.0005139753000761838 0 -0.030741245190579258 0.00055178170619461472 0 -0.030761448625449737 0.00058805202126723487 0 -0.030735567685135082 0.00052026204020406747 0 -0.030711534195677671 0.00054546005400784605 0 -0.030741245190579258 0.00055178170619461472 0 -0.030750761484040118 0.00063059568447371747 0 -0.030761448625449737 0.00058805202126723487 0 -0.030724245833584445 0.00058854211156358926 0 -0.030741245190579258 0.00055178170619461472 0 -0.030761448625449737 0.00058805202126723487 0 -0.030724245833584445 0.00058854211156358926 0 -0.030691034055193297 0.00061726246960717404 0 -0.030724245833584445 0.00058854211156358926 0 -0.030687546172515883 0.00056056555627158929 0 -0.031370227102536966 0.00070109670046105646 0 -0.031303937676208399 0.00064579809779347888 0 -0.03072360087662766 0.00063920147123172676 0 -0.030626962603544423 0.0006253988645266086 0 -0.030635493785419913 0.00052752032988249487 0 -0.030691034055193297 0.00061726246960717404 0 -0.030635493785419913 0.00052752032988249487 0 -0.030687546172515883 0.00056056555627158929 0 -0.030678597985310078 0.0005240269580877834 0 -0.030635493785419913 0.00052752032988249487 0 -0.030687546172515883 0.00056056555627158929 0 -0.034711072662627795 -0.0013860076524429463 0 -0.034764403511531358 -0.0013787699768188896 0 -0.034717289333054707 -0.0013456707016391289 0 -0.034711072662627795 -0.0013860076524429463 0 -0.034741980950668848 -0.0014275432545863608 0 -0.034764403511531358 -0.0013787699768188896 0 -0.032938785268892511 -0.0011996314647503791 0 -0.033441654778982199 -0.0013016538239882317 0 -0.034858303795399691 -0.0016483449345988817 0 -0.034682539132484459 -0.00160805216482697 0 -0.034729772592484061 -0.001718799373558684 0 -0.034789321669602996 -0.0014965916644155343 0 -0.034895300970342269 -0.0016449182795079944 0 -0.034682539132484459 -0.00160805216482697 0 -0.033408642812161916 -0.0015017584662642997 0 -0.032938785268892511 -0.0011996314647503791 0 -0.034741980950668848 -0.0014275432545863608 0 -0.034764403511531358 -0.0013787699768188896 0 -0.034779154621006107 -0.0014340318376081177 0 -0.034973226242752495 5.9588017163483938e-05 0 -0.034988613925524992 5.3099902534579151e-05 0 -0.034976735800940753 7.7614089781013644e-05 0 -0.032938785268892511 -0.0011996314647503791 0 -0.032455176349676068 -0.00084038653160100458 0 -0.033371093162209944 -0.00087389517219243356 0 -0.032455176349676068 -0.00084038653160100458 0 -0.034963211332571097 6.9196642911559323e-05 0 -0.034953926601716034 8.2418224667214434e-05 0 -0.034976735800940753 7.7614089781013644e-05 0 -0.034963211332571097 6.9196642911559323e-05 0 -0.034973226242752495 5.9588017163483938e-05 0 -0.034976735800940753 7.7614089781013644e-05 0 -0.03496065802926094 5.7036393180724043e-05 0 -0.034973226242752495 5.9588017163483938e-05 0 -0.034974939488889231 4.2966476865716302e-05 0 -0.03496065802926094 5.7036393180724043e-05 0 -0.034963211332571097 6.9196642911559323e-05 0 -0.034973226242752495 5.9588017163483938e-05 0 -0.034973226242752495 5.9588017163483938e-05 0 -0.034988613925524992 5.3099902534579151e-05 0 -0.034974939488889231 4.2966476865716302e-05 0 -0.034988613925524992 5.3099902534579151e-05 0 -0.034974939488889231 4.2966476865716302e-05 0 -0.034984827452751673 2.766832775510512e-05 0 -0.034963345205838756 3.944977160413798e-05 0 -0.034974939488889231 4.2966476865716302e-05 0 -0.034975060054445124 2.6320905120673902e-05 0 -0.034963345205838756 3.944977160413798e-05 0 -0.03496065802926094 5.7036393180724043e-05 0 -0.034974939488889231 4.2966476865716302e-05 0 -0.034975060054445124 2.6320905120673902e-05 0 -0.034984827452751673 2.766832775510512e-05 0 -0.034977965823292788 1.4769721192468355e-05 0 -0.034974939488889231 4.2966476865716302e-05 0 -0.034975060054445124 2.6320905120673902e-05 0 -0.034984827452751673 2.766832775510512e-05 0 -0.03497144170122423 1.5775451692887504e-05 0 -0.034966269246598819 2.5580087659354502e-05 0 -0.034975060054445124 2.6320905120673902e-05 0 -0.034984827452751673 2.766832775510512e-05 0 -0.034997263594800584 2.8867831082151479e-05 0 -0.034992933571922638 1.7194841980229033e-05 0 -0.034764403511531358 -0.0013787699768188896 0 -0.034751711637639467 -0.0013069267926862633 0 -0.034717289333054707 -0.0013456707016391289 0 -0.033371093162209944 -0.00087389517219243356 0 -0.033979590503797473 -0.00077546504644913407 0 -0.034988613925524992 5.3099902534579151e-05 0 -0.034984827452751673 2.766832775510512e-05 0 -0.034997263594800584 2.8867831082151479e-05 0 -0.034711072662627795 -0.0013860076524429463 0 -0.034717289333054707 -0.0013456707016391289 0 -0.034670609995198366 -0.0013465511383298516 0 -0.033408642812161916 -0.0015017584662642997 0 -0.033540790294101827 -0.0015738418048304021 0 -0.034717289333054707 -0.0013456707016391289 0 -0.03469920161752587 -0.0013102103870659908 0 -0.034670609995198366 -0.0013465511383298516 0 -0.034751711637639467 -0.0013069267926862633 0 -0.034717289333054707 -0.0013456707016391289 0 -0.03469920161752587 -0.0013102103870659908 0 -0.034751711637639467 -0.0013069267926862633 0 -0.03469920161752587 -0.0013102103870659908 0 -0.034700626737152795 -0.0012652991003559992 0 -0.03469920161752587 -0.0013102103870659908 0 -0.034700626737152795 -0.0012652991003559992 0 -0.034659120047206969 -0.0012801029321943406 0 -0.034700626737152795 -0.0012652991003559992 0 -0.034725149068638522 -0.0012100686406745853 0 -0.034667488199809346 -0.0012255951419312984 0 -0.034751711637639467 -0.0013069267926862633 0 -0.034700626737152795 -0.0012652991003559992 0 -0.034725149068638522 -0.0012100686406745853 0 -0.034410171204981112 -0.00060910565061248422 0 -0.034408870758410107 -0.00060937984784841936 0 -0.034997263594800584 2.8867831082151479e-05 0 -0.034999172682455455 1.0274635485243917e-05 0 -0.034992933571922638 1.7194841980229033e-05 0 -0.034997263594800584 2.8867831082151479e-05 0 -0.034999172682455455 1.0274635485243917e-05 0 -0.035000861205088767 9.1966883106423844e-06 0 -0.033979590503797473 -0.00077546504644913407 0 -0.034408870758410107 -0.00060937984784841936 0 -0.034992933571922638 1.7194841980229033e-05 0 -0.034991973906512173 1.2499826465284437e-05 0 -0.034995524290368119 1.0616092389160029e-05 0 -0.034992933571922638 1.7194841980229033e-05 0 -0.034991973906512173 1.2499826465284437e-05 0 -0.03498734817936483 1.4842210152586088e-05 0 -0.034999172682455455 1.0274635485243917e-05 0 -0.034992933571922638 1.7194841980229033e-05 0 -0.034995524290368119 1.0616092389160029e-05 0 -0.034999172682455455 1.0274635485243917e-05 0 -0.034995524290368119 1.0616092389160029e-05 0 -0.034998393673749087 7.8566917622875576e-06 0 -0.034995524290368119 1.0616092389160029e-05 0 -0.034996427992926418 6.7547526856730197e-06 0 -0.034998393673749087 7.8566917622875576e-06 0 -0.034995524290368119 1.0616092389160029e-05 0 -0.034996427992926418 6.7547526856730197e-06 0 -0.034993829736383174 8.5380271483547349e-06 0 -0.034996427992926418 6.7547526856730197e-06 0 -0.034998697164573815 5.259484331311461e-06 0 -0.034998393673749087 7.8566917622875576e-06 0 -0.034993829736383174 8.5380271483547349e-06 0 -0.034993843716011504 4.7537978297065692e-06 0 -0.034989799589890395 1.0011231036592221e-05 0 -0.034991973906512173 1.2499826465284437e-05 0 -0.034993829736383174 8.5380271483547349e-06 0 -0.034989799589890395 1.0011231036592221e-05 0 -0.034991973906512173 1.2499826465284437e-05 0 -0.034995524290368119 1.0616092389160029e-05 0 -0.034993829736383174 8.5380271483547349e-06 0 -0.034996427992926418 6.7547526856730197e-06 0 -0.034993829736383174 8.5380271483547349e-06 0 -0.034993843716011504 4.7537978297065692e-06 0 -0.034996427992926418 6.7547526856730197e-06 0 -0.034993843716011504 4.7537978297065692e-06 0 -0.034997218459336864 4.6142461773092084e-06 0 -0.034996427992926418 6.7547526856730197e-06 0 -0.034997218459336864 4.6142461773092084e-06 0 -0.034998697164573815 5.259484331311461e-06 0 -0.034408870758410107 -0.00060937984784841936 0 -0.034666460373914125 -0.00052997011089237628 0 -0.034998697164573815 5.259484331311461e-06 0 -0.034999271114025579 6.8248787780199836e-06 0 -0.034999626386643071 3.2016474067296073e-06 0 -0.034997218459336864 4.6142461773092084e-06 0 -0.034998697164573815 5.259484331311461e-06 0 -0.034998738638729564 3.3907643777641254e-06 0 -0.034998697164573815 5.259484331311461e-06 0 -0.034999626386643071 3.2016474067296073e-06 0 -0.034998738638729564 3.3907643777641254e-06 0 -0.034999271114025579 6.8248787780199836e-06 0 -0.034999173388255582 7.3527257416007099e-06 0 -0.035000568732806908 2.6819046794114783e-06 0 -0.034999271114025579 6.8248787780199836e-06 0 -0.034999626386643071 3.2016474067296073e-06 0 -0.035000568732806908 2.6819046794114783e-06 0 -0.034999172682455455 1.0274635485243917e-05 0 -0.034998393673749087 7.8566917622875576e-06 0 -0.034999575219634191 8.9195741751464106e-06 0 -0.034999271114025579 6.8248787780199836e-06 0 -0.034998393673749087 7.8566917622875576e-06 0 -0.034999575219634191 8.9195741751464106e-06 0 -0.034409076572709078 -0.00060763638471596725 0 -0.034408870758410107 -0.00060937984784841936 0 -0.034998697164573815 5.259484331311461e-06 0 -0.034999271114025579 6.8248787780199836e-06 0 -0.034998393673749087 7.8566917622875576e-06 0 -0.03497144170122423 1.5775451692887504e-05 0 -0.034977965823292788 1.4769721192468355e-05 0 -0.034973620185971908 7.8044597230220136e-06 0 -0.03497144170122423 1.5775451692887504e-05 0 -0.034975060054445124 2.6320905120673902e-05 0 -0.034977965823292788 1.4769721192468355e-05 0 -0.034984827452751673 2.766832775510512e-05 0 -0.034992933571922638 1.7194841980229033e-05 0 -0.03498734817936483 1.4842210152586088e-05 0 -0.034984827452751673 2.766832775510512e-05 0 -0.034977965823292788 1.4769721192468355e-05 0 -0.03498734817936483 1.4842210152586088e-05 0 -0.034977965823292788 1.4769721192468355e-05 0 -0.03498734817936483 1.4842210152586088e-05 0 -0.034985001017417923 8.0029973204802904e-06 0 -0.034991973906512173 1.2499826465284437e-05 0 -0.03498734817936483 1.4842210152586088e-05 0 -0.034989799589890395 1.0011231036592221e-05 0 -0.03498734817936483 1.4842210152586088e-05 0 -0.034989799589890395 1.0011231036592221e-05 0 -0.034985001017417923 8.0029973204802904e-06 0 -0.034993843716011504 4.7537978297065692e-06 0 -0.034989799589890395 1.0011231036592221e-05 0 -0.034985001017417923 8.0029973204802904e-06 0 -0.034985001017417923 8.0029973204802904e-06 0 -0.034973620185971908 7.8044597230220136e-06 0 -0.034987568724945822 -3.4894534717303493e-07 0 -0.034977965823292788 1.4769721192468355e-05 0 -0.034985001017417923 8.0029973204802904e-06 0 -0.034973620185971908 7.8044597230220136e-06 0 -0.034992840803422416 -9.077860015836353e-07 0 -0.034995268684855169 -2.1636356293999269e-06 0 -0.034998092698960877 -9.4955471638732713e-07 0 -0.034985062911333055 3.2342912311225739e-06 0 -0.034987630717346445 1.6578255998830613e-06 0 -0.034993843716011504 4.7537978297065692e-06 0 -0.034985001017417923 8.0029973204802904e-06 0 -0.034987568724945822 -3.4894534717303493e-07 0 -0.034995268684855169 -2.1636356293999269e-06 0 -0.034998092698960877 -9.4955471638732713e-07 0 -0.034999997757177444 -1.7855158661634799e-09 0 -0.034987630717346445 1.6578255998830613e-06 0 -0.034988743679507571 1.0603237433773459e-06 0 -0.034998092698960877 -9.4955471638732713e-07 0 -0.034999997757177444 -1.7855158661634799e-09 0 -0.034999522336639041 -4.2995639092186016e-07 0 -0.034999990899175326 -3.9354282817170331e-09 0 -0.034995268684855169 -2.1636356293999269e-06 0 -0.034999997757177444 -1.7855158661634799e-09 0 -0.034999205070484783 1.8303145643843833e-06 0 -0.034999099811169707 3.5597382026524489e-07 0 -0.035000157624692857 9.267244239945299e-07 0 -0.034999205070484783 1.8303145643843833e-06 0 -0.034997595599663478 2.4068678408143036e-06 0 -0.034999099811169707 3.5597382026524489e-07 0 -0.034999205070484783 1.8303145643843833e-06 0 -0.034999626386643071 3.2016474067296073e-06 0 -0.035000157624692857 9.267244239945299e-07 0 -0.034999205070484783 1.8303145643843833e-06 0 -0.034998738638729564 3.3907643777641254e-06 0 -0.034997595599663478 2.4068678408143036e-06 0 -0.034997218459336864 4.6142461773092084e-06 0 -0.034998738638729564 3.3907643777641254e-06 0 -0.034997595599663478 2.4068678408143036e-06 0 -0.034999205070484783 1.8303145643843833e-06 0 -0.034999626386643071 3.2016474067296073e-06 0 -0.034998738638729564 3.3907643777641254e-06 0 -0.034993843716011504 4.7537978297065692e-06 0 -0.034997595599663478 2.4068678408143036e-06 0 -0.034995962012324459 8.5069764506061918e-07 0 -0.034993843716011504 4.7537978297065692e-06 0 -0.034987568724945822 -3.4894534717303493e-07 0 -0.034995962012324459 8.5069764506061918e-07 0 -0.034993843716011504 4.7537978297065692e-06 0 -0.034997218459336864 4.6142461773092084e-06 0 -0.034997595599663478 2.4068678408143036e-06 0 -0.034997595599663478 2.4068678408143036e-06 0 -0.034995962012324459 8.5069764506061918e-07 0 -0.034999099811169707 3.5597382026524489e-07 0 -0.034995962012324459 8.5069764506061918e-07 0 -0.034999522336639041 -4.2995639092186016e-07 0 -0.034999099811169707 3.5597382026524489e-07 0 -0.034987568724945822 -3.4894534717303493e-07 0 -0.034995962012324459 8.5069764506061918e-07 0 -0.034999522336639041 -4.2995639092186016e-07 0 -0.034999997757177444 -1.7855158661634799e-09 0 -0.034999522336639041 -4.2995639092186016e-07 0 -0.034999996780529646 -7.7686691961509948e-10 0 -0.034999522336639041 -4.2995639092186016e-07 0 -0.034999996780529646 -7.7686691961509948e-10 0 -0.034999099811169707 3.5597382026524489e-07 0 -0.034999996780529646 -7.7686691961509948e-10 0 -0.034999099811169707 3.5597382026524489e-07 0 -0.035000157624692857 9.267244239945299e-07 0 -0.034999996780529646 -7.7686691961509948e-10 0 -0.035000157624692857 9.267244239945299e-07 0 -0.035000001673862524 1.1738077360827404e-09 0 -0.034999626386643071 3.2016474067296073e-06 0 -0.035000157624692857 9.267244239945299e-07 0 -0.035000568732806908 2.6819046794114783e-06 0 -0.035000157624692857 9.267244239945299e-07 0 -0.035000751465042321 8.7985449443150021e-07 0 -0.035000568732806908 2.6819046794114783e-06 0 -0.034843334151166493 -0.00041540559307607776 0 -0.034666460373914125 -0.00052997011089237628 0 -0.035000157624692857 9.267244239945299e-07 0 -0.035000001673862524 1.1738077360827404e-09 0 -0.035000751465042321 8.7985449443150021e-07 0 -0.035000001673862524 1.1738077360827404e-09 0 -0.035000000726237095 -2.3208111782269247e-10 0 -0.035000751465042321 8.7985449443150021e-07 0 -0.034999237030294526 -9.4691400129774358e-07 0 -0.034843334151166493 -0.00041540559307607776 0 -0.035000000246663769 -5.3262379621469469e-10 0 -0.034999883167676292 -1.1071662681326174e-06 0 -0.03500189118353713 -4.3140407295182422e-06 0 -0.034768985565805904 -0.00033203485729536608 0 -0.03489850674914223 -0.00016412247504927682 0 -0.034999870950833817 -5.3180116459577791e-07 0 -0.035000000246663769 -5.3262379621469469e-10 0 -0.034999999326283657 -6.6051551381659746e-10 0 -0.034999870950833817 -5.3180116459577791e-07 0 -0.034999796764535969 -1.1466937680072686e-06 0 -0.034999874985518001 -2.8038463478432848e-07 0 -0.034999870950833817 -5.3180116459577791e-07 0 -0.035000000246663769 -5.3262379621469469e-10 0 -0.034999883167676292 -1.1071662681326174e-06 0 -0.034772675754622624 -0.00032118631024039056 0 -0.034768985565805904 -0.00033203485729536608 0 -0.034999870950833817 -5.3180116459577791e-07 0 -0.034999883167676292 -1.1071662681326174e-06 0 -0.034999796764535969 -1.1466937680072686e-06 0 -0.03524731220567387 -4.043874939765543e-05 0 -0.035225749005508178 -0.00039569568222475574 0 -0.035051561733601952 -0.00016164289565981244 0 -0.034768985565805904 -0.00033203485729536608 0 -0.034668078532178029 -0.00067848920454726021 0 -0.034999883167676292 -1.1071662681326174e-06 0 -0.03499939121971566 -2.6437376338417312e-06 0 -0.03500189118353713 -4.3140407295182422e-06 0 -0.034768985565805904 -0.00033203485729536608 0 -0.034843334151166493 -0.00041540559307607776 0 -0.034425957983357271 -0.0010062939995584734 0 -0.034523595826817667 -0.0010524101586711467 0 -0.034491622875715625 -0.0011460148280415992 0 -0.034425957983357271 -0.0010062939995584734 0 -0.034491622875715625 -0.0011460148280415992 0 -0.034392307008209513 -0.001152894216575452 0 -0.034392307008209513 -0.001152894216575452 0 -0.034437416661252829 -0.0012378142207477218 0 -0.034359282308872995 -0.0012982269058502184 0 -0.034668078532178029 -0.00067848920454726021 0 -0.034557820917020143 -0.00095129668714443924 0 -0.034491622875715625 -0.0011460148280415992 0 -0.034392307008209513 -0.001152894216575452 0 -0.034437416661252829 -0.0012378142207477218 0 -0.034491622875715625 -0.0011460148280415992 0 -0.034437416661252829 -0.0012378142207477218 0 -0.034515401833693803 -0.0012436051108638444 0 -0.034515401833693803 -0.0012436051108638444 0 -0.034589055576008075 -0.0012500078349573268 0 -0.034592230614575711 -0.0011642710090438695 0 -0.034491622875715625 -0.0011460148280415992 0 -0.034515401833693803 -0.0012436051108638444 0 -0.034592230614575711 -0.0011642710090438695 0 -0.034885617613492438 -0.00066204444969126175 0 -0.034900324364935224 -0.00074293896015513417 0 -0.034700626737152795 -0.0012652991003559992 0 -0.034667488199809346 -0.0012255951419312984 0 -0.034659120047206969 -0.0012801029321943406 0 -0.034589055576008075 -0.0012500078349573268 0 -0.034592230614575711 -0.0011642710090438695 0 -0.034659120047206969 -0.0012801029321943406 0 -0.034667488199809346 -0.0012255951419312984 0 -0.034612272228529369 -0.0012077156975091497 0 -0.034659120047206969 -0.0012801029321943406 0 -0.034725149068638522 -0.0012100686406745853 0 -0.034667488199809346 -0.0012255951419312984 0 -0.034646296297552573 -0.0011702540055349303 0 -0.034667488199809346 -0.0012255951419312984 0 -0.034646296297552573 -0.0011702540055349303 0 -0.034612272228529369 -0.0012077156975091497 0 -0.034523595826817667 -0.0010524101586711467 0 -0.034491622875715625 -0.0011460148280415992 0 -0.034592230614575711 -0.0011642710090438695 0 -0.034565198069988499 -0.0011301209340993388 0 -0.034646296297552573 -0.0011702540055349303 0 -0.034612272228529369 -0.0012077156975091497 0 -0.034843334151166493 -0.00041540559307607776 0 -0.034885617613492438 -0.00066204444969126175 0 -0.03468712276303703 -0.00010997709868416572 0 -0.034572831144976092 -0.00014137985058774614 0 -0.034470724205865319 -5.9734182341339924e-05 0 -0.034629666997739943 -0.00018261513550962063 0 -0.034572831144976092 -0.00014137985058774614 0 -0.034532876042331469 -0.00019055921353087574 0 -0.034629666997739943 -0.00018261513550962063 0 -0.03468712276303703 -0.00010997709868416572 0 -0.034572831144976092 -0.00014137985058774614 0 -0.034827517828243816 -3.3916443279824839e-05 0 -0.034817483871575412 -3.646517483222217e-05 0 -0.034999811560062502 -7.1815688229098079e-08 0 -0.034892898453270434 1.7069770859727097e-06 0 -0.035011996898885338 7.6316213011305947e-06 0 -0.03468712276303703 -0.00010997709868416572 0 -0.034892898453270434 1.7069770859727097e-06 0 -0.034470724205865319 -5.9734182341339924e-05 0 -0.034999811560062502 -7.1815688229098079e-08 0 -0.034892898453270434 1.7069770859727097e-06 0 -0.034999598577350861 9.928240511521439e-08 0 -0.034892898453270434 1.7069770859727097e-06 0 -0.034778834437912715 -0.00010824427558895207 0 -0.034915682188381168 -3.5537915707873998e-05 0 -0.03468712276303703 -0.00010997709868416572 0 -0.034892898453270434 1.7069770859727097e-06 0 -0.034778834437912715 -0.00010824427558895207 0 -0.034629666997739943 -0.00018261513550962063 0 -0.03468712276303703 -0.00010997709868416572 0 -0.034778834437912715 -0.00010824427558895207 0 -0.034629666997739943 -0.00018261513550962063 0 -0.034778834437912715 -0.00010824427558895207 0 -0.034633018354592073 -0.00021694913262700663 0 -0.034778834437912715 -0.00010824427558895207 0 -0.03485911348037786 -0.00013976172878169907 0 -0.034633018354592073 -0.00021694913262700663 0 -0.03485911348037786 -0.00013976172878169907 0 -0.034915682188381168 -3.5537915707873998e-05 0 -0.03503751063344062 1.8788939463950048e-05 0 -0.034778834437912715 -0.00010824427558895207 0 -0.03485911348037786 -0.00013976172878169907 0 -0.034915682188381168 -3.5537915707873998e-05 0 -0.034892898453270434 1.7069770859727097e-06 0 -0.034999598577350861 9.928240511521439e-08 0 -0.034915682188381168 -3.5537915707873998e-05 0 -0.034999598577350861 9.928240511521439e-08 0 -0.034915682188381168 -3.5537915707873998e-05 0 -0.03503751063344062 1.8788939463950048e-05 0 -0.034999554790831666 -8.4923254158324576e-07 0 -0.03489850674914223 -0.00016412247504927682 0 -0.035000000057498114 2.3362889856507719e-10 0 -0.034999999326283657 -6.6051551381659746e-10 0 -0.034999874985518001 -2.8038463478432848e-07 0 -0.034999870950833817 -5.3180116459577791e-07 0 -0.034999999326283657 -6.6051551381659746e-10 0 -0.034999874985518001 -2.8038463478432848e-07 0 -0.03524731220567387 -4.043874939765543e-05 0 -0.03503751063344062 1.8788939463950048e-05 0 -0.035051561733601952 -0.00016164289565981244 0 -0.03485911348037786 -0.00013976172878169907 0 -0.03503751063344062 1.8788939463950048e-05 0 -0.035051561733601952 -0.00016164289565981244 0 -0.03485911348037786 -0.00013976172878169907 0 -0.035051561733601952 -0.00016164289565981244 0 -0.0348794937615277 -0.00034255213242468074 0 -0.035225749005508178 -0.00039569568222475574 0 -0.035051561733601952 -0.00016164289565981244 0 -0.0348794937615277 -0.00034255213242468074 0 -0.035225749005508178 -0.00039569568222475574 0 -0.03482120442487447 -0.00082227396919661217 0 -0.035131947170260552 -0.0009381140326231083 0 -0.035225749005508178 -0.00039569568222475574 0 -0.0348794937615277 -0.00034255213242468074 0 -0.03482120442487447 -0.00082227396919661217 0 -0.034441889684673301 -0.00089453458467086988 0 -0.034485794779057007 -0.00091484807881270648 0 -0.034610607026390384 -0.00047079627654716055 0 -0.034252357588626395 -0.00072203114304740371 0 -0.03482120442487447 -0.00082227396919661217 0 -0.034610607026390384 -0.00047079627654716055 0 -0.0348794937615277 -0.00034255213242468074 0 -0.03482120442487447 -0.00082227396919661217 0 -0.034610607026390384 -0.00047079627654716055 0 -0.03468176515075394 -0.00028028056500923031 0 -0.03445838957801358 -0.00029677433971334196 0 -0.034610607026390384 -0.00047079627654716055 0 -0.0348794937615277 -0.00034255213242468074 0 -0.03468176515075394 -0.00028028056500923031 0 -0.03485911348037786 -0.00013976172878169907 0 -0.0348794937615277 -0.00034255213242468074 0 -0.03468176515075394 -0.00028028056500923031 0 -0.03485911348037786 -0.00013976172878169907 0 -0.03468176515075394 -0.00028028056500923031 0 -0.034633018354592073 -0.00021694913262700663 0 -0.034629666997739943 -0.00018261513550962063 0 -0.034633018354592073 -0.00021694913262700663 0 -0.034546425162579948 -0.00026249277921719676 0 -0.034633018354592073 -0.00021694913262700663 0 -0.03445838957801358 -0.00029677433971334196 0 -0.034546425162579948 -0.00026249277921719676 0 -0.03468176515075394 -0.00028028056500923031 0 -0.034633018354592073 -0.00021694913262700663 0 -0.03445838957801358 -0.00029677433971334196 0 -0.034610607026390384 -0.00047079627654716055 0 -0.03445838957801358 -0.00029677433971334196 0 -0.034252357588626395 -0.00072203114304740371 0 -0.034252357588626395 -0.00072203114304740371 0 -0.03364611798610706 -0.00072307399636165558 0 -0.033901253610517233 -0.00092297975268288118 0 -0.03408646213224887 -0.00068212650102599339 0 -0.034045939870577982 -0.00072443288218034235 0 -0.03445838957801358 -0.00029677433971334196 0 -0.034252357588626395 -0.00072203114304740371 0 -0.03364611798610706 -0.00072307399636165558 0 -0.034540449716063376 -0.00025474191901523057 0 -0.03453163890599284 -0.00025321606249478144 0 -0.034506944997689436 -0.00026281287356513604 0 -0.034540449716063376 -0.00025474191901523057 0 -0.03453163890599284 -0.00025321606249478144 0 -0.034546425162579948 -0.00026249277921719676 0 -0.03445838957801358 -0.00029677433971334196 0 -0.034540449716063376 -0.00025474191901523057 0 -0.034546425162579948 -0.00026249277921719676 0 -0.03453163890599284 -0.00025321606249478144 0 -0.034546425162579948 -0.00026249277921719676 0 -0.03451790824837745 -0.00023228484345249039 0 -0.034546425162579948 -0.00026249277921719676 0 -0.034532876042331469 -0.00019055921353087574 0 -0.03451790824837745 -0.00023228484345249039 0 -0.034629666997739943 -0.00018261513550962063 0 -0.034546425162579948 -0.00026249277921719676 0 -0.034532876042331469 -0.00019055921353087574 0 -0.033638237630412578 -0.0011350335976148139 0 -0.033511707989875676 -0.0014153032152832551 0 -0.033297985472596693 -0.001382979772251536 0 -0.033638237630412578 -0.0011350335976148139 0 -0.033782088366750389 -0.0013186696611958845 0 -0.033511707989875676 -0.0014153032152832551 0 -0.03364611798610706 -0.00072307399636165558 0 -0.033638237630412578 -0.0011350335976148139 0 -0.033277790364041784 -0.0010541107803230484 0 -0.03364611798610706 -0.00072307399636165558 0 -0.033638237630412578 -0.0011350335976148139 0 -0.033901253610517233 -0.00092297975268288118 0 -0.033638237630412578 -0.0011350335976148139 0 -0.033901253610517233 -0.00092297975268288118 0 -0.034019559915339156 -0.0010290886692556969 0 -0.034252357588626395 -0.00072203114304740371 0 -0.033901253610517233 -0.00092297975268288118 0 -0.034019559915339156 -0.0010290886692556969 0 -0.033638237630412578 -0.0011350335976148139 0 -0.034019559915339156 -0.0010290886692556969 0 -0.033782088366750389 -0.0013186696611958845 0 -0.034019559915339156 -0.0010290886692556969 0 -0.034050314414759073 -0.0012666894271415759 0 -0.033782088366750389 -0.0013186696611958845 0 -0.034019559915339156 -0.0010290886692556969 0 -0.034050314414759073 -0.0012666894271415759 0 -0.034195902900811689 -0.0010652106637160116 0 -0.034252357588626395 -0.00072203114304740371 0 -0.034019559915339156 -0.0010290886692556969 0 -0.034197007213244021 -0.00088631973721464165 0 -0.034019559915339156 -0.0010290886692556969 0 -0.034197007213244021 -0.00088631973721464165 0 -0.034195902900811689 -0.0010652106637160116 0 -0.034197007213244021 -0.00088631973721464165 0 -0.034361778893165579 -0.00097499999952586241 0 -0.034195902900811689 -0.0010652106637160116 0 -0.034485794779057007 -0.00091484807881270648 0 -0.034557820917020143 -0.00095129668714443924 0 -0.034557820917020143 -0.00095129668714443924 0 -0.034500694421610134 -0.0010842635761153421 0 -0.034361778893165579 -0.00097499999952586241 0 -0.034195902900811689 -0.0010652106637160116 0 -0.034286990455371195 -0.0012316165933259091 0 -0.034050314414759073 -0.0012666894271415759 0 -0.034195902900811689 -0.0010652106637160116 0 -0.034286990455371195 -0.0012316165933259091 0 -0.034050314414759073 -0.0012666894271415759 0 -0.034286990455371195 -0.0012316165933259091 0 -0.034137822896341236 -0.0015374567680156183 0 -0.034500694421610134 -0.0010842635761153421 0 -0.034479212623102912 -0.0011374846666939997 0 -0.034183996207469237 -0.0013905664899697976 0 -0.034137822896341236 -0.0015374567680156183 0 -0.034311361340602274 -0.0015024180597600844 0 -0.033897356530837933 -0.0014953615304055261 0 -0.033575153438377324 -0.0015946373574992664 0 -0.033959174105225733 -0.0019030614508685857 0 -0.034137822896341236 -0.0015374567680156183 0 -0.033897356530837933 -0.0014953615304055261 0 -0.033959174105225733 -0.0019030614508685857 0 -0.034050314414759073 -0.0012666894271415759 0 -0.033897356530837933 -0.0014953615304055261 0 -0.033782088366750389 -0.0013186696611958845 0 -0.034050314414759073 -0.0012666894271415759 0 -0.034137822896341236 -0.0015374567680156183 0 -0.033897356530837933 -0.0014953615304055261 0 -0.033782088366750389 -0.0013186696611958845 0 -0.033575153438377324 -0.0015946373574992664 0 -0.033511707989875676 -0.0014153032152832551 0 -0.033897356530837933 -0.0014953615304055261 0 -0.033782088366750389 -0.0013186696611958845 0 -0.033575153438377324 -0.0015946373574992664 0 -0.033313173487247237 -0.0017222099796689292 0 -0.033302833147957706 -0.0016055975930317145 0 -0.033158494038263417 -0.0017975407522021882 0 -0.033575153438377324 -0.0015946373574992664 0 -0.033313173487247237 -0.0017222099796689292 0 -0.033302833147957706 -0.0016055975930317145 0 -0.033575153438377324 -0.0015946373574992664 0 -0.033302833147957706 -0.0016055975930317145 0 -0.033511707989875676 -0.0014153032152832551 0 -0.033302833147957706 -0.0016055975930317145 0 -0.033511707989875676 -0.0014153032152832551 0 -0.033297985472596693 -0.001382979772251536 0 -0.034611595675447124 -0.0014043786259925368 0 -0.034589416372095103 -0.0013101591488539717 0 -0.034486134611787629 -0.001349048129119546 0 -0.034582380363067752 -0.0010565259714107593 0 -0.034563881204030672 -0.0010259935898319322 0 -0.034611595675447124 -0.0014043786259925368 0 -0.03442099183641225 -0.0013182303858808361 0 -0.034477263420736787 -0.0014729684578281409 0 -0.034611595675447124 -0.0014043786259925368 0 -0.034670609995198366 -0.0013465511383298516 0 -0.034667161328302151 -0.0014768257954816089 0 -0.034611595675447124 -0.0014043786259925368 0 -0.034670609995198366 -0.0013465511383298516 0 -0.034589416372095103 -0.0013101591488539717 0 -0.034670609995198366 -0.0013465511383298516 0 -0.034659120047206969 -0.0012801029321943406 0 -0.034589416372095103 -0.0013101591488539717 0 -0.03469920161752587 -0.0013102103870659908 0 -0.034670609995198366 -0.0013465511383298516 0 -0.034659120047206969 -0.0012801029321943406 0 -0.034589055576008075 -0.0012500078349573268 0 -0.034659120047206969 -0.0012801029321943406 0 -0.034589416372095103 -0.0013101591488539717 0 -0.034515401833693803 -0.0012436051108638444 0 -0.034589055576008075 -0.0012500078349573268 0 -0.034589416372095103 -0.0013101591488539717 0 -0.034515401833693803 -0.0012436051108638444 0 -0.034589416372095103 -0.0013101591488539717 0 -0.034486134611787629 -0.001349048129119546 0 -0.034437416661252829 -0.0012378142207477218 0 -0.034515401833693803 -0.0012436051108638444 0 -0.034486134611787629 -0.001349048129119546 0 -0.034557820917020143 -0.00095129668714443924 0 -0.034563881204030672 -0.0010259935898319322 0 -0.034437416661252829 -0.0012378142207477218 0 -0.034359282308872995 -0.0012982269058502184 0 -0.034486134611787629 -0.001349048129119546 0 -0.034183996207469237 -0.0013905664899697976 0 -0.03442099183641225 -0.0013182303858808361 0 -0.034311361340602274 -0.0015024180597600844 0 -0.034221189221149778 -0.0012352177998527262 0 -0.034183996207469237 -0.0013905664899697976 0 -0.03442099183641225 -0.0013182303858808361 0 -0.034477263420736787 -0.0014729684578281409 0 -0.034311361340602274 -0.0015024180597600844 0 -0.034453069716999067 -0.0016058873518179479 0 -0.03442099183641225 -0.0013182303858808361 0 -0.034477263420736787 -0.0014729684578281409 0 -0.034311361340602274 -0.0015024180597600844 0 -0.034311361340602274 -0.0015024180597600844 0 -0.034453069716999067 -0.0016058873518179479 0 -0.034313533784036725 -0.0018075118348556967 0 -0.034137822896341236 -0.0015374567680156183 0 -0.034311361340602274 -0.0015024180597600844 0 -0.034313533784036725 -0.0018075118348556967 0 -0.034580044012919531 -0.001537048545045687 0 -0.034682539132484459 -0.00160805216482697 0 -0.034535720052368268 -0.0017505067921349342 0 -0.034453069716999067 -0.0016058873518179479 0 -0.034580044012919531 -0.001537048545045687 0 -0.034535720052368268 -0.0017505067921349342 0 -0.034477263420736787 -0.0014729684578281409 0 -0.034453069716999067 -0.0016058873518179479 0 -0.034580044012919531 -0.001537048545045687 0 -0.034611595675447124 -0.0014043786259925368 0 -0.034477263420736787 -0.0014729684578281409 0 -0.034580044012919531 -0.001537048545045687 0 -0.034580044012919531 -0.001537048545045687 0 -0.034667161328302151 -0.0014768257954816089 0 -0.034682539132484459 -0.00160805216482697 0 -0.034789321669602996 -0.0014965916644155343 0 -0.034670609995198366 -0.0013465511383298516 0 -0.034667161328302151 -0.0014768257954816089 0 -0.034789321669602996 -0.0014965916644155343 0 -0.034667161328302151 -0.0014768257954816089 0 -0.034682539132484459 -0.00160805216482697 0 -0.034611595675447124 -0.0014043786259925368 0 -0.034580044012919531 -0.001537048545045687 0 -0.034667161328302151 -0.0014768257954816089 0 -0.034682539132484459 -0.00160805216482697 0 -0.034535720052368268 -0.0017505067921349342 0 -0.034729772592484061 -0.001718799373558684 0 -0.032609871406618085 -0.0015136325881943825 0 -0.032422506104139805 -0.0012907860720756845 0 -0.029937044135219085 -0.0020818000968271188 0 -0.030739598885087389 -0.0023996619818992607 0 -0.029828626979704467 -0.0024219636223229424 0 -0.03071112374126999 -0.0017529192774586777 0 -0.03084763577754758 -0.0016402585448782097 0 -0.029937044135219085 -0.0020818000968271188 0 -0.030484964126475646 -0.0019361453029904155 0 -0.030548156411962988 -0.0013822591221283431 0 -0.029937044135219085 -0.0020818000968271188 0 -0.030200683097310672 -0.0017421137752738057 0 -0.029868689222216704 -0.0018393818579092254 0 -0.029937044135219085 -0.0020818000968271188 0 -0.030484964126475646 -0.0019361453029904155 0 -0.030739598885087389 -0.0023996619818992607 0 -0.030484964126475646 -0.0019361453029904155 0 -0.030739598885087389 -0.0023996619818992607 0 -0.031246340378052902 -0.0016432471477880748 0 -0.034453069716999067 -0.0016058873518179479 0 -0.034535720052368268 -0.0017505067921349342 0 -0.034313533784036725 -0.0018075118348556967 0 -0.032609871406618085 -0.0015136325881943825 0 -0.03280874212626711 -0.0016443414324365682 0 -0.031666891922875334 -0.0023042984169340569 0 -0.031246340378052902 -0.0016432471477880748 0 -0.03215343977705417 -0.0017242743841242524 0 -0.030739598885087389 -0.0023996619818992607 0 -0.031666891922875334 -0.0023042984169340569 0 -0.031246340378052902 -0.0016432471477880748 0 -0.031246340378052902 -0.0016432471477880748 0 -0.031133717922847921 -0.0007544402025563365 0 -0.030548156411962988 -0.0013822591221283431 0 -0.031246340378052902 -0.0016432471477880748 0 -0.03215343977705417 -0.0017242743841242524 0 -0.031925654075565323 -0.0010634119187845649 0 -0.031140051883311287 -0.0014413754073602193 0 -0.031514427181523266 -0.0015006766969588529 0 -0.031246340378052902 -0.0016432471477880748 0 -0.031133717922847921 -0.0007544402025563365 0 -0.031925654075565323 -0.0010634119187845649 0 -0.03110328479379227 -0.0013343651968122383 0 -0.030730258603839634 -0.0013844001973121879 0 -0.031396243773170462 -0.0016229606230189139 0 -0.03110328479379227 -0.0013343651968122383 0 -0.031396243773170462 -0.0016229606230189139 0 -0.031256518793799516 -0.0012787262996272126 0 -0.031140051883311287 -0.0014413754073602193 0 -0.031135963917577489 -0.0014402207808770721 0 -0.029995119342857757 -0.0013611869493410191 0 -0.030200683097310672 -0.0017421137752738057 0 -0.030226993070013867 -0.001348003799350407 0 -0.030466648224441752 -0.0013860661570618811 0 -0.030200683097310672 -0.0017421137752738057 0 -0.030226993070013867 -0.001348003799350407 0 -0.030535415103071385 -0.0014112886161220428 0 -0.030466648224441752 -0.0013860661570618811 0 -0.030200683097310672 -0.0017421137752738057 0 -0.031140051883311287 -0.0014413754073602193 0 -0.03084763577754758 -0.0016402585448782097 0 -0.029995119342857757 -0.0013611869493410191 0 -0.029867035873242947 -0.0016248011727880353 0 -0.030200683097310672 -0.0017421137752738057 0 -0.029995119342857757 -0.0013611869493410191 0 -0.029867035873242947 -0.0016248011727880353 0 -0.029680242008869345 -0.0014668935823673901 0 -0.029867035873242947 -0.0016248011727880353 0 -0.030200683097310672 -0.0017421137752738057 0 -0.029868689222216704 -0.0018393818579092254 0 -0.030484964126475646 -0.0019361453029904155 0 -0.031246340378052902 -0.0016432471477880748 0 -0.030548156411962988 -0.0013822591221283431 0 -0.033208129852511641 -0.0018994638005956129 0 -0.032952552793808265 -0.0017255576387422949 0 -0.033158494038263417 -0.0017975407522021882 0 -0.032952552793808265 -0.0017255576387422949 0 -0.033158494038263417 -0.0017975407522021882 0 -0.033059539554233908 -0.0016374112362952445 0 -0.033313173487247237 -0.0017222099796689292 0 -0.033208129852511641 -0.0018994638005956129 0 -0.033158494038263417 -0.0017975407522021882 0 -0.033575153438377324 -0.0015946373574992664 0 -0.033313173487247237 -0.0017222099796689292 0 -0.033208129852511641 -0.0018994638005956129 0 -0.033575153438377324 -0.0015946373574992664 0 -0.033208129852511641 -0.0018994638005956129 0 -0.033959174105225733 -0.0019030614508685857 0 -0.032993420916332311 -0.0017257293281347887 0 -0.032949079466719135 -0.0017088962414007968 0 -0.033208129852511641 -0.0018994638005956129 0 -0.032815992074180129 -0.0017747164384536499 0 -0.032952552793808265 -0.0017255576387422949 0 -0.033208129852511641 -0.0018994638005956129 0 -0.032815992074180129 -0.0017747164384536499 0 -0.032480061567641418 -0.0021598800625231419 0 -0.032815992074180129 -0.0017747164384536499 0 -0.032480061567641418 -0.0021598800625231419 0 -0.03215343977705417 -0.0017242743841242524 0 -0.03280874212626711 -0.0016443414324365682 0 -0.032949079466719135 -0.0017088962414007968 0 -0.034137822896341236 -0.0015374567680156183 0 -0.034313533784036725 -0.0018075118348556967 0 -0.033959174105225733 -0.0019030614508685857 0 -0.031666891922875334 -0.0023042984169340569 0 -0.032480061567641418 -0.0021598800625231419 0 -0.03215343977705417 -0.0017242743841242524 0 -0.031514427181523266 -0.0015006766969588529 0 -0.03186023299014859 -0.0015814238373939283 0 -0.03215343977705417 -0.0017242743841242524 0 -0.031925654075565323 -0.0010634119187845649 0 -0.032641162202884925 -0.0014044372785161146 0 -0.031396243773170462 -0.0016229606230189139 0 -0.032159836235512398 -0.0017651147210455244 0 -0.031802250242082088 -0.0012697243177245421 0 -0.031396243773170462 -0.0016229606230189139 0 -0.031802250242082088 -0.0012697243177245421 0 -0.031256518793799516 -0.0012787262996272126 0 -0.032159836235512398 -0.0017651147210455244 0 -0.032506886489408339 -0.0013940531407171642 0 -0.031802250242082088 -0.0012697243177245421 0 -0.032815992074180129 -0.0017747164384536499 0 -0.03215343977705417 -0.0017242743841242524 0 -0.032641162202884925 -0.0014044372785161146 0 -0.032815992074180129 -0.0017747164384536499 0 -0.032641162202884925 -0.0014044372785161146 0 -0.032952552793808265 -0.0017255576387422949 0 -0.03186023299014859 -0.0015814238373939283 0 -0.032012754441535951 -0.0016209863257893465 0 -0.032159836235512398 -0.0017651147210455244 0 -0.032506886489408339 -0.0013940531407171642 0 -0.032952552793808265 -0.0017255576387422949 0 -0.032506886489408339 -0.0013940531407171642 0 -0.032884783512371479 -0.0014277514120400736 0 -0.032952552793808265 -0.0017255576387422949 0 -0.032506886489408339 -0.0013940531407171642 0 -0.032884783512371479 -0.0014277514120400736 0 -0.032674603412570814 -0.0011714638370674949 0 -0.032884783512371479 -0.0014277514120400736 0 -0.032952552793808265 -0.0017255576387422949 0 -0.033059539554233908 -0.0016374112362952445 0 -0.03270706184040837 -0.00094481722930693046 0 -0.032674603412570814 -0.0011714638370674949 0 -0.032881568261416708 -0.0011688102808038339 0 -0.032884783512371479 -0.0014277514120400736 0 -0.032674603412570814 -0.0011714638370674949 0 -0.032881568261416708 -0.0011688102808038339 0 -0.03270706184040837 -0.00094481722930693046 0 -0.032674603412570814 -0.0011714638370674949 0 -0.032159996714065116 -0.00087484686248428286 0 -0.032506886489408339 -0.0013940531407171642 0 -0.032674603412570814 -0.0011714638370674949 0 -0.032159996714065116 -0.00087484686248428286 0 -0.032235230865650048 -0.00094807138018209878 0 -0.032020411271429988 -0.00097118226293654505 0 -0.032180862542218386 -0.00098555760842394249 0 -0.03166256619757693 -0.0010265887045143502 0 -0.031830691142661398 -0.00062319380491417911 0 -0.03166256619757693 -0.0010265887045143502 0 -0.031410229495328811 -0.00089660019842304612 0 -0.031442023440188031 -0.00065004850453338802 0 -0.032506886489408339 -0.0013940531407171642 0 -0.032159996714065116 -0.00087484686248428286 0 -0.031802250242082088 -0.0012697243177245421 0 -0.032020411271429988 -0.00097118226293654505 0 -0.031894963515543336 -0.0009853300108564984 0 -0.032159996714065116 -0.00087484686248428286 0 -0.031802250242082088 -0.0012697243177245421 0 -0.031261616847496176 -0.0010130045738630988 0 -0.031802250242082088 -0.0012697243177245421 0 -0.031256518793799516 -0.0012787262996272126 0 -0.031261616847496176 -0.0010130045738630988 0 -0.031410229495328811 -0.00089660019842304612 0 -0.031261616847496176 -0.0010130045738630988 0 -0.031174289608321987 -0.00089935106469632669 0 -0.03166256619757693 -0.0010265887045143502 0 -0.031410229495328811 -0.00089660019842304612 0 -0.031261616847496176 -0.0010130045738630988 0 -0.031410229495328811 -0.00089660019842304612 0 -0.031204532618651897 -0.00072004897635997967 0 -0.031174289608321987 -0.00089935106469632669 0 -0.031204532618651897 -0.00072004897635997967 0 -0.031442023440188031 -0.00065004850453338802 0 -0.03101138816772471 -0.00042152383195987223 0 -0.031410229495328811 -0.00089660019842304612 0 -0.031204532618651897 -0.00072004897635997967 0 -0.031442023440188031 -0.00065004850453338802 0 -0.031442023440188031 -0.00065004850453338802 0 -0.031522248334349481 -0.0002272079491128359 0 -0.03101138816772471 -0.00042152383195987223 0 -0.031522248334349481 -0.0002272079491128359 0 -0.03101138816772471 -0.00042152383195987223 0 -0.030959676606414452 0.00024760377415916201 0 -0.031442023440188031 -0.00065004850453338802 0 -0.031522248334349481 -0.0002272079491128359 0 -0.031830691142661398 -0.00062319380491417911 0 -0.03166256619757693 -0.0010265887045143502 0 -0.031442023440188031 -0.00065004850453338802 0 -0.031830691142661398 -0.00062319380491417911 0 -0.032180862542218386 -0.00098555760842394249 0 -0.031830691142661398 -0.00062319380491417911 0 -0.032142621604724114 -0.00056239820009343084 0 -0.031830691142661398 -0.00062319380491417911 0 -0.032004877506698809 -0.00028223410929166276 0 -0.032142621604724114 -0.00056239820009343084 0 -0.031522248334349481 -0.0002272079491128359 0 -0.031830691142661398 -0.00062319380491417911 0 -0.032004877506698809 -0.00028223410929166276 0 -0.032004877506698809 -0.00028223410929166276 0 -0.032270288433112616 -0.00037080789685833197 0 -0.032142621604724114 -0.00056239820009343084 0 -0.032270288433112616 -0.00037080789685833197 0 -0.032142621604724114 -0.00056239820009343084 0 -0.032424394620796167 -0.00058241863161084828 0 -0.032180862542218386 -0.00098555760842394249 0 -0.032142621604724114 -0.00056239820009343084 0 -0.032424394620796167 -0.00058241863161084828 0 -0.030453234924266201 -0.0010000588171665602 0 -0.03061616035210793 -0.00080397165696313299 0 -0.030184046093197872 -0.00072611584769697972 0 -0.030245004070848715 -0.001148978657293939 0 -0.030453234924266201 -0.0010000588171665602 0 -0.030184046093197872 -0.00072611584769697972 0 -0.02990614493885204 -0.0010403331483716236 0 -0.030245004070848715 -0.001148978657293939 0 -0.030184046093197872 -0.00072611584769697972 0 -0.02990614493885204 -0.0010403331483716236 0 -0.030184046093197872 -0.00072611584769697972 0 -0.029646322215282142 -0.00075917473884101186 0 -0.029995119342857757 -0.0013611869493410191 0 -0.02990614493885204 -0.0010403331483716236 0 -0.030245004070848715 -0.001148978657293939 0 -0.029995119342857757 -0.0013611869493410191 0 -0.030226993070013867 -0.001348003799350407 0 -0.030245004070848715 -0.001148978657293939 0 -0.030466648224441752 -0.0013860661570618811 0 -0.030226993070013867 -0.001348003799350407 0 -0.030245004070848715 -0.001148978657293939 0 -0.030547781216316693 -0.0014218531775048999 0 -0.030466648224441752 -0.0013860661570618811 0 -0.030588601523441727 -0.0012322927815707314 0 -0.030245004070848715 -0.001148978657293939 0 -0.030588601523441727 -0.0012322927815707314 0 -0.030453234924266201 -0.0010000588171665602 0 -0.030466648224441752 -0.0013860661570618811 0 -0.030245004070848715 -0.001148978657293939 0 -0.030588601523441727 -0.0012322927815707314 0 -0.031140051883311287 -0.0014413754073602193 0 -0.031152301185399855 -0.0013847125135685442 0 -0.03110328479379227 -0.0013343651968122383 0 -0.030730258603839634 -0.0013844001973121879 0 -0.031034902842837574 -0.0010717525950308356 0 -0.030547781216316693 -0.0014218531775048999 0 -0.030588601523441727 -0.0012322927815707314 0 -0.030816932521379244 -0.0012032948655854268 0 -0.030588601523441727 -0.0012322927815707314 0 -0.030816932521379244 -0.0012032948655854268 0 -0.030661134667753165 -0.001054163127873715 0 -0.030588601523441727 -0.0012322927815707314 0 -0.030453234924266201 -0.0010000588171665602 0 -0.030661134667753165 -0.001054163127873715 0 -0.03110328479379227 -0.0013343651968122383 0 -0.031256518793799516 -0.0012787262996272126 0 -0.031034902842837574 -0.0010717525950308356 0 -0.031034902842837574 -0.0010717525950308356 0 -0.031261616847496176 -0.0010130045738630988 0 -0.031174289608321987 -0.00089935106469632669 0 -0.031256518793799516 -0.0012787262996272126 0 -0.031034902842837574 -0.0010717525950308356 0 -0.031261616847496176 -0.0010130045738630988 0 -0.031152301185399855 -0.0013847125135685442 0 -0.031168327726579431 -0.0013532221956765852 0 -0.030816932521379244 -0.0012032948655854268 0 -0.031174289608321987 -0.00089935106469632669 0 -0.030837359316841843 -0.00092734992711409367 0 -0.031174289608321987 -0.00089935106469632669 0 -0.030837359316841843 -0.00092734992711409367 0 -0.030926195940246551 -0.00069792219478877497 0 -0.030837359316841843 -0.00092734992711409367 0 -0.03061616035210793 -0.00080397165696313299 0 -0.030926195940246551 -0.00069792219478877497 0 -0.031204532618651897 -0.00072004897635997967 0 -0.031174289608321987 -0.00089935106469632669 0 -0.030926195940246551 -0.00069792219478877497 0 -0.030453234924266201 -0.0010000588171665602 0 -0.030661134667753165 -0.001054163127873715 0 -0.03061616035210793 -0.00080397165696313299 0 -0.030816932521379244 -0.0012032948655854268 0 -0.030837359316841843 -0.00092734992711409367 0 -0.030661134667753165 -0.001054163127873715 0 -0.030837359316841843 -0.00092734992711409367 0 -0.030661134667753165 -0.001054163127873715 0 -0.03061616035210793 -0.00080397165696313299 0 -0.03061616035210793 -0.00080397165696313299 0 -0.030532175566249344 -0.00048591695652479223 0 -0.030926195940246551 -0.00069792219478877497 0 -0.03061616035210793 -0.00080397165696313299 0 -0.030532175566249344 -0.00048591695652479223 0 -0.030184046093197872 -0.00072611584769697972 0 -0.030532175566249344 -0.00048591695652479223 0 -0.030926195940246551 -0.00069792219478877497 0 -0.03101138816772471 -0.00042152383195987223 0 -0.031204532618651897 -0.00072004897635997967 0 -0.030926195940246551 -0.00069792219478877497 0 -0.03101138816772471 -0.00042152383195987223 0 -0.030532175566249344 -0.00048591695652479223 0 -0.03101138816772471 -0.00042152383195987223 0 -0.030386773645451642 -2.885796564662806e-05 0 -0.030532175566249344 -0.00048591695652479223 0 -0.030169142279659271 -0.00027669973255264424 0 -0.030386773645451642 -2.885796564662806e-05 0 -0.030532175566249344 -0.00048591695652479223 0 -0.030169142279659271 -0.00027669973255264424 0 -0.030184046093197872 -0.00072611584769697972 0 -0.030169142279659271 -0.00027669973255264424 0 -0.030184046093197872 -0.00072611584769697972 0 -0.029776853879342809 -0.00030232736526096294 0 -0.030184046093197872 -0.00072611584769697972 0 -0.029776853879342809 -0.00030232736526096294 0 -0.029646322215282142 -0.00075917473884101186 0 -0.030169142279659271 -0.00027669973255264424 0 -0.029776853879342809 -0.00030232736526096294 0 -0.030011087041368373 0.00010026179774874202 0 -0.029776853879342809 -0.00030232736526096294 0 -0.029479072741522019 -0.00017064305250448928 0 -0.029313854778761431 -0.00044825688950160666 0 -0.029479072741522019 -0.00017064305250448928 0 -0.029313854778761431 -0.00044825688950160666 0 -0.029225140850734029 -3.9496133075773833e-05 0 -0.029313854778761431 -0.00044825688950160666 0 -0.029268885131155067 -0.00084367355705776425 0 -0.02892178971968197 -0.00060331848363631322 0 -0.029313854778761431 -0.00044825688950160666 0 -0.029646322215282142 -0.00075917473884101186 0 -0.029268885131155067 -0.00084367355705776425 0 -0.029776853879342809 -0.00030232736526096294 0 -0.029313854778761431 -0.00044825688950160666 0 -0.029646322215282142 -0.00075917473884101186 0 -0.02990614493885204 -0.0010403331483716236 0 -0.029646322215282142 -0.00075917473884101186 0 -0.02944380575750374 -0.0012066213325923833 0 -0.029646322215282142 -0.00075917473884101186 0 -0.029268885131155067 -0.00084367355705776425 0 -0.02944380575750374 -0.0012066213325923833 0 -0.029268885131155067 -0.00084367355705776425 0 -0.02944380575750374 -0.0012066213325923833 0 -0.028924452540533368 -0.0010403178795585788 0 -0.029222347518098116 -0.0010818771155603174 0 -0.028921637063652732 -0.00098485847058457599 0 -0.029995119342857757 -0.0013611869493410191 0 -0.02990614493885204 -0.0010403331483716236 0 -0.02944380575750374 -0.0012066213325923833 0 -0.029365847109701804 -0.0011283015119392392 0 -0.029222347518098116 -0.0010818771155603174 0 -0.028632046250760081 -0.00096889138382992514 0 -0.028785158941004391 -0.0011923209919892644 0 -0.02852426289658434 -0.001354409270769326 0 -0.028632046250760081 -0.00096889138382992514 0 -0.028785158941004391 -0.0011923209919892644 0 -0.028969716706083323 -0.00093711530503961344 0 -0.029521148150147145 -0.0011448348547150381 0 -0.028969716706083323 -0.00093711530503961344 0 -0.029013211632866274 -0.0012796051844186876 0 -0.028785158941004391 -0.0011923209919892644 0 -0.028969716706083323 -0.00093711530503961344 0 -0.029013211632866274 -0.0012796051844186876 0 -0.029268885131155067 -0.00084367355705776425 0 -0.028924452540533368 -0.0010403178795585788 0 -0.02892178971968197 -0.00060331848363631322 0 -0.028924452540533368 -0.0010403178795585788 0 -0.02846880463866797 -0.00080484305558673006 0 -0.028350749784666899 -0.00084323850783518109 0 -0.028921637063652732 -0.00098485847058457599 0 -0.028613782658046278 -0.00088614489634987145 0 -0.028632046250760081 -0.00096889138382992514 0 -0.028969716706083323 -0.00093711530503961344 0 -0.02836974766652274 -0.00073717515324044287 0 -0.028924452540533368 -0.0010403178795585788 0 -0.02892178971968197 -0.00060331848363631322 0 -0.02846880463866797 -0.00080484305558673006 0 -0.02892178971968197 -0.00060331848363631322 0 -0.028635733087255644 -0.00035873572825629012 0 -0.02846880463866797 -0.00080484305558673006 0 -0.02074596593127016 0.0016067294321726864 0 -0.02120464537816466 0.0013637491807407896 0 -0.029313854778761431 -0.00044825688950160666 0 -0.028925828810103436 -0.0001889893008644873 0 -0.029225140850734029 -3.9496133075773833e-05 0 -0.029313854778761431 -0.00044825688950160666 0 -0.02892178971968197 -0.00060331848363631322 0 -0.028925828810103436 -0.0001889893008644873 0 -0.02074596593127016 0.0016067294321726864 0 -0.019280755282862095 0.0022348417080318562 0 -0.028925828810103436 -0.0001889893008644873 0 -0.028635733087255644 -0.00035873572825629012 0 -0.028775800872294935 6.4065989558460541e-05 0 -0.02892178971968197 -0.00060331848363631322 0 -0.028925828810103436 -0.0001889893008644873 0 -0.028635733087255644 -0.00035873572825629012 0 -0.027932604451862037 -1.9416707674342136e-05 0 -0.028251513308201897 -0.00044940052592943068 0 -0.028365316079216538 4.6183997389970312e-05 0 -0.028529130582978113 -0.00022920313740291111 0 -0.028251513308201897 -0.00044940052592943068 0 -0.028365316079216538 4.6183997389970312e-05 0 -0.027932604451862037 -1.9416707674342136e-05 0 -0.027911200550341374 -0.00035320753362668269 0 -0.028251513308201897 -0.00044940052592943068 0 -0.027911200550341374 -0.00035320753362668269 0 -0.028251513308201897 -0.00044940052592943068 0 -0.027768631985145165 -0.00060145128446736603 0 -0.028251513308201897 -0.00044940052592943068 0 -0.027768631985145165 -0.00060145128446736603 0 -0.028350749784666899 -0.00084323850783518109 0 -0.028529130582978113 -0.00022920313740291111 0 -0.028251513308201897 -0.00044940052592943068 0 -0.02846880463866797 -0.00080484305558673006 0 -0.009788855549470803 0.0064487813365303277 0 -0.0097495560564233551 0.0069619830083991648 0 -0.0092935870041714989 0.0064145308047850033 0 -0.0097495560564233551 0.0069619830083991648 0 -0.0092935870041714989 0.0064145308047850033 0 -0.009138292102714423 0.0070581382972741483 0 -0.0084922744567358568 0.0064453714293871223 0 -0.0092935870041714989 0.0064145308047850033 0 -0.009138292102714423 0.0070581382972741483 0 -0.027932604451862037 -1.9416707674342136e-05 0 -0.027911200550341374 -0.00035320753362668269 0 -0.027546743052916829 -0.00042342074029559287 0 -0.017847506058453939 0.0034453788763402289 0 -0.018271319492133533 0.0035407073676980458 0 -0.027546743052916829 -0.00042342074029559287 0 -0.027543172639487971 -0.00072728670210855755 0 -0.027768631985145165 -0.00060145128446736603 0 -0.027911200550341374 -0.00035320753362668269 0 -0.027546743052916829 -0.00042342074029559287 0 -0.027768631985145165 -0.00060145128446736603 0 -0.0097495560564233551 0.0069619830083991648 0 -0.0097574893248229839 0.0076624265725843046 0 -0.009138292102714423 0.0070581382972741483 0 -0.02720102880591015 -0.00078865429193150107 0 -0.027546743052916829 -0.00042342074029559287 0 -0.027543172639487971 -0.00072728670210855755 0 -0.02720102880591015 -0.00078865429193150107 0 -0.027543172639487971 -0.00072728670210855755 0 -0.027493464695499018 -0.00093944102388450826 0 -0.018725584580804033 0.0037132490061114274 0 -0.018271319492133533 0.0035407073676980458 0 -0.027543172639487971 -0.00072728670210855755 0 -0.027717111900189235 -0.00088247625615697593 0 -0.027493464695499018 -0.00093944102388450826 0 -0.027543172639487971 -0.00072728670210855755 0 -0.027768631985145165 -0.00060145128446736603 0 -0.027717111900189235 -0.00088247625615697593 0 -0.027768631985145165 -0.00060145128446736603 0 -0.027717111900189235 -0.00088247625615697593 0 -0.027899786513679015 -0.0008283520242478936 0 -0.027717111900189235 -0.00088247625615697593 0 -0.027635534441624473 -0.0011319029804067822 0 -0.027967655099325913 -0.0010551875249725702 0 -0.027635534441624473 -0.0011319029804067822 0 -0.027967655099325913 -0.0010551875249725702 0 -0.027823384866613489 -0.0013371266234397841 0 -0.027717111900189235 -0.00088247625615697593 0 -0.027635534441624473 -0.0011319029804067822 0 -0.027493464695499018 -0.00093944102388450826 0 -0.027635534441624473 -0.0011319029804067822 0 -0.027327208335762639 -0.0011394077025612453 0 -0.027493464695499018 -0.00093944102388450826 0 -0.02720102880591015 -0.00078865429193150107 0 -0.027327208335762639 -0.0011394077025612453 0 -0.027493464695499018 -0.00093944102388450826 0 -0.028251513308201897 -0.00044940052592943068 0 -0.02846880463866797 -0.00080484305558673006 0 -0.028350749784666899 -0.00084323850783518109 0 -0.02836974766652274 -0.00073717515324044287 0 -0.028149105144537528 -0.00077017403287843586 0 -0.028265470554082524 -0.00092366611913425115 0 -0.02836974766652274 -0.00073717515324044287 0 -0.028265470554082524 -0.00092366611913425115 0 -0.02840305345607453 -0.00093250812002146528 0 -0.028632046250760081 -0.00096889138382992514 0 -0.02836974766652274 -0.00073717515324044287 0 -0.02840305345607453 -0.00093250812002146528 0 -0.027768631985145165 -0.00060145128446736603 0 -0.02836974766652274 -0.00073717515324044287 0 -0.028149105144537528 -0.00077017403287843586 0 -0.028461990344164252 -0.00083787878986089058 0 -0.028613782658046278 -0.00088614489634987145 0 -0.027768631985145165 -0.00060145128446736603 0 -0.027899786513679015 -0.0008283520242478936 0 -0.028149105144537528 -0.00077017403287843586 0 -0.027899786513679015 -0.0008283520242478936 0 -0.028149105144537528 -0.00077017403287843586 0 -0.027967655099325913 -0.0010551875249725702 0 -0.028149105144537528 -0.00077017403287843586 0 -0.028017523625071834 -0.0010994695277237476 0 -0.028265470554082524 -0.00092366611913425115 0 -0.02905732086435291 -0.00047246917367371852 0 -0.029110068697671139 -0.00040617228213195284 0 -0.027717111900189235 -0.00088247625615697593 0 -0.027899786513679015 -0.0008283520242478936 0 -0.027967655099325913 -0.0010551875249725702 0 -0.028017523625071834 -0.0010994695277237476 0 -0.028345120950554397 -0.0010961590527840696 0 -0.028172510241434329 -0.0013690648900012681 0 -0.028632046250760081 -0.00096889138382992514 0 -0.028345120950554397 -0.0010961590527840696 0 -0.02852426289658434 -0.001354409270769326 0 -0.028017523625071834 -0.0010994695277237476 0 -0.028345120950554397 -0.0010961590527840696 0 -0.028265470554082524 -0.00092366611913425115 0 -0.028345120950554397 -0.0010961590527840696 0 -0.028265470554082524 -0.00092366611913425115 0 -0.02840305345607453 -0.00093250812002146528 0 -0.028632046250760081 -0.00096889138382992514 0 -0.028345120950554397 -0.0010961590527840696 0 -0.02840305345607453 -0.00093250812002146528 0 -0.028329037595285343 -0.0015371987631626538 0 -0.028172510241434329 -0.0013690648900012681 0 -0.028156050046732165 -0.0017258609612961231 0 -0.02852426289658434 -0.001354409270769326 0 -0.028329037595285343 -0.0015371987631626538 0 -0.028172510241434329 -0.0013690648900012681 0 -0.028345120950554397 -0.0010961590527840696 0 -0.02852426289658434 -0.001354409270769326 0 -0.028172510241434329 -0.0013690648900012681 0 -0.02852426289658434 -0.001354409270769326 0 -0.028497616210686878 -0.0015922872200619131 0 -0.028329037595285343 -0.0015371987631626538 0 -0.028172510241434329 -0.0013690648900012681 0 -0.027870040936639272 -0.001424322558952446 0 -0.028156050046732165 -0.0017258609612961231 0 -0.028017523625071834 -0.0010994695277237476 0 -0.028172510241434329 -0.0013690648900012681 0 -0.027870040936639272 -0.001424322558952446 0 -0.029110068697671139 -0.00040617228213195284 0 -0.029301645715650967 -0.00014010211728062341 0 -0.029301645715650967 -0.00014010211728062341 0 -0.030137605059795271 -0.00033969257168878789 0 -0.030348261728852726 2.1576652535510602e-05 0 -0.0305753720456537 8.6836924349341894e-05 0 -0.03042428662844875 0.00017466574648207834 0 -0.030477476576642716 -0.00011884922422653914 0 -0.030348261728852726 2.1576652535510602e-05 0 -0.0305753720456537 8.6836924349341894e-05 0 -0.030348261728852726 2.1576652535510602e-05 0 -0.030326251629210738 0.0001529247423054124 0 -0.03042428662844875 0.00017466574648207834 0 -0.030348261728852726 2.1576652535510602e-05 0 -0.030218030206598467 0.00016175576251457944 0 -0.030326251629210738 0.0001529247423054124 0 -0.030137605059795271 -0.00033969257168878789 0 -0.031073467445456082 -0.00054083177487824553 0 -0.028156050046732165 -0.0017258609612961231 0 -0.028391937874255087 -0.0017382688596743975 0 -0.028445576669365136 -0.0020282221305206625 0 -0.02852191045222344 -0.0018665403137158164 0 -0.028391937874255087 -0.0017382688596743975 0 -0.028570587964663663 -0.0017276842408217666 0 -0.02852191045222344 -0.0018665403137158164 0 -0.028391937874255087 -0.0017382688596743975 0 -0.028445576669365136 -0.0020282221305206625 0 -0.028497616210686878 -0.0015922872200619131 0 -0.028391937874255087 -0.0017382688596743975 0 -0.028570587964663663 -0.0017276842408217666 0 -0.028497616210686878 -0.0015922872200619131 0 -0.028329037595285343 -0.0015371987631626538 0 -0.028391937874255087 -0.0017382688596743975 0 -0.028329037595285343 -0.0015371987631626538 0 -0.028156050046732165 -0.0017258609612961231 0 -0.028391937874255087 -0.0017382688596743975 0 -0.027635534441624473 -0.0011319029804067822 0 -0.027327208335762639 -0.0011394077025612453 0 -0.027482571364495969 -0.001381713399287429 0 -0.027155439286667395 -0.0014113549704948413 0 -0.027327208335762639 -0.0011394077025612453 0 -0.027482571364495969 -0.001381713399287429 0 -0.027635534441624473 -0.0011319029804067822 0 -0.027779724307079479 -0.0012890333072612351 0 -0.027482571364495969 -0.001381713399287429 0 -0.029260366150665629 -0.00014692847143455174 0 -0.029301645715650967 -0.00014010211728062341 0 -0.029301645715650967 -0.00014010211728062341 0 -0.028697118054395038 0.00028214853045619961 0 -0.027779724307079479 -0.0012890333072612351 0 -0.027482571364495969 -0.001381713399287429 0 -0.027617039693359172 -0.0016179035618924965 0 -0.027482571364495969 -0.001381713399287429 0 -0.027617039693359172 -0.0016179035618924965 0 -0.027343634421933587 -0.0016182900269208766 0 -0.027155439286667395 -0.0014113549704948413 0 -0.027482571364495969 -0.001381713399287429 0 -0.027343634421933587 -0.0016182900269208766 0 -0.027617039693359172 -0.0016179035618924965 0 -0.027343634421933587 -0.0016182900269208766 0 -0.027456295413679936 -0.0019535564902355626 0 -0.027002675489670565 -0.0017274865919715836 0 -0.027343634421933587 -0.0016182900269208766 0 -0.027456295413679936 -0.0019535564902355626 0 -0.028697118054395038 0.00028214853045619961 0 -0.028159834259371335 0.0010371273379106477 0 -0.0305753720456537 8.6836924349341894e-05 0 -0.030525438208488045 0.00025405633220491051 0 -0.03042428662844875 0.00017466574648207834 0 -0.0305753720456537 8.6836924349341894e-05 0 -0.030525438208488045 0.00025405633220491051 0 -0.030669746536719118 0.00029144194814986063 0 -0.030525438208488045 0.00025405633220491051 0 -0.030500283597415374 0.0003005968910362606 0 -0.030443611365871856 0.00027770025475981402 0 -0.030727107668786183 0.00046027258490395184 0 -0.030630412778627041 0.00041540826191045299 0 -0.030640309072869555 0.00042942926428112313 0 -0.030727107668786183 0.00046027258490395184 0 -0.030500566232198892 0.00035827184575160142 0 -0.030593714561885088 0.00033057289611851658 0 -0.031054011036501371 -0.00028993576982255429 0 -0.031084885127282632 -0.00034436039636451027 0 -0.03053148229373057 0.00031191625659982757 0 -0.030500566232198892 0.00035827184575160142 0 -0.030593714561885088 0.00033057289611851658 0 -0.030525438208488045 0.00025405633220491051 0 -0.030500283597415374 0.0003005968910362606 0 -0.03053148229373057 0.00031191625659982757 0 -0.030525438208488045 0.00025405633220491051 0 -0.03053148229373057 0.00031191625659982757 0 -0.030593714561885088 0.00033057289611851658 0 -0.030500283597415374 0.0003005968910362606 0 -0.03053148229373057 0.00031191625659982757 0 -0.030500566232198892 0.00035827184575160142 0 -0.030525438208488045 0.00025405633220491051 0 -0.030593714561885088 0.00033057289611851658 0 -0.030669746536719118 0.00029144194814986063 0 -0.028225898483338514 0.0010073333022320773 0 -0.028159834259371335 0.0010371273379106477 0 -0.030727107668786183 0.00046027258490395184 0 -0.030593714561885088 0.00033057289611851658 0 -0.030662914401791065 0.00030032238490718241 0 -0.028828527027322266 0.0012648721019981153 0 -0.028159834259371335 0.0010371273379106477 0 -0.027476293674637855 0.0023481007565798384 0 -0.027465491062763674 0.0023683065126059578 0 -0.027479060105688874 0.0023321516356336574 0 -0.027476293674637855 0.0023481007565798384 0 -0.02747091733162816 0.0023380076907496506 0 -0.027479060105688874 0.0023321516356336574 0 -0.030250381313174472 0.00023088500194675093 0 -0.030326251629210738 0.0001529247423054124 0 -0.030367384651320325 0.00024238977025651978 0 -0.031382419119630647 -0.00048216240205545453 0 -0.03141139380949632 -0.00046716319975762519 0 -0.031409771804840773 -0.00051613314266226677 0 -0.031252219489017449 -0.00048027392691197786 0 -0.031225796785938117 -0.00056010131287440924 0 -0.030975491109125692 -0.00053105297434882055 0 -0.030887093902628452 -0.00071751591499668091 0 -0.0307991983412093 -0.00062295688043679078 0 -0.031252219489017449 -0.00048027392691197786 0 -0.031073467445456082 -0.00054083177487824553 0 -0.028448292511679747 -0.0020263684994619438 0 -0.028517794475280779 -0.0021014046371237247 0 -0.028592324021761772 -0.0019529303959218269 0 -0.031073467445456082 -0.00054083177487824553 0 -0.031225796785938117 -0.00056010131287440924 0 -0.031037251181134942 -0.00059073534249620295 0 -0.031073467445456082 -0.00054083177487824553 0 -0.02852191045222344 -0.0018665403137158164 0 -0.028448292511679747 -0.0020263684994619438 0 -0.028592324021761772 -0.0019529303959218269 0 -0.030250381313174472 0.00023088500194675093 0 -0.030218030206598467 0.00016175576251457944 0 -0.030326251629210738 0.0001529247423054124 0 -0.030326251629210738 0.0001529247423054124 0 -0.03042428662844875 0.00017466574648207834 0 -0.030367384651320325 0.00024238977025651978 0 -0.030500566232198892 0.00035827184575160142 0 -0.030250381313174472 0.00023088500194675093 0 -0.030367384651320325 0.00024238977025651978 0 -0.030525438208488045 0.00025405633220491051 0 -0.03042428662844875 0.00017466574648207834 0 -0.030443611365871856 0.00027770025475981402 0 -0.03042428662844875 0.00017466574648207834 0 -0.030367384651320325 0.00024238977025651978 0 -0.030443611365871856 0.00027770025475981402 0 -0.030630412778627041 0.00041540826191045299 0 -0.030573424700774687 0.00038028864791079771 0 -0.030603183111530655 0.0004119620486462842 0 -0.031672752007800085 -0.0002087903015816334 0 -0.031840304647141653 -0.00022856460042725631 0 -0.031084885127282632 -0.00034436039636451027 0 -0.031252219489017449 -0.00048027392691197786 0 -0.030640309072869555 0.00042942926428112313 0 -0.030603183111530655 0.0004119620486462842 0 -0.030589580003937553 0.00042034070425451414 0 -0.030615100965682443 0.00045340740836081675 0 -0.030640309072869555 0.00042942926428112313 0 -0.030544616136143711 0.00042269847997175337 0 -0.030500283597415374 0.0003005968910362606 0 -0.030500566232198892 0.00035827184575160142 0 -0.030443611365871856 0.00027770025475981402 0 -0.030500566232198892 0.00035827184575160142 0 -0.030367384651320325 0.00024238977025651978 0 -0.030443611365871856 0.00027770025475981402 0 -0.030630412778627041 0.00041540826191045299 0 -0.030640309072869555 0.00042942926428112313 0 -0.030603183111530655 0.0004119620486462842 0 -0.030603183111530655 0.0004119620486462842 0 -0.030589580003937553 0.00042034070425451414 0 -0.030586989137415532 0.00041434772527087653 0 -0.031739299986007628 -0.00028864931410043385 0 -0.031760841631965082 -0.00029490285474024542 0 -0.031840304647141653 -0.00022856460042725631 0 -0.032003257800737886 -0.00042913979766913841 0 -0.031760841631965082 -0.00029490285474024542 0 -0.032003257800737886 -0.00042913979766913841 0 -0.031579341134314848 -0.00046975182251847051 0 -0.031613928995083793 -0.0003968354527997685 0 -0.031925666372267923 -0.0004565882957382721 0 -0.031840304647141653 -0.00022856460042725631 0 -0.031760841631965082 -0.00029490285474024542 0 -0.031252219489017449 -0.00048027392691197786 0 -0.031760841631965082 -0.00029490285474024542 0 -0.031382419119630647 -0.00048216240205545453 0 -0.031354123178916581 -0.00054212073556523339 0 -0.031409771804840773 -0.00051613314266226677 0 -0.030573424700774687 0.00038028864791079771 0 -0.030603183111530655 0.0004119620486462842 0 -0.030587948374039036 0.00041418272799616045 0 -0.031354123178916581 -0.00054212073556523339 0 -0.031409771804840773 -0.00051613314266226677 0 -0.031401671571851399 -0.00055152580889195329 0 -0.031225796785938117 -0.00056010131287440924 0 -0.031964016923451924 -0.00067896895102602416 0 -0.031409771804840773 -0.00051613314266226677 0 -0.031401671571851399 -0.00055152580889195329 0 -0.031487401203948599 -0.00054883197459615915 0 -0.03224767650150779 -0.00044341548188778847 0 -0.032011767262437603 -0.00045407648902196472 0 -0.031993933940460989 -0.00043500270874515738 0 -0.031728475021054407 -0.00023161617965908074 0 -0.031846329858753041 -0.00078462903623943822 0 -0.031640463709852698 -0.00023511291467196438 0 -0.03224767650150779 -0.00044341548188778847 0 -0.031993933940460989 -0.00043500270874515738 0 -0.031937840685513197 -0.00038607647640969539 0 -0.03141139380949632 -0.00046716319975762519 0 -0.031409771804840773 -0.00051613314266226677 0 -0.031487401203948599 -0.00054883197459615915 0 -0.032003257800737886 -0.00042913979766913841 0 -0.032455176349676068 -0.00084038653160100458 0 -0.032003257800737886 -0.00042913979766913841 0 -0.031964016923451924 -0.00067896895102602416 0 -0.031964016923451924 -0.00067896895102602416 0 -0.031963898813860719 -0.00067872205072550657 0 -0.028780571966371103 -0.0019474706796795596 0 -0.028927548647741427 -0.0019899612963377579 0 -0.02897181418900717 -0.0024306852826099837 0 -0.031514990301699942 -0.00073781109100021539 0 -0.032135821346854346 -0.00070963793702690642 0 -0.032112804735084079 -0.00064571717723961022 0 -0.031728475021054407 -0.00023161617965908074 0 -0.031846329858753041 -0.00078462903623943822 0 -0.028835057283285431 -0.0019211214157719449 0 -0.028927548647741427 -0.0019899612963377579 0 -0.028951584480941081 -0.0018731711125303564 0 -0.028835057283285431 -0.0019211214157719449 0 -0.028780571966371103 -0.0019474706796795596 0 -0.028927548647741427 -0.0019899612963377579 0 -0.031504833481511028 -0.0007428953232053063 0 -0.031514990301699942 -0.00073781109100021539 0 -0.028517794475280779 -0.0021014046371237247 0 -0.028771344528146021 -0.0019706022130903233 0 -0.028592324021761772 -0.0019529303959218269 0 -0.031225796785938117 -0.00056010131287440924 0 -0.031514990301699942 -0.00073781109100021539 0 -0.032023266242963054 -0.00088333759233966429 0 -0.032333363142720617 -0.00093711211267397663 0 -0.028927548647741427 -0.0019899612963377579 0 -0.029237387365472614 -0.0024073058930424124 0 -0.029233216823344631 -0.0020730287830356023 0 -0.029081271300860457 -0.0019263691620018091 0 -0.028927548647741427 -0.0019899612963377579 0 -0.029233216823344631 -0.0020730287830356023 0 -0.029081271300860457 -0.0019263691620018091 0 -0.029233216823344631 -0.0020730287830356023 0 -0.029227991009179846 -0.0019179717288696921 0 -0.029081271300860457 -0.0019263691620018091 0 -0.028927548647741427 -0.0019899612963377579 0 -0.028951584480941081 -0.0018731711125303564 0 -0.031868076202891366 -0.00064479285063987813 0 -0.032911049672737107 -0.00084288271866491521 0 -0.032266248007819583 -0.0011857486966051494 0 -0.028927548647741427 -0.0019899612963377579 0 -0.02897181418900717 -0.0024306852826099837 0 -0.029256324647560113 -0.0024189006461054373 0 -0.032012018990349438 -0.00045460760293605931 0 -0.031993933940460989 -0.00043500270874515738 0 -0.031964003466725364 -0.00045634671442197421 0 -0.031964016923451924 -0.00067896895102602416 0 -0.032135821346854346 -0.00070963793702690642 0 -0.032135821346854346 -0.00070963793702690642 0 -0.032455176349676068 -0.00084038653160100458 0 -0.031993933940460989 -0.00043500270874515738 0 -0.031964003466725364 -0.00045634671442197421 0 -0.031937840685513197 -0.00038607647640969539 0 -0.033028457320268705 -0.0011552930953836753 0 -0.032911049672737107 -0.00084288271866491521 0 -0.032266248007819583 -0.0011857486966051494 0 -0.032135821346854346 -0.00070963793702690642 0 -0.032333363142720617 -0.00093711211267397663 0 -0.032333363142720617 -0.00093711211267397663 0 -0.032422506104139805 -0.0012907860720756845 0 -0.032938785268892511 -0.0011996314647503791 0 -0.032333363142720617 -0.00093711211267397663 0 -0.029237387365472614 -0.0024073058930424124 0 -0.029524547821127914 -0.0022347622100827424 0 -0.029233216823344631 -0.0020730287830356023 0 -0.029237387365472614 -0.0024073058930424124 0 -0.029524547821127914 -0.0022347622100827424 0 -0.029828626979704467 -0.0024219636223229424 0 -0.034858303795399691 -0.0016483449345988817 0 -0.034900037896702665 -0.0017061932650408896 0 -0.034729772592484061 -0.001718799373558684 0 -0.029524547821127914 -0.0022347622100827424 0 -0.029828626979704467 -0.0024219636223229424 0 -0.0297376028776682 -0.0021870169956039313 0 -0.029937044135219085 -0.0020818000968271188 0 -0.029828626979704467 -0.0024219636223229424 0 -0.0297376028776682 -0.0021870169956039313 0 -0.029937044135219085 -0.0020818000968271188 0 -0.0297376028776682 -0.0021870169956039313 0 -0.029677683492209943 -0.0020216652364649819 0 -0.029524547821127914 -0.0022347622100827424 0 -0.0297376028776682 -0.0021870169956039313 0 -0.029677683492209943 -0.0020216652364649819 0 -0.029677683492209943 -0.0020216652364649819 0 -0.029437918522154403 -0.0019344154762977704 0 -0.029605596750509451 -0.0017409127086289141 0 -0.029937044135219085 -0.0020818000968271188 0 -0.029677683492209943 -0.0020216652364649819 0 -0.029868689222216704 -0.0018393818579092254 0 -0.029524547821127914 -0.0022347622100827424 0 -0.029233216823344631 -0.0020730287830356023 0 -0.029437918522154403 -0.0019344154762977704 0 -0.029524547821127914 -0.0022347622100827424 0 -0.029677683492209943 -0.0020216652364649819 0 -0.029437918522154403 -0.0019344154762977704 0 -0.029233216823344631 -0.0020730287830356023 0 -0.029437918522154403 -0.0019344154762977704 0 -0.029227991009179846 -0.0019179717288696921 0 -0.029437918522154403 -0.0019344154762977704 0 -0.029227991009179846 -0.0019179717288696921 0 -0.029301960875437238 -0.0017392086607262859 0 -0.029437918522154403 -0.0019344154762977704 0 -0.029301960875437238 -0.0017392086607262859 0 -0.029605596750509451 -0.0017409127086289141 0 -0.029301960875437238 -0.0017392086607262859 0 -0.029605596750509451 -0.0017409127086289141 0 -0.029454764876672111 -0.0015236294552011715 0 -0.029677683492209943 -0.0020216652364649819 0 -0.029868689222216704 -0.0018393818579092254 0 -0.029605596750509451 -0.0017409127086289141 0 -0.029867035873242947 -0.0016248011727880353 0 -0.029605596750509451 -0.0017409127086289141 0 -0.029680242008869345 -0.0014668935823673901 0 -0.029867035873242947 -0.0016248011727880353 0 -0.029868689222216704 -0.0018393818579092254 0 -0.029605596750509451 -0.0017409127086289141 0 -0.029995119342857757 -0.0013611869493410191 0 -0.029521148150147145 -0.0011448348547150381 0 -0.029680242008869345 -0.0014668935823673901 0 -0.029521148150147145 -0.0011448348547150381 0 -0.029680242008869345 -0.0014668935823673901 0 -0.029454764876672111 -0.0015236294552011715 0 -0.029605596750509451 -0.0017409127086289141 0 -0.029680242008869345 -0.0014668935823673901 0 -0.029454764876672111 -0.0015236294552011715 0 -0.029521148150147145 -0.0011448348547150381 0 -0.029454764876672111 -0.0015236294552011715 0 -0.029156758785348798 -0.0015182544253082191 0 -0.029521148150147145 -0.0011448348547150381 0 -0.029156758785348798 -0.0015182544253082191 0 -0.029013211632866274 -0.0012796051844186876 0 -0.029301960875437238 -0.0017392086607262859 0 -0.029454764876672111 -0.0015236294552011715 0 -0.029156758785348798 -0.0015182544253082191 0 -0.029156758785348798 -0.0015182544253082191 0 -0.028942779293025491 -0.0015816504320397241 0 -0.029013211632866274 -0.0012796051844186876 0 -0.028942779293025491 -0.0015816504320397241 0 -0.029013211632866274 -0.0012796051844186876 0 -0.02878581186538574 -0.0014164468073489828 0 -0.028785158941004391 -0.0011923209919892644 0 -0.029013211632866274 -0.0012796051844186876 0 -0.02878581186538574 -0.0014164468073489828 0 -0.028785158941004391 -0.0011923209919892644 0 -0.02852426289658434 -0.001354409270769326 0 -0.02878581186538574 -0.0014164468073489828 0 -0.02852426289658434 -0.001354409270769326 0 -0.02878581186538574 -0.0014164468073489828 0 -0.02870309901775819 -0.0016090946394108204 0 -0.02852426289658434 -0.001354409270769326 0 -0.028497616210686878 -0.0015922872200619131 0 -0.02870309901775819 -0.0016090946394108204 0 -0.028942779293025491 -0.0015816504320397241 0 -0.02878581186538574 -0.0014164468073489828 0 -0.02870309901775819 -0.0016090946394108204 0 -0.02870309901775819 -0.0016090946394108204 0 -0.028705865339769779 -0.0017961970541127072 0 -0.028871002535337337 -0.0017648902750391899 0 -0.028942779293025491 -0.0015816504320397241 0 -0.02870309901775819 -0.0016090946394108204 0 -0.028871002535337337 -0.0017648902750391899 0 -0.028570587964663663 -0.0017276842408217666 0 -0.02870309901775819 -0.0016090946394108204 0 -0.028705865339769779 -0.0017961970541127072 0 -0.028497616210686878 -0.0015922872200619131 0 -0.028570587964663663 -0.0017276842408217666 0 -0.02870309901775819 -0.0016090946394108204 0 -0.02852191045222344 -0.0018665403137158164 0 -0.028570587964663663 -0.0017276842408217666 0 -0.028705865339769779 -0.0017961970541127072 0 -0.02852191045222344 -0.0018665403137158164 0 -0.028592324021761772 -0.0019529303959218269 0 -0.028705865339769779 -0.0017961970541127072 0 -0.028771344528146021 -0.0019706022130903233 0 -0.028592324021761772 -0.0019529303959218269 0 -0.028705865339769779 -0.0017961970541127072 0 -0.028835057283285431 -0.0019211214157719449 0 -0.028705865339769779 -0.0017961970541127072 0 -0.028871002535337337 -0.0017648902750391899 0 -0.028835057283285431 -0.0019211214157719449 0 -0.028776917090664943 -0.0019516607323914067 0 -0.028705865339769779 -0.0017961970541127072 0 -0.031514990301699942 -0.00073781109100021539 0 -0.031495952024952596 -0.00074624151808076766 0 -0.028835057283285431 -0.0019211214157719449 0 -0.028871002535337337 -0.0017648902750391899 0 -0.028951584480941081 -0.0018731711125303564 0 -0.028871002535337337 -0.0017648902750391899 0 -0.028951584480941081 -0.0018731711125303564 0 -0.02906627692592275 -0.0017762328055782772 0 -0.029081271300860457 -0.0019263691620018091 0 -0.028951584480941081 -0.0018731711125303564 0 -0.02906627692592275 -0.0017762328055782772 0 -0.029081271300860457 -0.0019263691620018091 0 -0.029227991009179846 -0.0019179717288696921 0 -0.02906627692592275 -0.0017762328055782772 0 -0.029227991009179846 -0.0019179717288696921 0 -0.029301960875437238 -0.0017392086607262859 0 -0.02906627692592275 -0.0017762328055782772 0 -0.029301960875437238 -0.0017392086607262859 0 -0.029156758785348798 -0.0015182544253082191 0 -0.02906627692592275 -0.0017762328055782772 0 -0.029156758785348798 -0.0015182544253082191 0 -0.028942779293025491 -0.0015816504320397241 0 -0.02906627692592275 -0.0017762328055782772 0 -0.028942779293025491 -0.0015816504320397241 0 -0.028871002535337337 -0.0017648902750391899 0 -0.02906627692592275 -0.0017762328055782772 0 -0.02764663092015936 8.7132313976162214e-05 0 -0.029522163594674668 -2.6326572425234409e-07 0 -0.025482177878293908 1.5972381870233418e-06 0 -0.02764663092015936 8.7132313976162214e-05 0 -0.026683719913727925 0.00012081203465555473 0 -0.026511653270062982 9.967303041024521e-05 0 -0.030759660946818868 0.00037493579029625022 0 -0.030522380181017598 0.00044321841479804817 0 -0.02764663092015936 8.7132313976162214e-05 0 -0.028437085098236118 9.4790096862560228e-05 0 -0.026683719913727925 0.00012081203465555473 0 -0.026632647442905891 0.00012962717014727927 0 -0.026588304637617195 0.00019010484386616162 0 -0.026683719913727925 0.00012081203465555473 0 -0.026632647442905891 0.00012962717014727927 0 -0.026588304637617195 0.00019010484386616162 0 -0.026714919454095071 0.00025391887286590402 0 -0.02764663092015936 8.7132313976162214e-05 0 -0.028437085098236118 9.4790096862560228e-05 0 -0.02947165828764085 8.9569302667025891e-05 0 -0.028437085098236118 9.4790096862560228e-05 0 -0.030006332687597798 0.00017233556090439348 0 -0.02947165828764085 8.9569302667025891e-05 0 -0.026582619687585178 0.00039763509975523535 0 -0.02672206461650211 0.00042114295655818802 0 -0.026714919454095071 0.00025391887286590402 0 -0.030759660946818868 0.00037493579029625022 0 -0.031425314231018596 0.00012969479748727248 0 -0.026588304637617195 0.00019010484386616162 0 -0.026582619687585178 0.00039763509975523535 0 -0.026714919454095071 0.00025391887286590402 0 -0.030006332687597798 0.00017233556090439348 0 -0.03073045749883975 4.3167499317622549e-05 0 -0.03074847275737547 -0.00026663926120694062 0 -0.031425314231018596 0.00012969479748727248 0 -0.032510661246954467 -0.00034560665054087766 0 -0.026582619687585178 0.00039763509975523535 0 -0.026664826757899555 0.00053526639497697914 0 -0.026586997600600199 0.00067588629771099485 0 -0.026582619687585178 0.00039763509975523535 0 -0.026664826757899555 0.00053526639497697914 0 -0.02672206461650211 0.00042114295655818802 0 -0.030006332687597798 0.00017233556090439348 0 -0.03073045749883975 4.3167499317622549e-05 0 -0.02947165828764085 8.9569302667025891e-05 0 -0.02947165828764085 8.9569302667025891e-05 0 -0.029522163594674668 -2.6326572425234409e-07 0 -0.031005346509067468 -6.181172280003446e-05 0 -0.03073045749883975 4.3167499317622549e-05 0 -0.02947165828764085 8.9569302667025891e-05 0 -0.031005346509067468 -6.181172280003446e-05 0 -0.02764663092015936 8.7132313976162214e-05 0 -0.02947165828764085 8.9569302667025891e-05 0 -0.029522163594674668 -2.6326572425234409e-07 0 -0.029522163594674668 -2.6326572425234409e-07 0 -0.031005346509067468 -6.181172280003446e-05 0 -0.033599112713403774 3.6438822679943238e-05 0 -0.029522163594674668 -2.6326572425234409e-07 0 -0.034997768123718374 1.3771652680752121e-07 0 -0.033599112713403774 3.6438822679943238e-05 0 -0.031005346509067468 -6.181172280003446e-05 0 -0.033599112713403774 3.6438822679943238e-05 0 -0.031734929536349613 -0.00025295686225298232 0 -0.034997768123718374 1.3771652680752121e-07 0 -0.033599112713403774 3.6438822679943238e-05 0 -0.034996513992978366 2.8389725475933252e-07 0 -0.033599112713403774 3.6438822679943238e-05 0 -0.033751880351646543 9.5331778495149014e-05 0 -0.033005383349297278 -2.0574286242765063e-05 0 -0.033599112713403774 3.6438822679943238e-05 0 -0.034996513992978366 2.8389725475933252e-07 0 -0.033751880351646543 9.5331778495149014e-05 0 -0.034999991987094213 6.4128511745187048e-10 0 -0.034993500860893326 -2.2655297995920065e-06 0 -0.034997440215235404 -1.1270234077545243e-06 0 -0.034995549425753218 5.7149024736731524e-07 0 -0.033813318940392301 -1.8717794701686226e-05 0 -0.033751880351646543 9.5331778495149014e-05 0 -0.033005383349297278 -2.0574286242765063e-05 0 -0.033014036353294134 -0.00044434155349658814 0 -0.033813318940392301 -1.8717794701686226e-05 0 -0.032510661246954467 -0.00034560665054087766 0 -0.034993500860893326 -2.2655297995920065e-06 0 -0.034988531473910234 -7.9524067344875136e-06 0 -0.034993486268632662 -4.5575565450743809e-06 0 -0.034988531473910234 -7.9524067344875136e-06 0 -0.034991774762909433 -7.8919086803915883e-06 0 -0.034993486268632662 -4.5575565450743809e-06 0 -0.033599112713403774 3.6438822679943238e-05 0 -0.033005383349297278 -2.0574286242765063e-05 0 -0.031734929536349613 -0.00025295686225298232 0 -0.033005383349297278 -2.0574286242765063e-05 0 -0.031734929536349613 -0.00025295686225298232 0 -0.033014036353294134 -0.00044434155349658814 0 -0.032464191969985144 -0.00034440668026366366 0 -0.032510661246954467 -0.00034560665054087766 0 -0.03073045749883975 4.3167499317622549e-05 0 -0.031734929536349613 -0.00025295686225298232 0 -0.03074847275737547 -0.00026663926120694062 0 -0.03073045749883975 4.3167499317622549e-05 0 -0.031005346509067468 -6.181172280003446e-05 0 -0.031734929536349613 -0.00025295686225298232 0 -0.026586997600600199 0.00067588629771099485 0 -0.026674067760285296 0.00064390943015666063 0 -0.026704519779900803 0.00068070746924037172 0 -0.032510661246954467 -0.00034560665054087766 0 -0.032683660332773611 -0.00024064133197694915 0 -0.026664826757899555 0.00053526639497697914 0 -0.026586997600600199 0.00067588629771099485 0 -0.026674067760285296 0.00064390943015666063 0 -0.026892634594009569 0.0006487236601337642 0 -0.026686072478226349 0.00070131880286627448 0 -0.027165507876948495 0.00075095441905252713 0 -0.032683660332773611 -0.00024064133197694915 0 -0.032036103871123177 -3.934461869829062e-05 0 -0.02677001090172626 0.00055100090578926461 0 -0.026892634594009569 0.0006487236601337642 0 -0.026686072478226349 0.00070131880286627448 0 -0.026664826757899555 0.00053526639497697914 0 -0.026674067760285296 0.00064390943015666063 0 -0.02677001090172626 0.00055100090578926461 0 -0.026674067760285296 0.00064390943015666063 0 -0.02677001090172626 0.00055100090578926461 0 -0.026686072478226349 0.00070131880286627448 0 -0.032658378714418068 -0.00025379270481669576 0 -0.032683660332773611 -0.00024064133197694915 0 -0.026892634594009569 0.0006487236601337642 0 -0.027165507876948495 0.00075095441905252713 0 -0.02709983634492491 4.9501531937119392e-05 0 -0.034972608850532542 -1.8082018948880443e-05 0 -0.034968176123369839 -5.3835928828687134e-06 0 -0.034983845186286743 -5.6544081219508425e-06 0 -0.032683660332773611 -0.00024064133197694915 0 -0.033680678778361915 -5.2999264192105699e-06 0 -0.034952181602099425 -2.0996820687236533e-05 0 -0.034972608850532542 -1.8082018948880443e-05 0 -0.034968176123369839 -5.3835928828687134e-06 0 -0.034991774762909433 -7.8919086803915883e-06 0 -0.034996611114356105 -3.6783734111347329e-06 0 -0.034993486268632662 -4.5575565450743809e-06 0 -0.034993500860893326 -2.2655297995920065e-06 0 -0.034993486268632662 -4.5575565450743809e-06 0 -0.034997440215235404 -1.1270234077545243e-06 0 -0.034996611114356105 -3.6783734111347329e-06 0 -0.034993486268632662 -4.5575565450743809e-06 0 -0.034997440215235404 -1.1270234077545243e-06 0 -0.034968176123369839 -5.3835928828687134e-06 0 -0.034984550120300828 2.3997279729285458e-06 0 -0.034983845186286743 -5.6544081219508425e-06 0 -0.033680678778361915 -5.2999264192105699e-06 0 -0.034399279365346834 3.5970994246403221e-05 0 -0.034996611114356105 -3.6783734111347329e-06 0 -0.034997440215235404 -1.1270234077545243e-06 0 -0.034999375243836749 -7.8241236926096947e-07 0 -0.034999375243836749 -7.8241236926096947e-07 0 -0.034999999153211378 -4.1818098400681121e-10 0 -0.034999999912556465 1.5472180476714298e-10 0 -0.034997440215235404 -1.1270234077545243e-06 0 -0.034999375243836749 -7.8241236926096947e-07 0 -0.034999999153211378 -4.1818098400681121e-10 0 -0.034999991987094213 6.4128511745187048e-10 0 -0.034997440215235404 -1.1270234077545243e-06 0 -0.034999999153211378 -4.1818098400681121e-10 0 -0.034996787720542398 3.5240173271578593e-06 0 -0.03499995081542364 2.8948699937384714e-08 0 -0.034993184653625962 1.945984662366416e-06 0 -0.034996787720542398 3.5240173271578593e-06 0 -0.03499995081542364 2.8948699937384714e-08 0 -0.03500005037181203 -2.8248110484595581e-08 0 -0.034984550120300828 2.3997279729285458e-06 0 -0.03499995081542364 2.8948699937384714e-08 0 -0.034993184653625962 1.945984662366416e-06 0 -0.034399279365346834 3.5970994246403221e-05 0 -0.034997794217799805 7.9509574164982931e-07 0 -0.034984550120300828 2.3997279729285458e-06 0 -0.034993184653625962 1.945984662366416e-06 0 -0.034983845186286743 -5.6544081219508425e-06 0 -0.034996787720542398 3.5240173271578593e-06 0 -0.034993184653625962 1.945984662366416e-06 0 -0.034993191781248129 1.0311559892341079e-05 0 -0.034993184653625962 1.945984662366416e-06 0 -0.034990331389955567 -5.1950905236694526e-06 0 -0.034983845186286743 -5.6544081219508425e-06 0 -0.034993184653625962 1.945984662366416e-06 0 -0.034990331389955567 -5.1950905236694526e-06 0 -0.034994016852532221 -9.886178743801308e-07 0 -0.034972608850532542 -1.8082018948880443e-05 0 -0.034983845186286743 -5.6544081219508425e-06 0 -0.034985309365290637 -1.2433922198196274e-05 0 -0.034990331389955567 -5.1950905236694526e-06 0 -0.034983845186286743 -5.6544081219508425e-06 0 -0.034985309365290637 -1.2433922198196274e-05 0 -0.027165507876948495 0.00075095441905252713 0 -0.027818432041771975 0.00076992286778809055 0 -0.027505123793475514 0.00041740751678651008 0 -0.032036103871123177 -3.934461869829062e-05 0 -0.031752730736829486 0.00012483256874458833 0 -0.027818432041771975 0.00076992286778809055 0 -0.027855638001130265 0.00050355869977840772 0 -0.027505123793475514 0.00041740751678651008 0 -0.027818432041771975 0.00076992286778809055 0 -0.027855638001130265 0.00050355869977840772 0 -0.028287209417776748 0.00074449258925171668 0 -0.031752730736829486 0.00012483256874458833 0 -0.031606940852083786 0.00026576861652202917 0 -0.027818432041771975 0.00076992286778809055 0 -0.028287209417776748 0.00074449258925171668 0 -0.02842902256811785 0.0007654149006700667 0 -0.027855638001130265 0.00050355869977840772 0 -0.028287209417776748 0.00074449258925171668 0 -0.027803714612255958 8.2232035499449227e-05 0 -0.034990331389955567 -5.1950905236694526e-06 0 -0.034985309365290637 -1.2433922198196274e-05 0 -0.034992122429497861 -9.0413643990546782e-06 0 -0.028287209417776748 0.00074449258925171668 0 -0.028303609111810818 0.00026258536535976211 0 -0.027986245479989343 0.00026882716002750283 0 -0.027476177217194874 0.00067779420691751861 0 -0.027371184307485395 0.00061766798014528603 0 -0.028303609111810818 0.00026258536535976211 0 -0.02812778979780059 4.3834380933288854e-05 0 -0.028212641314430797 -0.00018833944666745672 0 -0.03106379731041908 5.6005361360891842e-05 0 -0.030881677157938561 -4.8294477013151285e-05 0 -0.028303609111810818 0.00026258536535976211 0 -0.02812778979780059 4.3834380933288854e-05 0 -0.027986245479989343 0.00026882716002750283 0 -0.02833102415434539 0.00031131508162114923 0 -0.028212641314430797 -0.00018833944666745672 0 -0.028355079726094155 -0.00019636397924686075 0 -0.02812778979780059 4.3834380933288854e-05 0 -0.027978407142101404 -6.0664943081983865e-05 0 -0.028088099681114233 -0.00010628957721506163 0 -0.02812778979780059 4.3834380933288854e-05 0 -0.028212641314430797 -0.00018833944666745672 0 -0.028088099681114233 -0.00010628957721506163 0 -0.027978407142101404 -6.0664943081983865e-05 0 -0.027986245479989343 0.00026882716002750283 0 -0.027685240873687449 -0.00016441765455916038 0 -0.027371184307485395 0.00061766798014528603 0 -0.027192551063128675 0.00064310031525761664 0 -0.02812778979780059 4.3834380933288854e-05 0 -0.027978407142101404 -6.0664943081983865e-05 0 -0.027986245479989343 0.00026882716002750283 0 -0.027803714612255958 8.2232035499449227e-05 0 -0.027505123793475514 0.00041740751678651008 0 -0.02709983634492491 4.9501531937119392e-05 0 -0.027855638001130265 0.00050355869977840772 0 -0.027803714612255958 8.2232035499449227e-05 0 -0.027505123793475514 0.00041740751678651008 0 -0.027165507876948495 0.00075095441905252713 0 -0.027505123793475514 0.00041740751678651008 0 -0.02709983634492491 4.9501531937119392e-05 0 -0.027159762839004103 0.00056935781366350413 0 -0.027177757334324128 0.00055810790151840112 0 -0.02677001090172626 0.00055100090578926461 0 -0.026892634594009569 0.0006487236601337642 0 -0.026870265149977531 0.00040419208745323692 0 -0.02677001090172626 0.00055100090578926461 0 -0.026870265149977531 0.00040419208745323692 0 -0.02672206461650211 0.00042114295655818802 0 -0.026664826757899555 0.00053526639497697914 0 -0.02677001090172626 0.00055100090578926461 0 -0.02672206461650211 0.00042114295655818802 0 -0.026870265149977531 0.00040419208745323692 0 -0.02672206461650211 0.00042114295655818802 0 -0.026714919454095071 0.00025391887286590402 0 -0.027803714612255958 8.2232035499449227e-05 0 -0.02709983634492491 4.9501531937119392e-05 0 -0.027331491118577772 -0.00056752598159215319 0 -0.026870265149977531 0.00040419208745323692 0 -0.026886854550523524 0.00024550158586479387 0 -0.026714919454095071 0.00025391887286590402 0 -0.027177757334324128 0.00055810790151840112 0 -0.027192551063128675 0.00064310031525761664 0 -0.027192551063128675 0.00064310031525761664 0 -0.026721589809343655 0.00099133892737473801 0 -0.026886854550523524 0.00024550158586479387 0 -0.026714919454095071 0.00025391887286590402 0 -0.026718945738865567 0.00011092058479227435 0 -0.026632647442905891 0.00012962717014727927 0 -0.026714919454095071 0.00025391887286590402 0 -0.026718945738865567 0.00011092058479227435 0 -0.026486424314127646 0.0048240091610768365 0 -0.025640453684001044 0.0036606730740394739 0 -0.026948381505395393 0.0036039478849288075 0 -0.027866167453897597 -0.00063875200937468107 0 -0.027996473480258108 -0.00041127059914264672 0 -0.028192501872572578 -0.00065592270034307387 0 -0.027685240873687449 -0.00016441765455916038 0 -0.027866167453897597 -0.00063875200937468107 0 -0.027996473480258108 -0.00041127059914264672 0 -0.027192551063128675 0.00064310031525761664 0 -0.027807287200872496 0.000458421227176356 0 -0.028192501872572578 -0.00065592270034307387 0 -0.028157247021830058 -0.00033498173902856169 0 -0.028355079726094155 -0.00019636397924686075 0 -0.027996473480258108 -0.00041127059914264672 0 -0.028192501872572578 -0.00065592270034307387 0 -0.028157247021830058 -0.00033498173902856169 0 -0.029348334193845641 -0.00087624405108697686 0 -0.030055788397571562 -0.00082888721449911784 0 -0.032041698436588384 -0.0038965440309571826 0 -0.032322855841812367 -0.0030611256525599818 0 -0.032427061855934039 -0.0034606109819844636 0 -0.028157247021830058 -0.00033498173902856169 0 -0.028212641314430797 -0.00018833944666745672 0 -0.028033470234195442 -0.00022067201903425195 0 -0.027996473480258108 -0.00041127059914264672 0 -0.028157247021830058 -0.00033498173902856169 0 -0.028033470234195442 -0.00022067201903425195 0 -0.028157247021830058 -0.00033498173902856169 0 -0.028212641314430797 -0.00018833944666745672 0 -0.028355079726094155 -0.00019636397924686075 0 -0.028212641314430797 -0.00018833944666745672 0 -0.028088099681114233 -0.00010628957721506163 0 -0.028033470234195442 -0.00022067201903425195 0 -0.027978407142101404 -6.0664943081983865e-05 0 -0.028088099681114233 -0.00010628957721506163 0 -0.028033470234195442 -0.00022067201903425195 0 -0.027685240873687449 -0.00016441765455916038 0 -0.027996473480258108 -0.00041127059914264672 0 -0.028033470234195442 -0.00022067201903425195 0 -0.027978407142101404 -6.0664943081983865e-05 0 -0.027685240873687449 -0.00016441765455916038 0 -0.028033470234195442 -0.00022067201903425195 0 -0.033247863745511148 -0.0034278594653567133 0 -0.033726262229266057 -0.0030192868034328939 0 -0.034121631359439276 -0.002787047875675009 0 -0.032099929621779488 -0.0038952370838656316 0 -0.032059067956277304 -0.0038878891690911164 0 -0.032041558597445938 -0.0039296294064665119 0 -0.033086507504359146 -0.0021392365986516422 0 -0.033503158273762518 -0.0016514276142728232 0 -0.033247863745511148 -0.0034278594653567133 0 -0.033165014208631785 -0.0030835156359994499 0 -0.032769653457272528 -0.0033556700590678641 0 -0.033247863745511148 -0.0034278594653567133 0 -0.033726262229266057 -0.0030192868034328939 0 -0.033165014208631785 -0.0030835156359994499 0 -0.032099929621779488 -0.0038952370838656316 0 -0.032059067956277304 -0.0038878891690911164 0 -0.032072744327773135 -0.0038551338531566393 0 -0.033726262229266057 -0.0030192868034328939 0 -0.033357723789852883 -0.0028259204405418994 0 -0.033606971897704577 -0.0026572918076096129 0 -0.033726262229266057 -0.0030192868034328939 0 -0.033866881685988025 -0.0026925549556418753 0 -0.033606971897704577 -0.0026572918076096129 0 -0.033726262229266057 -0.0030192868034328939 0 -0.033357723789852883 -0.0028259204405418994 0 -0.033165014208631785 -0.0030835156359994499 0 -0.033357723789852883 -0.0028259204405418994 0 -0.033165014208631785 -0.0030835156359994499 0 -0.033063340608777192 -0.0028195168844007143 0 -0.033063340608777192 -0.0028195168844007143 0 -0.032778973091298479 -0.0028350839630122506 0 -0.032823292938497603 -0.0030601975109222127 0 -0.032778973091298479 -0.0028350839630122506 0 -0.032823292938497603 -0.0030601975109222127 0 -0.032597663042640238 -0.0031737517736949838 0 -0.033165014208631785 -0.0030835156359994499 0 -0.033063340608777192 -0.0028195168844007143 0 -0.032823292938497603 -0.0030601975109222127 0 -0.032778973091298479 -0.0028350839630122506 0 -0.032322855841812367 -0.0030611256525599818 0 -0.032597663042640238 -0.0031737517736949838 0 -0.032322855841812367 -0.0030611256525599818 0 -0.032597663042640238 -0.0031737517736949838 0 -0.032427061855934039 -0.0034606109819844636 0 -0.032597663042640238 -0.0031737517736949838 0 -0.032769653457272528 -0.0033556700590678641 0 -0.032427061855934039 -0.0034606109819844636 0 -0.033165014208631785 -0.0030835156359994499 0 -0.032823292938497603 -0.0030601975109222127 0 -0.032769653457272528 -0.0033556700590678641 0 -0.032823292938497603 -0.0030601975109222127 0 -0.032597663042640238 -0.0031737517736949838 0 -0.032769653457272528 -0.0033556700590678641 0 -0.033247863745511148 -0.0034278594653567133 0 -0.032769653457272528 -0.0033556700590678641 0 -0.032245342212216692 -0.0038315754581468584 0 -0.032245342212216692 -0.0038315754581468584 0 -0.032089593662355219 -0.0038247115130720238 0 -0.032095607583431024 -0.0038093096292930455 0 -0.032099929621779488 -0.0038952370838656316 0 -0.032245342212216692 -0.0038315754581468584 0 -0.032089593662355219 -0.0038247115130720238 0 -0.033086507504359146 -0.0021392365986516422 0 -0.032945226993071765 -0.0022996880791040088 0 -0.032769653457272528 -0.0033556700590678641 0 -0.032427061855934039 -0.0034606109819844636 0 -0.032245342212216692 -0.0038315754581468584 0 -0.032041698436588384 -0.0038965440309571826 0 -0.032427061855934039 -0.0034606109819844636 0 -0.032245342212216692 -0.0038315754581468584 0 -0.032089593662355219 -0.0038247115130720238 0 -0.032072744327773135 -0.0038551338531566393 0 -0.032050682458548363 -0.003826719280964811 0 -0.032099929621779488 -0.0038952370838656316 0 -0.032089593662355219 -0.0038247115130720238 0 -0.032072744327773135 -0.0038551338531566393 0 -0.033354293705722488 -0.0015194947596873934 0 -0.033421323658788041 -0.0015157550110211598 0 -0.033441133131618908 -0.0014117335586960843 0 -0.032059067956277304 -0.0038878891690911164 0 -0.032072744327773135 -0.0038551338531566393 0 -0.032050682458548363 -0.003826719280964811 0 -0.033645080119768543 -0.0014108216570937766 0 -0.033639609706619479 -0.0014134377571292829 0 -0.033421323658788041 -0.0015157550110211598 0 -0.033441133131618908 -0.0014117335586960843 0 -0.033510704003977605 -0.0015443089031856381 0 -0.033570986960639905 -0.0013664467322377527 0 -0.033392681574617014 -0.0012782214227377211 0 -0.033510704003977605 -0.0015443089031856381 0 -0.033570986960639905 -0.0013664467322377527 0 -0.033510704003977605 -0.0015443089031856381 0 -0.03359547069223616 -0.0015591929161320487 0 -0.033392681574617014 -0.0012782214227377211 0 -0.033513409028729492 -0.0010623609147850737 0 -0.033259996043095021 -0.00096819789822738327 0 -0.033570986960639905 -0.0013664467322377527 0 -0.033653135808248441 -0.0011604333912040177 0 -0.033392681574617014 -0.0012782214227377211 0 -0.033653135808248441 -0.0011604333912040177 0 -0.033392681574617014 -0.0012782214227377211 0 -0.033513409028729492 -0.0010623609147850737 0 -0.033653135808248441 -0.0011604333912040177 0 -0.033513409028729492 -0.0010623609147850737 0 -0.033658400999736278 -0.00098491622092480749 0 -0.03306671074138956 -0.0021572053170157241 0 -0.033591869885055053 -0.0015402273203077687 0 -0.033645080119768543 -0.0014108216570937766 0 -0.033681296227472499 -0.0014459137860590059 0 -0.033441133131618908 -0.0014117335586960843 0 -0.03336676267625472 -0.0012816387150041239 0 -0.033381424320254927 -0.0012697000334818032 0 -0.033354293705722488 -0.0015194947596873934 0 -0.033441133131618908 -0.0014117335586960843 0 -0.03336676267625472 -0.0012816387150041239 0 -0.032059067956277304 -0.0038878891690911164 0 -0.032050682458548363 -0.003826719280964811 0 -0.032032424987166089 -0.0039366901953356561 0 -0.032059067956277304 -0.0038878891690911164 0 -0.032041558597445938 -0.0039296294064665119 0 -0.032032424987166089 -0.0039366901953356561 0 -0.033496818219428931 -0.0016672032512830453 0 -0.033503158273762518 -0.0016514276142728232 0 -0.033726262229266057 -0.0030192868034328939 0 -0.034063463179095442 -0.002789565002220021 0 -0.033866881685988025 -0.0026925549556418753 0 -0.033866881685988025 -0.0026925549556418753 0 -0.033972911345111087 -0.0025485848653267599 0 -0.034049113321693227 -0.0026490813759698674 0 -0.034063463179095442 -0.002789565002220021 0 -0.033866881685988025 -0.0026925549556418753 0 -0.034049113321693227 -0.0026490813759698674 0 -0.033866881685988025 -0.0026925549556418753 0 -0.033972911345111087 -0.0025485848653267599 0 -0.033785315907352009 -0.0024459619340834889 0 -0.033972911345111087 -0.0025485848653267599 0 -0.034166804197114202 -0.0024780055765985464 0 -0.033966735789470508 -0.0024172373675070908 0 -0.033972911345111087 -0.0025485848653267599 0 -0.033966735789470508 -0.0024172373675070908 0 -0.033785315907352009 -0.0024459619340834889 0 -0.033972911345111087 -0.0025485848653267599 0 -0.034166804197114202 -0.0024780055765985464 0 -0.034049113321693227 -0.0026490813759698674 0 -0.033677105522761444 -0.0014379795204455903 0 -0.033591869885055053 -0.0015402273203077687 0 -0.034166804197114202 -0.0024780055765985464 0 -0.034049113321693227 -0.0026490813759698674 0 -0.034163187703688883 -0.0027016618465015691 0 -0.033737262316838067 -0.0018900310472582782 0 -0.033824578287057393 -0.00064838337644470743 0 -0.033369741004287919 -0.0010205585148340085 0 -0.033591869885055053 -0.0015402273203077687 0 -0.033681296227472499 -0.0014459137860590059 0 -0.034063463179095442 -0.002789565002220021 0 -0.034049113321693227 -0.0026490813759698674 0 -0.034163187703688883 -0.0027016618465015691 0 -0.033503158273762518 -0.0016514276142728232 0 -0.033591869885055053 -0.0015402273203077687 0 -0.033677105522761444 -0.0014379795204455903 0 -0.033681296227472499 -0.0014459137860590059 0 -0.033681296227472499 -0.0014459137860590059 0 -0.033990027433201453 -0.001076187894145706 0 -0.035059076062845813 0.00046157571702430504 0 -0.035036341543467943 0.00039085360774622084 0 -0.034975759262727592 0.00039463905585613641 0 -0.035068232921508596 0.00044027024608753786 0 -0.035059076062845813 0.00046157571702430504 0 -0.035036341543467943 0.00039085360774622084 0 -0.034166804197114202 -0.0024780055765985464 0 -0.033908695324336623 -0.002189448699731917 0 -0.033966735789470508 -0.0024172373675070908 0 -0.033908695324336623 -0.002189448699731917 0 -0.033966735789470508 -0.0024172373675070908 0 -0.033785315907352009 -0.0024459619340834889 0 -0.033259996043095021 -0.00096819789822738327 0 -0.033573188198447915 -0.00079340456861901976 0 -0.033606385876546574 -0.0007487783018755601 0 -0.033259996043095021 -0.00096819789822738327 0 -0.033537023484945909 -0.00093137606806210427 0 -0.033573188198447915 -0.00079340456861901976 0 -0.033681296227472499 -0.0014459137860590059 0 -0.03401558865260014 -0.0010218921868395099 0 -0.033756239045711595 -0.0012743817989662417 0 -0.033946161037198441 -0.0011180965009158028 0 -0.034031904805612516 -0.0011011887628605765 0 -0.033537023484945909 -0.00093137606806210427 0 -0.033658400999736278 -0.00098491622092480749 0 -0.033681489394279708 -0.0008380849904982803 0 -0.033513409028729492 -0.0010623609147850737 0 -0.033537023484945909 -0.00093137606806210427 0 -0.033658400999736278 -0.00098491622092480749 0 -0.033513409028729492 -0.0010623609147850737 0 -0.033259996043095021 -0.00096819789822738327 0 -0.033537023484945909 -0.00093137606806210427 0 -0.033537023484945909 -0.00093137606806210427 0 -0.033573188198447915 -0.00079340456861901976 0 -0.033681489394279708 -0.0008380849904982803 0 -0.034015066501771024 -0.0010217972873050481 0 -0.03401558865260014 -0.0010218921868395099 0 -0.033573188198447915 -0.00079340456861901976 0 -0.033607338591737861 -0.00074656363685840607 0 -0.033681489394279708 -0.0008380849904982803 0 -0.034975759262727592 0.00039463905585613641 0 -0.034969713892524262 0.00028369013450053399 0 -0.034888385648603706 0.00032744734009728727 0 -0.034975759262727592 0.00039463905585613641 0 -0.035011407918903122 0.00033690457795128504 0 -0.034969713892524262 0.00028369013450053399 0 -0.033946161037198441 -0.0011180965009158028 0 -0.034031904805612516 -0.0011011887628605765 0 -0.034136049073012015 -0.00096190623105418284 0 -0.033990027433201453 -0.001076187894145706 0 -0.034150376750328386 -0.00084788756384449829 0 -0.035036341543467943 0.00039085360774622084 0 -0.034975759262727592 0.00039463905585613641 0 -0.035011407918903122 0.00033690457795128504 0 -0.035011407918903122 0.00033690457795128504 0 -0.035063569637377681 0.00028957931901147732 0 -0.034969713892524262 0.00028369013450053399 0 -0.034969713892524262 0.00028369013450053399 0 -0.034916568526910684 0.00027101567440289203 0 -0.034888385648603706 0.00032744734009728727 0 -0.033677105522761444 -0.0014379795204455903 0 -0.033966995243439609 -0.00097574025708457336 0 -0.035036341543467943 0.00039085360774622084 0 -0.035011407918903122 0.00033690457795128504 0 -0.035063569637377681 0.00028957931901147732 0 -0.034166804197114202 -0.0024780055765985464 0 -0.033908695324336623 -0.002189448699731917 0 -0.033827973405591898 -0.0016417643568503238 0 -0.035068232921508596 0.00044027024608753786 0 -0.035036341543467943 0.00039085360774622084 0 -0.035063569637377681 0.00028957931901147732 0 -0.033677105522761444 -0.0014379795204455903 0 -0.033743010069634087 -0.001485018839748524 0 -0.034775011022240628 -0.0028477814110148556 0 -0.034855236390148016 -0.0017628728923566534 0 -0.034375533887603886 -0.0019011411401227904 0 -0.033827973405591898 -0.0016417643568503238 0 -0.033573179334753629 -0.0017713980585295675 0 -0.03368153048036724 -0.0019496866009200697 0 -0.033827973405591898 -0.0016417643568503238 0 -0.033463431414817411 -0.0015932325858511094 0 -0.033535565886642742 -0.0013988665948712899 0 -0.033463431414817411 -0.0015932325858511094 0 -0.033573179334753629 -0.0017713980585295675 0 -0.03332424790493365 -0.0018706465426795269 0 -0.033827973405591898 -0.0016417643568503238 0 -0.033463431414817411 -0.0015932325858511094 0 -0.033573179334753629 -0.0017713980585295675 0 -0.033573179334753629 -0.0017713980585295675 0 -0.033452172180185313 -0.0019812271947653908 0 -0.03368153048036724 -0.0019496866009200697 0 -0.033573179334753629 -0.0017713980585295675 0 -0.03332424790493365 -0.0018706465426795269 0 -0.033452172180185313 -0.0019812271947653908 0 -0.03332424790493365 -0.0018706465426795269 0 -0.033452172180185313 -0.0019812271947653908 0 -0.033189700493564983 -0.0020935967307148147 0 -0.033908695324336623 -0.002189448699731917 0 -0.033827973405591898 -0.0016417643568503238 0 -0.03368153048036724 -0.0019496866009200697 0 -0.033452172180185313 -0.0019812271947653908 0 -0.03368153048036724 -0.0019496866009200697 0 -0.033643373974349917 -0.0021881321407416802 0 -0.033908695324336623 -0.002189448699731917 0 -0.03368153048036724 -0.0019496866009200697 0 -0.033643373974349917 -0.0021881321407416802 0 -0.033908695324336623 -0.002189448699731917 0 -0.033643373974349917 -0.0021881321407416802 0 -0.033785315907352009 -0.0024459619340834889 0 -0.033643373974349917 -0.0021881321407416802 0 -0.033785315907352009 -0.0024459619340834889 0 -0.033567256597442668 -0.0024324673653488313 0 -0.033452172180185313 -0.0019812271947653908 0 -0.033643373974349917 -0.0021881321407416802 0 -0.033317002772162825 -0.0022830034677394852 0 -0.033452172180185313 -0.0019812271947653908 0 -0.033317002772162825 -0.0022830034677394852 0 -0.033189700493564983 -0.0020935967307148147 0 -0.033643373974349917 -0.0021881321407416802 0 -0.033317002772162825 -0.0022830034677394852 0 -0.033567256597442668 -0.0024324673653488313 0 -0.033317002772162825 -0.0022830034677394852 0 -0.033339706712033568 -0.002557730384610411 0 -0.033567256597442668 -0.0024324673653488313 0 -0.033339706712033568 -0.002557730384610411 0 -0.033606971897704577 -0.0026572918076096129 0 -0.033567256597442668 -0.0024324673653488313 0 -0.033317002772162825 -0.0022830034677394852 0 -0.033339706712033568 -0.002557730384610411 0 -0.033042045604009862 -0.0025579218842622293 0 -0.033063340608777192 -0.0028195168844007143 0 -0.033339706712033568 -0.002557730384610411 0 -0.033042045604009862 -0.0025579218842622293 0 -0.033357723789852883 -0.0028259204405418994 0 -0.033063340608777192 -0.0028195168844007143 0 -0.033339706712033568 -0.002557730384610411 0 -0.033357723789852883 -0.0028259204405418994 0 -0.033339706712033568 -0.002557730384610411 0 -0.033606971897704577 -0.0026572918076096129 0 -0.033866881685988025 -0.0026925549556418753 0 -0.033606971897704577 -0.0026572918076096129 0 -0.033785315907352009 -0.0024459619340834889 0 -0.033606971897704577 -0.0026572918076096129 0 -0.033785315907352009 -0.0024459619340834889 0 -0.033567256597442668 -0.0024324673653488313 0 -0.02833102415434539 0.00031131508162114923 0 -0.028355079726094155 -0.00019636397924686075 0 -0.028537793007475842 0.00030759362565256144 0 -0.030055788397571562 -0.00082888721449911784 0 -0.030816545033599974 -0.00039511208580482785 0 -0.032322855841812367 -0.0030611256525599818 0 -0.032932124541961302 -0.0024564624496119063 0 -0.032920171516686823 -0.0019544923115382092 0 -0.032778973091298479 -0.0028350839630122506 0 -0.032322855841812367 -0.0030611256525599818 0 -0.032932124541961302 -0.0024564624496119063 0 -0.032778973091298479 -0.0028350839630122506 0 -0.033042045604009862 -0.0025579218842622293 0 -0.032932124541961302 -0.0024564624496119063 0 -0.033063340608777192 -0.0028195168844007143 0 -0.032778973091298479 -0.0028350839630122506 0 -0.033042045604009862 -0.0025579218842622293 0 -0.033317002772162825 -0.0022830034677394852 0 -0.032932124541961302 -0.0024564624496119063 0 -0.033189700493564983 -0.0020935967307148147 0 -0.032932124541961302 -0.0024564624496119063 0 -0.032920171516686823 -0.0019544923115382092 0 -0.033189700493564983 -0.0020935967307148147 0 -0.033317002772162825 -0.0022830034677394852 0 -0.033042045604009862 -0.0025579218842622293 0 -0.032932124541961302 -0.0024564624496119063 0 -0.03106379731041908 5.6005361360891842e-05 0 -0.031606940852083786 0.00026576861652202917 0 -0.02833102415434539 0.00031131508162114923 0 -0.028537793007475842 0.00030759362565256144 0 -0.028445795033535472 0.00081980093263874009 0 -0.030816545033599974 -0.00039511208580482785 0 -0.031673521412527113 0.00035726491532331539 0 -0.033463431414817411 -0.0015932325858511094 0 -0.032920171516686823 -0.0019544923115382092 0 -0.033535565886642742 -0.0013988665948712899 0 -0.033463431414817411 -0.0015932325858511094 0 -0.03332424790493365 -0.0018706465426795269 0 -0.032920171516686823 -0.0019544923115382092 0 -0.03332424790493365 -0.0018706465426795269 0 -0.032920171516686823 -0.0019544923115382092 0 -0.033189700493564983 -0.0020935967307148147 0 -0.028537793007475842 0.00030759362565256144 0 -0.028445795033535472 0.00081980093263874009 0 -0.028712951600983468 0.00082019620231797794 0 -0.028287209417776748 0.00074449258925171668 0 -0.028303609111810818 0.00026258536535976211 0 -0.02842902256811785 0.0007654149006700667 0 -0.032920171516686823 -0.0019544923115382092 0 -0.033535565886642742 -0.0013988665948712899 0 -0.03358521986025001 -0.0011281125584528334 0 -0.031606940852083786 0.00026576861652202917 0 -0.031673521412527113 0.00035726491532331539 0 -0.034987430345114548 4.1059092471405168e-05 0 -0.0349801739656002 4.1036050717205268e-05 0 -0.034985541974773805 3.6136380871308729e-05 0 -0.034375533887603886 -0.0019011411401227904 0 -0.033913177475633306 -0.00092791491689290346 0 -0.034519018184718225 -0.0012130279232203636 0 -0.033743010069634087 -0.001485018839748524 0 -0.033730556633272811 -0.0014135398245689735 0 -0.033827973405591898 -0.0016417643568503238 0 -0.033694647697451105 -0.0011363544556647215 0 -0.033913177475633306 -0.00092791491689290346 0 -0.033827973405591898 -0.0016417643568503238 0 -0.033535565886642742 -0.0013988665948712899 0 -0.033694647697451105 -0.0011363544556647215 0 -0.033535565886642742 -0.0013988665948712899 0 -0.033694647697451105 -0.0011363544556647215 0 -0.03358521986025001 -0.0011281125584528334 0 -0.031676802090903865 0.0003566253073539072 0 -0.031673521412527113 0.00035726491532331539 0 -0.033694647697451105 -0.0011363544556647215 0 -0.033606410947286537 -0.0011412006831574171 0 -0.033913177475633306 -0.00092791491689290346 0 -0.033606410947286537 -0.0011412006831574171 0 -0.033913177475633306 -0.00092791491689290346 0 -0.034351620064948782 -0.00031506557718796014 0 -0.031673521412527113 0.00035726491532331539 0 -0.032135855890027445 0.00030470961316458813 0 -0.0349801739656002 4.1036050717205268e-05 0 -0.034985541974773805 3.6136380871308729e-05 0 -0.03497857503022872 2.5717225036904284e-05 0 -0.034425792776539794 -0.00076421369227420912 0 -0.033913177475633306 -0.00092791491689290346 0 -0.034351620064948782 -0.00031506557718796014 0 -0.034425792776539794 -0.00076421369227420912 0 -0.033913177475633306 -0.00092791491689290346 0 -0.034519018184718225 -0.0012130279232203636 0 -0.034989577971353623 2.9643992184949845e-05 0 -0.034985541974773805 3.6136380871308729e-05 0 -0.03497857503022872 2.5717225036904284e-05 0 -0.034990331389955567 -5.1950905236694526e-06 0 -0.034992122429497861 -9.0413643990546782e-06 0 -0.034994016852532221 -9.886178743801308e-07 0 -0.031606940852083786 0.00026576861652202917 0 -0.03190189033734471 0.00032601884029835365 0 -0.034987430345114548 4.1059092471405168e-05 0 -0.034989577971353623 2.9643992184949845e-05 0 -0.034985541974773805 3.6136380871308729e-05 0 -0.034993184653625962 1.945984662366416e-06 0 -0.034994016852532221 -9.886178743801308e-07 0 -0.034993191781248129 1.0311559892341079e-05 0 -0.034989577971353623 2.9643992184949845e-05 0 -0.034993191781248129 1.0311559892341079e-05 0 -0.03497857503022872 2.5717225036904284e-05 0 -0.03190189033734471 0.00032601884029835365 0 -0.031997753716542489 0.00034314295760019874 0 -0.032135855890027445 0.00030470961316458813 0 -0.032297123256697056 0.00030933213958918743 0 -0.03497857503022872 2.5717225036904284e-05 0 -0.034979946091256896 1.4311482829562629e-05 0 -0.034950590816226944 1.3045070394918471e-05 0 -0.034993191781248129 1.0311559892341079e-05 0 -0.03497857503022872 2.5717225036904284e-05 0 -0.034979946091256896 1.4311482829562629e-05 0 -0.034993191781248129 1.0311559892341079e-05 0 -0.034986949180967467 4.4537488891596598e-06 0 -0.034979946091256896 1.4311482829562629e-05 0 -0.034986949180967467 4.4537488891596598e-06 0 -0.03500005037181203 -2.8248110484595581e-08 0 -0.034999750303164504 1.0106718822200234e-07 0 -0.034986949180967467 4.4537488891596598e-06 0 -0.034979946091256896 1.4311482829562629e-05 0 -0.034950590816226944 1.3045070394918471e-05 0 -0.034986949180967467 4.4537488891596598e-06 0 -0.034950590816226944 1.3045070394918471e-05 0 -0.034999750303164504 1.0106718822200234e-07 0 -0.034996787720542398 3.5240173271578593e-06 0 -0.034993191781248129 1.0311559892341079e-05 0 -0.03500005037181203 -2.8248110484595581e-08 0 -0.034993191781248129 1.0311559892341079e-05 0 -0.034986949180967467 4.4537488891596598e-06 0 -0.03500005037181203 -2.8248110484595581e-08 0 -0.034983584817848752 -2.1758501106413435e-05 0 -0.035000008789071099 -8.2802429256778578e-08 0 -0.035001514388119541 -3.6196972794247137e-05 0 -0.034983584817848752 -2.1758501106413435e-05 0 -0.035000008789071099 -8.2802429256778578e-08 0 -0.034958180146090513 -3.5446815578269998e-05 0 -0.035000008789071099 -8.2802429256778578e-08 0 -0.034999750303164504 1.0106718822200234e-07 0 -0.035001514388119541 -3.6196972794247137e-05 0 -0.034950590816226944 1.3045070394918471e-05 0 -0.034999750303164504 1.0106718822200234e-07 0 -0.035001514388119541 -3.6196972794247137e-05 0 -0.034187098819697025 -0.00052581042520364588 0 -0.034132366604214787 -0.00065221393893230269 0 -0.034351620064948782 -0.00031506557718796014 0 -0.034950590816226944 1.3045070394918471e-05 0 -0.035001514388119541 -3.6196972794247137e-05 0 -0.034351620064948782 -0.00031506557718796014 0 -0.035001514388119541 -3.6196972794247137e-05 0 -0.03488960725244674 -0.00069334951008249697 0 -0.035001514388119541 -3.6196972794247137e-05 0 -0.034972073837893775 4.1478813123030942e-05 0 -0.035054970585707432 0.00011990999530540361 0 -0.034983584817848752 -2.1758501106413435e-05 0 -0.035001514388119541 -3.6196972794247137e-05 0 -0.034972073837893775 4.1478813123030942e-05 0 -0.034983584817848752 -2.1758501106413435e-05 0 -0.034972073837893775 4.1478813123030942e-05 0 -0.034958180146090513 -3.5446815578269998e-05 0 -0.034972073837893775 4.1478813123030942e-05 0 -0.034928013130637439 0.00011522038914047636 0 -0.035054970585707432 0.00011990999530540361 0 -0.034928013130637439 0.00011522038914047636 0 -0.035054970585707432 0.00011990999530540361 0 -0.034937917533628841 0.00019541509782639187 0 -0.034425792776539794 -0.00076421369227420912 0 -0.034351620064948782 -0.00031506557718796014 0 -0.03488960725244674 -0.00069334951008249697 0 -0.034425792776539794 -0.00076421369227420912 0 -0.03488960725244674 -0.00069334951008249697 0 -0.034519018184718225 -0.0012130279232203636 0 -0.033966995243439609 -0.00097574025708457336 0 -0.034132366604214787 -0.00065221393893230269 0 -0.034855236390148016 -0.0017628728923566534 0 -0.03488960725244674 -0.00069334951008249697 0 -0.034519018184718225 -0.0012130279232203636 0 -0.035063569637377681 0.00028957931901147732 0 -0.035054970585707432 0.00011990999530540361 0 -0.034969713892524262 0.00028369013450053399 0 -0.034855236390148016 -0.0017628728923566534 0 -0.034375533887603886 -0.0019011411401227904 0 -0.034519018184718225 -0.0012130279232203636 0 -0.035054970585707432 0.00011990999530540361 0 -0.034937917533628841 0.00019541509782639187 0 -0.034969713892524262 0.00028369013450053399 0 -0.034937917533628841 0.00019541509782639187 0 -0.034969713892524262 0.00028369013450053399 0 -0.034916568526910684 0.00027101567440289203 0 -0.034177179791469309 -0.00080879434210240646 0 -0.034150376750328386 -0.00084788756384449829 0 -0.034327503636783781 -0.00055432190006853574 0 -0.034150376750328386 -0.00084788756384449829 0 -0.034873875651813359 0.00025137247582511681 0 -0.034797410690516797 0.00023041480007531166 0 -0.034888385648603706 0.00032744734009728727 0 -0.034916568526910684 0.00027101567440289203 0 -0.034873875651813359 0.00025137247582511681 0 -0.034888385648603706 0.00032744734009728727 0 -0.034230371853158123 -0.00037653985275085155 0 -0.034192763685454375 -0.000338782701834798 0 -0.03405997798965496 -0.00051905022892776646 0 -0.034937917533628841 0.00019541509782639187 0 -0.034916568526910684 0.00027101567440289203 0 -0.034873875651813359 0.00025137247582511681 0 -0.034873875651813359 0.00025137247582511681 0 -0.034839106372664436 0.00021319415895294292 0 -0.034864939190469527 0.0001745351207449094 0 -0.034873875651813359 0.00025137247582511681 0 -0.034839106372664436 0.00021319415895294292 0 -0.034797410690516797 0.00023041480007531166 0 -0.034821538081675443 0.00019458747027436283 0 -0.034839106372664436 0.00021319415895294292 0 -0.034797410690516797 0.00023041480007531166 0 -0.034821538081675443 0.00019458747027436283 0 -0.034839106372664436 0.00021319415895294292 0 -0.034864939190469527 0.0001745351207449094 0 -0.034937917533628841 0.00019541509782639187 0 -0.034873875651813359 0.00025137247582511681 0 -0.034864939190469527 0.0001745351207449094 0 -0.034160220509605967 -0.00084085255864584302 0 -0.034111503795218948 -0.00089320858433874031 0 -0.034230371853158123 -0.00037653985275085155 0 -0.034365113701402487 -0.00035253169428998098 0 -0.034194405041538374 -0.00046859848901189849 0 -0.034365113701402487 -0.00035253169428998098 0 -0.034198622720705424 -0.00055298183475580725 0 -0.03398457263527703 -0.00051676459817684298 0 -0.034192763685454375 -0.000338782701834798 0 -0.034259379701481268 -0.00032878420436771106 0 -0.034294840134983948 -0.00028347786631042674 0 -0.034230371853158123 -0.00037653985275085155 0 -0.034192763685454375 -0.000338782701834798 0 -0.034259379701481268 -0.00032878420436771106 0 -0.034230371853158123 -0.00037653985275085155 0 -0.034259379701481268 -0.00032878420436771106 0 -0.034365113701402487 -0.00035253169428998098 0 -0.034259379701481268 -0.00032878420436771106 0 -0.034294840134983948 -0.00028347786631042674 0 -0.034365113701402487 -0.00035253169428998098 0 -0.034192763685454375 -0.000338782701834798 0 -0.034294840134983948 -0.00028347786631042674 0 -0.034339604713001307 -0.00017911477862608336 0 -0.034797410690516797 0.00023041480007531166 0 -0.034779809598656425 0.00015065204765701354 0 -0.034655554436642443 0.00011631593517017659 0 -0.034327503636783781 -0.00055432190006853574 0 -0.03440921151006298 -0.00041302349586017393 0 -0.034821538081675443 0.00019458747027436283 0 -0.034797410690516797 0.00023041480007531166 0 -0.034779809598656425 0.00015065204765701354 0 -0.034779809598656425 0.00015065204765701354 0 -0.034772557085524888 8.3544986068627222e-05 0 -0.034655554436642443 0.00011631593517017659 0 -0.034928013130637439 0.00011522038914047636 0 -0.034937917533628841 0.00019541509782639187 0 -0.034864939190469527 0.0001745351207449094 0 -0.034821538081675443 0.00019458747027436283 0 -0.034779809598656425 0.00015065204765701354 0 -0.034864939190469527 0.0001745351207449094 0 -0.034779809598656425 0.00015065204765701354 0 -0.034864939190469527 0.0001745351207449094 0 -0.034864897288764587 9.4244723912586411e-05 0 -0.034779809598656425 0.00015065204765701354 0 -0.034772557085524888 8.3544986068627222e-05 0 -0.034864897288764587 9.4244723912586411e-05 0 -0.034972073837893775 4.1478813123030942e-05 0 -0.034928013130637439 0.00011522038914047636 0 -0.034864897288764587 9.4244723912586411e-05 0 -0.034928013130637439 0.00011522038914047636 0 -0.034864939190469527 0.0001745351207449094 0 -0.034864897288764587 9.4244723912586411e-05 0 -0.034875078784569614 3.0002897533101096e-05 0 -0.034745841922997393 5.0127978038184467e-06 0 -0.034958180146090513 -3.5446815578269998e-05 0 -0.034972073837893775 4.1478813123030942e-05 0 -0.034864897288764587 9.4244723912586411e-05 0 -0.034875078784569614 3.0002897533101096e-05 0 -0.034972073837893775 4.1478813123030942e-05 0 -0.034875078784569614 3.0002897533101096e-05 0 -0.034958180146090513 -3.5446815578269998e-05 0 -0.034772557085524888 8.3544986068627222e-05 0 -0.034864897288764587 9.4244723912586411e-05 0 -0.034875078784569614 3.0002897533101096e-05 0 -0.034772557085524888 8.3544986068627222e-05 0 -0.034655554436642443 0.00011631593517017659 0 -0.034745841922997393 5.0127978038184467e-06 0 -0.034745841922997393 5.0127978038184467e-06 0 -0.034593830669038254 -0.00013098885003786338 0 -0.034958180146090513 -3.5446815578269998e-05 0 -0.034772557085524888 8.3544986068627222e-05 0 -0.034875078784569614 3.0002897533101096e-05 0 -0.034745841922997393 5.0127978038184467e-06 0 -0.034655554436642443 0.00011631593517017659 0 -0.034621624620314685 -2.2589330486268997e-05 0 -0.034745841922997393 5.0127978038184467e-06 0 -0.034621624620314685 -2.2589330486268997e-05 0 -0.034745841922997393 5.0127978038184467e-06 0 -0.034593830669038254 -0.00013098885003786338 0 -0.034999951953814966 5.7550454123299746e-09 0 -0.035003899971203692 -9.5670160862047289e-06 0 -0.034958180146090513 -3.5446815578269998e-05 0 -0.03481967009212688 -3.9769726723257965e-05 0 -0.034829704588705254 -4.0012019265815738e-05 0 -0.035000008789071099 -8.2802429256778578e-08 0 -0.034999951953814966 5.7550454123299746e-09 0 -0.034958180146090513 -3.5446815578269998e-05 0 -0.034999811560062502 -7.1815688229098079e-08 0 -0.035000097843483798 2.3930314542493366e-08 0 -0.035011996898885338 7.6316213011305947e-06 0 -0.034593830669038254 -0.00013098885003786338 0 -0.034470724205865319 -5.9734182341339924e-05 0 -0.034504528652004207 -8.0462870536449218e-05 0 -0.035003899971203692 -9.5670160862047289e-06 0 -0.035000097843483798 2.3930314542493366e-08 0 -0.035011996898885338 7.6316213011305947e-06 0 -0.03481967009212688 -3.9769726723257965e-05 0 -0.034817483871575412 -3.646517483222217e-05 0 -0.034999951953814966 5.7550454123299746e-09 0 -0.035003899971203692 -9.5670160862047289e-06 0 -0.035000097843483798 2.3930314542493366e-08 0 -0.03440921151006298 -0.00041302349586017393 0 -0.034432106139907825 -0.00037278274039558989 0 -0.034655554436642443 0.00011631593517017659 0 -0.034621624620314685 -2.2589330486268997e-05 0 -0.034502919985244511 -8.254939341809549e-05 0 -0.034143368487568625 -0.0003525130874848928 0 -0.034114976284036154 -0.00042219565019726391 0 -0.034593830669038254 -0.00013098885003786338 0 -0.034504528652004207 -8.0462870536449218e-05 0 -0.034502919985244511 -8.254939341809549e-05 0 -0.034504528652004207 -8.0462870536449218e-05 0 -0.034502919985244511 -8.254939341809549e-05 0 -0.034455585894504696 -0.0001383731401486556 0 -0.034339604713001307 -0.00017911477862608336 0 -0.034502919985244511 -8.254939341809549e-05 0 -0.034455585894504696 -0.0001383731401486556 0 -0.034504528652004207 -8.0462870536449218e-05 0 -0.034504828004272028 -0.00017073407924258243 0 -0.034463177293466124 -0.00022499732617507271 0 -0.034504528652004207 -8.0462870536449218e-05 0 -0.034455585894504696 -0.0001383731401486556 0 -0.03445461715541831 -0.0002192533273140567 0 -0.034621624620314685 -2.2589330486268997e-05 0 -0.034593830669038254 -0.00013098885003786338 0 -0.034502919985244511 -8.254939341809549e-05 0 -0.034470724205865319 -5.9734182341339924e-05 0 -0.034504528652004207 -8.0462870536449218e-05 0 -0.034507655780306602 -0.00012793379203655087 0 -0.034504528652004207 -8.0462870536449218e-05 0 -0.034504828004272028 -0.00017073407924258243 0 -0.034507655780306602 -0.00012793379203655087 0 -0.034572831144976092 -0.00014137985058774614 0 -0.034470724205865319 -5.9734182341339924e-05 0 -0.034507655780306602 -0.00012793379203655087 0 -0.034572831144976092 -0.00014137985058774614 0 -0.034507655780306602 -0.00012793379203655087 0 -0.034532876042331469 -0.00019055921353087574 0 -0.034504828004272028 -0.00017073407924258243 0 -0.034507655780306602 -0.00012793379203655087 0 -0.034532876042331469 -0.00019055921353087574 0 -0.034504828004272028 -0.00017073407924258243 0 -0.034532876042331469 -0.00019055921353087574 0 -0.03451790824837745 -0.00023228484345249039 0 -0.034504828004272028 -0.00017073407924258243 0 -0.03451790824837745 -0.00023228484345249039 0 -0.034463177293466124 -0.00022499732617507271 0 -0.03451790824837745 -0.00023228484345249039 0 -0.034463177293466124 -0.00022499732617507271 0 -0.034506944997689436 -0.00026281287356513604 0 -0.034294840134983948 -0.00028347786631042674 0 -0.034339604713001307 -0.00017911477862608336 0 -0.03445461715541831 -0.0002192533273140567 0 -0.034294840134983948 -0.00028347786631042674 0 -0.03445461715541831 -0.0002192533273140567 0 -0.034365113701402487 -0.00035253169428998098 0 -0.034339604713001307 -0.00017911477862608336 0 -0.034455585894504696 -0.0001383731401486556 0 -0.03445461715541831 -0.0002192533273140567 0 -0.034114976284036154 -0.00042219565019726391 0 -0.034030819887196993 -0.00061676998796876992 0 -0.034463177293466124 -0.00022499732617507271 0 -0.034506944997689436 -0.00026281287356513604 0 -0.034467018700509 -0.0002889790530196776 0 -0.03445461715541831 -0.0002192533273140567 0 -0.034365113701402487 -0.00035253169428998098 0 -0.034402947668327334 -0.00052255174180012686 0 -0.034365113701402487 -0.00035253169428998098 0 -0.034402947668327334 -0.00052255174180012686 0 -0.034198622720705424 -0.00055298183475580725 0 -0.03453163890599284 -0.00025321606249478144 0 -0.03451790824837745 -0.00023228484345249039 0 -0.034506944997689436 -0.00026281287356513604 0 -0.034540449716063376 -0.00025474191901523057 0 -0.034506944997689436 -0.00026281287356513604 0 -0.034503392829706082 -0.00031044183638022024 0 -0.034045939870577982 -0.00072443288218034235 0 -0.03396897658895473 -0.00081829729097509163 0 -0.034506944997689436 -0.00026281287356513604 0 -0.034503392829706082 -0.00031044183638022024 0 -0.034467018700509 -0.0002889790530196776 0 -0.033277790364041784 -0.0010541107803230484 0 -0.033054470394798398 -0.0013571491666067661 0 -0.033297985472596693 -0.001382979772251536 0 -0.033638237630412578 -0.0011350335976148139 0 -0.033277790364041784 -0.0010541107803230484 0 -0.033297985472596693 -0.001382979772251536 0 -0.033883367506325625 -0.00094174168167664889 0 -0.034030819887196993 -0.00061676998796876992 0 -0.03396897658895473 -0.00081829729097509163 0 -0.033883367506325625 -0.00094174168167664889 0 -0.034503392829706082 -0.00031044183638022024 0 -0.034458843081667086 -0.00035294451417765933 0 -0.034467018700509 -0.0002889790530196776 0 -0.034345280332637507 -0.00096477260675850458 0 -0.034402947668327334 -0.00052255174180012686 0 -0.034198092712606057 -0.00072180694826239544 0 -0.034402947668327334 -0.00052255174180012686 0 -0.034198622720705424 -0.00055298183475580725 0 -0.034198092712606057 -0.00072180694826239544 0 -0.034198622720705424 -0.00055298183475580725 0 -0.03398457263527703 -0.00051676459817684298 0 -0.034039816240720937 -0.00068206524186976373 0 -0.034198622720705424 -0.00055298183475580725 0 -0.034039816240720937 -0.00068206524186976373 0 -0.034198092712606057 -0.00072180694826239544 0 -0.03401558865260014 -0.0010218921868395099 0 -0.034111503795218948 -0.00089320858433874031 0 -0.033607338591737861 -0.00074656363685840607 0 -0.03398457263527703 -0.00051676459817684298 0 -0.033860166858745391 -0.00073162887074763199 0 -0.034230371853158123 -0.00037653985275085155 0 -0.034194405041538374 -0.00046859848901189849 0 -0.034085597236356631 -0.00049643899296532897 0 -0.034019479297063095 -0.0005859355226952689 0 -0.034194405041538374 -0.00046859848901189849 0 -0.034085597236356631 -0.00049643899296532897 0 -0.03398457263527703 -0.00051676459817684298 0 -0.034039816240720937 -0.00068206524186976373 0 -0.033860166858745391 -0.00073162887074763199 0 -0.03401558865260014 -0.0010218921868395099 0 -0.034150376750328386 -0.00084788756384449829 0 -0.033860166858745391 -0.00073162887074763199 0 -0.033681489394279708 -0.0008380849904982803 0 -0.033832362188816072 -0.00098768409314814194 0 -0.033607338591737861 -0.00074656363685840607 0 -0.033860166858745391 -0.00073162887074763199 0 -0.033681489394279708 -0.0008380849904982803 0 -0.033860166858745391 -0.00073162887074763199 0 -0.033832362188816072 -0.00098768409314814194 0 -0.034058555777159924 -0.00090830903763160621 0 -0.033658400999736278 -0.00098491622092480749 0 -0.033681489394279708 -0.0008380849904982803 0 -0.033832362188816072 -0.00098768409314814194 0 -0.034345280332637507 -0.00096477260675850458 0 -0.034198092712606057 -0.00072180694826239544 0 -0.034058555777159924 -0.00090830903763160621 0 -0.034039816240720937 -0.00068206524186976373 0 -0.034198092712606057 -0.00072180694826239544 0 -0.034058555777159924 -0.00090830903763160621 0 -0.034039816240720937 -0.00068206524186976373 0 -0.033860166858745391 -0.00073162887074763199 0 -0.034058555777159924 -0.00090830903763160621 0 -0.033095695584316756 -0.0016258616659605245 0 -0.033140700294464497 -0.0016488421025701698 0 -0.033099605069909367 -0.0016034367652288952 0 -0.033883367506325625 -0.00094174168167664889 0 -0.033677967240675247 -0.0011857866113991955 0 -0.033832362188816072 -0.00098768409314814194 0 -0.034058555777159924 -0.00090830903763160621 0 -0.033977901988617928 -0.001280381595951223 0 -0.034345280332637507 -0.00096477260675850458 0 -0.034058555777159924 -0.00090830903763160621 0 -0.033977901988617928 -0.001280381595951223 0 -0.033570986960639905 -0.0013664467322377527 0 -0.033653135808248441 -0.0011604333912040177 0 -0.033977901988617928 -0.001280381595951223 0 -0.033653135808248441 -0.0011604333912040177 0 -0.033832362188816072 -0.00098768409314814194 0 -0.033977901988617928 -0.001280381595951223 0 -0.033653135808248441 -0.0011604333912040177 0 -0.033658400999736278 -0.00098491622092480749 0 -0.033832362188816072 -0.00098768409314814194 0 -0.033140700294464497 -0.0016488421025701698 0 -0.03317611712416059 -0.0016711253795810598 0 -0.03323544300141211 -0.001694077723992945 0 -0.033570986960639905 -0.0013664467322377527 0 -0.033977901988617928 -0.001280381595951223 0 -0.03359547069223616 -0.0015591929161320487 0 -0.033677967240675247 -0.0011857866113991955 0 -0.033557204603281349 -0.0013279502010280185 0 -0.033140700294464497 -0.0016488421025701698 0 -0.03317611712416059 -0.0016711253795810598 0 -0.033133132710603551 -0.001668502312071332 0 -0.033140700294464497 -0.0016488421025701698 0 -0.033133132710603551 -0.001668502312071332 0 -0.033099605069909367 -0.0016034367652288952 0 -0.033133132710603551 -0.001668502312071332 0 -0.033153000752534918 -0.001694266787072123 0 -0.033099605069909367 -0.0016034367652288952 0 -0.033153000752534918 -0.001694266787072123 0 -0.033200529237040782 -0.0015670779052051665 0 -0.033099605069909367 -0.0016034367652288952 0 -0.033302833147957706 -0.0016055975930317145 0 -0.033153000752534918 -0.001694266787072123 0 -0.033200529237040782 -0.0015670779052051665 0 -0.033302833147957706 -0.0016055975930317145 0 -0.033153000752534918 -0.001694266787072123 0 -0.033158494038263417 -0.0017975407522021882 0 -0.033054470394798398 -0.0013571491666067661 0 -0.033297985472596693 -0.001382979772251536 0 -0.033200529237040782 -0.0015670779052051665 0 -0.033302833147957706 -0.0016055975930317145 0 -0.033297985472596693 -0.001382979772251536 0 -0.033200529237040782 -0.0015670779052051665 0 -0.033054470394798398 -0.0013571491666067661 0 -0.033200529237040782 -0.0015670779052051665 0 -0.033099605069909367 -0.0016034367652288952 0 -0.033883367506325625 -0.00094174168167664889 0 -0.03385803571439553 -0.0010025204283544409 0 -0.033142250779405309 -0.0016939678228791639 0 -0.033158494038263417 -0.0017975407522021882 0 -0.033059539554233908 -0.0016374112362952445 0 -0.033153000752534918 -0.001694266787072123 0 -0.033142250779405309 -0.0016939678228791639 0 -0.033158494038263417 -0.0017975407522021882 0 -0.033133132710603551 -0.001668502312071332 0 -0.033153000752534918 -0.001694266787072123 0 -0.033142250779405309 -0.0016939678228791639 0 -0.03317611712416059 -0.0016711253795810598 0 -0.033133132710603551 -0.001668502312071332 0 -0.033170258232434018 -0.0016701168306581401 0 -0.033133132710603551 -0.001668502312071332 0 -0.033142250779405309 -0.0016939678228791639 0 -0.033170258232434018 -0.0016701168306581401 0 -0.03317611712416059 -0.0016711253795810598 0 -0.033206724402833988 -0.0016713464968619259 0 -0.03323544300141211 -0.001694077723992945 0 -0.033206724402833988 -0.0016713464968619259 0 -0.033255871049884707 -0.0016572195949554496 0 -0.03323544300141211 -0.001694077723992945 0 -0.03317611712416059 -0.0016711253795810598 0 -0.033170258232434018 -0.0016701168306581401 0 -0.033206724402833988 -0.0016713464968619259 0 -0.033170258232434018 -0.0016701168306581401 0 -0.033206724402833988 -0.0016713464968619259 0 -0.033222567652172651 -0.0016510464163033082 0 -0.033170258232434018 -0.0016701168306581401 0 -0.033222567652172651 -0.0016510464163033082 0 -0.033195815723560153 -0.0016439543733829775 0 -0.033206724402833988 -0.0016713464968619259 0 -0.033222567652172651 -0.0016510464163033082 0 -0.033255871049884707 -0.0016572195949554496 0 -0.033222567652172651 -0.0016510464163033082 0 -0.033195815723560153 -0.0016439543733829775 0 -0.033259366966249981 -0.0016028485363757373 0 -0.033222567652172651 -0.0016510464163033082 0 -0.033259366966249981 -0.0016028485363757373 0 -0.033278100516648298 -0.0016318834663131495 0 -0.033222567652172651 -0.0016510464163033082 0 -0.033278100516648298 -0.0016318834663131495 0 -0.033255871049884707 -0.0016572195949554496 0 -0.033142250779405309 -0.0016939678228791639 0 -0.033170258232434018 -0.0016701168306581401 0 -0.033195815723560153 -0.0016439543733829775 0 -0.033142250779405309 -0.0016939678228791639 0 -0.033195815723560153 -0.0016439543733829775 0 -0.03318981890439484 -0.001568831196718135 0 -0.033195815723560153 -0.0016439543733829775 0 -0.03318981890439484 -0.001568831196718135 0 -0.033259366966249981 -0.0016028485363757373 0 -0.03318981890439484 -0.001568831196718135 0 -0.033159660790152708 -0.0014499262300584062 0 -0.033118328431972224 -0.001561079211473143 0 -0.032507594092210206 -0.0014917421672462356 0 -0.032453454777762597 -0.0014758959565712626 0 -0.033259366966249981 -0.0016028485363757373 0 -0.033256867446461794 -0.0015403212001138182 0 -0.033296368859761484 -0.0015867545607374616 0 -0.03318981890439484 -0.001568831196718135 0 -0.033259366966249981 -0.0016028485363757373 0 -0.033295058124256656 -0.0014382143904079173 0 -0.03318981890439484 -0.001568831196718135 0 -0.033295058124256656 -0.0014382143904079173 0 -0.033159660790152708 -0.0014499262300584062 0 -0.033295058124256656 -0.0014382143904079173 0 -0.033159660790152708 -0.0014499262300584062 0 -0.033182993132220832 -0.0013604138292322421 0 -0.033159660790152708 -0.0014499262300584062 0 -0.033031473732355023 -0.0013903450049180094 0 -0.033118328431972224 -0.001561079211473143 0 -0.033159660790152708 -0.0014499262300584062 0 -0.033031473732355023 -0.0013903450049180094 0 -0.033182993132220832 -0.0013604138292322421 0 -0.033142250779405309 -0.0016939678228791639 0 -0.03318981890439484 -0.001568831196718135 0 -0.033118328431972224 -0.001561079211473143 0 -0.033142250779405309 -0.0016939678228791639 0 -0.033118328431972224 -0.001561079211473143 0 -0.033059539554233908 -0.0016374112362952445 0 -0.033031473732355023 -0.0013903450049180094 0 -0.033118328431972224 -0.001561079211473143 0 -0.033059539554233908 -0.0016374112362952445 0 -0.032884783512371479 -0.0014277514120400736 0 -0.033031473732355023 -0.0013903450049180094 0 -0.033059539554233908 -0.0016374112362952445 0 -0.032884783512371479 -0.0014277514120400736 0 -0.033031473732355023 -0.0013903450049180094 0 -0.032881568261416708 -0.0011688102808038339 0 -0.033031473732355023 -0.0013903450049180094 0 -0.032881568261416708 -0.0011688102808038339 0 -0.033012020707496648 -0.0010954798662906455 0 -0.033031473732355023 -0.0013903450049180094 0 -0.033012020707496648 -0.0010954798662906455 0 -0.033128287748538168 -0.0011149118765824328 0 -0.032635249140416038 -0.0013028141925571595 0 -0.0325734865474471 -0.0013233915598664691 0 -0.033012020707496648 -0.0010954798662906455 0 -0.033053456090612214 -0.00099353717564407487 0 -0.033128287748538168 -0.0011149118765824328 0 -0.033012020707496648 -0.0010954798662906455 0 -0.033053456090612214 -0.00099353717564407487 0 -0.032947968791182836 -0.0008620678311979115 0 -0.032881568261416708 -0.0011688102808038339 0 -0.033012020707496648 -0.0010954798662906455 0 -0.032947968791182836 -0.0008620678311979115 0 -0.032881568261416708 -0.0011688102808038339 0 -0.032758724355836912 -0.0008303858025350768 0 -0.032780703753059665 -0.00091416538125978154 0 -0.032758724355836912 -0.0008303858025350768 0 -0.032780703753059665 -0.00091416538125978154 0 -0.032587431645486602 -0.00076017482012969177 0 -0.033053456090612214 -0.00099353717564407487 0 -0.032947968791182836 -0.0008620678311979115 0 -0.033047307235570395 -0.00088261763765531129 0 -0.032843111017397328 -0.00083461125130412483 0 -0.032880920301672868 -0.0007455352033539646 0 -0.03270706184040837 -0.00094481722930693046 0 -0.032881568261416708 -0.0011688102808038339 0 -0.032780703753059665 -0.00091416538125978154 0 -0.032180862542218386 -0.00098555760842394249 0 -0.032780703753059665 -0.00091416538125978154 0 -0.032587431645486602 -0.00076017482012969177 0 -0.032235230865650048 -0.00094807138018209878 0 -0.032346560105121214 -0.0009351430627586115 0 -0.032180862542218386 -0.00098555760842394249 0 -0.032424394620796167 -0.00058241863161084828 0 -0.032587431645486602 -0.00076017482012969177 0 -0.032424394620796167 -0.00058241863161084828 0 -0.032587431645486602 -0.00076017482012969177 0 -0.032658360203945386 -0.0005481704273791986 0 -0.032880920301672868 -0.0007455352033539646 0 -0.032958170774925702 -0.00057502021060162748 0 -0.032758724355836912 -0.0008303858025350768 0 -0.032658360203945386 -0.0005481704273791986 0 -0.032863636859318604 -0.00043244867206304231 0 -0.032758724355836912 -0.0008303858025350768 0 -0.032587431645486602 -0.00076017482012969177 0 -0.032658360203945386 -0.0005481704273791986 0 -0.032947968791182836 -0.0008620678311979115 0 -0.033061338450994036 -0.00076357850291915456 0 -0.033047307235570395 -0.00088261763765531129 0 -0.032658360203945386 -0.0005481704273791986 0 -0.032501244940884175 -0.00034657964483725138 0 -0.032863636859318604 -0.00043244867206304231 0 -0.032424394620796167 -0.00058241863161084828 0 -0.032658360203945386 -0.0005481704273791986 0 -0.032501244940884175 -0.00034657964483725138 0 -0.032270288433112616 -0.00037080789685833197 0 -0.032424394620796167 -0.00058241863161084828 0 -0.032501244940884175 -0.00034657964483725138 0 -0.03318586622430842 -0.00049062568747749026 0 -0.033129049961592875 -0.00064971348722196699 0 -0.033259741832304221 -0.00063929790961208784 0 -0.03318586622430842 -0.00049062568747749026 0 -0.033259741832304221 -0.00063929790961208784 0 -0.033309332645403873 -0.00053191452152929336 0 -0.033259741832304221 -0.00063929790961208784 0 -0.033309332645403873 -0.00053191452152929336 0 -0.033323243915051905 -0.00060480728343454424 0 -0.03318586622430842 -0.00049062568747749026 0 -0.033309332645403873 -0.00053191452152929336 0 -0.033337243982972192 -0.00040473205063761139 0 -0.03318586622430842 -0.00049062568747749026 0 -0.032999836119498589 -0.00052965446787400707 0 -0.033129049961592875 -0.00064971348722196699 0 -0.033129049961592875 -0.00064971348722196699 0 -0.033137151385166499 -0.00077037736435502688 0 -0.033191141504944413 -0.00073435745473376707 0 -0.032947968791182836 -0.0008620678311979115 0 -0.032999836119498589 -0.00052965446787400707 0 -0.033061338450994036 -0.00076357850291915456 0 -0.033129049961592875 -0.00064971348722196699 0 -0.033061338450994036 -0.00076357850291915456 0 -0.033137151385166499 -0.00077037736435502688 0 -0.032999836119498589 -0.00052965446787400707 0 -0.033129049961592875 -0.00064971348722196699 0 -0.033061338450994036 -0.00076357850291915456 0 -0.033061338450994036 -0.00076357850291915456 0 -0.033047307235570395 -0.00088261763765531129 0 -0.033119769434266526 -0.00086617839234876665 0 -0.033061338450994036 -0.00076357850291915456 0 -0.033137151385166499 -0.00077037736435502688 0 -0.033119769434266526 -0.00086617839234876665 0 -0.033137151385166499 -0.00077037736435502688 0 -0.033186410091552349 -0.00083432807641547026 0 -0.033119769434266526 -0.00086617839234876665 0 -0.033186410091552349 -0.00083432807641547026 0 -0.03323564515953429 -0.00079052848364030346 0 -0.033237692599456505 -0.00085510854390036663 0 -0.03323564515953429 -0.00079052848364030346 0 -0.033287804510734029 -0.00076154198295152846 0 -0.033237692599456505 -0.00085510854390036663 0 -0.03323564515953429 -0.00079052848364030346 0 -0.033191141504944413 -0.00073435745473376707 0 -0.033265961219369707 -0.00073482102707268598 0 -0.033186410091552349 -0.00083432807641547026 0 -0.03323564515953429 -0.00079052848364030346 0 -0.033191141504944413 -0.00073435745473376707 0 -0.033137151385166499 -0.00077037736435502688 0 -0.033186410091552349 -0.00083432807641547026 0 -0.033191141504944413 -0.00073435745473376707 0 -0.033129049961592875 -0.00064971348722196699 0 -0.033191141504944413 -0.00073435745473376707 0 -0.033259741832304221 -0.00063929790961208784 0 -0.033259741832304221 -0.00063929790961208784 0 -0.033253197367992399 -0.00071256062322689489 0 -0.033334558526233474 -0.00066876823454567848 0 -0.033259741832304221 -0.00063929790961208784 0 -0.033265961219369707 -0.00073482102707268598 0 -0.033289523040542321 -0.00075999099587388335 0 -0.032159843348824359 -0.0015150469493122667 0 -0.032152772455489337 -0.0015351540379744315 0 -0.033191141504944413 -0.00073435745473376707 0 -0.033259741832304221 -0.00063929790961208784 0 -0.033265961219369707 -0.00073482102707268598 0 -0.032152772455489337 -0.0015351540379744315 0 -0.032043701501954985 -0.0016112335854799463 0 -0.03323564515953429 -0.00079052848364030346 0 -0.033265961219369707 -0.00073482102707268598 0 -0.033287804510734029 -0.00076154198295152846 0 -0.032153289398728295 -0.0015348395622585857 0 -0.032152772455489337 -0.0015351540379744315 0 -0.032152772455489337 -0.0015351540379744315 0 -0.032281932620834015 -0.0014607019792830906 0 -0.032171688628456208 -0.0013580158646096822 0 -0.032167145401515745 -0.0020253731377459679 0 -0.032503273571304753 -0.0017928516756729725 0 -0.033192640696943505 -0.00093925313350877622 0 -0.033293089161478814 -0.00094362492530368502 0 -0.033128287748538168 -0.0011149118765824328 0 -0.033287804510734029 -0.00076154198295152846 0 -0.033237692599456505 -0.00085510854390036663 0 -0.033293089161478814 -0.00094362492530368502 0 -0.032281932620834015 -0.0014607019792830906 0 -0.032043701501954985 -0.0016112335854799463 0 -0.033237692599456505 -0.00085510854390036663 0 -0.033192640696943505 -0.00093925313350877622 0 -0.033293089161478814 -0.00094362492530368502 0 -0.033186410091552349 -0.00083432807641547026 0 -0.033237692599456505 -0.00085510854390036663 0 -0.033192640696943505 -0.00093925313350877622 0 -0.033047307235570395 -0.00088261763765531129 0 -0.033119769434266526 -0.00086617839234876665 0 -0.033108640196487557 -0.00096170539932794754 0 -0.033186410091552349 -0.00083432807641547026 0 -0.033192640696943505 -0.00093925313350877622 0 -0.033119769434266526 -0.00086617839234876665 0 -0.033192640696943505 -0.00093925313350877622 0 -0.033119769434266526 -0.00086617839234876665 0 -0.033108640196487557 -0.00096170539932794754 0 -0.033192640696943505 -0.00093925313350877622 0 -0.033108640196487557 -0.00096170539932794754 0 -0.033128287748538168 -0.0011149118765824328 0 -0.033053456090612214 -0.00099353717564407487 0 -0.033108640196487557 -0.00096170539932794754 0 -0.033128287748538168 -0.0011149118765824328 0 -0.033053456090612214 -0.00099353717564407487 0 -0.033047307235570395 -0.00088261763765531129 0 -0.033108640196487557 -0.00096170539932794754 0 -0.033256867446461794 -0.0015403212001138182 0 -0.033254236671989207 -0.0014670647461852706 0 -0.033283641489744623 -0.0015087878720978509 0 -0.032453454777762597 -0.0014758959565712626 0 -0.032281932620834015 -0.0014607019792830906 0 -0.032281932620834015 -0.0014607019792830906 0 -0.0325734865474471 -0.0013233915598664691 0 -0.033295058124256656 -0.0014382143904079173 0 -0.033297227310972649 -0.0012834083774004364 0 -0.033182993132220832 -0.0013604138292322421 0 -0.032078250528116352 -0.0019255021535901271 0 -0.031949529243106366 -0.0016359882809584404 0 -0.033283641489744623 -0.0015087878720978509 0 -0.033319824558665348 -0.0015078443797238196 0 -0.033303862061470582 -0.0015428497558263553 0 -0.033283641489744623 -0.0015087878720978509 0 -0.033319824558665348 -0.0015078443797238196 0 -0.033278561457882112 -0.0014760418724621416 0 -0.031589885090500501 -0.0013552736673263165 0 -0.031118007808848828 -0.0014774410387716234 0 -0.0311686519941206 -0.00080325870127800978 0 -0.031589885090500501 -0.0013552736673263165 0 -0.031392610750457017 -0.0018588571873793937 0 -0.031118007808848828 -0.0014774410387716234 0 -0.031589885090500501 -0.0013552736673263165 0 -0.031392610750457017 -0.0018588571873793937 0 -0.031679372889816766 -0.001942754631357245 0 -0.031392610750457017 -0.0018588571873793937 0 -0.031047927837782981 -0.0021716253113480554 0 -0.031118007808848828 -0.0014774410387716234 0 -0.031679372889816766 -0.001942754631357245 0 -0.031473264734060855 -0.0021888245641014685 0 -0.031804058024895346 -0.0022649486464459993 0 -0.031392610750457017 -0.0018588571873793937 0 -0.031679372889816766 -0.001942754631357245 0 -0.031473264734060855 -0.0021888245641014685 0 -0.031392610750457017 -0.0018588571873793937 0 -0.031473264734060855 -0.0021888245641014685 0 -0.031047927837782981 -0.0021716253113480554 0 -0.031589885090500501 -0.0013552736673263165 0 -0.031679372889816766 -0.001942754631357245 0 -0.03200753758796232 -0.0019132242435688051 0 -0.033319824558665348 -0.0015078443797238196 0 -0.033284744952143307 -0.0014641019286547889 0 -0.033278561457882112 -0.0014760418724621416 0 -0.033284730606882439 -0.0014638594097082711 0 -0.033278561457882112 -0.0014760418724621416 0 -0.033275539922462911 -0.0014519571118990653 0 -0.033254236671989207 -0.0014670647461852706 0 -0.033283641489744623 -0.0015087878720978509 0 -0.033278561457882112 -0.0014760418724621416 0 -0.033254236671989207 -0.0014670647461852706 0 -0.033278561457882112 -0.0014760418724621416 0 -0.033275539922462911 -0.0014519571118990653 0 -0.031949529243106366 -0.0016359882809584404 0 -0.031955511258226349 -0.0016305848163954153 0 -0.031679372889816766 -0.001942754631357245 0 -0.03200753758796232 -0.0019132242435688051 0 -0.031804058024895346 -0.0022649486464459993 0 -0.031949529243106366 -0.0016359882809584404 0 -0.031677845169614138 -0.0016982963920609186 0 -0.032043701501954985 -0.0016112335854799463 0 -0.031677845169614138 -0.0016982963920609186 0 -0.031656763470692656 -0.0017274829245591012 0 -0.031492321327841057 -0.0015118176740764224 0 -0.031943522876823491 -0.0011996181657812788 0 -0.031949529243106366 -0.0016359882809584404 0 -0.032043701501954985 -0.0016112335854799463 0 -0.033253197367992399 -0.00071256062322689489 0 -0.033330729967694123 -0.00082511064781705834 0 -0.033341620711861086 -0.00073392897466397606 0 -0.033330729967694123 -0.00082511064781705834 0 -0.033341620711861086 -0.00073392897466397606 0 -0.03343345029792933 -0.00076077941284300235 0 -0.033253197367992399 -0.00071256062322689489 0 -0.033341620711861086 -0.00073392897466397606 0 -0.033334558526233474 -0.00066876823454567848 0 -0.033409798689312466 -0.00064835183634025684 0 -0.03343345029792933 -0.00076077941284300235 0 -0.03354872538628853 -0.00049420261043522918 0 -0.033259741832304221 -0.00063929790961208784 0 -0.033334558526233474 -0.00066876823454567848 0 -0.033323243915051905 -0.00060480728343454424 0 -0.033341620711861086 -0.00073392897466397606 0 -0.033334558526233474 -0.00066876823454567848 0 -0.033409798689312466 -0.00064835183634025684 0 -0.033334558526233474 -0.00066876823454567848 0 -0.033323243915051905 -0.00060480728343454424 0 -0.033394464575012252 -0.00057605296289281135 0 -0.033334558526233474 -0.00066876823454567848 0 -0.033409798689312466 -0.00064835183634025684 0 -0.033394464575012252 -0.00057605296289281135 0 -0.033341620711861086 -0.00073392897466397606 0 -0.033409798689312466 -0.00064835183634025684 0 -0.03343345029792933 -0.00076077941284300235 0 -0.031677845169614138 -0.0016982963920609186 0 -0.030417759806094291 -0.0021384641657317552 0 -0.031677845169614138 -0.0016982963920609186 0 -0.031631285286640234 -0.0017542654439080872 0 -0.031473264734060855 -0.0021888245641014685 0 -0.031804058024895346 -0.0022649486464459993 0 -0.031348094797101149 -0.0026060210695243481 0 -0.03219009805224593 -0.0020184594870274689 0 -0.031348094797101149 -0.0026060210695243481 0 -0.031654808438240985 -0.003082877572552808 0 -0.031473264734060855 -0.0021888245641014685 0 -0.031348094797101149 -0.0026060210695243481 0 -0.031047927837782981 -0.0021716253113480554 0 -0.031654808438240985 -0.003082877572552808 0 -0.03088480409344645 -0.0033876665566326971 0 -0.031127372641024692 -0.0043609117566256036 0 -0.031654808438240985 -0.003082877572552808 0 -0.03088480409344645 -0.0033876665566326971 0 -0.031100131581462419 -0.0028397337527753704 0 -0.031348094797101149 -0.0026060210695243481 0 -0.031654808438240985 -0.003082877572552808 0 -0.031100131581462419 -0.0028397337527753704 0 -0.03354872538628853 -0.00049420261043522918 0 -0.033443247984735462 -0.00046685670994310949 0 -0.033546310468146052 -0.00043946947069611035 0 -0.033443247984735462 -0.00046685670994310949 0 -0.033309332645403873 -0.00053191452152929336 0 -0.033337243982972192 -0.00040473205063761139 0 -0.033443247984735462 -0.00046685670994310949 0 -0.033309332645403873 -0.00053191452152929336 0 -0.033394464575012252 -0.00057605296289281135 0 -0.033309332645403873 -0.00053191452152929336 0 -0.033323243915051905 -0.00060480728343454424 0 -0.033394464575012252 -0.00057605296289281135 0 -0.033409798689312466 -0.00064835183634025684 0 -0.03354872538628853 -0.00049420261043522918 0 -0.033394464575012252 -0.00057605296289281135 0 -0.03354872538628853 -0.00049420261043522918 0 -0.033443247984735462 -0.00046685670994310949 0 -0.033394464575012252 -0.00057605296289281135 0 -0.029446294092125451 -0.0026707397988112508 0 -0.030127896889073181 -0.0033045437775471183 0 -0.030520190062240399 -0.0025507988107581806 0 -0.029446294092125451 -0.0026707397988112508 0 -0.029262132663323601 -0.0035359179419943219 0 -0.030127896889073181 -0.0033045437775471183 0 -0.029262132663323601 -0.0035359179419943219 0 -0.030127896889073181 -0.0033045437775471183 0 -0.030105262454172412 -0.0041179303620485037 0 -0.030127896889073181 -0.0033045437775471183 0 -0.03088480409344645 -0.0033876665566326971 0 -0.030105262454172412 -0.0041179303620485037 0 -0.03088480409344645 -0.0033876665566326971 0 -0.031100131581462419 -0.0028397337527753704 0 -0.030520190062240399 -0.0025507988107581806 0 -0.030127896889073181 -0.0033045437775471183 0 -0.03088480409344645 -0.0033876665566326971 0 -0.030520190062240399 -0.0025507988107581806 0 -0.030520190062240399 -0.0025507988107581806 0 -0.030887667019463119 -0.0022998261906890119 0 -0.031075721524204257 -0.0021469193634008252 0 -0.031100131581462419 -0.0028397337527753704 0 -0.030520190062240399 -0.0025507988107581806 0 -0.030887667019463119 -0.0022998261906890119 0 -0.031348094797101149 -0.0026060210695243481 0 -0.031100131581462419 -0.0028397337527753704 0 -0.030887667019463119 -0.0022998261906890119 0 -0.031348094797101149 -0.0026060210695243481 0 -0.030887667019463119 -0.0022998261906890119 0 -0.031047927837782981 -0.0021716253113480554 0 -0.029879980089384847 -0.0018579027838817126 0 -0.029780182085372038 -0.0016601616733462731 0 -0.030520190062240399 -0.0025507988107581806 0 -0.029796462335628875 -0.00094120902730681722 0 -0.029139706479739722 -0.0017319060517533822 0 -0.029446294092125451 -0.0026707397988112508 0 -0.030520190062240399 -0.0025507988107581806 0 -0.029139706479739722 -0.0017319060517533822 0 -0.029796462335628875 -0.00094120902730681722 0 -0.02912116308413288 -0.0010384517137407168 0 -0.029139706479739722 -0.0017319060517533822 0 -0.031075721524204257 -0.0021469193634008252 0 -0.031014860030096958 -0.0021917769845908792 0 -0.0311717745999915 -0.0023600458373185455 0 -0.029796462335628875 -0.00094120902730681722 0 -0.029114746896822353 -0.00022950923348571779 0 -0.02912116308413288 -0.0010384517137407168 0 -0.032042609459487913 -0.0022306972781459666 0 -0.032082150621998047 -0.0022309134776949406 0 -0.031047927837782981 -0.0021716253113480554 0 -0.031014860030096958 -0.0021917769845908792 0 -0.030910285335716017 -0.0023233873107557077 0 -0.030887667019463119 -0.0022998261906890119 0 -0.031047927837782981 -0.0021716253113480554 0 -0.031014860030096958 -0.0021917769845908792 0 -0.030887667019463119 -0.0022998261906890119 0 -0.031075721524204257 -0.0021469193634008252 0 -0.031014860030096958 -0.0021917769845908792 0 -0.030910285335716017 -0.0023233873107557077 0 -0.031090582405781584 -0.0025534623945067019 0 -0.0311717745999915 -0.0023600458373185455 0 -0.031014860030096958 -0.0021917769845908792 0 -0.030910285335716017 -0.0023233873107557077 0 -0.0311717745999915 -0.0023600458373185455 0 -0.032082150621998047 -0.0022309134776949406 0 -0.032202161847400039 -0.0022892935446118825 0 -0.030910285335716017 -0.0023233873107557077 0 -0.031090582405781584 -0.0025534623945067019 0 -0.030824599298277671 -0.0027966706866376528 0 -0.031090582405781584 -0.0025534623945067019 0 -0.0311717745999915 -0.0023600458373185455 0 -0.031342219242670825 -0.0025975226419809455 0 -0.031075721524204257 -0.0021469193634008252 0 -0.0311717745999915 -0.0023600458373185455 0 -0.031606076335557218 -0.0024920274896228166 0 -0.029780182085372038 -0.0016601616733462731 0 -0.029533598067954542 -0.0012649412935177369 0 -0.029796462335628875 -0.00094120902730681722 0 -0.029161737070129846 0.00056157991900958272 0 -0.029114746896822353 -0.00022950923348571779 0 -0.0311717745999915 -0.0023600458373185455 0 -0.031606076335557218 -0.0024920274896228166 0 -0.031342219242670825 -0.0025975226419809455 0 -0.031606076335557218 -0.0024920274896228166 0 -0.031342219242670825 -0.0025975226419809455 0 -0.031566926733334784 -0.00282675720281589 0 -0.031342219242670825 -0.0025975226419809455 0 -0.031285052089918337 -0.0028377031853343546 0 -0.031566926733334784 -0.00282675720281589 0 -0.031285052089918337 -0.0028377031853343546 0 -0.031566926733334784 -0.00282675720281589 0 -0.031603097352474824 -0.0031002949158576284 0 -0.031566926733334784 -0.00282675720281589 0 -0.031603097352474824 -0.0031002949158576284 0 -0.032023297508067976 -0.0031198120336712559 0 -0.031285052089918337 -0.0028377031853343546 0 -0.031603097352474824 -0.0031002949158576284 0 -0.031280942443490965 -0.003355944948050867 0 -0.031603097352474824 -0.0031002949158576284 0 -0.031810651668207235 -0.0034403866237481561 0 -0.032023297508067976 -0.0031198120336712559 0 -0.031603097352474824 -0.0031002949158576284 0 -0.031810651668207235 -0.0034403866237481561 0 -0.031280942443490965 -0.003355944948050867 0 -0.032232091861649118 -0.0026044728271868438 0 -0.032202161847400039 -0.0022892935446118825 0 -0.032043751891178043 -0.0038605558482445136 0 -0.032078733574133877 -0.0039027515344545968 0 -0.032079698759105622 -0.0038224611345559038 0 -0.031285052089918337 -0.0028377031853343546 0 -0.031280942443490965 -0.003355944948050867 0 -0.030824599298277671 -0.0027966706866376528 0 -0.031090582405781584 -0.0025534623945067019 0 -0.031285052089918337 -0.0028377031853343546 0 -0.030824599298277671 -0.0027966706866376528 0 -0.031090582405781584 -0.0025534623945067019 0 -0.031342219242670825 -0.0025975226419809455 0 -0.031285052089918337 -0.0028377031853343546 0 -0.032078250528116352 -0.0019255021535901271 0 -0.032202161847400039 -0.0022892935446118825 0 -0.033319824558665348 -0.0015078443797238196 0 -0.033356161361761019 -0.0015523439385483071 0 -0.033303862061470582 -0.0015428497558263553 0 -0.033356161361761019 -0.0015523439385483071 0 -0.033303862061470582 -0.0015428497558263553 0 -0.033296368859761484 -0.0015867545607374616 0 -0.033256867446461794 -0.0015403212001138182 0 -0.033283641489744623 -0.0015087878720978509 0 -0.033303862061470582 -0.0015428497558263553 0 -0.033256867446461794 -0.0015403212001138182 0 -0.033303862061470582 -0.0015428497558263553 0 -0.033296368859761484 -0.0015867545607374616 0 -0.033356161361761019 -0.0015523439385483071 0 -0.033326919286099696 -0.0016163822395939241 0 -0.033342543753327063 -0.0016466771198252142 0 -0.033356161361761019 -0.0015523439385483071 0 -0.033296368859761484 -0.0015867545607374616 0 -0.033326919286099696 -0.0016163822395939241 0 -0.032202161847400039 -0.0022892935446118825 0 -0.032633614868024331 -0.0023588815470162853 0 -0.033342543753327063 -0.0016466771198252142 0 -0.033356823079521765 -0.0016370576459128091 0 -0.033386662477403621 -0.0015781873321882185 0 -0.033326919286099696 -0.0016163822395939241 0 -0.033342543753327063 -0.0016466771198252142 0 -0.033356823079521765 -0.0016370576459128091 0 -0.033296368859761484 -0.0015867545607374616 0 -0.033326919286099696 -0.0016163822395939241 0 -0.033278100516648298 -0.0016318834663131495 0 -0.033259366966249981 -0.0016028485363757373 0 -0.033296368859761484 -0.0015867545607374616 0 -0.033278100516648298 -0.0016318834663131495 0 -0.033356823079521765 -0.0016370576459128091 0 -0.033278100516648298 -0.0016318834663131495 0 -0.033255871049884707 -0.0016572195949554496 0 -0.033326919286099696 -0.0016163822395939241 0 -0.033356823079521765 -0.0016370576459128091 0 -0.033278100516648298 -0.0016318834663131495 0 -0.033356823079521765 -0.0016370576459128091 0 -0.033255871049884707 -0.0016572195949554496 0 -0.03323544300141211 -0.001694077723992945 0 -0.033516233885909512 -0.0013748015508718596 0 -0.033557204603281349 -0.0013279502010280185 0 -0.033356823079521765 -0.0016370576459128091 0 -0.033510704003977605 -0.0015443089031856381 0 -0.03359547069223616 -0.0015591929161320487 0 -0.033421323658788041 -0.0015157550110211598 0 -0.033510704003977605 -0.0015443089031856381 0 -0.033386662477403621 -0.0015781873321882185 0 -0.033354293705722488 -0.0015194947596873934 0 -0.033342543753327063 -0.0016466771198252142 0 -0.033386662477403621 -0.0015781873321882185 0 -0.033356823079521765 -0.0016370576459128091 0 -0.033510704003977605 -0.0015443089031856381 0 -0.033386662477403621 -0.0015781873321882185 0 -0.03306671074138956 -0.0021572053170157241 0 -0.032633614868024331 -0.0023588815470162853 0 -0.033354293705722488 -0.0015194947596873934 0 -0.033421323658788041 -0.0015157550110211598 0 -0.033386662477403621 -0.0015781873321882185 0 -0.032050682458548363 -0.003826719280964811 0 -0.032079698759105622 -0.0038224611345559038 0 -0.032074555298399997 -0.0038046588435068978 0 -0.032089593662355219 -0.0038247115130720238 0 -0.032050682458548363 -0.003826719280964811 0 -0.032074555298399997 -0.0038046588435068978 0 -0.032089593662355219 -0.0038247115130720238 0 -0.032074555298399997 -0.0038046588435068978 0 -0.032095607583431024 -0.0038093096292930455 0 -0.032074555298399997 -0.0038046588435068978 0 -0.032095607583431024 -0.0038093096292930455 0 -0.031958055095921291 -0.0037993865654245293 0 -0.032245342212216692 -0.0038315754581468584 0 -0.032095607583431024 -0.0038093096292930455 0 -0.032057136584886264 -0.0038539785437247975 0 -0.032095607583431024 -0.0038093096292930455 0 -0.031958055095921291 -0.0037993865654245293 0 -0.032057136584886264 -0.0038539785437247975 0 -0.032074555298399997 -0.0038046588435068978 0 -0.031958055095921291 -0.0037993865654245293 0 -0.032049446823790607 -0.0038230388112556707 0 -0.031810651668207235 -0.0034403866237481561 0 -0.031280942443490965 -0.003355944948050867 0 -0.031958055095921291 -0.0037993865654245293 0 -0.032043751891178043 -0.0038605558482445136 0 -0.031958055095921291 -0.0037993865654245293 0 -0.032049446823790607 -0.0038230388112556707 0 -0.032232091861649118 -0.0026044728271868438 0 -0.032250150450121633 -0.0027132444887867399 0 -0.032043751891178043 -0.0038605558482445136 0 -0.032079698759105622 -0.0038224611345559038 0 -0.032049446823790607 -0.0038230388112556707 0 -0.032079698759105622 -0.0038224611345559038 0 -0.032074555298399997 -0.0038046588435068978 0 -0.032049446823790607 -0.0038230388112556707 0 -0.027420262703705182 0.0023715163825409223 0 -0.026494495426723143 0.0027425385825584525 0 -0.02656498293366788 0.001866345728525751 0 -0.031810651668207235 -0.0034403866237481561 0 -0.031958055095921291 -0.0037993865654245293 0 -0.032227195845021955 -0.0036962874472980895 0 -0.029348334193845641 -0.00087624405108697686 0 -0.028663208984832583 -0.00036352305273916371 0 -0.032041698436588384 -0.0038965440309571826 0 -0.032227195845021955 -0.0036962874472980895 0 -0.032057136584886264 -0.0038539785437247975 0 -0.031958055095921291 -0.0037993865654245293 0 -0.032227195845021955 -0.0036962874472980895 0 -0.032057136584886264 -0.0038539785437247975 0 -0.032041698436588384 -0.0038965440309571826 0 -0.032245342212216692 -0.0038315754581468584 0 -0.032057136584886264 -0.0038539785437247975 0 -0.027807287200872496 0.000458421227176356 0 -0.028663208984832583 -0.00036352305273916371 0 -0.027866167453897597 -0.00063875200937468107 0 -0.028192501872572578 -0.00065592270034307387 0 -0.028045487177208679 -0.0011060070613545985 0 -0.026948381505395393 0.0036039478849288075 0 -0.027420262703705182 0.0023715163825409223 0 -0.026494495426723143 0.0027425385825584525 0 -0.025640453684001044 0.0036606730740394739 0 -0.026948381505395393 0.0036039478849288075 0 -0.026494495426723143 0.0027425385825584525 0 -0.025640453684001044 0.0036606730740394739 0 -0.026494495426723143 0.0027425385825584525 0 -0.025668609685465943 0.0027548634564274147 0 -0.025640453684001044 0.0036606730740394739 0 -0.025668609685465943 0.0027548634564274147 0 -0.02476748985178474 0.0024854856009889808 0 -0.026721589809343655 0.00099133892737473801 0 -0.026183575697674728 0.00095156460871470983 0 -0.025861598388090212 0.0020779793655080012 0 -0.025090905744521434 0.0013348290630947903 0 -0.02476748985178474 0.0024854856009889808 0 -0.025668609685465943 0.0027548634564274147 0 -0.025861598388090212 0.0020779793655080012 0 -0.02476748985178474 0.0024854856009889808 0 -0.026494495426723143 0.0027425385825584525 0 -0.025861598388090212 0.0020779793655080012 0 -0.02656498293366788 0.001866345728525751 0 -0.026494495426723143 0.0027425385825584525 0 -0.025668609685465943 0.0027548634564274147 0 -0.025861598388090212 0.0020779793655080012 0 -0.02656498293366788 0.001866345728525751 0 -0.026062866386700478 0.0011504282389708683 0 -0.026980755651099003 0.00098359810392584322 0 -0.025861598388090212 0.0020779793655080012 0 -0.02656498293366788 0.001866345728525751 0 -0.026062866386700478 0.0011504282389708683 0 -0.025861598388090212 0.0020779793655080012 0 -0.026062866386700478 0.0011504282389708683 0 -0.025090905744521434 0.0013348290630947903 0 -0.026062866386700478 0.0011504282389708683 0 -0.025090905744521434 0.0013348290630947903 0 -0.025320761848272488 0.00028890560470057027 0 -0.026062866386700478 0.0011504282389708683 0 -0.026264054077261432 0.00044284354992480264 0 -0.026980755651099003 0.00098359810392584322 0 -0.026062866386700478 0.0011504282389708683 0 -0.026264054077261432 0.00044284354992480264 0 -0.025320761848272488 0.00028890560470057027 0 -0.027268399756083982 0.0016931979367568936 0 -0.02785036850723481 0.00072740413941359782 0 -0.027438540113987876 0.00026585624262276462 0 -0.027268399756083982 0.0016931979367568936 0 -0.028341069329688211 0.0011470570049864996 0 -0.02785036850723481 0.00072740413941359782 0 -0.027952293587358883 0.0037339497473601459 0 -0.027268399756083982 0.0016931979367568936 0 -0.028547842188278313 0.0021546640308209787 0 -0.027420262703705182 0.0023715163825409223 0 -0.02656498293366788 0.001866345728525751 0 -0.026980755651099003 0.00098359810392584322 0 -0.028663208984832583 -0.00036352305273916371 0 -0.028404050119944749 0.00014451205518220428 0 -0.028663208984832583 -0.00036352305273916371 0 -0.029165736233812429 -0.00081778835086019892 0 -0.031810651668207235 -0.0034403866237481561 0 -0.032227195845021955 -0.0036962874472980895 0 -0.032023297508067976 -0.0031198120336712559 0 -0.031606076335557218 -0.0024920274896228166 0 -0.031566926733334784 -0.00282675720281589 0 -0.032023297508067976 -0.0031198120336712559 0 -0.029533598067954542 -0.0012649412935177369 0 -0.029165736233812429 -0.00081778835086019892 0 -0.027268399756083982 0.0016931979367568936 0 -0.028547842188278313 0.0021546640308209787 0 -0.028341069329688211 0.0011470570049864996 0 -0.029161737070129846 0.00056157991900958272 0 -0.028547842188278313 0.0021546640308209787 0 -0.028341069329688211 0.0011470570049864996 0 -0.029161737070129846 0.00056157991900958272 0 -0.028341069329688211 0.0011470570049864996 0 -0.0282547349286985 0.00025964372154648477 0 -0.029161737070129846 0.00056157991900958272 0 -0.0282547349286985 0.00025964372154648477 0 -0.029114746896822353 -0.00022950923348571779 0 -0.0282547349286985 0.00025964372154648477 0 -0.029114746896822353 -0.00022950923348571779 0 -0.02697437135392601 -0.00081964014055724613 0 -0.028341069329688211 0.0011470570049864996 0 -0.0282547349286985 0.00025964372154648477 0 -0.02785036850723481 0.00072740413941359782 0 -0.027268399756083982 0.0016931979367568936 0 -0.027438540113987876 0.00026585624262276462 0 -0.026589276980726804 -0.00043963925041000791 0 -0.028404050119944749 0.00014451205518220428 0 -0.028238436882553994 4.4786011039476043e-05 0 -0.0282547349286985 0.00025964372154648477 0 -0.027438540113987876 0.00026585624262276462 0 -0.02697437135392601 -0.00081964014055724613 0 -0.0282547349286985 0.00025964372154648477 0 -0.02785036850723481 0.00072740413941359782 0 -0.027438540113987876 0.00026585624262276462 0 -0.027438540113987876 0.00026585624262276462 0 -0.02697437135392601 -0.00081964014055724613 0 -0.026589276980726804 -0.00043963925041000791 0 -0.02715223200281347 -0.00072618299979220749 0 -0.028055208785066708 -0.00095889625578726018 0 -0.027505294845917957 -0.0016267181753972797 0 -0.028441895821532743 -0.0012628180155392508 0 -0.028055208785066708 -0.00095889625578726018 0 -0.027505294845917957 -0.0016267181753972797 0 -0.02715223200281347 -0.00072618299979220749 0 -0.027505294845917957 -0.0016267181753972797 0 -0.02648573355567619 -0.0015830597884865145 0 -0.026110089753818427 0.00017559234727624606 0 -0.02535122738203998 7.5912890674235037e-05 0 -0.029114746896822353 -0.00022950923348571779 0 -0.02715223200281347 -0.00072618299979220749 0 -0.028055208785066708 -0.00095889625578726018 0 -0.029114746896822353 -0.00022950923348571779 0 -0.028441895821532743 -0.0012628180155392508 0 -0.02912116308413288 -0.0010384517137407168 0 -0.029114746896822353 -0.00022950923348571779 0 -0.028441895821532743 -0.0012628180155392508 0 -0.028055208785066708 -0.00095889625578726018 0 -0.028441895821532743 -0.0012628180155392508 0 -0.02912116308413288 -0.0010384517137407168 0 -0.029139706479739722 -0.0017319060517533822 0 -0.028441895821532743 -0.0012628180155392508 0 -0.029139706479739722 -0.0017319060517533822 0 -0.028465762409510504 -0.00242693619275776 0 -0.028441895821532743 -0.0012628180155392508 0 -0.028465762409510504 -0.00242693619275776 0 -0.027505294845917957 -0.0016267181753972797 0 -0.029446294092125451 -0.0026707397988112508 0 -0.029139706479739722 -0.0017319060517533822 0 -0.028465762409510504 -0.00242693619275776 0 -0.027505294845917957 -0.0016267181753972797 0 -0.02754153775061273 -0.0027522807851026601 0 -0.026710868337536466 -0.0024083261677620088 0 -0.028465762409510504 -0.00242693619275776 0 -0.027505294845917957 -0.0016267181753972797 0 -0.02754153775061273 -0.0027522807851026601 0 -0.02754153775061273 -0.0027522807851026601 0 -0.02814554182614833 -0.0035633407378819612 0 -0.026883207008660173 -0.0037229756500010329 0 -0.02754153775061273 -0.0027522807851026601 0 -0.026710868337536466 -0.0024083261677620088 0 -0.026883207008660173 -0.0037229756500010329 0 -0.029262132663323601 -0.0035359179419943219 0 -0.028465762409510504 -0.00242693619275776 0 -0.02814554182614833 -0.0035633407378819612 0 -0.028465762409510504 -0.00242693619275776 0 -0.02754153775061273 -0.0027522807851026601 0 -0.02814554182614833 -0.0035633407378819612 0 -0.029446294092125451 -0.0026707397988112508 0 -0.029262132663323601 -0.0035359179419943219 0 -0.028465762409510504 -0.00242693619275776 0 -0.025817985334246923 -0.0031417368259964839 0 -0.024532085778901216 -0.0027128492726049168 0 -0.025012730032399136 -0.0042771636371240988 0 -0.025817985334246923 -0.0031417368259964839 0 -0.025782953186891396 -0.0021307545112296458 0 -0.024532085778901216 -0.0027128492726049168 0 -0.025817985334246923 -0.0031417368259964839 0 -0.026710868337536466 -0.0024083261677620088 0 -0.026883207008660173 -0.0037229756500010329 0 -0.025817985334246923 -0.0031417368259964839 0 -0.026710868337536466 -0.0024083261677620088 0 -0.025782953186891396 -0.0021307545112296458 0 -0.02648573355567619 -0.0015830597884865145 0 -0.025782953186891396 -0.0021307545112296458 0 -0.025183806982008488 -0.001244642420792167 0 -0.026710868337536466 -0.0024083261677620088 0 -0.02648573355567619 -0.0015830597884865145 0 -0.025782953186891396 -0.0021307545112296458 0 -0.027505294845917957 -0.0016267181753972797 0 -0.026710868337536466 -0.0024083261677620088 0 -0.02648573355567619 -0.0015830597884865145 0 -0.025782953186891396 -0.0021307545112296458 0 -0.025183806982008488 -0.001244642420792167 0 -0.024532085778901216 -0.0027128492726049168 0 -0.025358959613317442 -0.0012013061136478878 0 -0.025637996805041158 -0.00034967246105283597 0 -0.024634968133301391 -0.00088919558329754499 0 -0.02535122738203998 7.5912890674235037e-05 0 -0.023488565127617565 -9.7570950897392866e-05 0 -0.02715223200281347 -0.00072618299979220749 0 -0.02648573355567619 -0.0015830597884865145 0 -0.025183806982008488 -0.001244642420792167 0 -0.025358959613317442 -0.0012013061136478878 0 -0.026589276980726804 -0.00043963925041000791 0 -0.025637996805041158 -0.00034967246105283597 0 -0.02697437135392601 -0.00081964014055724613 0 -0.025358959613317442 -0.0012013061136478878 0 -0.026589276980726804 -0.00043963925041000791 0 -0.026264054077261432 0.00044284354992480264 0 -0.026980755651099003 0.00098359810392584322 0 -0.026589276980726804 -0.00043963925041000791 0 -0.026264054077261432 0.00044284354992480264 0 -0.026589276980726804 -0.00043963925041000791 0 -0.025637996805041158 -0.00034967246105283597 0 -0.026264054077261432 0.00044284354992480264 0 -0.025637996805041158 -0.00034967246105283597 0 -0.025320761848272488 0.00028890560470057027 0 -0.025637996805041158 -0.00034967246105283597 0 -0.025320761848272488 0.00028890560470057027 0 -0.024634968133301391 -0.00088919558329754499 0 -0.025320761848272488 0.00028890560470057027 0 -0.024253692477529901 -0.00025145448061187942 0 -0.024359606639271864 0.00056015926018197944 0 -0.022821851153338051 0.00062440297838787975 0 -0.022451322386985103 0.00052441120920864945 0 -0.025320761848272488 0.00028890560470057027 0 -0.02415390534772846 -0.00025855718970672556 0 -0.024634968133301391 -0.00088919558329754499 0 -0.024253692477529901 -0.00025145448061187942 0 -0.023158222184964768 -0.00074196760683113716 0 -0.023025525094602078 2.9197058815404951e-05 0 -0.024253692477529901 -0.00025145448061187942 0 -0.023025525094602078 2.9197058815404951e-05 0 -0.024359606639271864 0.00056015926018197944 0 -0.023877982512497394 -0.0011391648203262538 0 -0.023406624177563746 -0.001331701298900517 0 -0.022997639405189729 -0.00082395458734354306 0 -0.022451322386985103 0.00052441120920864945 0 -0.021512335171346045 0.00031845944039882103 0 -0.02415390534772846 -0.00025855718970672556 0 -0.023877982512497394 -0.0011391648203262538 0 -0.022997639405189729 -0.00082395458734354306 0 -0.023877982512497394 -0.0011391648203262538 0 -0.023406624177563746 -0.001331701298900517 0 -0.023831136938303334 -0.0016102717972116599 0 -0.025358959613317442 -0.0012013061136478878 0 -0.024634968133301391 -0.00088919558329754499 0 -0.023833594777882779 -0.001601590399105934 0 -0.02415390534772846 -0.00025855718970672556 0 -0.023877982512497394 -0.0011391648203262538 0 -0.024634968133301391 -0.00088919558329754499 0 -0.023877982512497394 -0.0011391648203262538 0 -0.024634968133301391 -0.00088919558329754499 0 -0.023833594777882779 -0.001601590399105934 0 -0.023488565127617565 -9.7570950897392866e-05 0 -0.020529458722331879 -0.00029211818986506552 0 -0.025183806982008488 -0.001244642420792167 0 -0.023243221860422367 -0.0017578969303494007 0 -0.024532085778901216 -0.0027128492726049168 0 -0.020551698160622169 -0.00031322106364415221 0 -0.020529458722331879 -0.00029211818986506552 0 -0.023406624177563746 -0.001331701298900517 0 -0.023831136938303334 -0.0016102717972116599 0 -0.022957099088251744 -0.0015284868865649611 0 -0.020529458722331879 -0.00029211818986506552 0 -0.019253969543930015 -0.0012481417473420746 0 -0.016099264929520515 -0.00064096731385772918 0 -0.016155749599558261 -3.0434517867049733e-05 0 -0.016428688344463146 -0.0003500404849636648 0 -0.016155749599558261 -3.0434517867049733e-05 0 -0.01654569149166385 2.5375369938929117e-06 0 -0.016428688344463146 -0.0003500404849636648 0 -0.02308716278125441 -0.0033991356039242988 0 -0.024532085778901216 -0.0027128492726049168 0 -0.023850609899936363 -0.0042476468075966041 0 -0.023243221860422367 -0.0017578969303494007 0 -0.02308716278125441 -0.0033991356039242988 0 -0.024532085778901216 -0.0027128492726049168 0 -0.017761426964728547 -3.7590637399747814e-05 0 -0.01777812912782897 6.8410523499929101e-07 0 -0.018370154246508792 -6.7795958344004669e-05 0 -0.017761426964728547 -3.7590637399747814e-05 0 -0.017231808707247599 1.6038688341183201e-05 0 -0.017542907083283113 -0.00015679116032161629 0 -0.017761426964728547 -3.7590637399747814e-05 0 -0.01777812912782897 6.8410523499929101e-07 0 -0.017231808707247599 1.6038688341183201e-05 0 -0.019970878061740492 3.1218885923755578e-05 0 -0.020177451697035286 -0.0001398002669594478 0 -0.01654569149166385 2.5375369938929117e-06 0 -0.016800070510041284 -0.00037700008116722567 0 -0.016428688344463146 -0.0003500404849636648 0 -0.017231808707247599 1.6038688341183201e-05 0 -0.01654569149166385 2.5375369938929117e-06 0 -0.017542907083283113 -0.00015679116032161629 0 -0.016099264929520515 -0.00064096731385772918 0 -0.016428688344463146 -0.0003500404849636648 0 -0.016846204107651922 -0.00044655439550513563 0 -0.020529458722331879 -0.00029211818986506552 0 -0.020260021132155713 -0.00020823076649530747 0 -0.023831136938303334 -0.0016102717972116599 0 -0.022957099088251744 -0.0015284868865649611 0 -0.022261087891896087 -0.002027350747607026 0 -0.016800070510041284 -0.00037700008116722567 0 -0.016428688344463146 -0.0003500404849636648 0 -0.016846204107651922 -0.00044655439550513563 0 -0.023406624177563746 -0.001331701298900517 0 -0.022957099088251744 -0.0015284868865649611 0 -0.02291767366907474 -0.0012690205195529415 0 -0.022957099088251744 -0.0015284868865649611 0 -0.022440186237272071 -0.0014421183188873903 0 -0.02291767366907474 -0.0012690205195529415 0 -0.022957099088251744 -0.0015284868865649611 0 -0.022440186237272071 -0.0014421183188873903 0 -0.022261087891896087 -0.002027350747607026 0 -0.020260021132155713 -0.00020823076649530747 0 -0.02008854109670722 6.8189290252866616e-05 0 -0.017768329756228881 -0.0001568952503200204 0 -0.018370154246508792 -6.7795958344004669e-05 0 -0.018634318339899657 -0.0005279202825731054 0 -0.022440186237272071 -0.0014421183188873903 0 -0.022261087891896087 -0.002027350747607026 0 -0.021837508359869574 -0.0013993281358936089 0 -0.01777812912782897 6.8410523499929101e-07 0 -0.018370154246508792 -6.7795958344004669e-05 0 -0.019417506561052244 -1.7856953091626826e-06 0 -0.017542907083283113 -0.00015679116032161629 0 -0.017768329756228881 -0.0001568952503200204 0 -0.018370154246508792 -6.7795958344004669e-05 0 -0.017761426964728547 -3.7590637399747814e-05 0 -0.017542907083283113 -0.00015679116032161629 0 -0.018370154246508792 -6.7795958344004669e-05 0 -0.020177451697035286 -0.0001398002669594478 0 -0.020260021132155713 -0.00020823076649530747 0 -0.018370154246508792 -6.7795958344004669e-05 0 -0.018634318339899657 -0.0005279202825731054 0 -0.019417506561052244 -1.7856953091626826e-06 0 -0.02008854109670722 6.8189290252866616e-05 0 -0.019425005948003633 -9.9945179071457409e-07 0 -0.01964539880530182 3.3937438621480001e-07 0 -0.019421059132668159 1.8297817217631595e-09 0 -0.020311733733026176 -4.936437194355855e-10 0 -0.020994513483171547 -0.0011833184522425078 0 -0.020319429725741654 -3.1578113647459961e-06 0 -0.023158222184964768 -0.00074196760683113716 0 -0.02008854109670722 6.8189290252866616e-05 0 -0.0203115421157967 -1.1513338553026037e-08 0 -0.020319429725741654 -3.1578113647459961e-06 0 -0.023158222184964768 -0.00074196760683113716 0 -0.023025525094602078 2.9197058815404951e-05 0 -0.02008854109670722 6.8189290252866616e-05 0 -0.021512335171346045 0.00031845944039882103 0 -0.022440186237272071 -0.0014421183188873903 0 -0.021837508359869574 -0.0013993281358936089 0 -0.022997639405189729 -0.00082395458734354306 0 -0.023406624177563746 -0.001331701298900517 0 -0.02291767366907474 -0.0012690205195529415 0 -0.022997639405189729 -0.00082395458734354306 0 -0.022440186237272071 -0.0014421183188873903 0 -0.02291767366907474 -0.0012690205195529415 0 -0.022997639405189729 -0.00082395458734354306 0 -0.020319429725741654 -3.1578113647459961e-06 0 -0.023025525094602078 2.9197058815404951e-05 0 -0.025482177878293908 1.5972381870233418e-06 0 -0.023025525094602078 2.9197058815404951e-05 0 -0.025117678974932774 -1.3960347318192786e-05 0 -0.025482177878293908 1.5972381870233418e-06 0 -0.025442669427609917 0.00061174000562666888 0 -0.025692174358816197 0.00075671021229534023 0 -0.023025525094602078 2.9197058815404951e-05 0 -0.024359606639271864 0.00056015926018197944 0 -0.023877913476944002 0.0012756920373905012 0 -0.025090905744521434 0.0013348290630947903 0 -0.025320761848272488 0.00028890560470057027 0 -0.024359606639271864 0.00056015926018197944 0 -0.025090905744521434 0.0013348290630947903 0 -0.024359606639271864 0.00056015926018197944 0 -0.023877913476944002 0.0012756920373905012 0 -0.025692174358816197 0.00075671021229534023 0 -0.026183575697674728 0.00095156460871470983 0 -0.025090905744521434 0.0013348290630947903 0 -0.023877913476944002 0.0012756920373905012 0 -0.02476748985178474 0.0024854856009889808 0 -0.025117678974932774 -1.3960347318192786e-05 0 -0.025958156369897331 6.6390422388422463e-05 0 -0.026449654329878915 7.8311743566714185e-05 0 -0.026632647442905891 0.00012962717014727927 0 -0.026449654329878915 7.8311743566714185e-05 0 -0.026683719913727925 0.00012081203465555473 0 -0.026632647442905891 0.00012962717014727927 0 -0.026718945738865567 0.00011092058479227435 0 -0.026449654329878915 7.8311743566714185e-05 0 -0.025958156369897331 6.6390422388422463e-05 0 -0.026449654329878915 7.8311743566714185e-05 0 -0.026683719913727925 0.00012081203465555473 0 -0.025958156369897331 6.6390422388422463e-05 0 -0.026683719913727925 0.00012081203465555473 0 -0.026511653270062982 9.967303041024521e-05 0 -0.025117678974932774 -1.3960347318192786e-05 0 -0.025958156369897331 6.6390422388422463e-05 0 -0.025482177878293908 1.5972381870233418e-06 0 -0.02764663092015936 8.7132313976162214e-05 0 -0.026511653270062982 9.967303041024521e-05 0 -0.025482177878293908 1.5972381870233418e-06 0 -0.025958156369897331 6.6390422388422463e-05 0 -0.026511653270062982 9.967303041024521e-05 0 -0.025482177878293908 1.5972381870233418e-06 0 -0.0079998493651236274 -0.00037894489074927977 0 -0.0082229418525518964 -0.0007022015502526997 0 -0.0078924698397004681 -0.0010890152185857815 0 -0.013696791393676824 -0.0025634365536569021 0 -0.013846845584561252 -0.0027561670564939136 0 -0.0083096277916604351 -0.00047149296009528111 0 -0.0087643715277701626 -0.00050481235035103377 0 -0.0082671423606373706 -0.00040934704515757056 0 -0.0087643715277701626 -0.00050481235035103377 0 -0.0093101850576068762 -0.00023764252053971725 0 -0.0082671423606373706 -0.00040934704515757056 0 -0.0083096277916604351 -0.00047149296009528111 0 -0.0079998493651236274 -0.00037894489074927977 0 -0.0082229418525518964 -0.0007022015502526997 0 -0.0083096277916604351 -0.00047149296009528111 0 -0.0079998493651236274 -0.00037894489074927977 0 -0.0082671423606373706 -0.00040934704515757056 0 -0.0082229418525518964 -0.0007022015502526997 0 -0.0085146615639822218 -0.0010082315545190126 0 -0.0078924698397004681 -0.0010890152185857815 0 -0.0082229418525518964 -0.0007022015502526997 0 -0.0087643715277701626 -0.00050481235035103377 0 -0.0085146615639822218 -0.0010082315545190126 0 -0.0083096277916604351 -0.00047149296009528111 0 -0.0082229418525518964 -0.0007022015502526997 0 -0.0087643715277701626 -0.00050481235035103377 0 -0.0087643715277701626 -0.00050481235035103377 0 -0.0091044199543024659 -0.00078063505664496824 0 -0.0085146615639822218 -0.0010082315545190126 0 -0.0087643715277701626 -0.00050481235035103377 0 -0.0091044199543024659 -0.00078063505664496824 0 -0.0094677526122957413 -0.00040439137507329337 0 -0.0091044199543024659 -0.00078063505664496824 0 -0.0094677526122957413 -0.00040439137507329337 0 -0.010525876821950008 -0.00031009236233814987 0 -0.0087643715277701626 -0.00050481235035103377 0 -0.0094677526122957413 -0.00040439137507329337 0 -0.0093101850576068762 -0.00023764252053971725 0 -0.0094677526122957413 -0.00040439137507329337 0 -0.010525876821950008 -0.00031009236233814987 0 -0.0093101850576068762 -0.00023764252053971725 0 -0.010817424160354751 -9.1877889165972842e-07 0 -0.0093101850576068762 -0.00023764252053971725 0 -0.0087792499872194965 -1.0245523673976093e-06 0 -0.010817424160354751 -9.1877889165972842e-07 0 -0.010525876821950008 -0.00031009236233814987 0 -0.0093101850576068762 -0.00023764252053971725 0 -0.0093101850576068762 -0.00023764252053971725 0 -0.0087792499872194965 -1.0245523673976093e-06 0 -0.0082403308808398652 -0.00039524057522855933 0 -0.0093101850576068762 -0.00023764252053971725 0 -0.0082403308808398652 -0.00039524057522855933 0 -0.0082671423606373706 -0.00040934704515757056 0 -0.0082403308808398652 -0.00039524057522855933 0 -0.0075597620022034287 -0.0007773740552684818 0 -0.0072232686646898862 -0.00067880479511656783 0 -0.0075597620022034287 -0.0007773740552684818 0 -0.0081633316729000961 -0.00039537101453683652 0 -0.0065806190371828742 -0.0016761424286316029 0 -0.0082403308808398652 -0.00039524057522855933 0 -0.0082671423606373706 -0.00040934704515757056 0 -0.0075597620022034287 -0.0007773740552684818 0 -0.0079998493651236274 -0.00037894489074927977 0 -0.0082671423606373706 -0.00040934704515757056 0 -0.0075597620022034287 -0.0007773740552684818 0 -0.0079998493651236274 -0.00037894489074927977 0 -0.0075597620022034287 -0.0007773740552684818 0 -0.0081633316729000961 -0.00039537101453683652 0 -0.0050045193348722461 -0.0032413355132295228 0 -0.0062967075189844434 -0.0061346392738590456 0 -0.0065806190371828742 -0.0016761424286316029 0 -0.012265447451192126 -0.0037607446153831076 0 -0.012066570044069904 -0.0035296331788320814 0 -0.0050045193348722461 -0.0032413355132295228 0 -0.0049662341047297179 -0.0052484810012768668 0 -0.0040607228214801878 -0.0050614879493483533 0 -0.0049662341047297179 -0.0052484810012768668 0 -0.0040607228214801878 -0.0050614879493483533 0 -0.0045727255507094812 -0.0064725589783585233 0 -0.0049662341047297179 -0.0052484810012768668 0 -0.0062967075189844434 -0.0061346392738590456 0 -0.0045727255507094812 -0.0064725589783585233 0 -0.0050045193348722461 -0.0032413355132295228 0 -0.0049662341047297179 -0.0052484810012768668 0 -0.0062967075189844434 -0.0061346392738590456 0 -0.0050045193348722461 -0.0032413355132295228 0 -0.0040607228214801878 -0.0050614879493483533 0 -0.00268830146929027 -0.0037585827499659963 0 -0.0040607228214801878 -0.0050614879493483533 0 -0.0024998672662528572 -0.006097638685936305 0 -0.0036201358186726653 -0.0062634242891739349 0 -0.0040607228214801878 -0.0050614879493483533 0 -0.0036201358186726653 -0.0062634242891739349 0 -0.0045727255507094812 -0.0064725589783585233 0 -0.0024998672662528572 -0.006097638685936305 0 -0.0011005427675173233 -0.0055998520979078873 0 -0.00268830146929027 -0.0037585827499659963 0 -0.0040607228214801878 -0.0050614879493483533 0 -0.0024998672662528572 -0.006097638685936305 0 -0.00268830146929027 -0.0037585827499659963 0 -0.0024998672662528572 -0.006097638685936305 0 -0.0034012920884891884 -0.0073909816580526137 0 -0.0021872859276453774 -0.0076207049410676273 0 -0.0034012920884891884 -0.0073909816580526137 0 -0.0045727255507094812 -0.0064725589783585233 0 -0.0045812662446473454 -0.0079561538942435825 0 -0.0024998672662528572 -0.006097638685936305 0 -0.0036201358186726653 -0.0062634242891739349 0 -0.0034012920884891884 -0.0073909816580526137 0 -0.0036201358186726653 -0.0062634242891739349 0 -0.0034012920884891884 -0.0073909816580526137 0 -0.0045727255507094812 -0.0064725589783585233 0 -0.0034012920884891884 -0.0073909816580526137 0 -0.0045812662446473454 -0.0079561538942435825 0 -0.0032656254347478392 -0.008791061245119719 0 -0.0021872859276453774 -0.0076207049410676273 0 -0.0032656254347478392 -0.008791061245119719 0 -0.0015491702213690569 -0.0090384579344098461 0 -0.0034012920884891884 -0.0073909816580526137 0 -0.0021872859276453774 -0.0076207049410676273 0 -0.0032656254347478392 -0.008791061245119719 0 -0.0081633316729000961 -0.00039537101453683652 0 -0.0082290646704073715 3.5347165228724263e-05 0 -0.0080728127934816818 -3.044494710773455e-05 0 -0.0079998493651236274 -0.00037894489074927977 0 -0.0081633316729000961 -0.00039537101453683652 0 -0.0080728127934816818 -3.044494710773455e-05 0 -0.012265447451192126 -0.0037607446153831076 0 -0.012900303318988709 -0.0040937152541445192 0 -0.0062967075189844434 -0.0061346392738590456 0 -0.0045812662446473454 -0.0079561538942435825 0 -0.0056224522297986367 -0.0093065423835436735 0 -0.0062967075189844434 -0.0061346392738590456 0 -0.0045727255507094812 -0.0064725589783585233 0 -0.0045812662446473454 -0.0079561538942435825 0 -0.0056224522297986367 -0.0093065423835436735 0 -0.0035132459738042732 -0.010491527484330875 0 -0.0051056178468406477 -0.012245176937262707 0 -0.012900303318988709 -0.0040937152541445192 0 -0.014099354124060971 -0.0040279955971329892 0 -0.0082290646704073715 3.5347165228724263e-05 0 -0.0081200235501487431 0.00028992054216607109 0 -0.0080728127934816818 -3.044494710773455e-05 0 -0.0045812662446473454 -0.0079561538942435825 0 -0.0056224522297986367 -0.0093065423835436735 0 -0.0042426685613446606 -0.0091440264821613763 0 -0.0056224522297986367 -0.0093065423835436735 0 -0.0042426685613446606 -0.0091440264821613763 0 -0.0035132459738042732 -0.010491527484330875 0 -0.0032656254347478392 -0.008791061245119719 0 -0.0035132459738042732 -0.010491527484330875 0 -0.0015491702213690569 -0.0090384579344098461 0 -0.0045812662446473454 -0.0079561538942435825 0 -0.0042426685613446606 -0.0091440264821613763 0 -0.0032656254347478392 -0.008791061245119719 0 -0.0042426685613446606 -0.0091440264821613763 0 -0.0032656254347478392 -0.008791061245119719 0 -0.0035132459738042732 -0.010491527484330875 0 -0.014234410452182501 -0.0040562059841112085 0 -0.013551542690153162 -0.0052137213043093496 0 -0.023151241095480064 -0.0083559985297216102 0 -0.024385196261502734 -0.0074237919652588354 0 -0.025033761742142419 -0.0083765575709541847 0 -0.0035132459738042732 -0.010491527484330875 0 -0.0048141308445876756 -0.012463315561439363 0 -0.0011078644961797154 -0.012314356916642975 0 -0.0082290646704073715 3.5347165228724263e-05 0 -0.0081200235501487431 0.00028992054216607109 0 -0.008294119970288635 0.00041875426628711434 0 -0.014306775795957457 -0.0033336336151401978 0 -0.014099354124060971 -0.0040279955971329892 0 -0.014306775795957457 -0.0033336336151401978 0 -0.014712185697232483 -0.0032605110966615995 0 -0.0035132459738042732 -0.010491527484330875 0 -0.0051056178468406477 -0.012245176937262707 0 -0.0048141308445876756 -0.012463315561439363 0 -0.014099354124060971 -0.0040279955971329892 0 -0.014234410452182501 -0.0040562059841112085 0 -0.014745996415840169 -0.0031835869177715449 0 -0.014602475773920646 -0.0041242222574723406 0 -0.013542658057878739 -0.004107402328408007 0 -0.014099354124060971 -0.0040279955971329892 0 -0.014222002675757597 -0.0039751349270098057 0 -0.014222002675757597 -0.0039751349270098057 0 -0.014234410452182501 -0.0040562059841112085 0 -0.014473132684476314 -0.0040360413398335925 0 -0.015229059580242035 -0.0034551641206036002 0 -0.014542303030290313 -0.0033139743436636491 0 -0.014222002675757597 -0.0039751349270098057 0 -0.014712185697232483 -0.0032605110966615995 0 -0.015229059580242035 -0.0034551641206036002 0 -0.015248811668202099 -0.0033253028116627817 0 -0.014542303030290313 -0.0033139743436636491 0 -0.015607237636748443 -0.00067777582526356303 0 -0.014729986857970299 -0.00067442301139774663 0 -0.01524786844395354 -0.00016908468693093491 0 -0.014712185697232483 -0.0032605110966615995 0 -0.013738781351290684 -0.0016008592492191983 0 -0.011434547808500719 -0.00018381971602362033 0 -0.011624589685777655 -0.00020261244244755672 0 -0.011544493344422214 -9.0807252660490687e-05 0 -0.011453074944000167 -9.1889799988593708e-05 0 -0.011434547808500719 -0.00018381971602362033 0 -0.011544493344422214 -9.0807252660490687e-05 0 -0.014306775795957457 -0.0033336336151401978 0 -0.013846845584561252 -0.0027561670564939136 0 -0.014306775795957457 -0.0033336336151401978 0 -0.013835296211517262 -0.0033053647483462993 0 -0.0077087320729500499 -0.0026562361470233694 0 -0.0087811572673007453 -0.0018514341701417743 0 -0.0078924698397004681 -0.0010890152185857815 0 -0.011453074944000167 -9.1889799988593708e-05 0 -0.011544493344422214 -9.0807252660490687e-05 0 -0.011554138221523444 -3.5598513996577329e-05 0 -0.011544493344422214 -9.0807252660490687e-05 0 -0.011554138221523444 -3.5598513996577329e-05 0 -0.011610915280358606 3.4440891910750736e-05 0 -0.0091044199543024659 -0.00078063505664496824 0 -0.0087811572673007453 -0.0018514341701417743 0 -0.0085146615639822218 -0.0010082315545190126 0 -0.0087811572673007453 -0.0018514341701417743 0 -0.0085146615639822218 -0.0010082315545190126 0 -0.0078924698397004681 -0.0010890152185857815 0 -0.010817424160354751 -9.1877889165972842e-07 0 -0.011610915280358606 3.4440891910750736e-05 0 -0.012852293451739058 -3.4540342802335588e-07 0 -0.010817424160354751 -9.1877889165972842e-07 0 -0.010525876821950008 -0.00031009236233814987 0 -0.011610915280358606 3.4440891910750736e-05 0 -0.010525876821950008 -0.00031009236233814987 0 -0.011554138221523444 -3.5598513996577329e-05 0 -0.011610915280358606 3.4440891910750736e-05 0 -0.013711718713699 -0.0032694151303175652 0 -0.013835296211517262 -0.0033053647483462993 0 -0.0091044199543024659 -0.00078063505664496824 0 -0.010525876821950008 -0.00031009236233814987 0 -0.0087811572673007453 -0.0018514341701417743 0 -0.013738781351290684 -0.0016008592492191983 0 -0.012857397184689938 -9.5760458402847959e-06 0 -0.011624589685777655 -0.00020261244244755672 0 -0.011610915280358606 3.4440891910750736e-05 0 -0.012852293451739058 -3.4540342802335588e-07 0 -0.011624589685777655 -0.00020261244244755672 0 -0.011544493344422214 -9.0807252660490687e-05 0 -0.011610915280358606 3.4440891910750736e-05 0 -0.014729986857970299 -0.00067442301139774663 0 -0.012857493027972278 -2.1360187083386938e-06 0 -0.014692771729940025 4.3914134254865695e-05 0 -0.012857493027972278 -2.1360187083386938e-06 0 -0.014692771729940025 4.3914134254865695e-05 0 -0.014495968894484106 9.6837898781102984e-07 0 -0.015607237636748443 -0.00067777582526356303 0 -0.01524786844395354 -0.00016908468693093491 0 -0.015726610455891066 0.00019764915904872037 0 -0.014729986857970299 -0.00067442301139774663 0 -0.014692771729940025 4.3914134254865695e-05 0 -0.01524786844395354 -0.00016908468693093491 0 -0.014692771729940025 4.3914134254865695e-05 0 -0.01524786844395354 -0.00016908468693093491 0 -0.015384338305327035 0.00017035735352185171 0 -0.01524786844395354 -0.00016908468693093491 0 -0.015384338305327035 0.00017035735352185171 0 -0.015726610455891066 0.00019764915904872037 0 -0.014692771729940025 4.3914134254865695e-05 0 -0.015384338305327035 0.00017035735352185171 0 -0.015430027892739746 0.00020762057345338923 0 -0.015384338305327035 0.00017035735352185171 0 -0.015747420514469184 0.00029712537189500695 0 -0.015726610455891066 0.00019764915904872037 0 -0.015384338305327035 0.00017035735352185171 0 -0.015747420514469184 0.00029712537189500695 0 -0.015430027892739746 0.00020762057345338923 0 -0.014495968894484106 9.6837898781102984e-07 0 -0.015430027892739746 0.00020762057345338923 0 -0.01613733216860784 3.0181278711739715e-07 0 -0.014692771729940025 4.3914134254865695e-05 0 -0.014495968894484106 9.6837898781102984e-07 0 -0.015430027892739746 0.00020762057345338923 0 -0.015430027892739746 0.00020762057345338923 0 -0.01613733216860784 3.0181278711739715e-07 0 -0.016355606072863557 0.00022960739280046154 0 -0.015747420514469184 0.00029712537189500695 0 -0.016355606072863557 0.00022960739280046154 0 -0.015959783574888274 0.00033318416260531987 0 -0.015747420514469184 0.00029712537189500695 0 -0.015430027892739746 0.00020762057345338923 0 -0.016355606072863557 0.00022960739280046154 0 -0.017231808707247599 1.6038688341183201e-05 0 -0.01654569149166385 2.5375369938929117e-06 0 -0.016355606072863557 0.00022960739280046154 0 -0.01654569149166385 2.5375369938929117e-06 0 -0.016355606072863557 0.00022960739280046154 0 -0.015959783574888274 0.00033318416260531987 0 -0.01777812912782897 6.8410523499929101e-07 0 -0.01613733216860784 3.0181278711739715e-07 0 -0.016355606072863557 0.00022960739280046154 0 -0.01777812912782897 6.8410523499929101e-07 0 -0.017231808707247599 1.6038688341183201e-05 0 -0.016355606072863557 0.00022960739280046154 0 -0.024532085778901216 -0.0027128492726049168 0 -0.023850609899936363 -0.0042476468075966041 0 -0.025012730032399136 -0.0042771636371240988 0 -0.023850609899936363 -0.0042476468075966041 0 -0.024339778211373599 -0.0054315711328717774 0 -0.025012730032399136 -0.0042771636371240988 0 -0.019253969543930015 -0.0012481417473420746 0 -0.017952333871567167 -0.002014175632745435 0 -0.02308716278125441 -0.0033991356039242988 0 -0.023850609899936363 -0.0042476468075966041 0 -0.022928376284889473 -0.0050304991325996673 0 -0.016155749599558261 -3.0434517867049733e-05 0 -0.01654569149166385 2.5375369938929117e-06 0 -0.015959783574888274 0.00033318416260531987 0 -0.023850609899936363 -0.0042476468075966041 0 -0.022928376284889473 -0.0050304991325996673 0 -0.024339778211373599 -0.0054315711328717774 0 -0.022928376284889473 -0.0050304991325996673 0 -0.024339778211373599 -0.0054315711328717774 0 -0.023535378916411383 -0.006103289423492227 0 -0.024339778211373599 -0.0054315711328717774 0 -0.024259274201564235 -0.0064971026344548544 0 -0.023535378916411383 -0.006103289423492227 0 -0.024259274201564235 -0.0064971026344548544 0 -0.023535378916411383 -0.006103289423492227 0 -0.023407519487417185 -0.0068125273983102343 0 -0.022928376284889473 -0.0050304991325996673 0 -0.023535378916411383 -0.006103289423492227 0 -0.022769645877634397 -0.0066474417835325943 0 -0.015747420514469184 0.00029712537189500695 0 -0.015959783574888274 0.00033318416260531987 0 -0.015726610455891066 0.00019764915904872037 0 -0.017952333871567167 -0.002014175632745435 0 -0.016485083398867933 -0.0027100171697542249 0 -0.023535378916411383 -0.006103289423492227 0 -0.023407519487417185 -0.0068125273983102343 0 -0.022769645877634397 -0.0066474417835325943 0 -0.023168011083651158 -0.0082888130911729033 0 -0.02329017386943906 -0.0082909907778710972 0 -0.023407519487417185 -0.0068125273983102343 0 -0.014222002675757597 -0.0039751349270098057 0 -0.014593184358545527 -0.0043468180974622194 0 -0.022607749545133265 -0.0082195493728109293 0 -0.023407519487417185 -0.0068125273983102343 0 -0.022769645877634397 -0.0066474417835325943 0 -0.023172479944007465 -0.0082281188982666811 0 -0.022607749545133265 -0.0082195493728109293 0 -0.023407519487417185 -0.0068125273983102343 0 -0.014712185697232483 -0.0032605110966615995 0 -0.016485083398867933 -0.0027100171697542249 0 -0.014234410452182501 -0.0040562059841112085 0 -0.016558614424851514 -0.0035488331930292622 0 -0.02329017386943906 -0.0082909907778710972 0 -0.023407519487417185 -0.0068125273983102343 0 -0.024450014935002522 -0.0074148734341038447 0 -0.024259274201564235 -0.0064971026344548544 0 -0.023407519487417185 -0.0068125273983102343 0 -0.024450014935002522 -0.0074148734341038447 0 -0.016558614424851514 -0.0035488331930292622 0 -0.017350226182173113 -0.0033553104372188816 0 -0.024385196261502734 -0.0074237919652588354 0 -0.025765367548977958 -0.0075350835006401011 0 -0.025033761742142419 -0.0083765575709541847 0 -0.024385196261502734 -0.0074237919652588354 0 -0.025765367548977958 -0.0075350835006401011 0 -0.025605393609698497 -0.0065427157192879427 0 -0.025765367548977958 -0.0075350835006401011 0 -0.025605393609698497 -0.0065427157192879427 0 -0.026905035982858466 -0.0069663330582616072 0 -0.025765367548977958 -0.0075350835006401011 0 -0.026905035982858466 -0.0069663330582616072 0 -0.026850209083717238 -0.0083647418915997716 0 -0.025605393609698497 -0.0065427157192879427 0 -0.026870846415105908 -0.005457072222201249 0 -0.026905035982858466 -0.0069663330582616072 0 -0.024259274201564235 -0.0064971026344548544 0 -0.024450014935002522 -0.0074148734341038447 0 -0.025605393609698497 -0.0065427157192879427 0 -0.024339778211373599 -0.0054315711328717774 0 -0.024259274201564235 -0.0064971026344548544 0 -0.025605393609698497 -0.0065427157192879427 0 -0.024339778211373599 -0.0054315711328717774 0 -0.025605393609698497 -0.0065427157192879427 0 -0.025545740329228531 -0.0053140754511279932 0 -0.024339778211373599 -0.0054315711328717774 0 -0.025545740329228531 -0.0053140754511279932 0 -0.025012730032399136 -0.0042771636371240988 0 -0.025605393609698497 -0.0065427157192879427 0 -0.025545740329228531 -0.0053140754511279932 0 -0.026870846415105908 -0.005457072222201249 0 -0.025545740329228531 -0.0053140754511279932 0 -0.026870846415105908 -0.005457072222201249 0 -0.026076079657647935 -0.0044650445619064108 0 -0.025817985334246923 -0.0031417368259964839 0 -0.026076079657647935 -0.0044650445619064108 0 -0.026883207008660173 -0.0037229756500010329 0 -0.026870846415105908 -0.005457072222201249 0 -0.026076079657647935 -0.0044650445619064108 0 -0.026883207008660173 -0.0037229756500010329 0 -0.025817985334246923 -0.0031417368259964839 0 -0.026076079657647935 -0.0044650445619064108 0 -0.025012730032399136 -0.0042771636371240988 0 -0.025545740329228531 -0.0053140754511279932 0 -0.026076079657647935 -0.0044650445619064108 0 -0.025012730032399136 -0.0042771636371240988 0 -0.028898115890318009 -0.0043664661392857707 0 -0.027767133532704446 -0.0044976970008413887 0 -0.028322371093505896 -0.005355513201453159 0 -0.02814554182614833 -0.0035633407378819612 0 -0.028898115890318009 -0.0043664661392857707 0 -0.027767133532704446 -0.0044976970008413887 0 -0.029262132663323601 -0.0035359179419943219 0 -0.02814554182614833 -0.0035633407378819612 0 -0.028898115890318009 -0.0043664661392857707 0 -0.02814554182614833 -0.0035633407378819612 0 -0.026883207008660173 -0.0037229756500010329 0 -0.027767133532704446 -0.0044976970008413887 0 -0.026870846415105908 -0.005457072222201249 0 -0.026883207008660173 -0.0037229756500010329 0 -0.027767133532704446 -0.0044976970008413887 0 -0.026870846415105908 -0.005457072222201249 0 -0.028322371093505896 -0.005355513201453159 0 -0.028111904264750468 -0.0064313276527968501 0 -0.026870846415105908 -0.005457072222201249 0 -0.027767133532704446 -0.0044976970008413887 0 -0.028322371093505896 -0.005355513201453159 0 -0.028322371093505896 -0.005355513201453159 0 -0.028961162181456217 -0.0059199929976611722 0 -0.029568702304750262 -0.0050188257773774491 0 -0.028898115890318009 -0.0043664661392857707 0 -0.028322371093505896 -0.005355513201453159 0 -0.029568702304750262 -0.0050188257773774491 0 -0.028322371093505896 -0.005355513201453159 0 -0.028961162181456217 -0.0059199929976611722 0 -0.028111904264750468 -0.0064313276527968501 0 -0.028961162181456217 -0.0059199929976611722 0 -0.028111904264750468 -0.0064313276527968501 0 -0.029350220764758669 -0.0065500220368073054 0 -0.028111904264750468 -0.0064313276527968501 0 -0.029122773316441551 -0.0073932298810062734 0 -0.029350220764758669 -0.0065500220368073054 0 -0.026870846415105908 -0.005457072222201249 0 -0.028111904264750468 -0.0064313276527968501 0 -0.026905035982858466 -0.0069663330582616072 0 -0.026905035982858466 -0.0069663330582616072 0 -0.027925795525623732 -0.0074963586522829636 0 -0.026850209083717238 -0.0083647418915997716 0 -0.028111904264750468 -0.0064313276527968501 0 -0.026905035982858466 -0.0069663330582616072 0 -0.027925795525623732 -0.0074963586522829636 0 -0.028111904264750468 -0.0064313276527968501 0 -0.027925795525623732 -0.0074963586522829636 0 -0.029122773316441551 -0.0073932298810062734 0 -0.027925795525623732 -0.0074963586522829636 0 -0.028600346474212685 -0.008331435415010113 0 -0.029122773316441551 -0.0073932298810062734 0 0.0051398191439422369 -0.011559099322387004 0 0.0041377553866555564 -0.0099260942815676597 0 0.0061740044906263896 -0.0099797690484763266 0 0.0041377553866555564 -0.0099260942815676597 0 0.0057225557750688041 -0.0085874200315916235 0 0.0043280316192596318 -0.0083898422139574505 0 0.0041377553866555564 -0.0099260942815676597 0 0.0057225557750688041 -0.0085874200315916235 0 0.0061740044906263896 -0.0099797690484763266 0 0.0041377553866555564 -0.0099260942815676597 0 0.0019930505819349478 -0.010072460462879981 0 0.002842453196982246 -0.0087932437170503454 0 0.0041377553866555564 -0.0099260942815676597 0 0.0023353095160210629 -0.011969425359359189 0 0.0019930505819349478 -0.010072460462879981 0 0.0041377553866555564 -0.0099260942815676597 0 0.0043280316192596318 -0.0083898422139574505 0 0.002842453196982246 -0.0087932437170503454 0 0.0051398191439422369 -0.011559099322387004 0 0.0041377553866555564 -0.0099260942815676597 0 0.0023353095160210629 -0.011969425359359189 0 -0.012850877015288234 -0.0056214326653275032 0 -0.013047472185345608 -0.0057063198997834505 0 -0.027925795525623732 -0.0074963586522829636 0 -0.028600346474212685 -0.008331435415010113 0 -0.026850209083717238 -0.0083647418915997716 0 -0.013047472185345608 -0.0057063198997834505 0 -0.013551542690153162 -0.0052137213043093496 0 0.0023353095160210629 -0.011969425359359189 0 -0.00013720344320403762 -0.010497271907569713 0 0.0019930505819349478 -0.010072460462879981 0 -0.025765367548977958 -0.0075350835006401011 0 -0.026850209083717238 -0.0083647418915997716 0 -0.025033761742142419 -0.0083765575709541847 0 0.0023353095160210629 -0.011969425359359189 0 -0.0011078644961797154 -0.012314356916642975 0 -0.00013720344320403762 -0.010497271907569713 0 -0.0035132459738042732 -0.010491527484330875 0 -0.0011078644961797154 -0.012314356916642975 0 -0.00013720344320403762 -0.010497271907569713 0 -0.0035132459738042732 -0.010491527484330875 0 -0.00013720344320403762 -0.010497271907569713 0 -0.0015491702213690569 -0.0090384579344098461 0 -0.00013720344320403762 -0.010497271907569713 0 -0.0015491702213690569 -0.0090384579344098461 0 0.00078537797949253284 -0.008741923309605824 0 -0.00013720344320403762 -0.010497271907569713 0 0.0019930505819349478 -0.010072460462879981 0 0.00078537797949253284 -0.008741923309605824 0 0.0019930505819349478 -0.010072460462879981 0 0.00078537797949253284 -0.008741923309605824 0 0.002842453196982246 -0.0087932437170503454 0 0.00078537797949253284 -0.008741923309605824 0 0.0019811387924853529 -0.0078005582517674697 0 0.002842453196982246 -0.0087932437170503454 0 0.00078537797949253284 -0.008741923309605824 0 0.00084050328156498198 -0.0073972034335398271 0 -0.00072749291793699122 -0.0072184521596358403 0 0.00078537797949253284 -0.008741923309605824 0 0.00084050328156498198 -0.0073972034335398271 0 0.0019811387924853529 -0.0078005582517674697 0 0.00084050328156498198 -0.0073972034335398271 0 0.0019811387924853529 -0.0078005582517674697 0 0.0018168833931103772 -0.0066334560784164619 0 -0.0015491702213690569 -0.0090384579344098461 0 0.00078537797949253284 -0.008741923309605824 0 -0.00072749291793699122 -0.0072184521596358403 0 -0.0021872859276453774 -0.0076207049410676273 0 -0.0015491702213690569 -0.0090384579344098461 0 -0.00072749291793699122 -0.0072184521596358403 0 0.00084050328156498198 -0.0073972034335398271 0 -0.00072749291793699122 -0.0072184521596358403 0 0.00032356038984875519 -0.0059739710681845169 0 -0.0024998672662528572 -0.006097638685936305 0 -0.0021872859276453774 -0.0076207049410676273 0 -0.00072749291793699122 -0.0072184521596358403 0 -0.0011005427675173233 -0.0055998520979078873 0 -0.00047780474363184021 -0.0041964019195450059 0 -0.00268830146929027 -0.0037585827499659963 0 -0.0024998672662528572 -0.006097638685936305 0 -0.00072749291793699122 -0.0072184521596358403 0 -0.0011005427675173233 -0.0055998520979078873 0 -0.00072749291793699122 -0.0072184521596358403 0 -0.0011005427675173233 -0.0055998520979078873 0 0.00032356038984875519 -0.0059739710681845169 0 -0.0011005427675173233 -0.0055998520979078873 0 0.00032356038984875519 -0.0059739710681845169 0 -0.00047780474363184021 -0.0041964019195450059 0 0.0018168833931103772 -0.0066334560784164619 0 0.00032356038984875519 -0.0059739710681845169 0 0.0015971971034991414 -0.0049304041778259868 0 0.00084050328156498198 -0.0073972034335398271 0 0.0018168833931103772 -0.0066334560784164619 0 0.00032356038984875519 -0.0059739710681845169 0 0.00032356038984875519 -0.0059739710681845169 0 0.0015971971034991414 -0.0049304041778259868 0 -0.00047780474363184021 -0.0041964019195450059 0 0.0018168833931103772 -0.0066334560784164619 0 0.0015971971034991414 -0.0049304041778259868 0 0.0028980534241014664 -0.0063569814803186211 0 0.0044460573916482787 -0.006338610272032673 0 0.0051759807093360683 -0.0073177574503060653 0 0.0035834093857561068 -0.0074261028087146252 0 0.0015971971034991414 -0.0049304041778259868 0 0.0028980534241014664 -0.0063569814803186211 0 0.0044460573916482787 -0.006338610272032673 0 0.0028980534241014664 -0.0063569814803186211 0 0.0044460573916482787 -0.006338610272032673 0 0.0035834093857561068 -0.0074261028087146252 0 0.0018168833931103772 -0.0066334560784164619 0 0.0028980534241014664 -0.0063569814803186211 0 0.0035834093857561068 -0.0074261028087146252 0 0.0044460573916482787 -0.006338610272032673 0 0.0051759807093360683 -0.0073177574503060653 0 0.0059891692668818663 -0.0061533131780704712 0 0.0044460573916482787 -0.006338610272032673 0 0.0059891692668818663 -0.0061533131780704712 0 0.0046670101656192562 -0.0064100520210234411 0 0.0051759807093360683 -0.0073177574503060653 0 0.0043280316192596318 -0.0083898422139574505 0 0.0035834093857561068 -0.0074261028087146252 0 0.0051759807093360683 -0.0073177574503060653 0 0.0057225557750688041 -0.0085874200315916235 0 0.0043280316192596318 -0.0083898422139574505 0 0.0043280316192596318 -0.0083898422139574505 0 0.002842453196982246 -0.0087932437170503454 0 0.0035834093857561068 -0.0074261028087146252 0 0.0019811387924853529 -0.0078005582517674697 0 0.002842453196982246 -0.0087932437170503454 0 0.0035834093857561068 -0.0074261028087146252 0 0.0019811387924853529 -0.0078005582517674697 0 0.0018168833931103772 -0.0066334560784164619 0 0.0035834093857561068 -0.0074261028087146252 0 0.0085578256606484993 -0.0078032156711521378 0 0.007605884149054643 -0.0088264709533740354 0 0.0068284314702803453 -0.0075178770894958344 0 0.0085578256606484993 -0.0078032156711521378 0 0.007605884149054643 -0.0088264709533740354 0 0.0088909319079098492 -0.0088237381337544496 0 0.0051759807093360683 -0.0073177574503060653 0 0.0057225557750688041 -0.0085874200315916235 0 0.0068284314702803453 -0.0075178770894958344 0 0.0057225557750688041 -0.0085874200315916235 0 0.007605884149054643 -0.0088264709533740354 0 0.0068284314702803453 -0.0075178770894958344 0 0.0068284314702803453 -0.0075178770894958344 0 0.0059891692668818663 -0.0061533131780704712 0 0.0081418953657397507 -0.0064384993709261347 0 0.0046130224800115917 -0.00684477653735665 0 0.0032375489027436531 -0.0066376743555339552 0 0.0051759807093360683 -0.0073177574503060653 0 0.0068284314702803453 -0.0075178770894958344 0 0.0059891692668818663 -0.0061533131780704712 0 0.0085578256606484993 -0.0078032156711521378 0 0.0068284314702803453 -0.0075178770894958344 0 0.0081418953657397507 -0.0064384993709261347 0 0.0032375489027436531 -0.0066376743555339552 0 -0.00065580600726253551 -0.0060013657236790054 0 0.0085578256606484993 -0.0078032156711521378 0 0.0081418953657397507 -0.0064384993709261347 0 0.010248066817086798 -0.0068271775398108109 0 0.0099411843226078576 -0.0082087900597266894 0 0.011612265369552807 -0.008307465463429739 0 0.010644936816181038 -0.007009840790011517 0 0.011791689717188822 -0.0074295661665610187 0 0.011666866376383705 -0.0075285023771296811 0 0.011870068504619189 -0.0075592784348198477 0 0.011791689717188822 -0.0074295661665610187 0 0.011870068504619189 -0.0075592784348198477 0 0.012017209295649579 -0.0072554400803458569 0 0.011791689717188822 -0.0074295661665610187 0 0.011666866376383705 -0.0075285023771296811 0 0.011654744678820274 -0.0073894474814701705 0 -0.00065580600726253551 -0.0060013657236790054 0 -0.00047382036683790843 -0.0060392093110615448 0 0.011741698768648655 -0.007681090972343381 0 0.011870068504619189 -0.0075592784348198477 0 0.011721297990756668 -0.0076031085206177025 0 -0.00065580600726253551 -0.0060013657236790054 0 0.0001578651895552654 -0.0061410042691836218 0 0.011721297990756668 -0.0076031085206177025 0 0.011664064012661688 -0.0075322582995631712 0 0.012181589218396936 -0.007775810739944199 0 0.011741698768648655 -0.007681090972343381 0 0.011721297990756668 -0.0076031085206177025 0 0.011905977405557131 -0.0073619939767862992 0 -0.00065580600726253551 -0.0060013657236790054 0 -0.0065571681837520868 -0.0051904437542528393 0 0.011721297990756668 -0.0076031085206177025 0 0.011664064012661688 -0.0075322582995631712 0 0.011905977405557131 -0.0073619939767862992 0 0.011664064012661688 -0.0075322582995631712 0 0.010807120639834139 -0.0069614011432858509 0 0.010044998132421079 -0.0074362964360463355 0 0.0085578256606484993 -0.0078032156711521378 0 0.010248066817086798 -0.0068271775398108109 0 0.0094312423149930224 -0.0081258594410019303 0 0.010248066817086798 -0.0068271775398108109 0 0.0094312423149930224 -0.0081258594410019303 0 0.010028681417710756 -0.0090461182068391922 0 0.0094312423149930224 -0.0081258594410019303 0 0.0088909319079098492 -0.0088237381337544496 0 0.010028681417710756 -0.0090461182068391922 0 0.0085578256606484993 -0.0078032156711521378 0 0.0094312423149930224 -0.0081258594410019303 0 0.0088909319079098492 -0.0088237381337544496 0 -0.0065571681837520868 -0.0051904437542528393 0 -0.014446704374015202 -0.0037118878695447635 0 0.0088909319079098492 -0.0088237381337544496 0 0.010028681417710756 -0.0090461182068391922 0 0.0087307352030628702 -0.010031352468674209 0 0.010028681417710756 -0.0090461182068391922 0 0.0087307352030628702 -0.010031352468674209 0 0.0097939516840650637 -0.011239113362885465 0 0.011905977405557131 -0.0073619939767862992 0 0.011392884426545865 -0.0058754370361301525 0 0.012324997854730084 -0.0046898403537967686 0 0.010807120639834139 -0.0069614011432858509 0 0.010850747837131034 -0.0064068184050015764 0 0.01009077749375382 -0.0064871724176028423 0 0.011664064012661688 -0.0075322582995631712 0 0.010807120639834139 -0.0069614011432858509 0 0.011342126681781594 -0.006930066625883689 0 0.010807120639834139 -0.0069614011432858509 0 0.011342126681781594 -0.006930066625883689 0 0.010850747837131034 -0.0064068184050015764 0 0.011905977405557131 -0.0073619939767862992 0 0.011342126681781594 -0.006930066625883689 0 0.011392884426545865 -0.0058754370361301525 0 0.011664064012661688 -0.0075322582995631712 0 0.011905977405557131 -0.0073619939767862992 0 0.011342126681781594 -0.006930066625883689 0 0.010850747837131034 -0.0064068184050015764 0 0.010178433761929622 -0.0055260317933892664 0 0.01009077749375382 -0.0064871724176028423 0 0.011392884426545865 -0.0058754370361301525 0 0.010850747837131034 -0.0064068184050015764 0 0.010178433761929622 -0.0055260317933892664 0 0.011342126681781594 -0.006930066625883689 0 0.011392884426545865 -0.0058754370361301525 0 0.010850747837131034 -0.0064068184050015764 0 -0.01588103640448282 -0.0030806581104446955 0 -0.01512751046900109 -0.0026754329940082973 0 0.011392884426545865 -0.0058754370361301525 0 0.010997240181068972 -0.0047133835108548062 0 0.010178433761929622 -0.0055260317933892664 0 0.011392884426545865 -0.0058754370361301525 0 0.010997240181068972 -0.0047133835108548062 0 0.012324997854730084 -0.0046898403537967686 0 -0.01588103640448282 -0.0030806581104446955 0 -0.019553678882321381 -0.0035987201455677949 0 -0.01588103640448282 -0.0030806581104446955 0 -0.014446704374015202 -0.0037118878695447635 0 -0.017677863741170592 -0.0001292252491085807 0 -0.018906249657256492 -0.00015007486420493739 0 -0.019018212926150132 -0.0014801729785774034 0 -0.014446704374015202 -0.0037118878695447635 0 -0.013173691243783018 -0.0049768412582521689 0 -0.03182347286867402 -0.0082781347668236614 0 -0.030257982543957611 -0.0082879667262216374 0 -0.03148293129301543 -0.0075572309713421819 0 0.0087307352030628702 -0.010031352468674209 0 0.0097939516840650637 -0.011239113362885465 0 0.0074999990299080043 -0.011321264692579691 0 -0.014446704374015202 -0.0037118878695447635 0 -0.019553678882321381 -0.0035987201455677949 0 0.007605884149054643 -0.0088264709533740354 0 0.0087307352030628702 -0.010031352468674209 0 0.0074999990299080043 -0.011321264692579691 0 0.007605884149054643 -0.0088264709533740354 0 0.0088909319079098492 -0.0088237381337544496 0 0.0087307352030628702 -0.010031352468674209 0 0.0057225557750688041 -0.0085874200315916235 0 0.007605884149054643 -0.0088264709533740354 0 0.0061740044906263896 -0.0099797690484763266 0 0.007605884149054643 -0.0088264709533740354 0 0.0074999990299080043 -0.011321264692579691 0 0.0061740044906263896 -0.0099797690484763266 0 -0.012850877015288234 -0.0056214326653275032 0 -0.013173691243783018 -0.0049768412582521689 0 -0.028600346474212685 -0.008331435415010113 0 -0.030257982543957611 -0.0082879667262216374 0 -0.029122773316441551 -0.0073932298810062734 0 0.0051398191439422369 -0.011559099322387004 0 0.0074999990299080043 -0.011321264692579691 0 0.0061740044906263896 -0.0099797690484763266 0 -0.030257982543957611 -0.0082879667262216374 0 -0.029122773316441551 -0.0073932298810062734 0 -0.030104959932643855 -0.0070881249315866476 0 -0.029122773316441551 -0.0073932298810062734 0 -0.030104959932643855 -0.0070881249315866476 0 -0.029350220764758669 -0.0065500220368073054 0 -0.030257982543957611 -0.0082879667262216374 0 -0.03070933695148359 -0.0073983026173680801 0 -0.03148293129301543 -0.0075572309713421819 0 -0.030257982543957611 -0.0082879667262216374 0 -0.03070933695148359 -0.0073983026173680801 0 -0.030104959932643855 -0.0070881249315866476 0 -0.03070933695148359 -0.0073983026173680801 0 -0.030104959932643855 -0.0070881249315866476 0 -0.030989119348349418 -0.0066616889167599265 0 -0.030989119348349418 -0.0066616889167599265 0 -0.029981732442807447 -0.0063051197812461395 0 -0.030223572473201139 -0.0058574259129572787 0 -0.030104959932643855 -0.0070881249315866476 0 -0.030989119348349418 -0.0066616889167599265 0 -0.029981732442807447 -0.0063051197812461395 0 -0.02636033003231639 -0.004498937973834923 0 -0.026331861762751284 -0.0044941996813066777 0 -0.033489713161340799 -0.00047092541271561821 0 -0.033480513607818028 -0.00045387426392634269 0 -0.033504187724405124 -0.00044773354383653588 0 -0.023646935767359913 -0.004415827914068189 0 -0.026331861762751284 -0.0044941996813066777 0 -0.030104959932643855 -0.0070881249315866476 0 -0.029350220764758669 -0.0065500220368073054 0 -0.029981732442807447 -0.0063051197812461395 0 -0.029981732442807447 -0.0063051197812461395 0 -0.029608750678802517 -0.0057526467311746288 0 -0.030266814678508339 -0.005811428545847739 0 -0.029350220764758669 -0.0065500220368073054 0 -0.029981732442807447 -0.0063051197812461395 0 -0.029608750678802517 -0.0057526467311746288 0 -0.028961162181456217 -0.0059199929976611722 0 -0.029350220764758669 -0.0065500220368073054 0 -0.029608750678802517 -0.0057526467311746288 0 -0.028961162181456217 -0.0059199929976611722 0 -0.029568702304750262 -0.0050188257773774491 0 -0.029608750678802517 -0.0057526467311746288 0 -0.029568702304750262 -0.0050188257773774491 0 -0.030387249428502836 -0.0058134551470245995 0 -0.030300857032924476 -0.0048220902917905798 0 -0.029568702304750262 -0.0050188257773774491 0 -0.029608750678802517 -0.0057526467311746288 0 -0.030266814678508339 -0.005811428545847739 0 -0.026564381728936111 -0.0046601768561748483 0 -0.026331861762751284 -0.0044941996813066777 0 -0.033480513607818028 -0.00045387426392634269 0 -0.033504187724405124 -0.00044773354383653588 0 -0.033535401290389712 -0.00042338117979507614 0 -0.026331861762751284 -0.0044941996813066777 0 -0.028732217143982119 -0.0029748133336695223 0 -0.030387249428502836 -0.0058134551470245995 0 -0.030300857032924476 -0.0048220902917905798 0 -0.031127372641024692 -0.0043609117566256036 0 -0.030300857032924476 -0.0048220902917905798 0 -0.031127372641024692 -0.0043609117566256036 0 -0.030105262454172412 -0.0041179303620485037 0 -0.03088480409344645 -0.0033876665566326971 0 -0.031127372641024692 -0.0043609117566256036 0 -0.030105262454172412 -0.0041179303620485037 0 -0.029262132663323601 -0.0035359179419943219 0 -0.028898115890318009 -0.0043664661392857707 0 -0.030105262454172412 -0.0041179303620485037 0 -0.028898115890318009 -0.0043664661392857707 0 -0.029568702304750262 -0.0050188257773774491 0 -0.030105262454172412 -0.0041179303620485037 0 -0.029568702304750262 -0.0050188257773774491 0 -0.030300857032924476 -0.0048220902917905798 0 -0.030105262454172412 -0.0041179303620485037 0 -0.033445731022723017 -0.00022382554599298721 0 -0.033337243982972192 -0.00040473205063761139 0 -0.033073054244957691 -0.00013239781520214689 0 -0.033445731022723017 -0.00022382554599298721 0 -0.033337243982972192 -0.00040473205063761139 0 -0.033452157576729404 -0.00038036024318616136 0 -0.033443247984735462 -0.00046685670994310949 0 -0.033337243982972192 -0.00040473205063761139 0 -0.033452157576729404 -0.00038036024318616136 0 -0.022877615554981148 -0.0021124544539640601 0 -0.022081813112793225 -0.0024279517316877688 0 -0.033443247984735462 -0.00046685670994310949 0 -0.033452157576729404 -0.00038036024318616136 0 -0.033546310468146052 -0.00043946947069611035 0 -0.030417759806094291 -0.0021384641657317552 0 -0.028732217143982119 -0.0029748133336695223 0 -0.033445731022723017 -0.00022382554599298721 0 -0.033452157576729404 -0.00038036024318616136 0 -0.033546310468146052 -0.00043946947069611035 0 -0.03354872538628853 -0.00049420261043522918 0 -0.033535401290389712 -0.00042338117979507614 0 -0.033546310468146052 -0.00043946947069611035 0 -0.033445731022723017 -0.00022382554599298721 0 -0.033546310468146052 -0.00043946947069611035 0 -0.033576348822656976 1.3211675510384087e-05 0 -0.033535401290389712 -0.00042338117979507614 0 -0.033546310468146052 -0.00043946947069611035 0 -0.03351201994082835 -0.00044549547872238705 0 -0.033504187724405124 -0.00044773354383653588 0 -0.033535401290389712 -0.00042338117979507614 0 -0.03351201994082835 -0.00044549547872238705 0 -0.033445731022723017 -0.00022382554599298721 0 -0.033318587875173028 4.9851799817256405e-05 0 -0.033073054244957691 -0.00013239781520214689 0 -0.033445731022723017 -0.00022382554599298721 0 -0.033576348822656976 1.3211675510384087e-05 0 -0.033318587875173028 4.9851799817256405e-05 0 -0.033318587875173028 4.9851799817256405e-05 0 -0.033383455647301497 0.0002840476769057791 0 -0.033150480606880452 0.00036166663009873243 0 -0.033576348822656976 1.3211675510384087e-05 0 -0.033318587875173028 4.9851799817256405e-05 0 -0.033383455647301497 0.0002840476769057791 0 -0.033576348822656976 1.3211675510384087e-05 0 -0.033383455647301497 0.0002840476769057791 0 -0.033516623350661426 0.00045772681138052661 0 -0.022081813112793225 -0.0024279517316877688 0 -0.019553678882321381 -0.0035987201455677949 0 -0.033489713161340799 -0.00047092541271561821 0 -0.03351201994082835 -0.00044549547872238705 0 -0.033486732169604218 -0.00049284477408151925 0 -0.033489713161340799 -0.00047092541271561821 0 -0.033504187724405124 -0.00044773354383653588 0 -0.03351201994082835 -0.00044549547872238705 0 -0.030989119348349418 -0.0066616889167599265 0 -0.031766887044719416 -0.0074762261845018451 0 -0.03148293129301543 -0.0075572309713421819 0 -0.023646935767359913 -0.004415827914068189 0 -0.019553678882321381 -0.0035987201455677949 0 -0.03070933695148359 -0.0073983026173680801 0 -0.030989119348349418 -0.0066616889167599265 0 -0.03148293129301543 -0.0075572309713421819 0 -0.03182347286867402 -0.0082781347668236614 0 -0.031761430536941047 -0.0074782745093856318 0 -0.03148293129301543 -0.0075572309713421819 0 -0.019553678882321381 -0.0035987201455677949 0 -0.019648889692571447 -0.0035885562163324087 0 -0.03016767070934143 -0.00074977051741740989 0 -0.029670540400278795 -0.00026938713634586835 0 -0.03059726836279324 -2.0018885091207374e-05 0 -0.033383455647301497 0.0002840476769057791 0 -0.033516623350661426 0.00045772681138052661 0 -0.033150480606880452 0.00036166663009873243 0 -0.019553678882321381 -0.0035987201455677949 0 -0.025707898148404396 -0.0018110906762059046 0 -0.033150480606880452 0.00036166663009873243 0 -0.032773368582423107 0.00029164292098989795 0 -0.033073054244957691 -0.00013239781520214689 0 -0.033318587875173028 4.9851799817256405e-05 0 -0.033150480606880452 0.00036166663009873243 0 -0.033073054244957691 -0.00013239781520214689 0 -0.03059726836279324 -2.0018885091207374e-05 0 -0.031479664458525423 0.00018042157521841706 0 -0.031176464086425514 -0.00071988760576323699 0 -0.031479664458525423 0.00018042157521841706 0 -0.031807032158257392 -0.00025009136603334776 0 -0.031176464086425514 -0.00071988760576323699 0 -0.025707898148404396 -0.0018110906762059046 0 -0.028470955356605442 -0.0010039959902573285 0 -0.032773368582423107 0.00029164292098989795 0 -0.033073054244957691 -0.00013239781520214689 0 -0.032630335183316359 2.1490821833897138e-05 0 -0.033073054244957691 -0.00013239781520214689 0 -0.032800945210621282 -0.00018320741007461002 0 -0.032630335183316359 2.1490821833897138e-05 0 -0.032863636859318604 -0.00043244867206304231 0 -0.033073054244957691 -0.00013239781520214689 0 -0.032800945210621282 -0.00018320741007461002 0 -0.032958170774925702 -0.00057502021060162748 0 -0.033003495461616489 -0.0004800427904606226 0 -0.03318586622430842 -0.00049062568747749026 0 -0.032999836119498589 -0.00052965446787400707 0 -0.033073054244957691 -0.00013239781520214689 0 -0.03318586622430842 -0.00049062568747749026 0 -0.033337243982972192 -0.00040473205063761139 0 -0.033073054244957691 -0.00013239781520214689 0 -0.032501244940884175 -0.00034657964483725138 0 -0.03256516516520578 -0.00017191316289968893 0 -0.032270540833885614 -0.00012715981071086558 0 -0.03256516516520578 -0.00017191316289968893 0 -0.032369911296358647 -1.7114863440022722e-06 0 -0.032270540833885614 -0.00012715981071086558 0 -0.032270288433112616 -0.00037080789685833197 0 -0.032501244940884175 -0.00034657964483725138 0 -0.032270540833885614 -0.00012715981071086558 0 -0.032863636859318604 -0.00043244867206304231 0 -0.032800945210621282 -0.00018320741007461002 0 -0.03256516516520578 -0.00017191316289968893 0 -0.032501244940884175 -0.00034657964483725138 0 -0.032863636859318604 -0.00043244867206304231 0 -0.03256516516520578 -0.00017191316289968893 0 -0.03256516516520578 -0.00017191316289968893 0 -0.032630335183316359 2.1490821833897138e-05 0 -0.032369911296358647 -1.7114863440022722e-06 0 -0.032800945210621282 -0.00018320741007461002 0 -0.03256516516520578 -0.00017191316289968893 0 -0.032630335183316359 2.1490821833897138e-05 0 -0.032369911296358647 -1.7114863440022722e-06 0 -0.032258701850288431 6.7060568549001225e-05 0 -0.032270540833885614 -0.00012715981071086558 0 -0.032630335183316359 2.1490821833897138e-05 0 -0.032369911296358647 -1.7114863440022722e-06 0 -0.032281100770306791 0.00017936716820002885 0 -0.032369911296358647 -1.7114863440022722e-06 0 -0.032281100770306791 0.00017936716820002885 0 -0.032258701850288431 6.7060568549001225e-05 0 -0.032281100770306791 0.00017936716820002885 0 -0.032183322308909447 -8.606099094226409e-05 0 -0.032323304955677923 0.00013099750187902293 0 -0.032281100770306791 0.00017936716820002885 0 -0.032027734883652299 -4.907133701292739e-05 0 -0.032183322308909447 -8.606099094226409e-05 0 -0.028470955356605442 -0.0010039959902573285 0 -0.029260324314428789 -0.0007743058738677712 0 -0.032773368582423107 0.00029164292098989795 0 -0.032630335183316359 2.1490821833897138e-05 0 -0.032281100770306791 0.00017936716820002885 0 -0.031479664458525423 0.00018042157521841706 0 -0.032281100770306791 0.00017936716820002885 0 -0.032027734883652299 -4.907133701292739e-05 0 -0.031479664458525423 0.00018042157521841706 0 -0.032027734883652299 -4.907133701292739e-05 0 -0.031807032158257392 -0.00025009136603334776 0 -0.032027734883652299 -4.907133701292739e-05 0 -0.031807032158257392 -0.00025009136603334776 0 -0.032054167133374119 -0.00028671375793650909 0 -0.031807032158257392 -0.00025009136603334776 0 -0.032054167133374119 -0.00028671375793650909 0 -0.032046649380617596 -0.00062044382911278281 0 -0.032183322308909447 -8.606099094226409e-05 0 -0.032171742769444171 -0.00050925889796973238 0 -0.032323304955677923 0.00013099750187902293 0 -0.022857072673290669 -0.00060148274894427148 0 -0.026063695025617083 0.00050048974674438791 0 -0.032183322308909447 -8.606099094226409e-05 0 -0.032054167133374119 -0.00028671375793650909 0 -0.032171742769444171 -0.00050925889796973238 0 -0.022857072673290669 -0.00060148274894427148 0 -0.026520802348396474 0.0010114430889967658 0 -0.032027734883652299 -4.907133701292739e-05 0 -0.032183322308909447 -8.606099094226409e-05 0 -0.032054167133374119 -0.00028671375793650909 0 -0.020702545572382842 -0.001420916949036156 0 -0.017540744484983627 -0.0013331616811663913 0 0.0051004132552309117 -0.0047448058789666629 0 0.0047100591057063516 -0.0057402390875348824 0 0.0024668977718259352 -0.0048212238897126017 0 -0.030500758637714839 0.00052399042841027872 0 -0.030480053637272006 0.00050539103019322552 0 -0.030597396266192328 0.00053842309998574994 0 -0.032054167133374119 -0.00028671375793650909 0 -0.032171742769444171 -0.00050925889796973238 0 -0.032046649380617596 -0.00062044382911278281 0 -0.022857072673290669 -0.00060148274894427148 0 -0.020702545572382842 -0.001420916949036156 0 0.0051004132552309117 -0.0047448058789666629 0 0.0047100591057063516 -0.0057402390875348824 0 0.0055522778800222786 -0.0050184445687854852 0 0.0047100591057063516 -0.0057402390875348824 0 0.0056332025867616205 -0.006553344969407994 0 0.004013489746545201 -0.0075176147937977477 0 0.0047100591057063516 -0.0057402390875348824 0 0.004013489746545201 -0.0075176147937977477 0 0.0024668977718259352 -0.0048212238897126017 0 0.0056332025867616205 -0.006553344969407994 0 0.0070398200978537863 -0.0066436358455715262 0 0.0061489432701351161 -0.0076197878770087697 0 0.0047100591057063516 -0.0057402390875348824 0 0.0056332025867616205 -0.006553344969407994 0 0.0055378982533988257 -0.0057861441748024468 0 0.0056332025867616205 -0.006553344969407994 0 0.0055378982533988257 -0.0057861441748024468 0 0.0062424346750278885 -0.0059339889829282799 0 0.0056332025867616205 -0.006553344969407994 0 0.0062424346750278885 -0.0059339889829282799 0 0.0070398200978537863 -0.0066436358455715262 0 0.0062424346750278885 -0.0059339889829282799 0 0.0072148498962206721 -0.0056996248382962071 0 0.0070398200978537863 -0.0066436358455715262 0 -0.020702545572382842 -0.001420916949036156 0 -0.016644274751702607 -0.0022623902036281555 0 0.0050730737408867287 -0.0047162534068496782 0 0.0055522778800222786 -0.0050184445687854852 0 0.0080473027292259115 -0.0046568953892329986 0 0.0062424346750278885 -0.0059339889829282799 0 0.0055522778800222786 -0.0050184445687854852 0 0.0072148498962206721 -0.0056996248382962071 0 -0.031807032158257392 -0.00025009136603334776 0 -0.032046649380617596 -0.00062044382911278281 0 -0.031176464086425514 -0.00071988760576323699 0 0.0047100591057063516 -0.0057402390875348824 0 0.0055378982533988257 -0.0057861441748024468 0 0.0055522778800222786 -0.0050184445687854852 0 0.0055378982533988257 -0.0057861441748024468 0 0.0062424346750278885 -0.0059339889829282799 0 0.0055522778800222786 -0.0050184445687854852 0 -0.020702545572382842 -0.001420916949036156 0 -0.020477820060216919 -0.0015302119156064364 0 0.0055522778800222786 -0.0050184445687854852 0 0.0080473027292259115 -0.0046568953892329986 0 0.0072148498962206721 -0.0056996248382962071 0 0.0080473027292259115 -0.0046568953892329986 0 0.008732006095493702 -0.0063350664837552462 0 0.0072148498962206721 -0.0056996248382962071 0 -0.01588103640448282 -0.0030806581104446955 0 -0.016644274751702607 -0.0022623902036281555 0 0.011035994403105058 -0.0046536819686857789 0 0.0080473027292259115 -0.0046568953892329986 0 0.010178433761929622 -0.0055260317933892664 0 0.0080473027292259115 -0.0046568953892329986 0 0.010178433761929622 -0.0055260317933892664 0 0.008732006095493702 -0.0063350664837552462 0 -0.03016767070934143 -0.00074977051741740989 0 -0.03059726836279324 -2.0018885091207374e-05 0 -0.031176464086425514 -0.00071988760576323699 0 0.008732006095493702 -0.0063350664837552462 0 0.0077878240684843784 -0.007605437159865394 0 0.010044998132421079 -0.0074362964360463355 0 0.010178433761929622 -0.0055260317933892664 0 0.008732006095493702 -0.0063350664837552462 0 0.01009077749375382 -0.0064871724176028423 0 0.008732006095493702 -0.0063350664837552462 0 0.01009077749375382 -0.0064871724176028423 0 0.010044998132421079 -0.0074362964360463355 0 0.010807120639834139 -0.0069614011432858509 0 0.01009077749375382 -0.0064871724176028423 0 0.010044998132421079 -0.0074362964360463355 0 0.008732006095493702 -0.0063350664837552462 0 0.0072148498962206721 -0.0056996248382962071 0 0.0070398200978537863 -0.0066436358455715262 0 0.008732006095493702 -0.0063350664837552462 0 0.0070398200978537863 -0.0066436358455715262 0 0.0077878240684843784 -0.007605437159865394 0 0.0098586237530029677 -0.0060406716492310136 0 0.0094111699204127292 -0.00575554137790281 0 0.0070398200978537863 -0.0066436358455715262 0 0.0077878240684843784 -0.007605437159865394 0 0.0061489432701351161 -0.0076197878770087697 0 0.0077878240684843784 -0.007605437159865394 0 0.0087849844534118732 -0.0083977434079681879 0 0.006095953449025247 -0.0089968448231901813 0 0.0077878240684843784 -0.007605437159865394 0 0.0087849844534118732 -0.0083977434079681879 0 0.010044998132421079 -0.0074362964360463355 0 0.010115232633343272 -0.00609561610236587 0 0.0098586237530029677 -0.0060406716492310136 0 0.011870068504619189 -0.0075592784348198477 0 0.011721297990756668 -0.0076031085206177025 0 0.012181589218396936 -0.007775810739944199 0 0.011664064012661688 -0.0075322582995631712 0 0.0087849844534118732 -0.0083977434079681879 0 0.010044998132421079 -0.0074362964360463355 0 0.011870068504619189 -0.0075592784348198477 0 0.012338661509815304 -0.0073251984486357681 0 0.012017209295649579 -0.0072554400803458569 0 0.011870068504619189 -0.0075592784348198477 0 0.012181589218396936 -0.007775810739944199 0 0.012338661509815304 -0.0073251984486357681 0 0.012181589218396936 -0.007775810739944199 0 0.012338661509815304 -0.0073251984486357681 0 0.012865371678495736 -0.0076248896026919026 0 0.012338661509815304 -0.0073251984486357681 0 0.012865371678495736 -0.0076248896026919026 0 0.01278328548797664 -0.0071201731380987014 0 0.0094111699204127292 -0.00575554137790281 0 0.0091715227550503743 -0.0050764580339014275 0 0.012865371678495736 -0.0076248896026919026 0 0.013272977750074244 -0.0070684097558794236 0 0.013443551038543923 -0.0074419976731016878 0 0.006095953449025247 -0.0089968448231901813 0 0.004013489746545201 -0.0075176147937977477 0 0.0035593312947278222 -0.009591195686278621 0 0.0056332025867616205 -0.006553344969407994 0 0.004013489746545201 -0.0075176147937977477 0 0.0061489432701351161 -0.0076197878770087697 0 0.006095953449025247 -0.0089968448231901813 0 0.004013489746545201 -0.0075176147937977477 0 0.0061489432701351161 -0.0076197878770087697 0 0.0077878240684843784 -0.007605437159865394 0 0.006095953449025247 -0.0089968448231901813 0 0.0061489432701351161 -0.0076197878770087697 0 0.013044393430054944 -0.0068262741626217514 0 0.012789937720372645 -0.0066920321736741771 0 0.01278328548797664 -0.0071201731380987014 0 0.013044393430054944 -0.0068262741626217514 0 0.012789937720372645 -0.0066920321736741771 0 0.013050498520295021 -0.0065230585771873829 0 0.013044393430054944 -0.0068262741626217514 0 0.013298035383408612 -0.0066865509819449926 0 0.013272977750074244 -0.0070684097558794236 0 0.013044393430054944 -0.0068262741626217514 0 0.013298035383408612 -0.0066865509819449926 0 0.013050498520295021 -0.0065230585771873829 0 0.013298035383408612 -0.0066865509819449926 0 0.013272977750074244 -0.0070684097558794236 0 0.013564771964674451 -0.006785686544273542 0 0.012865371678495736 -0.0076248896026919026 0 0.013272977750074244 -0.0070684097558794236 0 0.01278328548797664 -0.0071201731380987014 0 0.013044393430054944 -0.0068262741626217514 0 0.013272977750074244 -0.0070684097558794236 0 0.01278328548797664 -0.0071201731380987014 0 0.012338661509815304 -0.0073251984486357681 0 0.012241073979106837 -0.0070131337292208586 0 0.012503250252464319 -0.0069099010332095926 0 0.012338661509815304 -0.0073251984486357681 0 0.01278328548797664 -0.0071201731380987014 0 0.012503250252464319 -0.0069099010332095926 0 0.012338661509815304 -0.0073251984486357681 0 0.012017209295649579 -0.0072554400803458569 0 0.012241073979106837 -0.0070131337292208586 0 0.012017209295649579 -0.0072554400803458569 0 0.012241073979106837 -0.0070131337292208586 0 0.012007767888915928 -0.0068469721973836578 0 0.012241073979106837 -0.0070131337292208586 0 0.012007767888915928 -0.0068469721973836578 0 0.012302972112219477 -0.0067107077071019055 0 0.012241073979106837 -0.0070131337292208586 0 0.012302972112219477 -0.0067107077071019055 0 0.012503250252464319 -0.0069099010332095926 0 0.012302972112219477 -0.0067107077071019055 0 0.012552004720569054 -0.0065642469135442525 0 0.01236970990042245 -0.0064467274761494074 0 0.012007767888915928 -0.0068469721973836578 0 0.012302972112219477 -0.0067107077071019055 0 0.012096378490829129 -0.00647768399133991 0 0.012789937720372645 -0.0066920321736741771 0 0.01278328548797664 -0.0071201731380987014 0 0.012503250252464319 -0.0069099010332095926 0 0.012302972112219477 -0.0067107077071019055 0 0.012503250252464319 -0.0069099010332095926 0 0.012552004720569054 -0.0065642469135442525 0 0.012789937720372645 -0.0066920321736741771 0 0.012503250252464319 -0.0069099010332095926 0 0.012552004720569054 -0.0065642469135442525 0 0.012789937720372645 -0.0066920321736741771 0 0.012552004720569054 -0.0065642469135442525 0 0.012781421601287941 -0.0063847212016319675 0 0.012552004720569054 -0.0065642469135442525 0 0.012781421601287941 -0.0063847212016319675 0 0.012550543937120608 -0.0062886629044780927 0 0.012552004720569054 -0.0065642469135442525 0 0.012550543937120608 -0.0062886629044780927 0 0.01236970990042245 -0.0064467274761494074 0 0.012781421601287941 -0.0063847212016319675 0 0.012550543937120608 -0.0062886629044780927 0 0.01263987355974884 -0.0061147968524428737 0 0.012096378490829129 -0.00647768399133991 0 0.0123472558628845 -0.0062715207017752022 0 0.011989105004115187 -0.006173072488240618 0 0.012096378490829129 -0.00647768399133991 0 0.01236970990042245 -0.0064467274761494074 0 0.0123472558628845 -0.0062715207017752022 0 0.012302972112219477 -0.0067107077071019055 0 0.012096378490829129 -0.00647768399133991 0 0.01236970990042245 -0.0064467274761494074 0 0.012550543937120608 -0.0062886629044780927 0 0.01236970990042245 -0.0064467274761494074 0 0.0123472558628845 -0.0062715207017752022 0 0.012571289131255355 -0.0046908318353747853 0 0.012266486185174194 -0.0051245632949290668 0 0.0123472558628845 -0.0062715207017752022 0 0.012684294194432273 -0.006055912329930105 0 0.011989105004115187 -0.006173072488240618 0 0.012684294194432273 -0.006055912329930105 0 0.012590325322729549 -0.0052720563220940439 0 0.011989105004115187 -0.006173072488240618 0 0.012550543937120608 -0.0062886629044780927 0 0.0123472558628845 -0.0062715207017752022 0 0.012684294194432273 -0.006055912329930105 0 0.013507369419510305 -0.0063850497067361144 0 0.015202423434379161 -0.0061972261236961325 0 0.014157761512531128 -0.0051010727329324369 0 0.012550543937120608 -0.0062886629044780927 0 0.012684294194432273 -0.006055912329930105 0 0.01263987355974884 -0.0061147968524428737 0 0.01481512955523648 -0.0023604669510835629 0 0.014852657548792831 -0.002336101961698821 0 0.012684294194432273 -0.006055912329930105 0 0.013507369419510305 -0.0063850497067361144 0 0.013377434018898142 -0.0055608607252901282 0 0.012781421601287941 -0.0063847212016319675 0 0.01263987355974884 -0.0061147968524428737 0 0.013067215275421575 -0.0062081436426311924 0 0.014852657548792831 -0.002336101961698821 0 0.015355730985209771 -0.0022065930131401137 0 0.014852657548792831 -0.002336101961698821 0 0.014913136580479812 -0.0023015722501228599 0 0.015113569619922497 -0.0018837257710482419 0 0.015359923228360143 -0.0018435067727061863 0 0.015400189184837676 -0.0019536401438042627 0 0.012781421601287941 -0.0063847212016319675 0 0.013067215275421575 -0.0062081436426311924 0 0.013050498520295021 -0.0065230585771873829 0 0.012789937720372645 -0.0066920321736741771 0 0.012781421601287941 -0.0063847212016319675 0 0.013050498520295021 -0.0065230585771873829 0 0.013067215275421575 -0.0062081436426311924 0 0.013334821208621426 -0.0063845563429687649 0 0.013619609621759151 -0.0063164038769738685 0 0.014913136580479812 -0.0023015722501228599 0 0.015155003021361413 -0.0020410413776036662 0 0.013298035383408612 -0.0066865509819449926 0 0.013334821208621426 -0.0063845563429687649 0 0.013525605072787222 -0.0065644076073711538 0 0.013298035383408612 -0.0066865509819449926 0 0.013050498520295021 -0.0065230585771873829 0 0.013334821208621426 -0.0063845563429687649 0 0.013067215275421575 -0.0062081436426311924 0 0.013050498520295021 -0.0065230585771873829 0 0.013334821208621426 -0.0063845563429687649 0 0.015400189184837676 -0.0019536401438042627 0 0.015605314574381562 -0.0018040627440322936 0 0.015685086480401816 -0.0020229419222079614 0 0.015359923228360143 -0.0018435067727061863 0 0.015400189184837676 -0.0019536401438042627 0 0.015605314574381562 -0.0018040627440322936 0 0.015355730985209771 -0.0022065930131401137 0 0.015970714095412494 -0.0018829902770212677 0 0.015202423434379161 -0.0061972261236961325 0 0.015492068161358953 -0.0047848969304034811 0 0.016659209363794045 -0.0060063692245073599 0 0.015492068161358953 -0.0047848969304034811 0 0.016659209363794045 -0.0060063692245073599 0 0.016965138139079329 -0.0049263118167979054 0 0.015202423434379161 -0.0061972261236961325 0 0.015492068161358953 -0.0047848969304034811 0 0.014157761512531128 -0.0051010727329324369 0 0.015492068161358953 -0.0047848969304034811 0 0.013794827389717771 -0.0037394296488354184 0 0.014157761512531128 -0.0051010727329324369 0 0.015492068161358953 -0.0047848969304034811 0 0.015195989995023675 -0.003361410877251106 0 0.013794827389717771 -0.0037394296488354184 0 0.015492068161358953 -0.0047848969304034811 0 0.016357833496548083 -0.003940557843363608 0 0.015195989995023675 -0.003361410877251106 0 0.015492068161358953 -0.0047848969304034811 0 0.016357833496548083 -0.003940557843363608 0 0.016965138139079329 -0.0049263118167979054 0 0.016357833496548083 -0.003940557843363608 0 0.015195989995023675 -0.003361410877251106 0 0.016241763154963503 -0.0027831910137938879 0 0.015195989995023675 -0.003361410877251106 0 0.014072119946754712 -0.0029679376210990848 0 0.015332589226009575 -0.0023110918157752515 0 0.015195989995023675 -0.003361410877251106 0 0.016241763154963503 -0.0027831910137938879 0 0.015332589226009575 -0.0023110918157752515 0 0.016241763154963503 -0.0027831910137938879 0 0.016255939297079088 -0.0019662692326986001 0 0.015332589226009575 -0.0023110918157752515 0 0.013312475765841575 -0.0026993406005515462 0 0.014072119946754712 -0.0029679376210990848 0 0.014267971604365236 -0.0019757493412761898 0 0.014072119946754712 -0.0029679376210990848 0 0.014267971604365236 -0.0019757493412761898 0 0.015332589226009575 -0.0023110918157752515 0 0.015195989995023675 -0.003361410877251106 0 0.014072119946754712 -0.0029679376210990848 0 0.013794827389717771 -0.0037394296488354184 0 0.013312475765841575 -0.0026993406005515462 0 0.014072119946754712 -0.0029679376210990848 0 0.013029016307802822 -0.0035140715885863209 0 0.014072119946754712 -0.0029679376210990848 0 0.013794827389717771 -0.0037394296488354184 0 0.013029016307802822 -0.0035140715885863209 0 0.012720285958741107 -0.0044852804124605652 0 0.012571289131255355 -0.0046908318353747853 0 0.013794827389717771 -0.0037394296488354184 0 0.013023181033733518 -0.0036900426170714553 0 0.013029016307802822 -0.0035140715885863209 0 0.013794827389717771 -0.0037394296488354184 0 0.014157761512531128 -0.0051010727329324369 0 0.012590325322729549 -0.0052720563220940439 0 0.014157761512531128 -0.0051010727329324369 0 0.013377434018898142 -0.0055608607252901282 0 0.012590325322729549 -0.0052720563220940439 0 0.013507369419510305 -0.0063850497067361144 0 0.014157761512531128 -0.0051010727329324369 0 0.013377434018898142 -0.0055608607252901282 0 0.012684294194432273 -0.006055912329930105 0 0.013377434018898142 -0.0055608607252901282 0 0.012590325322729549 -0.0052720563220940439 0 0.012568243165240389 -0.0035659569700068716 0 0.012592397011316449 -0.0035476852567585672 0 0.01182557850741653 -0.0034976920176094679 0 0.013023181033733518 -0.0036900426170714553 0 0.012568243165240389 -0.0035659569700068716 0 0.013029016307802822 -0.0035140715885863209 0 0.011592185696853457 -0.00082400626513194706 0 0.010164949284366349 -0.002744715508286334 0 0.01182557850741653 -0.0034976920176094679 0 0.012645682425591319 -0.0022510243106081138 0 0.01258970745272138 -0.0025729882344882791 0 0.012645682425591319 -0.0022510243106081138 0 0.012799608840509655 -0.0017212058748970016 0 0.012592397011316449 -0.0035476852567585672 0 0.013029016307802822 -0.0035140715885863209 0 0.012588300416708198 -0.0030469182800963086 0 0.012568243165240389 -0.0035659569700068716 0 0.012592397011316449 -0.0035476852567585672 0 0.013029016307802822 -0.0035140715885863209 0 0.013312475765841575 -0.0026993406005515462 0 0.013029016307802822 -0.0035140715885863209 0 0.012588300416708198 -0.0030469182800963086 0 0.011333097675954659 0.00043070371054819895 0 0.011256697842822213 0.00036635157275411058 0 0.010403767436588784 0.00030323909081875683 0 0.011592185696853457 -0.00082400626513194706 0 0.011333097675954659 0.00043070371054819895 0 0.010403767436588784 0.00030323909081875683 0 0.011333097675954659 0.00043070371054819895 0 0.011256697842822213 0.00036635157275411058 0 0.011513947431498559 -8.6861972477002131e-05 0 0.012799608840509655 -0.0017212058748970016 0 0.013075850197037638 -0.0013760994225945039 0 0.011333097675954659 0.00043070371054819895 0 0.011513947431498559 -8.6861972477002131e-05 0 0.011429313369364749 -0.00013415398161912754 0 0.012588300416708198 -0.0030469182800963086 0 0.012917425932646168 -0.0024600832997618825 0 0.01253660739503259 -0.0019666693143422578 0 0.013312475765841575 -0.0026993406005515462 0 0.012588300416708198 -0.0030469182800963086 0 0.012917425932646168 -0.0024600832997618825 0 0.013312475765841575 -0.0026993406005515462 0 0.012917425932646168 -0.0024600832997618825 0 0.013246898374011795 -0.0020846718042562694 0 0.007986055838830013 0.00028319892695424196 0 0.0073057731823516891 0.00026933670420485725 0 0.010845856400601301 0.00070210904014049327 0 0.0090643849103304031 0.00078614134101984818 0 0.0091314273043692443 0.0011795123264108553 0 0.010845856400601301 0.00070210904014049327 0 0.012512416524671723 0.00035381820247853507 0 0.011970136448580511 -0.00022935401068580963 0 0.010845856400601301 0.00070210904014049327 0 0.011256697842822213 0.00036635157275411058 0 0.01146477842383202 -2.5766484756664762e-05 0 0.010845856400601301 0.00070210904014049327 0 0.011256697842822213 0.00036635157275411058 0 0.010403767436588784 0.00030323909081875683 0 0.010403767436588784 0.00030323909081875683 0 0.0090643849103304031 0.00078614134101984818 0 0.0085019220885428886 -0.00049718992973462142 0 0.010845856400601301 0.00070210904014049327 0 0.010403767436588784 0.00030323909081875683 0 0.0090643849103304031 0.00078614134101984818 0 0.010403767436588784 0.00030323909081875683 0 0.0085019220885428886 -0.00049718992973462142 0 0.0095491902125583797 -0.0013391185430685082 0 0.011592185696853457 -0.00082400626513194706 0 0.010403767436588784 0.00030323909081875683 0 0.0095491902125583797 -0.0013391185430685082 0 0.011592185696853457 -0.00082400626513194706 0 0.0095491902125583797 -0.0013391185430685082 0 0.010164949284366349 -0.002744715508286334 0 0.0085019220885428886 -0.00049718992973462142 0 0.0095491902125583797 -0.0013391185430685082 0 0.0075376463406452727 -0.0017378204147748279 0 0.0095491902125583797 -0.0013391185430685082 0 0.008497507937663816 -0.0028487899038714365 0 0.0075376463406452727 -0.0017378204147748279 0 0.008497507937663816 -0.0028487899038714365 0 0.007580023016583194 -0.0041314634081678504 0 0.006800498367035117 -0.0029841594014017895 0 0.008497507937663816 -0.0028487899038714365 0 0.006800498367035117 -0.0029841594014017895 0 0.0075376463406452727 -0.0017378204147748279 0 0.008497507937663816 -0.0028487899038714365 0 0.007580023016583194 -0.0041314634081678504 0 0.0093201075558196674 -0.0041260257322682731 0 0.007580023016583194 -0.0041314634081678504 0 0.0093201075558196674 -0.0041260257322682731 0 0.008675161572993341 -0.0055162879970104004 0 0.0093201075558196674 -0.0041260257322682731 0 0.010164949284366349 -0.002744715508286334 0 0.010781601269316026 -0.0043612797038886045 0 0.0093201075558196674 -0.0041260257322682731 0 0.010781601269316026 -0.0043612797038886045 0 0.010097236659832334 -0.0054976025776663556 0 0.008497507937663816 -0.0028487899038714365 0 0.0093201075558196674 -0.0041260257322682731 0 0.010164949284366349 -0.002744715508286334 0 0.0095491902125583797 -0.0013391185430685082 0 0.008497507937663816 -0.0028487899038714365 0 0.010164949284366349 -0.002744715508286334 0 0.010164949284366349 -0.002744715508286334 0 0.01182557850741653 -0.0034976920176094679 0 0.010781601269316026 -0.0043612797038886045 0 0.012568243165240389 -0.0035659569700068716 0 0.01182557850741653 -0.0034976920176094679 0 0.012611420623943888 -0.0037422258204264825 0 0.013023181033733518 -0.0036900426170714553 0 0.012568243165240389 -0.0035659569700068716 0 0.012611420623943888 -0.0037422258204264825 0 0.01182557850741653 -0.0034976920176094679 0 0.012611420623943888 -0.0037422258204264825 0 0.011848488911317772 -0.0050824349561733517 0 0.012096378490829129 -0.00647768399133991 0 0.011989105004115187 -0.006173072488240618 0 0.011540064465673381 -0.0064751064735744197 0 0.012266486185174194 -0.0051245632949290668 0 0.011939569625975645 -0.0056042877917618856 0 0.01182557850741653 -0.0034976920176094679 0 0.010781601269316026 -0.0043612797038886045 0 0.011848488911317772 -0.0050824349561733517 0 0.010781601269316026 -0.0043612797038886045 0 0.011848488911317772 -0.0050824349561733517 0 0.010097236659832334 -0.0054976025776663556 0 0.011939569625975645 -0.0056042877917618856 0 0.011767373723860511 -0.0058595628598352052 0 0.011540064465673381 -0.0064751064735744197 0 0.011592991137393151 -0.0069128322977789289 0 0.010644936816181038 -0.007009840790011517 0 0.011848488911317772 -0.0050824349561733517 0 0.010644936816181038 -0.007009840790011517 0 0.010097236659832334 -0.0054976025776663556 0 0.012007767888915928 -0.0068469721973836578 0 0.012096378490829129 -0.00647768399133991 0 0.011540064465673381 -0.0064751064735744197 0 0.012007767888915928 -0.0068469721973836578 0 0.011540064465673381 -0.0064751064735744197 0 0.011592991137393151 -0.0069128322977789289 0 0.012007767888915928 -0.0068469721973836578 0 0.01184476712412577 -0.0071271821834263767 0 0.011592991137393151 -0.0069128322977789289 0 0.012017209295649579 -0.0072554400803458569 0 0.012007767888915928 -0.0068469721973836578 0 0.01184476712412577 -0.0071271821834263767 0 0.01184476712412577 -0.0071271821834263767 0 0.011592991137393151 -0.0069128322977789289 0 0.011654744678820274 -0.0073894474814701705 0 0.011791689717188822 -0.0074295661665610187 0 0.01184476712412577 -0.0071271821834263767 0 0.011654744678820274 -0.0073894474814701705 0 0.011791689717188822 -0.0074295661665610187 0 0.012017209295649579 -0.0072554400803458569 0 0.01184476712412577 -0.0071271821834263767 0 0.011592991137393151 -0.0069128322977789289 0 0.011654744678820274 -0.0073894474814701705 0 0.010644936816181038 -0.007009840790011517 0 0.011612265369552807 -0.008307465463429739 0 0.011654744678820274 -0.0073894474814701705 0 0.010644936816181038 -0.007009840790011517 0 0.007453264338743746 -0.0078291084042283552 0 0.0099411843226078576 -0.0082087900597266894 0 0.0091945868816495045 -0.0068912406415046982 0 0.010644936816181038 -0.007009840790011517 0 0.0091945868816495045 -0.0068912406415046982 0 0.010097236659832334 -0.0054976025776663556 0 0.0099411843226078576 -0.0082087900597266894 0 0.010644936816181038 -0.007009840790011517 0 0.0091945868816495045 -0.0068912406415046982 0 0.007453264338743746 -0.0078291084042283552 0 0.0091945868816495045 -0.0068912406415046982 0 0.0077261809410979192 -0.0063547261817625059 0 0.007453264338743746 -0.0078291084042283552 0 0.0077261809410979192 -0.0063547261817625059 0 0.006225636421113216 -0.0062381796834142071 0 0.0077261809410979192 -0.0063547261817625059 0 0.008675161572993341 -0.0055162879970104004 0 0.0067791974451866877 -0.0053264055333366173 0 0.0091945868816495045 -0.0068912406415046982 0 0.0077261809410979192 -0.0063547261817625059 0 0.008675161572993341 -0.0055162879970104004 0 0.007580023016583194 -0.0041314634081678504 0 0.008675161572993341 -0.0055162879970104004 0 0.0067791974451866877 -0.0053264055333366173 0 0.0093201075558196674 -0.0041260257322682731 0 0.008675161572993341 -0.0055162879970104004 0 0.010097236659832334 -0.0054976025776663556 0 0.0091945868816495045 -0.0068912406415046982 0 0.008675161572993341 -0.0055162879970104004 0 0.010097236659832334 -0.0054976025776663556 0 0.0049064545989962304 -0.0056517025073738857 0 0.0034380843047559155 -0.0063288166061846209 0 0.0036284143797259052 -0.0047670162591301329 0 0.0049064545989962304 -0.0056517025073738857 0 0.0067791974451866877 -0.0053264055333366173 0 0.006225636421113216 -0.0062381796834142071 0 0.0049064545989962304 -0.0056517025073738857 0 0.0067791974451866877 -0.0053264055333366173 0 0.0054550899644943479 -0.0040292908975214231 0 0.0077261809410979192 -0.0063547261817625059 0 0.0067791974451866877 -0.0053264055333366173 0 0.006225636421113216 -0.0062381796834142071 0 0.007453264338743746 -0.0078291084042283552 0 0.006225636421113216 -0.0062381796834142071 0 0.0046670101656192562 -0.0064100520210234411 0 0.0049064545989962304 -0.0056517025073738857 0 0.006225636421113216 -0.0062381796834142071 0 0.0046670101656192562 -0.0064100520210234411 0 0.0046130224800115917 -0.00684477653735665 0 0.0048745231474119251 -0.0068747052484527333 0 0.0049064545989962304 -0.0056517025073738857 0 0.0046670101656192562 -0.0064100520210234411 0 0.0034380843047559155 -0.0063288166061846209 0 0.0016898416171294169 -0.0042634877164548163 0 0.0012208360225445466 -0.0038413743804911831 0 0.0044460573916482787 -0.006338610272032673 0 0.0046670101656192562 -0.0064100520210234411 0 0.0034380843047559155 -0.0063288166061846209 0 0.0015971971034991414 -0.0049304041778259868 0 0.0010007185253035533 -0.0021321570165541352 0 -0.00047780474363184021 -0.0041964019195450059 0 0.0015971971034991414 -0.0049304041778259868 0 0.0044460573916482787 -0.006338610272032673 0 0.0010007185253035533 -0.0021321570165541352 0 0.0010007185253035533 -0.0021321570165541352 0 -0.0017546027033870353 -0.002171764925147941 0 -0.00047780474363184021 -0.0041964019195450059 0 -0.0017546027033870353 -0.002171764925147941 0 -0.00047780474363184021 -0.0041964019195450059 0 -0.00268830146929027 -0.0037585827499659963 0 0.0012208360225445466 -0.0038413743804911831 0 0.00035778564311395484 -0.0030868486595519908 0 0.0010007185253035533 -0.0021321570165541352 0 -0.0017546027033870353 -0.002171764925147941 0 -0.0022553213698263165 -0.0004616812272978699 0 0.0034380843047559155 -0.0063288166061846209 0 0.0036284143797259052 -0.0047670162591301329 0 0.0006941813068770498 -0.0046244139936763391 0 0.0036284143797259052 -0.0047670162591301329 0 0.0006941813068770498 -0.0046244139936763391 0 0.0031385220254440582 -0.0028583471733639914 0 0.0006941813068770498 -0.0046244139936763391 0 0.00091068203826698908 -0.0015792611264814325 0 0.0031385220254440582 -0.0028583471733639914 0 0.00091068203826698908 -0.0015792611264814325 0 0.0031385220254440582 -0.0028583471733639914 0 0.0030756103136657356 -0.00062809063956522151 0 0.0031385220254440582 -0.0028583471733639914 0 0.0052327569698177511 -0.0021241444071714785 0 0.0054550899644943479 -0.0040292908975214231 0 0.0036284143797259052 -0.0047670162591301329 0 0.0031385220254440582 -0.0028583471733639914 0 0.0054550899644943479 -0.0040292908975214231 0 0.0049064545989962304 -0.0056517025073738857 0 0.0036284143797259052 -0.0047670162591301329 0 0.0054550899644943479 -0.0040292908975214231 0 0.007580023016583194 -0.0041314634081678504 0 0.0067791974451866877 -0.0053264055333366173 0 0.0054550899644943479 -0.0040292908975214231 0 0.007580023016583194 -0.0041314634081678504 0 0.0054550899644943479 -0.0040292908975214231 0 0.006800498367035117 -0.0029841594014017895 0 0.0052327569698177511 -0.0021241444071714785 0 0.0054550899644943479 -0.0040292908975214231 0 0.006800498367035117 -0.0029841594014017895 0 0.0052327569698177511 -0.0021241444071714785 0 0.006800498367035117 -0.0029841594014017895 0 0.0075376463406452727 -0.0017378204147748279 0 0.0085019220885428886 -0.00049718992973462142 0 0.0075376463406452727 -0.0017378204147748279 0 0.0062898308242814657 -0.00053403351978382379 0 0.0052327569698177511 -0.0021241444071714785 0 0.0075376463406452727 -0.0017378204147748279 0 0.0062898308242814657 -0.00053403351978382379 0 0.0052327569698177511 -0.0021241444071714785 0 0.0062898308242814657 -0.00053403351978382379 0 0.0030756103136657356 -0.00062809063956522151 0 0.0062898308242814657 -0.00053403351978382379 0 0.0046833308446213272 0.0013879161551711991 0 0.0030756103136657356 -0.00062809063956522151 0 0.0090643849103304031 0.00078614134101984818 0 0.0085019220885428886 -0.00049718992973462142 0 0.0062898308242814657 -0.00053403351978382379 0 0.0090643849103304031 0.00078614134101984818 0 0.0062898308242814657 -0.00053403351978382379 0 0.0046833308446213272 0.0013879161551711991 0 0.0090643849103304031 0.00078614134101984818 0 0.0046833308446213272 0.0013879161551711991 0 0.0066323790553528671 0.004071994752736007 0 0.0046833308446213272 0.0013879161551711991 0 0.0066323790553528671 0.004071994752736007 0 0.0030158614293121656 0.0038020807326982538 0 0.0073057731823516891 0.00026933670420485725 0 0.0054223143698145359 0.00051728770534364293 0 0.0073925691056945979 0.00031551553770380232 0 0.0073057731823516891 0.00026933670420485725 0 0.00018424348360491659 0.0030204925873538726 0 0.0030158614293121656 0.0038020807326982538 0 0.0010300048508274145 0.0013359209733797147 0 0.0037744136132189503 0.00061427890845830045 0 0.0054223143698145359 0.00051728770534364293 0 0.0046833308446213272 0.0013879161551711991 0 0.0030158614293121656 0.0038020807326982538 0 0.0010300048508274145 0.0013359209733797147 0 0.0010300048508274145 0.0013359209733797147 0 0.0030756103136657356 -0.00062809063956522151 0 0.00022634712066413749 -0.00019145333167868464 0 0.0046833308446213272 0.0013879161551711991 0 0.0010300048508274145 0.0013359209733797147 0 0.0030756103136657356 -0.00062809063956522151 0 0.0031385220254440582 -0.0028583471733639914 0 0.0052327569698177511 -0.0021241444071714785 0 0.0030756103136657356 -0.00062809063956522151 0 0.00091068203826698908 -0.0015792611264814325 0 0.0030756103136657356 -0.00062809063956522151 0 0.00022634712066413749 -0.00019145333167868464 0 0.00091068203826698908 -0.0015792611264814325 0 0.00022634712066413749 -0.00019145333167868464 0 -0.0025812135583458532 -0.00090672696003895692 0 -0.0012886644959343233 0.00049640588862814199 0 -0.0030949666420830601 0.00010806365864391348 0 -0.0025812135583458532 -0.00090672696003895692 0 0.00022634712066413749 -0.00019145333167868464 0 -0.0012886644959343233 0.00049640588862814199 0 -0.0025812135583458532 -0.00090672696003895692 0 -0.0012886644959343233 0.00049640588862814199 0 -0.0019643509909739059 0.00070245727677415587 0 -0.0030949666420830601 0.00010806365864391348 0 0.0010300048508274145 0.0013359209733797147 0 0.00022634712066413749 -0.00019145333167868464 0 -0.0012886644959343233 0.00049640588862814199 0 0.00018424348360491659 0.0030204925873538726 0 0.0010300048508274145 0.0013359209733797147 0 -0.0011769153112568967 0.001378266394718803 0 0.0010300048508274145 0.0013359209733797147 0 -0.0012886644959343233 0.00049640588862814199 0 -0.0011769153112568967 0.001378266394718803 0 -0.0012886644959343233 0.00049640588862814199 0 -0.0011769153112568967 0.001378266394718803 0 -0.0019643509909739059 0.00070245727677415587 0 -0.0011769153112568967 0.001378266394718803 0 -0.0014852311081026861 0.0010382110551465677 0 -0.0019643509909739059 0.00070245727677415587 0 -0.0011769153112568967 0.001378266394718803 0 -0.0015324985362259759 0.0015261309727415075 0 -0.0014852311081026861 0.0010382110551465677 0 0.00018424348360491659 0.0030204925873538726 0 -0.0011769153112568967 0.001378266394718803 0 -0.0015324985362259759 0.0015261309727415075 0 0.0037744136132189503 0.00061427890845830045 0 0.0026350847054545565 0.00061686315410198664 0 -0.00063240879047231705 5.4537215989121928e-07 0 -0.00029028394379182086 8.4561948139876987e-05 0 -0.0013507549354081954 0.00045557142375475697 0 -0.00029028394379182086 8.4561948139876987e-05 0 -0.0014852311081026861 0.0010382110551465677 0 -0.0013507549354081954 0.00045557142375475697 0 -0.0015324985362259759 0.0015261309727415075 0 -0.00029028394379182086 8.4561948139876987e-05 0 -0.0014852311081026861 0.0010382110551465677 0 0.0026350847054545565 0.00061686315410198664 0 0.0022327742238192187 0.00060236874254588496 0 0.0020087937809850362 -0.00030219254954071335 0 -0.00029028394379182086 8.4561948139876987e-05 0 0.00088371788652361505 0.00028697096755642343 0 -0.0014852311081026861 0.0010382110551465677 0 -0.0019643509909739059 0.00070245727677415587 0 -0.0013507549354081954 0.00045557142375475697 0 -0.0019643509909739059 0.00070245727677415587 0 -0.0013507549354081954 0.00045557142375475697 0 -0.0026697324215672617 9.4516900371286629e-07 0 -0.00063240879047231705 5.4537215989121928e-07 0 -0.0013507549354081954 0.00045557142375475697 0 -0.0026697324215672617 9.4516900371286629e-07 0 -0.0019643509909739059 0.00070245727677415587 0 -0.0026697324215672617 9.4516900371286629e-07 0 -0.0030949666420830601 0.00010806365864391348 0 -0.0026697324215672617 9.4516900371286629e-07 0 -0.0030949666420830601 0.00010806365864391348 0 -0.0047059394219074874 -2.4717518554910411e-07 0 -0.0030949666420830601 0.00010806365864391348 0 -0.0047059394219074874 -2.4717518554910411e-07 0 -0.0043160108142798843 -0.00026452254339194331 0 -0.0047059394219074874 -2.4717518554910411e-07 0 -0.0043160108142798843 -0.00026452254339194331 0 -0.0067431478333364707 -6.2178174608612449e-07 0 -0.0043160108142798843 -0.00026452254339194331 0 -0.0067431478333364707 -6.2178174608612449e-07 0 -0.0050397329511082441 -0.00054838321329562243 0 -0.0030949666420830601 0.00010806365864391348 0 -0.0043160108142798843 -0.00026452254339194331 0 -0.0025812135583458532 -0.00090672696003895692 0 -0.0025812135583458532 -0.00090672696003895692 0 -0.004015535893649144 -0.0010443662477587271 0 -0.0050397329511082441 -0.00054838321329562243 0 -0.0022553213698263165 -0.0004616812272978699 0 -0.0025812135583458532 -0.00090672696003895692 0 -0.004015535893649144 -0.0010443662477587271 0 0.0006941813068770498 -0.0046244139936763391 0 0.00091068203826698908 -0.0015792611264814325 0 -0.0025812135583458532 -0.00090672696003895692 0 0.00035778564311395484 -0.0030868486595519908 0 -0.00010457834803377587 -0.0026724722792434061 0 -0.0043160108142798843 -0.00026452254339194331 0 -0.0025812135583458532 -0.00090672696003895692 0 -0.0050397329511082441 -0.00054838321329562243 0 -0.004015535893649144 -0.0010443662477587271 0 -0.0065806190371828742 -0.0016761424286316029 0 -0.0050397329511082441 -0.00054838321329562243 0 -0.0017546027033870353 -0.002171764925147941 0 -0.0022553213698263165 -0.0004616812272978699 0 -0.004015535893649144 -0.0010443662477587271 0 -0.0050045193348722461 -0.0032413355132295228 0 -0.004015535893649144 -0.0010443662477587271 0 -0.00268830146929027 -0.0037585827499659963 0 -0.0017546027033870353 -0.002171764925147941 0 -0.004015535893649144 -0.0010443662477587271 0 -0.00268830146929027 -0.0037585827499659963 0 -0.0050045193348722461 -0.0032413355132295228 0 -0.004015535893649144 -0.0010443662477587271 0 -0.0065806190371828742 -0.0016761424286316029 0 -0.0075597620022034287 -0.0007773740552684818 0 -0.0065806190371828742 -0.0016761424286316029 0 -0.0072232686646898862 -0.00067880479511656783 0 -0.0065806190371828742 -0.0016761424286316029 0 -0.0072232686646898862 -0.00067880479511656783 0 -0.0050397329511082441 -0.00054838321329562243 0 -0.0087792499872194965 -1.0245523673976093e-06 0 -0.0072232686646898862 -0.00067880479511656783 0 -0.0067431478333364707 -6.2178174608612449e-07 0 -0.0087792499872194965 -1.0245523673976093e-06 0 -0.0082403308808398652 -0.00039524057522855933 0 -0.0072232686646898862 -0.00067880479511656783 0 -0.0072232686646898862 -0.00067880479511656783 0 -0.0067431478333364707 -6.2178174608612449e-07 0 -0.0050397329511082441 -0.00054838321329562243 0 0.016638644110394164 0.0060758044761830051 0 0.016647395510649733 0.0060853020514062585 0 0.016643621904879634 0.0060626724204629959 0 0.016647395510649733 0.0060853020514062585 0 0.016643621904879634 0.0060626724204629959 0 0.016657191291135808 0.0060732155563313125 0 0.016643621904879634 0.0060626724204629959 0 0.016657191291135808 0.0060732155563313125 0 0.016652852476329819 0.0060356680322454642 0 0.016643621904879634 0.0060626724204629959 0 0.016637155328616045 0.0060657362773082471 0 0.016651383287443672 0.0060499196252598308 0 0.016637155328616045 0.0060657362773082471 0 0.016651383287443672 0.0060499196252598308 0 0.016634343960061856 0.006058974621898949 0 0.016637155328616045 0.0060657362773082471 0 0.016622867528674399 0.0060740483546266391 0 0.016634343960061856 0.006058974621898949 0 0.016633539176789582 0.0060755040112588565 0 0.016637155328616045 0.0060657362773082471 0 0.016622867528674399 0.0060740483546266391 0 0.016638644110394164 0.0060758044761830051 0 0.016633539176789582 0.0060755040112588565 0 0.016637155328616045 0.0060657362773082471 0 0.016638644110394164 0.0060758044761830051 0 0.016643621904879634 0.0060626724204629959 0 0.016637155328616045 0.0060657362773082471 0 0.016622867528674399 0.0060740483546266391 0 0.016634435607353955 0.0060871303674010814 0 0.016608999627329736 0.0060745739593815592 0 -0.0075780300178153607 0.0043863594142494189 0 -0.0072138823491669267 0.0042734295073729722 0 -0.0079389333348071408 0.0042520607937127251 0 -0.00056115039046689596 0.0033929950704485014 0 0.0017756268336887782 0.005060297790923169 0 0.016633539176789582 0.0060755040112588565 0 0.016622867528674399 0.0060740483546266391 0 0.016634435607353955 0.0060871303674010814 0 -0.0075780300178153607 0.0043863594142494189 0 -0.0077909564129986023 0.0044771941019490068 0 -0.0076454233093044182 0.0045700943634999578 0 -0.0075780300178153607 0.0043863594142494189 0 -0.0074463333424515761 0.0046072908715218261 0 -0.0076454233093044182 0.0045700943634999578 0 -0.0075780300178153607 0.0043863594142494189 0 -0.0073797661655331057 0.0043733579349589406 0 -0.0072138823491669267 0.0042734295073729722 0 -0.0075780300178153607 0.0043863594142494189 0 -0.0073797661655331057 0.0043733579349589406 0 -0.0074463333424515761 0.0046072908715218261 0 -0.0073797661655331057 0.0043733579349589406 0 -0.0073156047504687703 0.0045022847317498808 0 -0.0074463333424515761 0.0046072908715218261 0 -0.0073797661655331057 0.0043733579349589406 0 -0.0073156047504687703 0.0045022847317498808 0 -0.007277053827989214 0.0043774758277470207 0 -0.007202619595989221 0.0043771402455491364 0 -0.0072138823491669267 0.0042734295073729722 0 -0.0067333898269611265 0.0042737881601135506 0 -0.0073156047504687703 0.0045022847317498808 0 -0.007202619595989221 0.0043771402455491364 0 -0.007277053827989214 0.0043774758277470207 0 -0.0073797661655331057 0.0043733579349589406 0 -0.007277053827989214 0.0043774758277470207 0 -0.0072138823491669267 0.0042734295073729722 0 -0.007202619595989221 0.0043771402455491364 0 -0.007277053827989214 0.0043774758277470207 0 -0.0072138823491669267 0.0042734295073729722 0 0.016638644110394164 0.0060758044761830051 0 0.016647395510649733 0.0060853020514062585 0 0.016634435607353955 0.0060871303674010814 0 0.016638644110394164 0.0060758044761830051 0 0.016633539176789582 0.0060755040112588565 0 0.016634435607353955 0.0060871303674010814 0 -0.00056115039046689596 0.0033929950704485014 0 -0.0069957526006274228 0.0013595140782636766 0 0.016647395510649733 0.0060853020514062585 0 0.016634435607353955 0.0060871303674010814 0 0.016679278533170253 0.0061422304256603232 0 -0.0069957526006274228 0.0013595140782636766 0 -0.012669261257975401 0.0028055299458203012 0 -0.007202619595989221 0.0043771402455491364 0 -0.0067333898269611265 0.0042737881601135506 0 -0.0070287990765112293 0.0045781584254064103 0 -0.029474379527181991 0.00096385385922812482 0 -0.029697085753950379 0.00074004674836721158 0 -0.029882607821073527 0.00090903290237711134 0 -0.0069957526006274228 0.0013595140782636766 0 -0.01275221196483531 0.00029905151799986619 0 -0.0069957526006274228 0.0013595140782636766 0 -0.0012674098831027744 -0.00018405991892915454 0 0.016679278533170253 0.0061422304256603232 0 0.016681514164159361 0.0060534443348028016 0 0.016787530947567589 0.006133615129950463 0 0.016679278533170253 0.0061422304256603232 0 0.016657191291135808 0.0060732155563313125 0 0.016681514164159361 0.0060534443348028016 0 0.016647395510649733 0.0060853020514062585 0 0.016679278533170253 0.0061422304256603232 0 0.016657191291135808 0.0060732155563313125 0 0.016657191291135808 0.0060732155563313125 0 0.016681514164159361 0.0060534443348028016 0 0.016652852476329819 0.0060356680322454642 0 0.016681514164159361 0.0060534443348028016 0 0.016656889978277401 0.0060000330320842954 0 0.016652852476329819 0.0060356680322454642 0 0.016681514164159361 0.0060534443348028016 0 0.016641533394544671 0.0059384323938310507 0 0.016798018886819328 0.0060124180232843209 0 0.016681514164159361 0.0060534443348028016 0 0.016787530947567589 0.006133615129950463 0 0.016798018886819328 0.0060124180232843209 0 0.016641533394544671 0.0059384323938310507 0 0.016798018886819328 0.0060124180232843209 0 0.016916092465310204 0.0057839747484758576 0 0.016641533394544671 0.0059384323938310507 0 0.016656889978277401 0.0060000330320842954 0 0.016667736532977217 0.0060277423416369531 0 0.016681514164159361 0.0060534443348028016 0 0.016641533394544671 0.0059384323938310507 0 0.016656889978277401 0.0060000330320842954 0 0.016656889978277401 0.0060000330320842954 0 0.016688972491096844 0.0060332379141817072 0 0.016667736532977217 0.0060277423416369531 0 0.016656889978277401 0.0060000330320842954 0 0.016688972491096844 0.0060332379141817072 0 0.016652852476329819 0.0060356680322454642 0 0.016643621904879634 0.0060626724204629959 0 0.016652852476329819 0.0060356680322454642 0 0.016651383287443672 0.0060499196252598308 0 0.016652852476329819 0.0060356680322454642 0 0.016651383287443672 0.0060499196252598308 0 0.016680534205392922 0.0060416307046252575 0 0.016688972491096844 0.0060332379141817072 0 0.016652852476329819 0.0060356680322454642 0 0.016680534205392922 0.0060416307046252575 0 0.016688972491096844 0.0060332379141817072 0 0.016680534205392922 0.0060416307046252575 0 0.016717418097465877 0.0060471169399750214 0 0.016680534205392922 0.0060416307046252575 0 0.016688063213317016 0.0060438534856007186 0 0.016717418097465877 0.0060471169399750214 0 0.016802646149246682 0.0066426232305411342 0 0.016589112958918417 0.0066158043340797199 0 0.016712919150797732 0.0064770750307077277 0 0.016802646149246682 0.0066426232305411342 0 0.016589112958918417 0.0066158043340797199 0 0.016727922196708787 0.0068838266038591025 0 0.016688063213317016 0.0060438534856007186 0 0.016657723134241725 0.0060506887524914279 0 0.016645255793322277 0.0060532798952894372 0 0.0072179586175725305 0.0056066558116627677 0 0.0044882256954298962 0.0062809562737512273 0 0.016680534205392922 0.0060416307046252575 0 0.016688063213317016 0.0060438534856007186 0 0.016657723134241725 0.0060506887524914279 0 0.016651383287443672 0.0060499196252598308 0 0.016680534205392922 0.0060416307046252575 0 0.016657723134241725 0.0060506887524914279 0 0.0023005301699187256 0.0054217154069891391 0 0.0019893099333821514 0.0056413111383789103 0 0.016477745577192046 0.006582680887733415 0 0.016589112958918417 0.0066158043340797199 0 0.016554353897903083 0.0066435244087578952 0 0.016477745577192046 0.006582680887733415 0 0.016589112958918417 0.0066158043340797199 0 0.01658127943781702 0.0064990111457185317 0 0.016589112958918417 0.0066158043340797199 0 0.016554353897903083 0.0066435244087578952 0 0.016523293418508108 0.0066342110531429042 0 0.0061890986254569897 0.0074543273295192072 0 0.0044882256954298962 0.0062809562737512273 0 -0.0092771481964717926 0.0030388120717487963 0 -0.0088842823507726265 0.0037519315071863897 0 -0.0092989555789617876 0.0036434261167128936 0 -0.0088842823507726265 0.0037519315071863897 0 -0.0092989555789617876 0.0036434261167128936 0 -0.00918768602978688 0.0040560637160409873 0 -0.0095019424440103261 0.0039299637343556742 0 -0.0092989555789617876 0.0036434261167128936 0 -0.00918768602978688 0.0040560637160409873 0 -0.0088842823507726265 0.0037519315071863897 0 -0.00918768602978688 0.0040560637160409873 0 -0.0088995119919001737 0.004230414699582726 0 -0.0094887341586966448 0.0042095808886847205 0 -0.00918768602978688 0.0040560637160409873 0 -0.0091689257338342916 0.0044797472382388567 0 -0.00918768602978688 0.0040560637160409873 0 -0.0088995119919001737 0.004230414699582726 0 -0.0091689257338342916 0.0044797472382388567 0 0.0019893099333821514 0.0056413111383789103 0 0.0012877807465844244 0.0057254552364825531 0 0.016554353897903083 0.0066435244087578952 0 0.016522418855299367 0.0066049818770375218 0 0.016523293418508108 0.0066342110531429042 0 -0.0088842823507726265 0.0037519315071863897 0 -0.0088995119919001737 0.004230414699582726 0 -0.0084789642658326947 0.0044931161907019145 0 -0.008533444173049777 0.0044347865439838237 0 -0.0089501036146096107 0.0047002829929451533 0 -0.0091919114568171176 0.004428468892076879 0 0.0012877807465844244 0.0057254552364825531 0 -0.002632419625140007 0.0055226279074764963 0 -0.0088995119919001737 0.004230414699582726 0 -0.0084789642658326947 0.0044931161907019145 0 -0.0091689257338342916 0.0044797472382388567 0 -0.008533444173049777 0.0044347865439838237 0 -0.0082393746548879657 0.0050059264943336339 0 -0.008689104805940602 0.004847811634933627 0 -0.008533444173049777 0.0044347865439838237 0 -0.0089501036146096107 0.0047002829929451533 0 -0.008689104805940602 0.004847811634933627 0 -0.0089501036146096107 0.0047002829929451533 0 -0.0092205535088415308 0.0047589915314285242 0 -0.0091919114568171176 0.004428468892076879 0 -0.0095117758216080456 0.004603132299666606 0 -0.0092205535088415308 0.0047589915314285242 0 -0.0091919114568171176 0.004428468892076879 0 0.016657723134241725 0.0060506887524914279 0 0.016642592443388105 0.0060552570376852652 0 0.016645255793322277 0.0060532798952894372 0 0.016642592443388105 0.0060552570376852652 0 0.016634343960061856 0.006058974621898949 0 0.016633887295078566 0.0060524561778200784 0 0.016622867528674399 0.0060740483546266391 0 0.016634343960061856 0.006058974621898949 0 0.016608999627329736 0.0060745739593815592 0 0.0023589035780859314 0.0047006677150012314 0 0.0017756268336887782 0.005060297790923169 0 0.016657723134241725 0.0060506887524914279 0 0.016642592443388105 0.0060552570376852652 0 0.016634343960061856 0.006058974621898949 0 0.016651383287443672 0.0060499196252598308 0 0.016657723134241725 0.0060506887524914279 0 0.016634343960061856 0.006058974621898949 0 0.0044882256954298962 0.0062809562737512273 0 0.0025292589573271736 0.0055414540786625872 0 0.016642592443388105 0.0060552570376852652 0 0.016645255793322277 0.0060532798952894372 0 0.016634992540005646 0.0060533078140162623 0 0.016522418855299367 0.0066049818770375218 0 0.016523293418508108 0.0066342110531429042 0 0.016514408300977661 0.0066046976266717385 0 0.0044882256954298962 0.0062809562737512273 0 0.0022124092192229452 0.005359905231289392 0 0.0038662799616937266 0.0045544444504700314 0 0.0035987929872027566 0.0057373329600615228 0 0.0045753384302233812 0.0057521796364945945 0 0.0012877807465844244 0.0057254552364825531 0 -0.00044678265745538653 0.0052385741507252901 0 0.00041356048837732403 0.0056027599590153434 0 0.00029047601067152482 0.005612466383383888 0 0.00032325604402897769 0.0056671278500332756 0 0.00057240070764990811 0.0056736260100757989 0 0.00050897840550835432 0.0056721662306736653 0 0.00043307493902776481 0.0054052721102631944 0 0.00050897840550835432 0.0056721662306736653 0 0.00041356048837732403 0.0056027599590153434 0 0.00043307493902776481 0.0054052721102631944 0 0.00050897840550835432 0.0056721662306736653 0 0.00041356048837732403 0.0056027599590153434 0 0.00032325604402897769 0.0056671278500332756 0 0.0025292589573271736 0.0055414540786625872 0 0.0022124092192229452 0.005359905231289392 0 0.0012877807465844244 0.0057254552364825531 0 0.0025292589573271736 0.0055414540786625872 0 0.00041356048837732403 0.0056027599590153434 0 0.00029047601067152482 0.005612466383383888 0 0.00043307493902776481 0.0054052721102631944 0 -0.0080111223000853358 0.0043518563860227314 0 -0.0079389333348071408 0.0042520607937127251 0 -0.0077909564129986023 0.0044771941019490068 0 0.0014672908874169145 0.0050030987430447994 0 0.0022124092192229452 0.005359905231289392 0 0.0022124092192229452 0.005359905231289392 0 0.0017756268336887782 0.005060297790923169 0 0.016642592443388105 0.0060552570376852652 0 0.016634992540005646 0.0060533078140162623 0 0.016633887295078566 0.0060524561778200784 0 0.00022578957210569927 0.0067733906059975202 0 -0.001532565304892091 0.0038066956159996373 0 0.0022594999522759416 0.0038662819424225884 0 0.0014672908874169145 0.0050030987430447994 0 0.0017756268336887782 0.005060297790923169 0 -0.0075780300178153607 0.0043863594142494189 0 -0.0079389333348071408 0.0042520607937127251 0 -0.0077909564129986023 0.0044771941019490068 0 -0.0077909564129986023 0.0044771941019490068 0 -0.0077672340047646249 0.0048145209787188803 0 -0.0076454233093044182 0.0045700943634999578 0 -0.0079660095104821058 0.004509206098671348 0 -0.0077303236686668345 0.0049202285176187929 0 -0.0079714509743552698 0.004914971471631004 0 -0.0080111223000853358 0.0043518563860227314 0 -0.0077909564129986023 0.0044771941019490068 0 -0.0077672340047646249 0.0048145209787188803 0 0.0014672908874169145 0.0050030987430447994 0 -7.9682941307533778e-05 0.0040993097236331315 0 -0.0077303236686668345 0.0049202285176187929 0 -0.0079714509743552698 0.004914971471631004 0 -0.0078623995700532294 0.0051230891819276751 0 -0.0079660095104821058 0.004509206098671348 0 -0.0079714509743552698 0.004914971471631004 0 -0.0082238930935473829 0.0048669310081893213 0 0.0014672908874169145 0.0050030987430447994 0 -0.00044678265745538653 0.0052385741507252901 0 -0.00044678265745538653 0.0052385741507252901 0 -0.0032556454840006301 0.0059479349814064233 0 -0.0079714509743552698 0.004914971471631004 0 -0.0082238930935473829 0.0048669310081893213 0 -0.008094773206181384 0.0051450092342974624 0 -0.00044678265745538653 0.0052385741507252901 0 -0.00065802411573883692 0.0050772542087679081 0 -0.008094773206181384 0.0051450092342974624 0 -0.008259440364819506 0.0053843725464126895 0 -0.0084782045523430043 0.0052119694224998158 0 -0.0082336010759822605 0.0048678577482467542 0 -0.008094773206181384 0.0051450092342974624 0 -0.0084782045523430043 0.0052119694224998158 0 -0.008259440364819506 0.0053843725464126895 0 -0.0084782045523430043 0.0052119694224998158 0 -0.0083472969291060496 0.0056551345179490049 0 -0.008094773206181384 0.0051450092342974624 0 -0.008259440364819506 0.0053843725464126895 0 -0.0081138766470938966 0.0055175682439304076 0 -0.008094773206181384 0.0051450092342974624 0 -0.0078438366139592808 0.0053899072520255638 0 -0.0081138766470938966 0.0055175682439304076 0 -0.0078438366139592808 0.0053899072520255638 0 -0.0077281684199817938 0.0051875429044703908 0 -0.0078623995700532294 0.0051230891819276751 0 -0.0078438366139592808 0.0053899072520255638 0 -0.0077281684199817938 0.0051875429044703908 0 -0.0074780944394719703 0.0053224094640862288 0 -0.0077303236686668345 0.0049202285176187929 0 -0.0077281684199817938 0.0051875429044703908 0 -0.0078623995700532294 0.0051230891819276751 0 -0.0079714509743552698 0.004914971471631004 0 -0.008094773206181384 0.0051450092342974624 0 -0.0078623995700532294 0.0051230891819276751 0 -0.008094773206181384 0.0051450092342974624 0 -0.0078438366139592808 0.0053899072520255638 0 -0.0078623995700532294 0.0051230891819276751 0 -0.0096465045662661644 0.0050907230118543848 0 -0.0091141691605114636 0.0050281763025314388 0 -0.0094051194157022192 0.0053325781658085302 0 -0.0095298951334168245 0.0048594573136711682 0 -0.0092205535088415308 0.0047589915314285242 0 -0.0091141691605114636 0.0050281763025314388 0 -0.0089501036146096107 0.0047002829929451533 0 -0.0092205535088415308 0.0047589915314285242 0 -0.0091141691605114636 0.0050281763025314388 0 -0.0091141691605114636 0.0050281763025314388 0 -0.0087441420915016291 0.0051637342383966242 0 -0.0090669704793895547 0.0054437039901425776 0 -0.0082393746548879657 0.0050059264943336339 0 -0.0087441420915016291 0.0051637342383966242 0 -0.0085331097489708477 0.0054175691149559091 0 -0.0082393746548879657 0.0050059264943336339 0 -0.0087441420915016291 0.0051637342383966242 0 -0.008689104805940602 0.004847811634933627 0 -0.0091141691605114636 0.0050281763025314388 0 -0.0087441420915016291 0.0051637342383966242 0 -0.008689104805940602 0.004847811634933627 0 -0.0089501036146096107 0.0047002829929451533 0 -0.0091141691605114636 0.0050281763025314388 0 -0.008689104805940602 0.004847811634933627 0 -0.0085331097489708477 0.0054175691149559091 0 -0.0090669704793895547 0.0054437039901425776 0 -0.0088237634048152786 0.0058323229666648133 0 -0.0087441420915016291 0.0051637342383966242 0 -0.0085331097489708477 0.0054175691149559091 0 -0.0090669704793895547 0.0054437039901425776 0 -0.0032556454840006301 0.0059479349814064233 0 -0.0054847571640848211 0.0063147984805858202 0 -0.0095371263863667979 0.0056250661725762664 0 -0.0090669704793895547 0.0054437039901425776 0 -0.0094051194157022192 0.0053325781658085302 0 -0.0095371263863667979 0.0056250661725762664 0 -0.0090669704793895547 0.0054437039901425776 0 -0.0088237634048152786 0.0058323229666648133 0 -0.0091141691605114636 0.0050281763025314388 0 -0.0090669704793895547 0.0054437039901425776 0 -0.0094051194157022192 0.0053325781658085302 0 -0.0095653629312873693 0.0057287448900462477 0 -0.0091354950369513209 0.0055943385949426038 0 -0.0093219029701740747 0.0058787231751098023 0 -0.0072780857596772639 0.0058656149160763961 0 -0.0054847571640848211 0.0063147984805858202 0 -0.0097982105810932672 0.0054566093867211823 0 -0.0095653629312873693 0.0057287448900462477 0 -0.0091354950369513209 0.0055943385949426038 0 -0.0090735317138891085 0.0055126989943238905 0 -0.0088791500464412108 0.006057058947439466 0 -0.0093219029701740747 0.0058787231751098023 0 -0.0084782045523430043 0.0052119694224998158 0 -0.0087095242485029176 0.0055482844575296788 0 -0.0083472969291060496 0.0056551345179490049 0 -0.0090735317138891085 0.0055126989943238905 0 -0.0088791500464412108 0.006057058947439466 0 -0.0085514815050691338 0.0056498600510283435 0 -0.0054847571640848211 0.0063147984805858202 0 -0.0055926842803220647 0.0063720634197609611 0 -0.0054847571640848211 0.0063147984805858202 0 -0.0061600200737456177 0.0061346848906238477 0 -0.0084922744567358568 0.0064453714293871223 0 -0.0092935870041714989 0.0064145308047850033 0 -0.0088791500464412108 0.006057058947439466 0 -0.0092935870041714989 0.0064145308047850033 0 -0.0088791500464412108 0.006057058947439466 0 -0.0093219029701740747 0.0058787231751098023 0 -0.009788855549470803 0.0064487813365303277 0 -0.0092935870041714989 0.0064145308047850033 0 -0.0096548251008658457 0.0060556944786175973 0 -0.0092935870041714989 0.0064145308047850033 0 -0.0093219029701740747 0.0058787231751098023 0 -0.0096548251008658457 0.0060556944786175973 0 -0.0095653629312873693 0.0057287448900462477 0 -0.0093219029701740747 0.0058787231751098023 0 -0.0096548251008658457 0.0060556944786175973 0 -0.0078438366139592808 0.0053899072520255638 0 -0.0078173333528990599 0.0057765519420238526 0 -0.0074780944394719703 0.0053224094640862288 0 -0.0080118848557006201 0.0057896396133396283 0 -0.0079484574550194257 0.0056149526280158324 0 -0.0081138766470938966 0.0055175682439304076 0 -0.0080118848557006201 0.0057896396133396283 0 -0.0078173333528990599 0.0057765519420238526 0 -0.0079484574550194257 0.0056149526280158324 0 -0.0078438366139592808 0.0053899072520255638 0 -0.0078173333528990599 0.0057765519420238526 0 -0.0079484574550194257 0.0056149526280158324 0 -0.0078438366139592808 0.0053899072520255638 0 -0.0079484574550194257 0.0056149526280158324 0 -0.0081138766470938966 0.0055175682439304076 0 -0.008259440364819506 0.0053843725464126895 0 -0.0081138766470938966 0.0055175682439304076 0 -0.0083472969291060496 0.0056551345179490049 0 -0.0080118848557006201 0.0057896396133396283 0 -0.0081138766470938966 0.0055175682439304076 0 -0.0083472969291060496 0.0056551345179490049 0 -0.0063491267714241842 0.0060850053622143437 0 -0.0061600200737456177 0.0061346848906238477 0 -0.0084922744567358568 0.0064453714293871223 0 -0.0088791500464412108 0.006057058947439466 0 -0.0085514815050691338 0.0056498600510283435 0 -0.0084922744567358568 0.0064453714293871223 0 -0.0080118848557006201 0.0057896396133396283 0 -0.0085514815050691338 0.0056498600510283435 0 -0.0084922744567358568 0.0064453714293871223 0 -0.0080118848557006201 0.0057896396133396283 0 -0.0078173333528990599 0.0057765519420238526 0 -0.017847506058453939 0.0034453788763402289 0 -0.017337720156269033 0.0033587064846670824 0 -0.027932604451862037 -1.9416707674342136e-05 0 -0.028321860397993556 0.00037152861652523872 0 -0.028365316079216538 4.6183997389970312e-05 0 -0.028321860397993556 0.00037152861652523872 0 -0.028365316079216538 4.6183997389970312e-05 0 -0.028589377468347377 0.00027413460790088901 0 -0.028529130582978113 -0.00022920313740291111 0 -0.028365316079216538 4.6183997389970312e-05 0 -0.028589377468347377 0.00027413460790088901 0 -0.028925828810103436 -0.0001889893008644873 0 -0.028775800872294935 6.4065989558460541e-05 0 -0.029033702390679275 0.00016128094738174039 0 -0.028925828810103436 -0.0001889893008644873 0 -0.029033702390679275 0.00016128094738174039 0 -0.029225140850734029 -3.9496133075773833e-05 0 -0.029033702390679275 0.00016128094738174039 0 -0.028889921979143307 0.00046385391849468289 0 -0.029256675855137079 0.00032259635651000687 0 -0.029033702390679275 0.00016128094738174039 0 -0.029256675855137079 0.00032259635651000687 0 -0.029225140850734029 -3.9496133075773833e-05 0 -0.017337720156269033 0.0033587064846670824 0 -0.0165849827050524 0.0031887281956603586 0 -0.028775800872294935 6.4065989558460541e-05 0 -0.029033702390679275 0.00016128094738174039 0 -0.028889921979143307 0.00046385391849468289 0 -0.028321860397993556 0.00037152861652523872 0 -0.028589377468347377 0.00027413460790088901 0 -0.028660244795945443 0.00073567034564454099 0 -0.0078173333528990599 0.0057765519420238526 0 -0.007336637306979827 0.0052465042722834613 0 -0.0074780944394719703 0.0053224094640862288 0 -0.019280755282862095 0.0022348417080318562 0 -0.0165849827050524 0.0031887281956603586 0 -0.0077303236686668345 0.0049202285176187929 0 -0.0077281684199817938 0.0051875429044703908 0 -0.0074780944394719703 0.0053224094640862288 0 -0.0077672340047646249 0.0048145209787188803 0 -0.0074864046394637462 0.0049705427524783111 0 -0.0074780944394719703 0.0053224094640862288 0 -7.9682941307533778e-05 0.0040993097236331315 0 -0.00054204641033044748 0.0038725649587403139 0 -0.0165849827050524 0.0031887281956603586 0 -0.015941301185576535 0.0032160235431014689 0 -0.0074864046394637462 0.0049705427524783111 0 -0.007336637306979827 0.0052465042722834613 0 -0.0072491941085641503 0.0048067550666566761 0 -0.0074864046394637462 0.0049705427524783111 0 -0.007336637306979827 0.0052465042722834613 0 -0.0074780944394719703 0.0053224094640862288 0 -0.028889921979143307 0.00046385391849468289 0 -0.029192464685123976 0.00072237264385442376 0 -0.029256675855137079 0.00032259635651000687 0 -0.0165849827050524 0.0031887281956603586 0 -0.012669261257975401 0.0028055299458203012 0 -0.0073375062947785745 0.0048728568376878185 0 -0.0072716862408424123 0.0046200577509694536 0 -0.0070287990765112293 0.0045781584254064103 0 -0.007202619595989221 0.0043771402455491364 0 -0.0072716862408424123 0.0046200577509694536 0 -0.0070287990765112293 0.0045781584254064103 0 -0.0073156047504687703 0.0045022847317498808 0 -0.007202619595989221 0.0043771402455491364 0 -0.0072491941085641503 0.0048067550666566761 0 -0.015727854187375948 0.0032136602061963765 0 -0.015941301185576535 0.0032160235431014689 0 -0.0073156047504687703 0.0045022847317498808 0 -0.0072491941085641503 0.0048067550666566761 0 -0.0074463333424515761 0.0046072908715218261 0 -0.0077672340047646249 0.0048145209787188803 0 -0.0074463333424515761 0.0046072908715218261 0 -0.0076454233093044182 0.0045700943634999578 0 -0.0077672340047646249 0.0048145209787188803 0 -0.0074864046394637462 0.0049705427524783111 0 -0.0074463333424515761 0.0046072908715218261 0 -0.0074864046394637462 0.0049705427524783111 0 -0.0072491941085641503 0.0048067550666566761 0 -0.0074463333424515761 0.0046072908715218261 0 -0.029474379527181991 0.00096385385922812482 0 -0.029697085753950379 0.00074004674836721158 0 -0.029192464685123976 0.00072237264385442376 0 -0.029697085753950379 0.00074004674836721158 0 -0.029192464685123976 0.00072237264385442376 0 -0.029607489259211441 0.00048785590427979063 0 -0.029192464685123976 0.00072237264385442376 0 -0.029607489259211441 0.00048785590427979063 0 -0.029256675855137079 0.00032259635651000687 0 -0.029607489259211441 0.00048785590427979063 0 -0.029586168181738245 0.00011265947483100272 0 -0.029808873419924234 0.00028818857865077913 0 -0.029607489259211441 0.00048785590427979063 0 -0.029256675855137079 0.00032259635651000687 0 -0.029586168181738245 0.00011265947483100272 0 -0.029256675855137079 0.00032259635651000687 0 -0.029225140850734029 -3.9496133075773833e-05 0 -0.029586168181738245 0.00011265947483100272 0 -0.029479072741522019 -0.00017064305250448928 0 -0.029225140850734029 -3.9496133075773833e-05 0 -0.029586168181738245 0.00011265947483100272 0 -0.029776853879342809 -0.00030232736526096294 0 -0.029479072741522019 -0.00017064305250448928 0 -0.029586168181738245 0.00011265947483100272 0 -0.029776853879342809 -0.00030232736526096294 0 -0.029586168181738245 0.00011265947483100272 0 -0.030011087041368373 0.00010026179774874202 0 -0.030011087041368373 0.00010026179774874202 0 -0.029808873419924234 0.00028818857865077913 0 -0.030019293694478328 0.00044243465001014018 0 -0.029586168181738245 0.00011265947483100272 0 -0.030011087041368373 0.00010026179774874202 0 -0.029808873419924234 0.00028818857865077913 0 -0.030011087041368373 0.00010026179774874202 0 -0.030289285496663231 0.00026049874550918966 0 -0.030019293694478328 0.00044243465001014018 0 -0.030011087041368373 0.00010026179774874202 0 -0.030386773645451642 -2.885796564662806e-05 0 -0.030289285496663231 0.00026049874550918966 0 -0.030169142279659271 -0.00027669973255264424 0 -0.030011087041368373 0.00010026179774874202 0 -0.030386773645451642 -2.885796564662806e-05 0 -0.029602222071428475 0.0010068274234041987 0 -0.029531125050681024 0.0010575945358520123 0 -0.030386773645451642 -2.885796564662806e-05 0 -0.030470208396390596 0.00022382451007272057 0 -0.030289285496663231 0.00026049874550918966 0 -0.03101138816772471 -0.00042152383195987223 0 -0.030386773645451642 -2.885796564662806e-05 0 -0.030959676606414452 0.00024760377415916201 0 -0.030470208396390596 0.00022382451007272057 0 -0.030381870853801039 0.00050689206959068347 0 -0.030583820853147672 0.00039840817146767079 0 -0.030470208396390596 0.00022382451007272057 0 -0.030289285496663231 0.00026049874550918966 0 -0.030381870853801039 0.00050689206959068347 0 -0.030289285496663231 0.00026049874550918966 0 -0.030381870853801039 0.00050689206959068347 0 -0.030019293694478328 0.00044243465001014018 0 -0.030381870853801039 0.00050689206959068347 0 -0.030057497223656141 0.00068153592830794434 0 -0.03022892076783356 0.00080969496839342374 0 -0.029697085753950379 0.00074004674836721158 0 -0.030057497223656141 0.00068153592830794434 0 -0.030019293694478328 0.00044243465001014018 0 -0.029607489259211441 0.00048785590427979063 0 -0.029808873419924234 0.00028818857865077913 0 -0.030019293694478328 0.00044243465001014018 0 -0.029697085753950379 0.00074004674836721158 0 -0.029607489259211441 0.00048785590427979063 0 -0.030019293694478328 0.00044243465001014018 0 -0.030381870853801039 0.00050689206959068347 0 -0.030057497223656141 0.00068153592830794434 0 -0.030019293694478328 0.00044243465001014018 0 -0.032258701850288431 6.7060568549001225e-05 0 -0.031953422441108333 4.0163890134385812e-05 0 -0.032323304955677923 0.00013099750187902293 0 -0.032258701850288431 6.7060568549001225e-05 0 -0.032270540833885614 -0.00012715981071086558 0 -0.031953422441108333 4.0163890134385812e-05 0 -0.032004877506698809 -0.00028223410929166276 0 -0.032270288433112616 -0.00037080789685833197 0 -0.032270540833885614 -0.00012715981071086558 0 -0.031522248334349481 -0.0002272079491128359 0 -0.032004877506698809 -0.00028223410929166276 0 -0.031953422441108333 4.0163890134385812e-05 0 -0.032004877506698809 -0.00028223410929166276 0 -0.032270540833885614 -0.00012715981071086558 0 -0.031953422441108333 4.0163890134385812e-05 0 -0.031522248334349481 -0.0002272079491128359 0 -0.030959676606414452 0.00024760377415916201 0 -0.031424543702526175 0.00048756564471823222 0 -0.031522248334349481 -0.0002272079491128359 0 -0.031821482725045126 0.00029303470234719561 0 -0.031424543702526175 0.00048756564471823222 0 -0.031821482725045126 0.00029303470234719561 0 -0.031424543702526175 0.00048756564471823222 0 -0.031779587270494028 0.00065255985017668094 0 -0.028514744720790408 0.0014058308240345963 0 -0.02810272883101959 0.0013905558633190841 0 -0.029531125050681024 0.0010575945358520123 0 -0.029164240543071498 0.0011199215663454433 0 -0.030381870853801039 0.00050689206959068347 0 -0.030583820853147672 0.00039840817146767079 0 -0.030574191031084226 0.00055890747272828618 0 -0.030381870853801039 0.00050689206959068347 0 -0.030574191031084226 0.00055890747272828618 0 -0.030470103446361578 0.00071060976131283652 0 -0.030574191031084226 0.00055890747272828618 0 -0.030628067215242118 0.00052680442441700899 0 -0.030613611523770439 0.00056420323247619334 0 -0.030574191031084226 0.00055890747272828618 0 -0.030613611523770439 0.00056420323247619334 0 -0.030594403353183343 0.00061371280021931646 0 -0.030583820853147672 0.00039840817146767079 0 -0.030574191031084226 0.00055890747272828618 0 -0.030628067215242118 0.00052680442441700899 0 -0.029164240543071498 0.0011199215663454433 0 -0.028189645432609399 0.0010285010324755847 0 -0.02810272883101959 0.0013905558633190841 0 -0.026520802348396474 0.0010114430889967658 0 -0.031821482725045126 0.00029303470234719561 0 -0.031779587270494028 0.00065255985017668094 0 -0.03200508256655215 0.00064706303351512017 0 -0.028189645432609399 0.0010285010324755847 0 -0.026063695025617083 0.00050048974674438791 0 -0.030628067215242118 0.00052680442441700899 0 -0.030613611523770439 0.00056420323247619334 0 -0.030587730180778337 0.00057078890382538695 0 -0.030613611523770439 0.00056420323247619334 0 -0.030587730180778337 0.00057078890382538695 0 -0.030597396266192328 0.00053842309998574994 0 -0.031779587270494028 0.00065255985017668094 0 -0.032006437011794286 0.00077154198255376897 0 -0.03200508256655215 0.00064706303351512017 0 -0.032124359908561002 0.00086800357176100346 0 -0.032006437011794286 0.00077154198255376897 0 -0.03200508256655215 0.00064706303351512017 0 -0.032281100770306791 0.00017936716820002885 0 -0.032258701850288431 6.7060568549001225e-05 0 -0.032323304955677923 0.00013099750187902293 0 0.004013489746545201 -0.0075176147937977477 0 0.0024668977718259352 -0.0048212238897126017 0 0.0014403610189134487 -0.0076982131222070437 0 -0.030500758637714839 0.00052399042841027872 0 -0.030587730180778337 0.00057078890382538695 0 -0.030597396266192328 0.00053842309998574994 0 0.0024668977718259352 -0.0048212238897126017 0 0.00017811888724090721 -0.0065974939065328959 0 -8.5167100405226037e-05 -0.0048867984784356317 0 -0.030613611523770439 0.00056420323247619334 0 -0.030597396266192328 0.00053842309998574994 0 -0.030594403353183343 0.00061371280021931646 0 -0.017540744484983627 -0.0013331616811663913 0 -0.016403227695808799 -0.0011623045303606264 0 0.0024668977718259352 -0.0048212238897126017 0 0.00017811888724090721 -0.0065974939065328959 0 0.0014403610189134487 -0.0076982131222070437 0 0.00017811888724090721 -0.0065974939065328959 0 -8.5167100405226037e-05 -0.0048867984784356317 0 -0.002605389849469026 -0.0049312105680956184 0 -0.030574191031084226 0.00055890747272828618 0 -0.030594403353183343 0.00061371280021931646 0 -0.030470103446361578 0.00071060976131283652 0 -0.016403227695808799 -0.0011623045303606264 0 -0.015905172042242739 -0.0008692030660898694 0 0.00017811888724090721 -0.0065974939065328959 0 -0.002605389849469026 -0.0049312105680956184 0 -0.0026687130915439379 -0.0069994597865646298 0 -0.00083559767897872957 -0.00797600798672711 0 -0.0026687130915439379 -0.0069994597865646298 0 -0.0031516764410868679 -0.0088683935450314978 0 0.00017811888724090721 -0.0065974939065328959 0 -0.00083559767897872957 -0.00797600798672711 0 -0.0026687130915439379 -0.0069994597865646298 0 -0.0031516764410868679 -0.0088683935450314978 0 -0.0033965823858675644 -0.010261747350863753 0 -0.001330090587463602 -0.010826079037147791 0 -0.00083559767897872957 -0.00797600798672711 0 -0.0031516764410868679 -0.0088683935450314978 0 -0.001330090587463602 -0.010826079037147791 0 -0.00083559767897872957 -0.00797600798672711 0 0.00046623486464124114 -0.0093057908381325629 0 -0.001330090587463602 -0.010826079037147791 0 0.00046623486464124114 -0.0093057908381325629 0 0.0011063788179576234 -0.010187600421266952 0 -0.001330090587463602 -0.010826079037147791 0 0.00017811888724090721 -0.0065974939065328959 0 -0.00083559767897872957 -0.00797600798672711 0 0.0014403610189134487 -0.0076982131222070437 0 -0.00083559767897872957 -0.00797600798672711 0 0.0014403610189134487 -0.0076982131222070437 0 0.00046623486464124114 -0.0093057908381325629 0 0.0014403610189134487 -0.0076982131222070437 0 0.00046623486464124114 -0.0093057908381325629 0 0.001336819332547596 -0.0090190357401922251 0 0.0014403610189134487 -0.0076982131222070437 0 0.001336819332547596 -0.0090190357401922251 0 0.0021953222575676556 -0.0089986874579332174 0 0.00046623486464124114 -0.0093057908381325629 0 0.0011063788179576234 -0.010187600421266952 0 0.001336819332547596 -0.0090190357401922251 0 0.0011063788179576234 -0.010187600421266952 0 0.001336819332547596 -0.0090190357401922251 0 0.0021953222575676556 -0.0089986874579332174 0 0.0011063788179576234 -0.010187600421266952 0 0.0021953222575676556 -0.0089986874579332174 0 0.0035593312947278222 -0.009591195686278621 0 0.0096432546547370029 -0.0037732181766224988 0 0.0091715227550503743 -0.0050764580339014275 0 0.004013489746545201 -0.0075176147937977477 0 0.0014403610189134487 -0.0076982131222070437 0 0.0021953222575676556 -0.0089986874579332174 0 0.004013489746545201 -0.0075176147937977477 0 0.0021953222575676556 -0.0089986874579332174 0 0.0035593312947278222 -0.009591195686278621 0 -0.0064218509320027387 -0.0064414622202016037 0 -0.0085282546180133825 -0.0066270759094126802 0 -0.0069431685795013874 -0.0082491084562299807 0 -0.0064218509320027387 -0.0064414622202016037 0 -0.0085282546180133825 -0.0066270759094126802 0 -0.0076100253736085931 -0.0049870911570771602 0 -0.010107308978577088 -0.0050079371918747492 0 -0.0085282546180133825 -0.0066270759094126802 0 -0.0076100253736085931 -0.0049870911570771602 0 -0.029697085753950379 0.00074004674836721158 0 -0.030057497223656141 0.00068153592830794434 0 -0.029882607821073527 0.00090903290237711134 0 -0.0064218509320027387 -0.0064414622202016037 0 -0.0076100253736085931 -0.0049870911570771602 0 -0.0051104717468422522 -0.0049624673016299128 0 -0.01275221196483531 0.00029905151799986619 0 -0.01506757697692695 -0.00040590421421173755 0 -0.030057497223656141 0.00068153592830794434 0 -0.029882607821073527 0.00090903290237711134 0 -0.03022892076783356 0.00080969496839342374 0 -0.030381870853801039 0.00050689206959068347 0 -0.030470103446361578 0.00071060976131283652 0 -0.03022892076783356 0.00080969496839342374 0 -0.015905172042242739 -0.0008692030660898694 0 -0.01506757697692695 -0.00040590421421173755 0 -0.002605389849469026 -0.0049312105680956184 0 -0.0051104717468422522 -0.0049624673016299128 0 -0.0026687130915439379 -0.0069994597865646298 0 -0.0051104717468422522 -0.0049624673016299128 0 -0.0026687130915439379 -0.0069994597865646298 0 -0.0048596809189603287 -0.007507413588846038 0 -0.0064218509320027387 -0.0064414622202016037 0 -0.0051104717468422522 -0.0049624673016299128 0 -0.0048596809189603287 -0.007507413588846038 0 -0.0026687130915439379 -0.0069994597865646298 0 -0.0048596809189603287 -0.007507413588846038 0 -0.0031516764410868679 -0.0088683935450314978 0 -0.0031516764410868679 -0.0088683935450314978 0 -0.0053493889231625404 -0.0098711448209983857 0 -0.0033965823858675644 -0.010261747350863753 0 -0.0048596809189603287 -0.007507413588846038 0 -0.0031516764410868679 -0.0088683935450314978 0 -0.0053493889231625404 -0.0098711448209983857 0 0.0064083902763668365 -0.00080778147793214496 0 0.0029140641842273019 -0.00074578171383285019 0 0.017436417881161306 0.0057520013905030089 0 0.017075071500993615 0.0060464374413231005 0 0.017221869017152325 0.0056225668667618722 0 -0.0064218509320027387 -0.0064414622202016037 0 -0.0048596809189603287 -0.007507413588846038 0 -0.0069431685795013874 -0.0082491084562299807 0 -0.0048596809189603287 -0.007507413588846038 0 -0.0053493889231625404 -0.0098711448209983857 0 -0.0069431685795013874 -0.0082491084562299807 0 0.016787530947567589 0.006133615129950463 0 0.017075071500993615 0.0060464374413231005 0 0.016798018886819328 0.0060124180232843209 0 -0.0012674098831027744 -0.00018405991892915454 0 0.0029140641842273019 -0.00074578171383285019 0 0.017075071500993615 0.0060464374413231005 0 0.016916092465310204 0.0057839747484758576 0 0.017221869017152325 0.0056225668667618722 0 0.017075071500993615 0.0060464374413231005 0 0.016798018886819328 0.0060124180232843209 0 0.016916092465310204 0.0057839747484758576 0 0.016916092465310204 0.0057839747484758576 0 0.017042198458467599 0.0054849199153417447 0 0.01671532169500951 0.0053347238350308895 0 0.016916092465310204 0.0057839747484758576 0 0.017042198458467599 0.0054849199153417447 0 0.017221869017152325 0.0056225668667618722 0 0.016554591324963026 0.0060800629842404632 0 0.01656159439528359 0.0061214047695457652 0 0.016565204928425871 0.0061053190919812322 0 0.01671532169500951 0.0053347238350308895 0 0.017097451885213465 0.0050827008662725623 0 0.01703632425384892 0.0042475997269661751 0 0.01773354739594701 0.0056766390387762641 0 0.01810530849034625 0.0054190654328850896 0 0.017042198458467599 0.0054849199153417447 0 0.01671532169500951 0.0053347238350308895 0 0.017097451885213465 0.0050827008662725623 0 0.017042198458467599 0.0054849199153417447 0 0.017097451885213465 0.0050827008662725623 0 0.017308489026336166 0.005382558288388151 0 0.017873126345165517 0.0047881332880814666 0 0.017356800206061108 0.0048080776101783445 0 0.017308489026336166 0.005382558288388151 0 0.017097451885213465 0.0050827008662725623 0 0.017356800206061108 0.0048080776101783445 0 0.017308489026336166 0.005382558288388151 0 0.017436417881161306 0.0057520013905030089 0 0.017221869017152325 0.0056225668667618722 0 0.017426192936037487 0.0053722243448804333 0 0.017308489026336166 0.005382558288388151 0 0.017221869017152325 0.0056225668667618722 0 0.017426192936037487 0.0053722243448804333 0 0.017042198458467599 0.0054849199153417447 0 0.017308489026336166 0.005382558288388151 0 0.017221869017152325 0.0056225668667618722 0 -0.0053493889231625404 -0.0098711448209983857 0 -0.0033965823858675644 -0.010261747350863753 0 -0.0037530461001941706 -0.011482736699884965 0 0.0097856004604294933 -0.00057614752756015089 0 0.010752575569611891 -0.00018904958258913451 0 0.0064083902763668365 -0.00080778147793214496 0 0.0097856004604294933 -0.00057614752756015089 0 0.017436417881161306 0.0057520013905030089 0 0.017712209507583378 0.0054521618071995352 0 0.017426192936037487 0.0053722243448804333 0 -0.0033965823858675644 -0.010261747350863753 0 -0.0037530461001941706 -0.011482736699884965 0 -0.001330090587463602 -0.010826079037147791 0 0.017532871705831295 0.005364459564864232 0 0.017500687449162618 0.0053185825227840752 0 0.01759641737631281 0.0052700041176118829 0 0.015305012093646044 -0.00010653670349492083 0 0.014234131521616332 -0.00090482286188298296 0 0.0097856004604294933 -0.00057614752756015089 0 0.014234131521616332 -0.00090482286188298296 0 0.018546124017228618 0.0051753891403268264 0 0.019104310951979533 0.0047322807448894957 0 0.019732625379413865 0.0048186222429553605 0 0.018546124017228618 0.0051753891403268264 0 0.018527045676825074 0.0045692057340572401 0 0.019104310951979533 0.0047322807448894957 0 0.017873126345165517 0.0047881332880814666 0 0.017308489026336166 0.005382558288388151 0 0.018546124017228618 0.0051753891403268264 0 0.017308489026336166 0.005382558288388151 0 0.017426192936037487 0.0053722243448804333 0 0.017500687449162618 0.0053185825227840752 0 0.017532871705831295 0.005364459564864232 0 0.017426192936037487 0.0053722243448804333 0 0.017500687449162618 0.0053185825227840752 0 0.015550292536774828 0.00015350233671369319 0 0.015305012093646044 -0.00010653670349492083 0 0.017873126345165517 0.0047881332880814666 0 0.018546124017228618 0.0051753891403268264 0 0.018527045676825074 0.0045692057340572401 0 0.017873126345165517 0.0047881332880814666 0 0.018527045676825074 0.0045692057340572401 0 0.018087137779240155 0.0043246948665817105 0 0.018527045676825074 0.0045692057340572401 0 0.018436527956611663 0.0040835208188917107 0 0.018087137779240155 0.0043246948665817105 0 0.018527045676825074 0.0045692057340572401 0 0.018436527956611663 0.0040835208188917107 0 0.019013599168864664 0.0041457197346758019 0 0.018436527956611663 0.0040835208188917107 0 0.018087137779240155 0.0043246948665817105 0 0.018118946635686844 0.0038322649730840939 0 0.019250009122432812 0.0041725213211689727 0 0.019953212592596248 0.0048144546450462839 0 0.019870685538313032 0.0037827687374530094 0 0.015834030817907827 0.00065153713746353447 0 0.014234131521616332 -0.00090482286188298296 0 0.019104310951979533 0.0047322807448894957 0 0.019013599168864664 0.0041457197346758019 0 0.019732625379413865 0.0048186222429553605 0 0.018527045676825074 0.0045692057340572401 0 0.019104310951979533 0.0047322807448894957 0 0.019013599168864664 0.0041457197346758019 0 0.019592715954901019 0.0032694545495288532 0 0.018884818076640362 0.0035546467284964453 0 0.020101712304583221 0.0036009248124785859 0 0.019250009122432812 0.0041725213211689727 0 0.018884818076640362 0.0035546467284964453 0 0.019870685538313032 0.0037827687374530094 0 0.017727003821655523 -0.00016693710428138729 0 0.017410883921819685 -0.00036907609851019856 0 0.019592715954901019 0.0032694545495288532 0 0.018884818076640362 0.0035546467284964453 0 0.018963848430240408 0.0031035705668898596 0 0.018087137779240155 0.0043246948665817105 0 0.018118946635686844 0.0038322649730840939 0 0.017674213376822533 0.0038235113801307571 0 0.018436527956611663 0.0040835208188917107 0 0.018118946635686844 0.0038322649730840939 0 0.018387444843410369 0.0034430173639049553 0 0.019250009122432812 0.0041725213211689727 0 0.018884818076640362 0.0035546467284964453 0 0.018387444843410369 0.0034430173639049553 0 0.018436527956611663 0.0040835208188917107 0 0.019013599168864664 0.0041457197346758019 0 0.018387444843410369 0.0034430173639049553 0 0.015834030817907827 0.00065153713746353447 0 0.016257816057221416 0.0010665144158786876 0 0.018884818076640362 0.0035546467284964453 0 0.018466381230231154 0.0031081548852104654 0 0.018963848430240408 0.0031035705668898596 0 0.018884818076640362 0.0035546467284964453 0 0.018387444843410369 0.0034430173639049553 0 0.018466381230231154 0.0031081548852104654 0 0.018387444843410369 0.0034430173639049553 0 0.018055683782269894 0.0034210916141589535 0 0.018466381230231154 0.0031081548852104654 0 0.018118946635686844 0.0038322649730840939 0 0.018387444843410369 0.0034430173639049553 0 0.018055683782269894 0.0034210916141589535 0 0.01810530849034625 0.0054190654328850896 0 0.018736484538881677 0.0050869847202165757 0 0.018055683782269894 0.0034210916141589535 0 0.017674213376822533 0.0038235113801307571 0 0.017652268942621573 0.0028484664745192785 0 0.017674213376822533 0.0038235113801307571 0 0.01703632425384892 0.0042475997269661751 0 0.017652268942621573 0.0028484664745192785 0 0.01656159439528359 0.0061214047695457652 0 0.016566763938263635 0.0061174983090955797 0 0.016573072678444604 0.0061151970390883143 0 0.018118946635686844 0.0038322649730840939 0 0.018055683782269894 0.0034210916141589535 0 0.017674213376822533 0.0038235113801307571 0 0.016565931639404979 0.0061194509068193733 0 0.01656159439528359 0.0061214047695457652 0 0.016568298421973118 0.006118019098823967 0 0.016565931639404979 0.0061194509068193733 0 0.01656159439528359 0.0061214047695457652 0 0.016566763938263635 0.0061174983090955797 0 0.016565931639404979 0.0061194509068193733 0 0.016566763938263635 0.0061174983090955797 0 0.016567775851011803 0.0061195271719574071 0 0.01656159439528359 0.0061214047695457652 0 0.016568298421973118 0.006118019098823967 0 0.016565204928425871 0.0061053190919812322 0 0.017097451885213465 0.0050827008662725623 0 0.017356800206061108 0.0048080776101783445 0 0.01703632425384892 0.0042475997269661751 0 0.017356800206061108 0.0048080776101783445 0 0.01703632425384892 0.0042475997269661751 0 0.017558815232566881 0.0043800172410225361 0 0.017873126345165517 0.0047881332880814666 0 0.018087137779240155 0.0043246948665817105 0 0.017558815232566881 0.0043800172410225361 0 0.017873126345165517 0.0047881332880814666 0 0.017356800206061108 0.0048080776101783445 0 0.017558815232566881 0.0043800172410225361 0 0.018087137779240155 0.0043246948665817105 0 0.017674213376822533 0.0038235113801307571 0 0.017558815232566881 0.0043800172410225361 0 0.017674213376822533 0.0038235113801307571 0 0.01703632425384892 0.0042475997269661751 0 0.017558815232566881 0.0043800172410225361 0 0.013564771964674451 -0.006785686544273542 0 0.013747229569278187 -0.0070114599060709156 0 0.013801868325204858 -0.0066506593544422487 0 0.013298035383408612 -0.0066865509819449926 0 0.013525605072787222 -0.0065644076073711538 0 0.013564771964674451 -0.006785686544273542 0 0.013525605072787222 -0.0065644076073711538 0 0.013564771964674451 -0.006785686544273542 0 0.013801868325204858 -0.0066506593544422487 0 0.013272977750074244 -0.0070684097558794236 0 0.013564771964674451 -0.006785686544273542 0 0.013747229569278187 -0.0070114599060709156 0 0.013272977750074244 -0.0070684097558794236 0 0.013443551038543923 -0.0074419976731016878 0 0.013747229569278187 -0.0070114599060709156 0 0.013994496058186274 -0.0072726170705049459 0 0.013443551038543923 -0.0074419976731016878 0 0.013747229569278187 -0.0070114599060709156 0 0.013747229569278187 -0.0070114599060709156 0 0.01404540316670711 -0.0070022129679644385 0 0.014073064929313841 -0.0068107675266877261 0 0.013994496058186274 -0.0072726170705049459 0 0.01404540316670711 -0.0070022129679644385 0 0.014380188732393497 -0.006915011345478725 0 0.013994496058186274 -0.0072726170705049459 0 0.013747229569278187 -0.0070114599060709156 0 0.01404540316670711 -0.0070022129679644385 0 0.013747229569278187 -0.0070114599060709156 0 0.014073064929313841 -0.0068107675266877261 0 0.013801868325204858 -0.0066506593544422487 0 0.014073064929313841 -0.0068107675266877261 0 0.013801868325204858 -0.0066506593544422487 0 0.0141915768562491 -0.0064463372489815297 0 0.015240350476834306 -0.0023865408096915598 0 0.015402649344201306 -0.0018616500106071613 0 0.01433142522419335 -0.0066525808101963232 0 0.014811092138624259 -0.0065066448362665185 0 0.014200681236082669 -0.0063782856612766272 0 0.014073064929313841 -0.0068107675266877261 0 0.01433142522419335 -0.0066525808101963232 0 0.014200681236082669 -0.0063782856612766272 0 0.01433142522419335 -0.0066525808101963232 0 0.014380188732393497 -0.006915011345478725 0 0.014811092138624259 -0.0065066448362665185 0 0.014073064929313841 -0.0068107675266877261 0 0.01433142522419335 -0.0066525808101963232 0 0.014380188732393497 -0.006915011345478725 0 0.0096432546547370029 -0.0037732181766224988 0 0.0085879429222030148 -0.0027031693818400297 0 0.010509257840289447 -0.0031399606962471752 0 0.011435890730095028 -0.0022601974859019669 0 0.011940742590322262 -0.0027296060258033814 0 0.0096432546547370029 -0.0037732181766224988 0 0.011862185928048658 -0.0025495201842153608 0 0.01404540316670711 -0.0070022129679644385 0 0.014073064929313841 -0.0068107675266877261 0 0.014380188732393497 -0.006915011345478725 0 0.0097856004604294933 -0.00057614752756015089 0 0.0085879429222030148 -0.0027031693818400297 0 0.011435890730095028 -0.0022601974859019669 0 0.011940742590322262 -0.0027296060258033814 0 0.012314966148016622 -0.0020224685634724444 0 0.013366435483806571 -0.0023220419638500067 0 0.011940742590322262 -0.0027296060258033814 0 0.012314966148016622 -0.0020224685634724444 0 0.011862185928048658 -0.0025495201842153608 0 0.014234131521616332 -0.00090482286188298296 0 0.011435890730095028 -0.0022601974859019669 0 0.012314966148016622 -0.0020224685634724444 0 0.012403219393296751 -0.0013477975789979466 0 0.013366435483806571 -0.0023220419638500067 0 0.012314966148016622 -0.0020224685634724444 0 0.012403219393296751 -0.0013477975789979466 0 0.014234131521616332 -0.00090482286188298296 0 0.01614339165861366 -0.0010457968276049805 0 0.019953212592596248 0.0048144546450462839 0 0.019870685538313032 0.0037827687374530094 0 0.020783995078264672 0.0039636672707187848 0 0.015363753707183606 -0.0011956079148558619 0 0.016043956122361456 -0.0018814451592386683 0 0.015844814080788618 -0.0015013746929059351 0 0.017410883921819685 -0.00036907609851019856 0 0.01614339165861366 -0.0010457968276049805 0 0.020101712304583221 0.0036009248124785859 0 0.020199844961909873 0.0033722346571123107 0 0.02018184493387648 0.003389592538072543 0 0.019592715954901019 0.0032694545495288532 0 0.020101712304583221 0.0036009248124785859 0 0.020294278162229753 0.0032912538424997102 0 0.020101712304583221 0.0036009248124785859 0 0.020294278162229753 0.0032912538424997102 0 0.02018184493387648 0.003389592538072543 0 0.020294278162229753 0.0032912538424997102 0 0.02018184493387648 0.003389592538072543 0 0.020004297170873642 0.0034931392661120874 0 0.02018184493387648 0.003389592538072543 0 0.020193045280006178 0.0033626978405149645 0 0.020004297170873642 0.0034931392661120874 0 0.016107532632068326 -0.0010052811426207581 0 0.016858448357487902 -0.0017646272000532899 0 0.01580942875118822 -0.0019268270302777914 0 0.016190462971940645 -0.0010564450424179795 0 0.017605452302389784 -0.00053307100384734972 0 0.020199844961909873 0.0033722346571123107 0 0.02018184493387648 0.003389592538072543 0 0.020193045280006178 0.0033626978405149645 0 0.016015120595616987 -0.0019312226857569588 0 0.016007112035449026 -0.0019558306230502013 0 0.015849451468864181 -0.0017648748407062113 0 0.016190462971940645 -0.0010564450424179795 0 0.016057526281587815 -0.001151071630530507 0 0.01586630479955925 -0.00040451365888743458 0 0.016952704440118378 -0.0015026740163743477 0 0.017409863891812153 -9.364217522680443e-05 0 0.01614339165861366 -0.0010457968276049805 0 0.016057526281587815 -0.001151071630530507 0 0.01614339165861366 -0.0010457968276049805 0 0.016190462971940645 -0.0010564450424179795 0 0.016057526281587815 -0.001151071630530507 0 0.015402649344201306 -0.0018616500106071613 0 0.016137128117414402 -0.0018627958774060918 0 0.015844814080788618 -0.0015013746929059351 0 0.016287800560730842 -0.0013974016316727336 0 0.015363753707183606 -0.0011956079148558619 0 0.015844814080788618 -0.0015013746929059351 0 0.016287800560730842 -0.0013974016316727336 0 0.014234131521616332 -0.00090482286188298296 0 0.015402649344201306 -0.0018616500106071613 0 0.016043956122361456 -0.0018814451592386683 0 0.016137128117414402 -0.0018627958774060918 0 0.015844814080788618 -0.0015013746929059351 0 0.016057526281587815 -0.001151071630530507 0 0.015155003021361413 -0.0020410413776036662 0 0.015402649344201306 -0.0018616500106071613 0 0.015155003021361413 -0.0020410413776036662 0 0.014770570278741122 -0.0021922511267664178 0 0.014918252686451156 -0.0017364499612264595 0 0.015854711276724061 -0.0019752511567323466 0 0.013801868325204858 -0.0066506593544422487 0 0.0141915768562491 -0.0064463372489815297 0 0.013633386365089642 -0.0063135593544905496 0 0.016007112035449026 -0.0019558306230502013 0 0.015685086480401816 -0.0020229419222079614 0 0.015849451468864181 -0.0017648748407062113 0 0.016190462971940645 -0.0010564450424179795 0 0.016613199697742442 -0.0013541336453211279 0 0.015605314574381562 -0.0018040627440322936 0 0.015685086480401816 -0.0020229419222079614 0 0.015849451468864181 -0.0017648748407062113 0 0.0149990215758035 -0.0021424122033724749 0 0.015155003021361413 -0.0020410413776036662 0 0.013525605072787222 -0.0065644076073711538 0 0.013801868325204858 -0.0066506593544422487 0 0.013633386365089642 -0.0063135593544905496 0 0.013334821208621426 -0.0063845563429687649 0 0.013525605072787222 -0.0065644076073711538 0 0.013633386365089642 -0.0063135593544905496 0 0.016357833496548083 -0.003940557843363608 0 0.017511287278676398 -0.0042678723050493285 0 0.016965138139079329 -0.0049263118167979054 0 0.017511287278676398 -0.0042678723050493285 0 0.016965138139079329 -0.0049263118167979054 0 0.017886148795481244 -0.0049176119624631844 0 0.016659209363794045 -0.0060063692245073599 0 0.016965138139079329 -0.0049263118167979054 0 0.017722439791623499 -0.0055089387478808021 0 0.016659209363794045 -0.0060063692245073599 0 0.017722439791623499 -0.0055089387478808021 0 0.018025103049832351 -0.0058146236961241909 0 0.015970714095412494 -0.0018829902770212677 0 0.016613199697742442 -0.0013541336453211279 0 0.016965138139079329 -0.0049263118167979054 0 0.017722439791623499 -0.0055089387478808021 0 0.017886148795481244 -0.0049176119624631844 0 0.017722439791623499 -0.0055089387478808021 0 0.018281898757464051 -0.0053615126469587502 0 0.017886148795481244 -0.0049176119624631844 0 0.017722439791623499 -0.0055089387478808021 0 0.018018193417168392 -0.0057857875901456907 0 0.018281898757464051 -0.0053615126469587502 0 0.016656747758940989 -0.0014124939597629823 0 0.016613199697742442 -0.0013541336453211279 0 0.018281898757464051 -0.0053615126469587502 0 0.017886148795481244 -0.0049176119624631844 0 0.018556049347839897 -0.004997117304588336 0 0.017886148795481244 -0.0049176119624631844 0 0.018330661300893017 -0.0044347505797376523 0 0.018556049347839897 -0.004997117304588336 0 0.017511287278676398 -0.0042678723050493285 0 0.017886148795481244 -0.0049176119624631844 0 0.018330661300893017 -0.0044347505797376523 0 0.017511287278676398 -0.0042678723050493285 0 0.018330661300893017 -0.0044347505797376523 0 0.018466090981781175 -0.0038370944378207385 0 0.018330661300893017 -0.0044347505797376523 0 0.018556049347839897 -0.004997117304588336 0 0.01960884607937766 -0.0042273378410568338 0 0.018556049347839897 -0.004997117304588336 0 0.019173453838819517 -0.0055740335947146932 0 0.01960884607937766 -0.0042273378410568338 0 0.018018193417168392 -0.0057857875901456907 0 0.018281898757464051 -0.0053615126469587502 0 0.019173453838819517 -0.0055740335947146932 0 0.016613199697742442 -0.0013541336453211279 0 0.017605452302389784 -0.00053307100384734972 0 0.018281898757464051 -0.0053615126469587502 0 0.018556049347839897 -0.004997117304588336 0 0.019173453838819517 -0.0055740335947146932 0 0.020294278162229753 0.0032912538424997102 0 0.020004297170873642 0.0034931392661120874 0 0.020719175862183289 0.0039038064158649494 0 0.023330575580038093 0.0042499074973666633 0 0.022914877949640915 0.0041894474542482274 0 0.023131035075006762 0.0035853852279041053 0 0.017605452302389784 -0.00053307100384734972 0 0.018792538991744299 -5.5476085481480186e-05 0 0.022914877949640915 0.0041894474542482274 0 0.023131035075006762 0.0035853852279041053 0 0.022769807279860273 0.0037929605257565847 0 0.017605452302389784 -0.00053307100384734972 0 0.019001041461844604 -5.0422996094173066e-05 0 0.019001041461844604 -5.0422996094173066e-05 0 0.01996458864146063 0.00025521216152762878 0 0.023131035075006762 0.0035853852279041053 0 0.023006118617799252 0.0029311065786877116 0 0.022628404322900454 0.0034372615975512984 0 0.01960884607937766 -0.0042273378410568338 0 0.02008624491575544 -0.0032168417901474273 0 0.019153649597666571 -0.0033418604653445883 0 0.02008624491575544 -0.0032168417901474273 0 0.019153649597666571 -0.0033418604653445883 0 0.019167081263419899 -0.0025966720692641326 0 0.019153649597666571 -0.0033418604653445883 0 0.018051765544585388 -0.0029868605904344839 0 0.019167081263419899 -0.0025966720692641326 0 0.018330661300893017 -0.0044347505797376523 0 0.01960884607937766 -0.0042273378410568338 0 0.018466090981781175 -0.0038370944378207385 0 0.01960884607937766 -0.0042273378410568338 0 0.019153649597666571 -0.0033418604653445883 0 0.018466090981781175 -0.0038370944378207385 0 0.017511287278676398 -0.0042678723050493285 0 0.018466090981781175 -0.0038370944378207385 0 0.017165505328273642 -0.0034090309062918657 0 0.017706340812477316 -0.0027189701104359263 0 0.017537284210650074 -0.0024167344801851731 0 0.018466090981781175 -0.0038370944378207385 0 0.017165505328273642 -0.0034090309062918657 0 0.017392659170026487 -0.0022410703270299781 0 0.019153649597666571 -0.0033418604653445883 0 0.018466090981781175 -0.0038370944378207385 0 0.018051765544585388 -0.0029868605904344839 0 0.016241763154963503 -0.0027831910137938879 0 0.017392659170026487 -0.0022410703270299781 0 0.016255939297079088 -0.0019662692326986001 0 0.016241763154963503 -0.0027831910137938879 0 0.017165505328273642 -0.0034090309062918657 0 0.017392659170026487 -0.0022410703270299781 0 0.016357833496548083 -0.003940557843363608 0 0.017511287278676398 -0.0042678723050493285 0 0.017165505328273642 -0.0034090309062918657 0 0.016357833496548083 -0.003940557843363608 0 0.016241763154963503 -0.0027831910137938879 0 0.017165505328273642 -0.0034090309062918657 0 0.021966652430815359 0.0039575432960680754 0 0.022194145884311189 0.003832332302661951 0 0.02190542971201264 0.0036111283918522381 0 0.021966652430815359 0.0039575432960680754 0 0.021527652617307151 0.003802429404616752 0 0.02190542971201264 0.0036111283918522381 0 0.019583357100585477 0.0047511831896379789 0 0.019914960940545266 0.0045865930776927671 0 0.019652037904411123 0.0048298998234862093 0 0.019583357100585477 0.0047511831896379789 0 0.019108211811727786 0.0049650233053088674 0 0.019236317591348338 0.0050146757304882104 0 0.019182881686368551 0.0049399169149373923 0 0.019236317591348338 0.0050146757304882104 0 0.019182881686368551 0.0049399169149373923 0 0.019242407673826536 0.0049314162990214093 0 0.019182881686368551 0.0049399169149373923 0 0.019190407087373445 0.0048735058262056683 0 0.019122953974449762 0.0049241521572875651 0 0.019242407673826536 0.0049314162990214093 0 0.019190407087373445 0.0048735058262056683 0 0.01928992844170031 0.0048528652102701663 0 0.018534075342336837 0.0052531616761180297 0 0.018486815404742316 0.0053809592305147031 0 0.019182881686368551 0.0049399169149373923 0 0.019242407673826536 0.0049314162990214093 0 0.019190407087373445 0.0048735058262056683 0 0.019190407087373445 0.0048735058262056683 0 0.019122953974449762 0.0049241521572875651 0 0.019091701162671199 0.0048937770548566368 0 0.018534075342336837 0.0052531616761180297 0 0.018736484538881677 0.0050869847202165757 0 0.019108211811727786 0.0049650233053088674 0 0.019182881686368551 0.0049399169149373923 0 0.019122953974449762 0.0049241521572875651 0 0.019108211811727786 0.0049650233053088674 0 0.019122953974449762 0.0049241521572875651 0 0.019080244557199814 0.0049166682580025758 0 0.019122953974449762 0.0049241521572875651 0 0.019080244557199814 0.0049166682580025758 0 0.019091701162671199 0.0048937770548566368 0 0.018737907389389376 0.0050851044445980511 0 0.018736484538881677 0.0050869847202165757 0 0.017652268942621573 0.0028484664745192785 0 0.018466381230231154 0.0031081548852104654 0 0.018777035373203847 0.0025638575810143921 0 0.019080244557199814 0.0049166682580025758 0 0.019091759097554478 0.0048935392782588636 0 0.018981873460209957 0.0049153562369551622 0 0.019108211811727786 0.0049650233053088674 0 0.019080244557199814 0.0049166682580025758 0 0.018981873460209957 0.0049153562369551622 0 0.019652037904411123 0.0048298998234862093 0 0.019418907950199966 0.0048679786646287308 0 0.018736484538881677 0.0050869847202165757 0 0.019418907950199966 0.0048679786646287308 0 0.018055683782269894 0.0034210916141589535 0 0.017652268942621573 0.0028484664745192785 0 0.018466381230231154 0.0031081548852104654 0 0.018466381230231154 0.0031081548852104654 0 0.018777035373203847 0.0025638575810143921 0 0.018963848430240408 0.0031035705668898596 0 0.02244233188870649 0.0040708338709414919 0 0.022441647422391037 0.0039857815528699728 0 0.022194145884311189 0.003832332302661951 0 0.022527358005977844 0.0040429256024458252 0 0.02244233188870649 0.0040708338709414919 0 0.022441647422391037 0.0039857815528699728 0 0.019424753554803536 0.0048666716249194377 0 0.019418907950199966 0.0048679786646287308 0 0.022914877949640915 0.0041894474542482274 0 0.022351803208172753 0.0040880317181162555 0 0.022568785401880637 0.0039564734256645412 0 0.020294278162229753 0.0032912538424997102 0 0.020719175862183289 0.0039038064158649494 0 0.022351803208172753 0.0040880317181162555 0 0.020294278162229753 0.0032912538424997102 0 0.022527358005977844 0.0040429256024458252 0 0.022351803208172753 0.0040880317181162555 0 0.019592715954901019 0.0032694545495288532 0 0.020294278162229753 0.0032912538424997102 0 0.018777035373203847 0.0025638575810143921 0 0.020294278162229753 0.0032912538424997102 0 0.022527358005977844 0.0040429256024458252 0 0.02273292800445334 0.0039884885995827906 0 0.018792538991744299 -5.5476085481480186e-05 0 0.01917120418534185 9.9404024222634734e-05 0 0.019563230646301399 0.0047852504662973727 0 0.019418907950199966 0.0048679786646287308 0 0.019592715954901019 0.0032694545495288532 0 0.018777035373203847 0.0025638575810143921 0 0.018963848430240408 0.0031035705668898596 0 0.022527358005977844 0.0040429256024458252 0 0.022441647422391037 0.0039857815528699728 0 0.022351803208172753 0.0040880317181162555 0 0.022441647422391037 0.0039857815528699728 0 0.022351803208172753 0.0040880317181162555 0 0.022568785401880637 0.0039564734256645412 0 0.022914877949640915 0.0041894474542482274 0 0.022568785401880637 0.0039564734256645412 0 0.022769807279860273 0.0037929605257565847 0 0.023131035075006762 0.0035853852279041053 0 0.022769807279860273 0.0037929605257565847 0 0.022628404322900454 0.0034372615975512984 0 0.022568785401880637 0.0039564734256645412 0 0.022769807279860273 0.0037929605257565847 0 0.022510628020145262 0.0037991727297205539 0 0.022441647422391037 0.0039857815528699728 0 0.022568785401880637 0.0039564734256645412 0 0.022510628020145262 0.0037991727297205539 0 0.022510628020145262 0.0037991727297205539 0 0.022395521075943222 0.0036359075575858181 0 0.022628404322900454 0.0034372615975512984 0 0.022769807279860273 0.0037929605257565847 0 0.022510628020145262 0.0037991727297205539 0 0.022628404322900454 0.0034372615975512984 0 0.021966652430815359 0.0039575432960680754 0 0.02244233188870649 0.0040708338709414919 0 0.022194145884311189 0.003832332302661951 0 0.022194145884311189 0.003832332302661951 0 0.022395521075943222 0.0036359075575858181 0 0.022225913826121286 0.0034413196143610342 0 0.022441647422391037 0.0039857815528699728 0 0.022510628020145262 0.0037991727297205539 0 0.022194145884311189 0.003832332302661951 0 0.022510628020145262 0.0037991727297205539 0 0.022194145884311189 0.003832332302661951 0 0.022395521075943222 0.0036359075575858181 0 0.022395521075943222 0.0036359075575858181 0 0.022225913826121286 0.0034413196143610342 0 0.022628404322900454 0.0034372615975512984 0 0.022225913826121286 0.0034413196143610342 0 0.022628404322900454 0.0034372615975512984 0 0.022338238018791957 0.002911947863620912 0 0.023006118617799252 0.0029311065786877116 0 0.022628404322900454 0.0034372615975512984 0 0.022338238018791957 0.002911947863620912 0 0.022338238018791957 0.002911947863620912 0 0.021818387482129446 0.0030901449795838077 0 0.021596964558837882 0.0024176074924345471 0 0.022225913826121286 0.0034413196143610342 0 0.022338238018791957 0.002911947863620912 0 0.021818387482129446 0.0030901449795838077 0 0.022194145884311189 0.003832332302661951 0 0.022225913826121286 0.0034413196143610342 0 0.02190542971201264 0.0036111283918522381 0 0.022225913826121286 0.0034413196143610342 0 0.021818387482129446 0.0030901449795838077 0 0.02190542971201264 0.0036111283918522381 0 0.021226689441677174 0.0040963663930173051 0 0.021373308068391869 0.003374063586574869 0 0.020944210285623491 0.0036481997720242908 0 0.021818387482129446 0.0030901449795838077 0 0.02190542971201264 0.0036111283918522381 0 0.021373308068391869 0.003374063586574869 0 0.021226689441677174 0.0040963663930173051 0 0.02190542971201264 0.0036111283918522381 0 0.021373308068391869 0.003374063586574869 0 0.021411750780292272 0.0029431111550588182 0 0.020826343775903564 0.0029188809959104743 0 0.021596964558837882 0.0024176074924345471 0 0.021818387482129446 0.0030901449795838077 0 0.021411750780292272 0.0029431111550588182 0 0.021596964558837882 0.0024176074924345471 0 0.021373308068391869 0.003374063586574869 0 0.021411750780292272 0.0029431111550588182 0 0.020826343775903564 0.0029188809959104743 0 0.021818387482129446 0.0030901449795838077 0 0.021373308068391869 0.003374063586574869 0 0.021411750780292272 0.0029431111550588182 0 0.021750035356377598 0.0026117908975277107 0 0.021406303093707075 0.0025573771033069563 0 0.021351606586875602 0.0027390201808687683 0 0.021750035356377598 0.0026117908975277107 0 0.021406303093707075 0.0025573771033069563 0 0.021582075664284016 0.0024337208424632189 0 0.021750035356377598 0.0026117908975277107 0 0.021351606586875602 0.0027390201808687683 0 0.021391885738743607 0.0029623982967923158 0 0.019938082690569115 0.0041002992749653517 0 0.020537509438478842 0.0035739332074537526 0 0.019975019361499154 0.0046626304336605511 0 0.020876271984233207 0.0030590207737573359 0 0.02027914268298556 0.0035740346517598525 0 0.020826343775903564 0.0029188809959104743 0 0.019711018125843045 0.0037772550099670777 0 0.020030637427989502 0.0037259029768177531 0 0.019603220068149456 0.0038295283016285711 0 0.019938082690569115 0.0041002992749653517 0 0.019546048887459495 0.0044988700455513685 0 0.019603220068149456 0.0038295283016285711 0 0.019938082690569115 0.0041002992749653517 0 0.020030637427989502 0.0037259029768177531 0 0.02027914268298556 0.0035740346517598525 0 0.020274551135897552 0.003575391670765502 0 0.019938082690569115 0.0041002992749653517 0 0.020030637427989502 0.0037259029768177531 0 0.020537509438478842 0.0035739332074537526 0 0.020944210285623491 0.0036481997720242908 0 0.020537509438478842 0.0035739332074537526 0 0.020685712515760048 0.0039553999698390737 0 0.020826343775903564 0.0029188809959104743 0 0.020030637427989502 0.0037259029768177531 0 0.020537509438478842 0.0035739332074537526 0 0.021373308068391869 0.003374063586574869 0 0.020826343775903564 0.0029188809959104743 0 0.020944210285623491 0.0036481997720242908 0 0.020826343775903564 0.0029188809959104743 0 0.020944210285623491 0.0036481997720242908 0 0.020537509438478842 0.0035739332074537526 0 0.01991478053911673 0.0042012232413362995 0 0.018990789337435459 0.0046278340189681109 0 0.019256612404591936 0.0041245902919008386 0 0.01951723947673888 0.0038714806928217536 0 0.01991478053911673 0.0042012232413362995 0 0.019768311218566724 0.0034750121178304971 0 0.01951723947673888 0.0038714806928217536 0 0.019256612404591936 0.0041245902919008386 0 0.019110514207279987 0.0036818623043194856 0 0.01951723947673888 0.0038714806928217536 0 0.01991478053911673 0.0042012232413362995 0 0.019256612404591936 0.0041245902919008386 0 0.021406303093707075 0.0025573771033069563 0 0.021004674420296181 0.0026906528072512328 0 0.021334647854080898 0.0022667486453444349 0 0.021406303093707075 0.0025573771033069563 0 0.021351606586875602 0.0027390201808687683 0 0.021004674420296181 0.0026906528072512328 0 0.021351606586875602 0.0027390201808687683 0 0.021004674420296181 0.0026906528072512328 0 0.021195994414503351 0.0028708000011391649 0 0.021391885738743607 0.0029623982967923158 0 0.021195994414503351 0.0028708000011391649 0 0.021034979225616934 0.0030462501130378425 0 0.019358747367776145 0.0042025349980025798 0 0.018543514910793927 0.0044022862686324592 0 0.018854488632521649 0.0046796048785861756 0 0.021004674420296181 0.0026906528072512328 0 0.021195994414503351 0.0028708000011391649 0 0.021034979225616934 0.0030462501130378425 0 0.02027914268298556 0.0035740346517598525 0 0.019814467658363009 0.0037728529742620896 0 0.021351606586875602 0.0027390201808687683 0 0.021391885738743607 0.0029623982967923158 0 0.021195994414503351 0.0028708000011391649 0 0.02027914268298556 0.0035740346517598525 0 0.020173893953616392 0.0036668753245712462 0 0.020083349057656116 0.0033861847380034613 0 0.0193428010650466 0.0039765772404926668 0 0.021004674420296181 0.0026906528072512328 0 0.021034979225616934 0.0030462501130378425 0 0.020672790834812382 0.0031283680236466895 0 0.01991478053911673 0.0042012232413362995 0 0.019040637904467875 0.0053357468059665944 0 0.018990789337435459 0.0046278340189681109 0 0.019814467658363009 0.0037728529742620896 0 0.0193428010650466 0.0039765772404926668 0 0.018543514910793927 0.0044022862686324592 0 0.018037521827942292 0.004814763125562626 0 0.017680411408920467 0.0047283814737078345 0 0.017891333229348792 0.0051162180441872377 0 0.018037521827942292 0.004814763125562626 0 0.018305240448245708 0.0048454356957926097 0 0.017891333229348792 0.0051162180441872377 0 0.018305240448245708 0.0048454356957926097 0 0.018182554533554728 0.0052149791734692015 0 0.017891333229348792 0.0051162180441872377 0 0.018037521827942292 0.004814763125562626 0 0.017770611780386851 0.0049668880862483618 0 0.018543514910793927 0.0044022862686324592 0 0.018037521827942292 0.004814763125562626 0 0.018305240448245708 0.0048454356957926097 0 0.018305240448245708 0.0048454356957926097 0 0.018182554533554728 0.0052149791734692015 0 0.018519386953181644 0.0050719071175141933 0 0.018305240448245708 0.0048454356957926097 0 0.018519386953181644 0.0050719071175141933 0 0.018854488632521649 0.0046796048785861756 0 0.018519386953181644 0.0050719071175141933 0 0.018854488632521649 0.0046796048785861756 0 0.018849578171452303 0.0052290495064458639 0 0.018543514910793927 0.0044022862686324592 0 0.018305240448245708 0.0048454356957926097 0 0.018854488632521649 0.0046796048785861756 0 0.019603220068149456 0.0038295283016285711 0 0.018854488632521649 0.0046796048785861756 0 0.019546048887459495 0.0044988700455513685 0 0.018854488632521649 0.0046796048785861756 0 0.019415595502833949 0.005049854246404327 0 0.019546048887459495 0.0044988700455513685 0 0.018854488632521649 0.0046796048785861756 0 0.019415595502833949 0.005049854246404327 0 0.018849578171452303 0.0052290495064458639 0 0.019415595502833949 0.005049854246404327 0 0.019039793402832586 0.0057827863706140193 0 0.018849578171452303 0.0052290495064458639 0 0.019039793402832586 0.0057827863706140193 0 0.018849578171452303 0.0052290495064458639 0 0.018485057894569914 0.0055433410285927534 0 0.018519386953181644 0.0050719071175141933 0 0.018849578171452303 0.0052290495064458639 0 0.018485057894569914 0.0055433410285927534 0 0.018485057894569914 0.0055433410285927534 0 0.017759483693365025 0.006110037455272924 0 0.017792760161575921 0.00573957467068845 0 0.019039793402832586 0.0057827863706140193 0 0.018485057894569914 0.0055433410285927534 0 0.017759483693365025 0.006110037455272924 0 0.018182554533554728 0.0052149791734692015 0 0.018519386953181644 0.0050719071175141933 0 0.018485057894569914 0.0055433410285927534 0 0.018182554533554728 0.0052149791734692015 0 0.018485057894569914 0.0055433410285927534 0 0.018118027921546636 0.0054883002917860751 0 0.018485057894569914 0.0055433410285927534 0 0.018118027921546636 0.0054883002917860751 0 0.017792760161575921 0.00573957467068845 0 0.018118027921546636 0.0054883002917860751 0 0.017827807196514577 0.0054757003539488373 0 0.017792760161575921 0.00573957467068845 0 0.018182554533554728 0.0052149791734692015 0 0.018118027921546636 0.0054883002917860751 0 0.017827807196514577 0.0054757003539488373 0 0.017891333229348792 0.0051162180441872377 0 0.018182554533554728 0.0052149791734692015 0 0.017827807196514577 0.0054757003539488373 0 0.019098389226980921 0.0048691424828481537 0 0.019040532100610148 0.005034332444039692 0 0.020537509438478842 0.0035739332074537526 0 0.020734611072974331 0.0043491751932267292 0 0.020685712515760048 0.0039553999698390737 0 0.019236317591348338 0.0050146757304882104 0 0.019242407673826536 0.0049314162990214093 0 0.019312712355161191 0.0049764376148989714 0 0.019583357100585477 0.0047511831896379789 0 0.019040532100610148 0.005034332444039692 0 0.019583357100585477 0.0047511831896379789 0 0.019654371586590794 0.0047535931613989727 0 0.021157922257684932 0.0041295196897705791 0 0.020734611072974331 0.0043491751932267292 0 0.020685712515760048 0.0039553999698390737 0 0.021226689441677174 0.0040963663930173051 0 0.020944210285623491 0.0036481997720242908 0 0.020685712515760048 0.0039553999698390737 0 0.020537509438478842 0.0035739332074537526 0 0.020763596591364029 0.0050571424657555233 0 0.019975019361499154 0.0046626304336605511 0 0.019415595502833949 0.005049854246404327 0 0.020763596591364029 0.0050571424657555233 0 0.019975019361499154 0.0046626304336605511 0 0.019415595502833949 0.005049854246404327 0 0.019975019361499154 0.0046626304336605511 0 0.019546048887459495 0.0044988700455513685 0 0.019938082690569115 0.0041002992749653517 0 0.019975019361499154 0.0046626304336605511 0 0.019546048887459495 0.0044988700455513685 0 0.019415595502833949 0.005049854246404327 0 0.019039793402832586 0.0057827863706140193 0 0.020763596591364029 0.0050571424657555233 0 0.018805222236302179 0.0052664010437831095 0 0.019040532100610148 0.005034332444039692 0 0.01854240024976948 0.0057216103226682032 0 0.019297531053673211 0.0053429520293022678 0 0.019001889134386583 0.0056948603733301875 0 0.019001889134386583 0.0056948603733301875 0 0.018897878736895968 0.0058559360269571708 0 0.019401082650431545 0.0059213657651655399 0 0.01854240024976948 0.0057216103226682032 0 0.019001889134386583 0.0056948603733301875 0 0.018897878736895968 0.0058559360269571708 0 0.019040532100610148 0.005034332444039692 0 0.018486815404742316 0.0053809592305147031 0 0.019242407673826536 0.0049314162990214093 0 0.019312712355161191 0.0049764376148989714 0 0.01928992844170031 0.0048528652102701663 0 0.019297531053673211 0.0053429520293022678 0 0.019001889134386583 0.0056948603733301875 0 0.019401082650431545 0.0059213657651655399 0 0.016565931639404979 0.0061194509068193733 0 0.016567775851011803 0.0061195271719574071 0 0.016568298421973118 0.006118019098823967 0 0.016584809471296195 0.0062448249657283111 0 0.016572029106575435 0.0061834445564536112 0 0.01662799599542843 0.0062058960568462922 0 0.018486815404742316 0.0053809592305147031 0 0.018354672083256283 0.0055077802086009615 0 0.018354672083256283 0.0055077802086009615 0 0.018310832956144302 0.0055458924479959209 0 0.016572029106575435 0.0061834445564536112 0 0.016607774110097416 0.0061305650842474945 0 0.016565204928425871 0.0061053190919812322 0 0.016572029106575435 0.0061834445564536112 0 0.016613711263207386 0.0061691388796853491 0 0.016607774110097416 0.0061305650842474945 0 0.016572029106575435 0.0061834445564536112 0 0.016613711263207386 0.0061691388796853491 0 0.01662799599542843 0.0062058960568462922 0 0.016644742897451614 0.006156808498577057 0 0.016669092625640626 0.0061836221315224984 0 0.016677165540557773 0.0061407760379133917 0 0.016613711263207386 0.0061691388796853491 0 0.016607774110097416 0.0061305650842474945 0 0.016644742897451614 0.006156808498577057 0 0.016613711263207386 0.0061691388796853491 0 0.016644742897451614 0.006156808498577057 0 0.01662799599542843 0.0062058960568462922 0 0.016644742897451614 0.006156808498577057 0 0.016669092625640626 0.0061836221315224984 0 0.01662799599542843 0.0062058960568462922 0 0.018486815404742316 0.0053809592305147031 0 0.017945736872195285 0.005641707582291957 0 0.016669092625640626 0.0061836221315224984 0 0.01662799599542843 0.0062058960568462922 0 0.016677708468929686 0.0062333444129570531 0 0.016584809471296195 0.0062448249657283111 0 0.01662799599542843 0.0062058960568462922 0 0.016677708468929686 0.0062333444129570531 0 0.018897878736895968 0.0058559360269571708 0 0.019401082650431545 0.0059213657651655399 0 0.018645042892415739 0.0060843304408300406 0 0.01854240024976948 0.0057216103226682032 0 0.018897878736895968 0.0058559360269571708 0 0.018645042892415739 0.0060843304408300406 0 0.017945736872195285 0.005641707582291957 0 0.017629454880376448 0.0057866998881607318 0 0.01854240024976948 0.0057216103226682032 0 0.018645042892415739 0.0060843304408300406 0 0.018204648690365043 0.0060439686541784192 0 0.018645042892415739 0.0060843304408300406 0 0.018204648690365043 0.0060439686541784192 0 0.017868298881128442 0.0062594717328886603 0 0.01854240024976948 0.0057216103226682032 0 0.018204648690365043 0.0060439686541784192 0 0.017759483693365025 0.006110037455272924 0 0.016677708468929686 0.0062333444129570531 0 0.016795159943381176 0.0062469329341849665 0 0.016752796840954209 0.0062088184422423925 0 0.018805222236302179 0.0052664010437831095 0 0.018606848074938617 0.0053967640046619749 0 0.018204648690365043 0.0060439686541784192 0 0.017868298881128442 0.0062594717328886603 0 0.017759483693365025 0.006110037455272924 0 0.016770469589257608 0.0061688370010990661 0 0.01671430023463507 0.006177259009467845 0 0.016697574511791342 0.006093651337921017 0 0.016752796840954209 0.0062088184422423925 0 0.016770469589257608 0.0061688370010990661 0 0.016829570136095744 0.0062100886065621147 0 0.016795159943381176 0.0062469329341849665 0 0.016752796840954209 0.0062088184422423925 0 0.016829570136095744 0.0062100886065621147 0 0.016752796840954209 0.0062088184422423925 0 0.016770469589257608 0.0061688370010990661 0 0.01671430023463507 0.006177259009467845 0 0.016677708468929686 0.0062333444129570531 0 0.016752796840954209 0.0062088184422423925 0 0.01671430023463507 0.006177259009467845 0 0.016669092625640626 0.0061836221315224984 0 0.016677708468929686 0.0062333444129570531 0 0.01671430023463507 0.006177259009467845 0 0.016669092625640626 0.0061836221315224984 0 0.01671430023463507 0.006177259009467845 0 0.016677165540557773 0.0061407760379133917 0 0.016677165540557773 0.0061407760379133917 0 0.016697574511791342 0.006093651337921017 0 0.016648589406771778 0.0060881455936022096 0 0.01671430023463507 0.006177259009467845 0 0.016677165540557773 0.0061407760379133917 0 0.016697574511791342 0.006093651337921017 0 0.016697574511791342 0.006093651337921017 0 0.016667736532977217 0.0060277423416369531 0 0.016648589406771778 0.0060881455936022096 0 0.016770469589257608 0.0061688370010990661 0 0.016697574511791342 0.006093651337921017 0 0.016745706121121667 0.0060841614439953711 0 0.016688972491096844 0.0060332379141817072 0 0.016697574511791342 0.006093651337921017 0 0.016745706121121667 0.0060841614439953711 0 0.016688972491096844 0.0060332379141817072 0 0.016745706121121667 0.0060841614439953711 0 0.016717418097465877 0.0060471169399750214 0 0.016688972491096844 0.0060332379141817072 0 0.016697574511791342 0.006093651337921017 0 0.016667736532977217 0.0060277423416369531 0 0.016641533394544671 0.0059384323938310507 0 0.016667736532977217 0.0060277423416369531 0 0.016648589406771778 0.0060881455936022096 0 0.016641533394544671 0.0059384323938310507 0 0.016916092465310204 0.0057839747484758576 0 0.01671532169500951 0.0053347238350308895 0 0.016641533394544671 0.0059384323938310507 0 0.016554591324963026 0.0060800629842404632 0 0.016600955076558899 0.0060766054840223358 0 0.016641533394544671 0.0059384323938310507 0 0.016600955076558899 0.0060766054840223358 0 0.016648589406771778 0.0060881455936022096 0 0.017610310696586095 0.0057768052379956834 0 0.01773354739594701 0.0056766390387762641 0 0.016554591324963026 0.0060800629842404632 0 0.016600955076558899 0.0060766054840223358 0 0.016565204928425871 0.0061053190919812322 0 0.016607774110097416 0.0061305650842474945 0 0.016600955076558899 0.0060766054840223358 0 0.016565204928425871 0.0061053190919812322 0 0.016607774110097416 0.0061305650842474945 0 0.016600955076558899 0.0060766054840223358 0 0.016648589406771778 0.0060881455936022096 0 0.016607774110097416 0.0061305650842474945 0 0.016644742897451614 0.006156808498577057 0 0.016648589406771778 0.0060881455936022096 0 0.016644742897451614 0.006156808498577057 0 0.016677165540557773 0.0061407760379133917 0 0.016648589406771778 0.0060881455936022096 0 0.016641706320800923 0.0063638106124091201 0 0.016818532508343722 0.0062947485891930582 0 0.016725651887636729 0.0062032119227968122 0 0.016641706320800923 0.0063638106124091201 0 0.016725651887636729 0.0062032119227968122 0 0.016485022368971418 0.0062499470149069329 0 0.016641706320800923 0.0063638106124091201 0 0.016712919150797732 0.0064770750307077277 0 0.016818532508343722 0.0062947485891930582 0 0.016641706320800923 0.0063638106124091201 0 0.016494583179853931 0.0064223927044612756 0 0.016485022368971418 0.0062499470149069329 0 0.016294594713500438 0.0063800654722141721 0 0.016494583179853931 0.0064223927044612756 0 0.016485022368971418 0.0062499470149069329 0 0.016641706320800923 0.0063638106124091201 0 0.016494583179853931 0.0064223927044612756 0 0.01658127943781702 0.0064990111457185317 0 0.016294594713500438 0.0063800654722141721 0 0.016477745577192046 0.006582680887733415 0 0.016494583179853931 0.0064223927044612756 0 0.016477745577192046 0.006582680887733415 0 0.016494583179853931 0.0064223927044612756 0 0.01658127943781702 0.0064990111457185317 0 0.016589112958918417 0.0066158043340797199 0 0.01658127943781702 0.0064990111457185317 0 0.016712919150797732 0.0064770750307077277 0 0.016641706320800923 0.0063638106124091201 0 0.01658127943781702 0.0064990111457185317 0 0.016712919150797732 0.0064770750307077277 0 0.016712919150797732 0.0064770750307077277 0 0.016881513549051961 0.0064115642974347988 0 0.016818532508343722 0.0062947485891930582 0 0.0072179586175725305 0.0056066558116627677 0 0.0087156044215693836 0.0053445380790372119 0 0.016802646149246682 0.0066426232305411342 0 0.016712919150797732 0.0064770750307077277 0 0.016881513549051961 0.0064115642974347988 0 0.016688063213317016 0.0060438534856007186 0 0.016771429661521391 0.0060680050328354856 0 0.016717418097465877 0.0060471169399750214 0 0.016745706121121667 0.0060841614439953711 0 0.016771429661521391 0.0060680050328354856 0 0.016717418097465877 0.0060471169399750214 0 0.0087156044215693836 0.0053445380790372119 0 0.0091929894601688409 0.0052783888303438347 0 0.016770469589257608 0.0061688370010990661 0 0.016745706121121667 0.0060841614439953711 0 0.016871667140277213 0.0061923166344132197 0 0.016745706121121667 0.0060841614439953711 0 0.016771429661521391 0.0060680050328354856 0 0.016871667140277213 0.0061923166344132197 0 0.016881513549051961 0.0064115642974347988 0 0.016818532508343722 0.0062947485891930582 0 0.016871667140277213 0.0061923166344132197 0 0.016818532508343722 0.0062947485891930582 0 0.01695569831748029 0.0062069957862042084 0 0.016725651887636729 0.0062032119227968122 0 0.016818532508343722 0.0062947485891930582 0 0.01695569831748029 0.0062069957862042084 0 0.016871667140277213 0.0061923166344132197 0 0.01695569831748029 0.0062069957862042084 0 0.016871667140277213 0.0061923166344132197 0 0.016829570136095744 0.0062100886065621147 0 0.016795159943381176 0.0062469329341849665 0 0.01695569831748029 0.0062069957862042084 0 0.016829570136095744 0.0062100886065621147 0 0.016770469589257608 0.0061688370010990661 0 0.016871667140277213 0.0061923166344132197 0 0.016829570136095744 0.0062100886065621147 0 0.017868298881128442 0.0062594717328886603 0 0.01695569831748029 0.0062069957862042084 0 0.01746609457726208 0.0060672839181688488 0 0.017629454880376448 0.0057866998881607318 0 0.017510197973946567 0.0058339223041016406 0 0.017868298881128442 0.0062594717328886603 0 0.017759483693365025 0.006110037455272924 0 0.01746609457726208 0.0060672839181688488 0 0.01746609457726208 0.0060672839181688488 0 0.01753672476385917 0.0058905292520649551 0 0.017229754402850527 0.0058753685824470278 0 0.017759483693365025 0.006110037455272924 0 0.01746609457726208 0.0060672839181688488 0 0.01753672476385917 0.0058905292520649551 0 0.017759483693365025 0.006110037455272924 0 0.01753672476385917 0.0058905292520649551 0 0.017792760161575921 0.00573957467068845 0 0.01695569831748029 0.0062069957862042084 0 0.017229754402850527 0.0058753685824470278 0 0.016920723828027565 0.0058118986146079932 0 0.01695569831748029 0.0062069957862042084 0 0.016920723828027565 0.0058118986146079932 0 0.016774505505756064 0.0060174015492879922 0 0.01695569831748029 0.0062069957862042084 0 0.01746609457726208 0.0060672839181688488 0 0.017229754402850527 0.0058753685824470278 0 0.016920723828027565 0.0058118986146079932 0 0.016774505505756064 0.0060174015492879922 0 0.016707068701554459 0.0058011610605353042 0 0.016774505505756064 0.0060174015492879922 0 0.016565598601865846 0.0060593440873189866 0 0.016707068701554459 0.0058011610605353042 0 0.01695569831748029 0.0062069957862042084 0 0.016774505505756064 0.0060174015492879922 0 0.016725651887636729 0.0062032119227968122 0 0.016774505505756064 0.0060174015492879922 0 0.016725651887636729 0.0062032119227968122 0 0.016565598601865846 0.0060593440873189866 0 0.016725651887636729 0.0062032119227968122 0 0.016485022368971418 0.0062499470149069329 0 0.016565598601865846 0.0060593440873189866 0 0.016485022368971418 0.0062499470149069329 0 0.016396503080211466 0.006082353924727303 0 0.016565598601865846 0.0060593440873189866 0 0.016301388788443678 0.0061749770400300252 0 0.016485022368971418 0.0062499470149069329 0 0.016396503080211466 0.006082353924727303 0 0.016396503080211466 0.006082353924727303 0 0.016565598601865846 0.0060593440873189866 0 0.016423612217478133 0.0059254836334413129 0 0.016423612217478133 0.0059254836334413129 0 0.016496093009811665 0.00574235363504692 0 0.016707068701554459 0.0058011610605353042 0 0.016565598601865846 0.0060593440873189866 0 0.016423612217478133 0.0059254836334413129 0 0.016707068701554459 0.0058011610605353042 0 0.016496093009811665 0.00574235363504692 0 0.016707068701554459 0.0058011610605353042 0 0.016852170634449666 0.0054653658520535551 0 0.016496093009811665 0.00574235363504692 0 0.016852170634449666 0.0054653658520535551 0 0.016466159847556276 0.0054679910644336079 0 0.016920723828027565 0.0058118986146079932 0 0.016852170634449666 0.0054653658520535551 0 0.017115594099140052 0.0055308784891181084 0 0.016920723828027565 0.0058118986146079932 0 0.016707068701554459 0.0058011610605353042 0 0.016852170634449666 0.0054653658520535551 0 0.018522481344840424 0.0042976522511074221 0 0.018744425722881611 0.004214463787128175 0 0.016852170634449666 0.0054653658520535551 0 0.017966388383217451 0.0055005334865717154 0 0.017491780447163523 0.0049560324619190733 0 0.016852170634449666 0.0054653658520535551 0 0.016933860669713537 0.0049614829693083546 0 0.017491780447163523 0.0049560324619190733 0 0.016852170634449666 0.0054653658520535551 0 0.016584874162528546 0.0051260480343330887 0 0.016933860669713537 0.0049614829693083546 0 0.016584874162528546 0.0051260480343330887 0 0.01637034959138926 0.0052321784602337787 0 0.016466159847556276 0.0054679910644336079 0 0.016300442126593848 0.0050040997342245081 0 0.016584874162528546 0.0051260480343330887 0 0.01637034959138926 0.0052321784602337787 0 0.016852170634449666 0.0054653658520535551 0 0.016584874162528546 0.0051260480343330887 0 0.016466159847556276 0.0054679910644336079 0 0.017891333229348792 0.0051162180441872377 0 0.017611171471648028 0.0053415129761686005 0 0.017827807196514577 0.0054757003539488373 0 0.017611171471648028 0.0053415129761686005 0 0.017827807196514577 0.0054757003539488373 0 0.017445163882164764 0.0056077496579362805 0 0.01753672476385917 0.0058905292520649551 0 0.017792760161575921 0.00573957467068845 0 0.017445163882164764 0.0056077496579362805 0 0.017827807196514577 0.0054757003539488373 0 0.017792760161575921 0.00573957467068845 0 0.017445163882164764 0.0056077496579362805 0 0.01753672476385917 0.0058905292520649551 0 0.017229754402850527 0.0058753685824470278 0 0.017445163882164764 0.0056077496579362805 0 0.017611171471648028 0.0053415129761686005 0 0.017445163882164764 0.0056077496579362805 0 0.017404155357959326 0.0053204401291481766 0 0.017445163882164764 0.0056077496579362805 0 0.017115594099140052 0.0055308784891181084 0 0.017404155357959326 0.0053204401291481766 0 0.017229754402850527 0.0058753685824470278 0 0.017445163882164764 0.0056077496579362805 0 0.017115594099140052 0.0055308784891181084 0 0.017229754402850527 0.0058753685824470278 0 0.016920723828027565 0.0058118986146079932 0 0.017115594099140052 0.0055308784891181084 0 0.016852170634449666 0.0054653658520535551 0 0.017115594099140052 0.0055308784891181084 0 0.017123559803303393 0.0052006024051160999 0 0.017115594099140052 0.0055308784891181084 0 0.017123559803303393 0.0052006024051160999 0 0.017404155357959326 0.0053204401291481766 0 0.018744425722881611 0.004214463787128175 0 0.0193428010650466 0.0039765772404926668 0 0.017123559803303393 0.0052006024051160999 0 0.017553056748458449 0.0050226322257722481 0 0.017646231035332735 0.0048605736046666761 0 0.017123559803303393 0.0052006024051160999 0 0.017404155357959326 0.0053204401291481766 0 0.017553056748458449 0.0050226322257722481 0 0.017966388383217451 0.0055005334865717154 0 0.019040637904467875 0.0053357468059665944 0 0.018574453676182136 0.0050668757654812229 0 0.017404155357959326 0.0053204401291481766 0 0.017553056748458449 0.0050226322257722481 0 0.017651077687662959 0.0051533908726170488 0 0.018037521827942292 0.004814763125562626 0 0.017680411408920467 0.0047283814737078345 0 0.017770611780386851 0.0049668880862483618 0 0.019326638947631248 0.0039934954756427514 0 0.0193428010650466 0.0039765772404926668 0 0.017553056748458449 0.0050226322257722481 0 0.017680411408920467 0.0047283814737078345 0 0.017770611780386851 0.0049668880862483618 0 0.017891333229348792 0.0051162180441872377 0 0.017770611780386851 0.0049668880862483618 0 0.017651077687662959 0.0051533908726170488 0 0.017553056748458449 0.0050226322257722481 0 0.017770611780386851 0.0049668880862483618 0 0.017651077687662959 0.0051533908726170488 0 0.017611171471648028 0.0053415129761686005 0 0.017404155357959326 0.0053204401291481766 0 0.017651077687662959 0.0051533908726170488 0 0.017891333229348792 0.0051162180441872377 0 0.017611171471648028 0.0053415129761686005 0 0.017651077687662959 0.0051533908726170488 0 0.019040637904467875 0.0053357468059665944 0 0.018990789337435459 0.0046278340189681109 0 0.018574453676182136 0.0050668757654812229 0 0.018990789337435459 0.0046278340189681109 0 0.018574453676182136 0.0050668757654812229 0 0.018301353060951021 0.0047989801485973189 0 0.018990789337435459 0.0046278340189681109 0 0.018301353060951021 0.0047989801485973189 0 0.018632249267348504 0.0042714292267420828 0 0.018301353060951021 0.0047989801485973189 0 0.017856619952599836 0.0043852759278809111 0 0.018632249267348504 0.0042714292267420828 0 0.017966388383217451 0.0055005334865717154 0 0.018574453676182136 0.0050668757654812229 0 0.018301353060951021 0.0047989801485973189 0 0.017966388383217451 0.0055005334865717154 0 0.018301353060951021 0.0047989801485973189 0 0.017491780447163523 0.0049560324619190733 0 0.018301353060951021 0.0047989801485973189 0 0.017856619952599836 0.0043852759278809111 0 0.017491780447163523 0.0049560324619190733 0 0.017856619952599836 0.0043852759278809111 0 0.018395325233069769 0.0038039554262654343 0 0.017518858476985928 0.0036229346862265647 0 0.017856619952599836 0.0043852759278809111 0 0.018395325233069769 0.0038039554262654343 0 0.018632249267348504 0.0042714292267420828 0 0.018395325233069769 0.0038039554262654343 0 0.018632249267348504 0.0042714292267420828 0 0.019110514207279987 0.0036818623043194856 0 0.018632249267348504 0.0042714292267420828 0 0.019256612404591936 0.0041245902919008386 0 0.019110514207279987 0.0036818623043194856 0 0.018990789337435459 0.0046278340189681109 0 0.018632249267348504 0.0042714292267420828 0 0.019256612404591936 0.0041245902919008386 0 0.016691975295532461 0.0047196527474104187 0 0.01641906449541633 0.0046916224581354153 0 0.0167472685978114 0.0042072060612120812 0 0.016691975295532461 0.0047196527474104187 0 0.017080191151199599 0.0044913187447682325 0 0.0167472685978114 0.0042072060612120812 0 0.016691975295532461 0.0047196527474104187 0 0.01641906449541633 0.0046916224581354153 0 0.016490972391078808 0.0048849824439854807 0 0.016300442126593848 0.0050040997342245081 0 0.01641906449541633 0.0046916224581354153 0 0.016490972391078808 0.0048849824439854807 0 0.016300442126593848 0.0050040997342245081 0 0.016584874162528546 0.0051260480343330887 0 0.016490972391078808 0.0048849824439854807 0 0.016584874162528546 0.0051260480343330887 0 0.016691975295532461 0.0047196527474104187 0 0.016490972391078808 0.0048849824439854807 0 0.016584874162528546 0.0051260480343330887 0 0.016691975295532461 0.0047196527474104187 0 0.016933860669713537 0.0049614829693083546 0 0.016933860669713537 0.0049614829693083546 0 0.017491780447163523 0.0049560324619190733 0 0.017080191151199599 0.0044913187447682325 0 0.017856619952599836 0.0043852759278809111 0 0.017491780447163523 0.0049560324619190733 0 0.017080191151199599 0.0044913187447682325 0 0.016691975295532461 0.0047196527474104187 0 0.016933860669713537 0.0049614829693083546 0 0.017080191151199599 0.0044913187447682325 0 0.014961689586680055 0.0056706553098743156 0 0.014778226559510062 0.0059507002783917668 0 0.011186807763692486 0.015187210525521373 0 0.011305022787052213 0.013496772528275369 0 0.01322156566165964 0.014119159995321564 0 0.017856619952599836 0.0043852759278809111 0 0.017080191151199599 0.0044913187447682325 0 0.017518858476985928 0.0036229346862265647 0 0.012356548238264252 0.0067417633903919475 0 0.014778226559510062 0.0059507002783917668 0 0.017080191151199599 0.0044913187447682325 0 0.0167472685978114 0.0042072060612120812 0 0.017342295544592844 0.0038906591810035623 0 0.0093053296958763246 0.015037109052057971 0 0.011186807763692486 0.015187210525521373 0 0.0096603537724818701 0.014072466600408057 0 0.0093053296958763246 0.015037109052057971 0 0.0095176211072504832 0.015761639408156339 0 0.011186807763692486 0.015187210525521373 0 0.0098039935107352618 0.0073243468962825428 0 0.012356548238264252 0.0067417633903919475 0 0.0091744106438483349 0.016189612143525985 0 0.0095176211072504832 0.015761639408156339 0 0.011186807763692486 0.015187210525521373 0 0.011186807763692486 0.015187210525521373 0 0.011305022787052213 0.013496772528275369 0 0.0096603537724818701 0.014072466600408057 0 0.016153813341114882 0.0045530316333334299 0 0.01641906449541633 0.0046916224581354153 0 0.0167472685978114 0.0042072060612120812 0 0.011305022787052213 0.013496772528275369 0 0.0096603537724818701 0.014072466600408057 0 0.0085156736433336863 0.012773175195771362 0 0.011305022787052213 0.013496772528275369 0 0.011517589767567785 0.011793324832375933 0 0.0085156736433336863 0.012773175195771362 0 0.01322156566165964 0.014119159995321564 0 0.012669221457214847 0.012331373491717767 0 0.014392593941968214 0.011507396185413693 0 0.011305022787052213 0.013496772528275369 0 0.01322156566165964 0.014119159995321564 0 0.012669221457214847 0.012331373491717767 0 0.011305022787052213 0.013496772528275369 0 0.012669221457214847 0.012331373491717767 0 0.011517589767567785 0.011793324832375933 0 0.012669221457214847 0.012331373491717767 0 0.012890669579871747 0.010763485422241315 0 0.011517589767567785 0.011793324832375933 0 0.012669221457214847 0.012331373491717767 0 0.012890669579871747 0.010763485422241315 0 0.014392593941968214 0.011507396185413693 0 0.011517589767567785 0.011793324832375933 0 0.010581609157788887 0.010018377527741209 0 0.0085156736433336863 0.012773175195771362 0 0.012890669579871747 0.010763485422241315 0 0.011517589767567785 0.011793324832375933 0 0.010581609157788887 0.010018377527741209 0 0.019110514207279987 0.0036818623043194856 0 0.018837931694018869 0.0030682976212656459 0 0.019768311218566724 0.0034750121178304971 0 0.018395325233069769 0.0038039554262654343 0 0.019110514207279987 0.0036818623043194856 0 0.018837931694018869 0.0030682976212656459 0 0.019494746362226895 0.0031907108352819472 0 0.019841260413235081 0.0030253432077958779 0 0.019664991405873002 0.0028393832123589161 0 0.014778226559510062 0.0059507002783917668 0 0.01547523918598067 0.0059031956305288765 0 0.018395325233069769 0.0038039554262654343 0 0.017518858476985928 0.0036229346862265647 0 0.018837931694018869 0.0030682976212656459 0 0.014778226559510062 0.0059507002783917668 0 0.016991647425483196 0.0046854232364780196 0 0.012890669579871747 0.010763485422241315 0 0.014392593941968214 0.011507396185413693 0 0.013831049212860913 0.0097802712149764777 0 0.019841260413235081 0.0030253432077958779 0 0.019664991405873002 0.0028393832123589161 0 0.019829976408363873 0.0029018912069707372 0 0.019664991405873002 0.0028393832123589161 0 0.019829976408363873 0.0029018912069707372 0 0.019642755877902103 0.0028100578807590407 0 0.019829976408363873 0.0029018912069707372 0 0.020010578760671752 0.002744282101934027 0 0.020089685210410969 0.0029051145779246047 0 0.019841260413235081 0.0030253432077958779 0 0.019829976408363873 0.0029018912069707372 0 0.020089685210410969 0.0029051145779246047 0 0.019642755877902103 0.0028100578807590407 0 0.019631938373633896 0.0031057609335825025 0 0.01863281068188825 0.0038080996399327393 0 0.019642755877902103 0.0028100578807590407 0 0.020293093590910499 0.0017057993220421009 0 0.02021166850198635 0.0023591974729940484 0 0.020010578760671752 0.002744282101934027 0 0.019642755877902103 0.0028100578807590407 0 0.02021166850198635 0.0023591974729940484 0 0.019829976408363873 0.0029018912069707372 0 0.020010578760671752 0.002744282101934027 0 0.019642755877902103 0.0028100578807590407 0 0.01547523918598067 0.0059031956305288765 0 0.016088969736212259 0.0054843971643907209 0 0.019664991405873002 0.0028393832123589161 0 0.019642755877902103 0.0028100578807590407 0 0.019631938373633896 0.0031057609335825025 0 0.014392593941968214 0.011507396185413693 0 0.01550849766145591 0.0090114931788905679 0 0.013831049212860913 0.0097802712149764777 0 0.01550849766145591 0.0090114931788905679 0 0.013831049212860913 0.0097802712149764777 0 0.013907697934724062 0.0085675691573246643 0 0.013907697934724062 0.0085675691573246643 0 0.014380901586339971 0.0072403642456026858 0 0.014891628691946308 0.0082166471481675586 0 0.013907697934724062 0.0085675691573246643 0 0.014380901586339971 0.0072403642456026858 0 0.012670506483589044 0.0075013532980612177 0 0.014380901586339971 0.0072403642456026858 0 0.014891628691946308 0.0082166471481675586 0 0.015456320802445493 0.0073959973000401538 0 0.01550849766145591 0.0090114931788905679 0 0.014891628691946308 0.0082166471481675586 0 0.015456320802445493 0.0073959973000401538 0 0.01550849766145591 0.0090114931788905679 0 0.013907697934724062 0.0085675691573246643 0 0.014891628691946308 0.0082166471481675586 0 0.019631938373633896 0.0031057609335825025 0 0.018756840428804562 0.0040426278557204138 0 0.01863281068188825 0.0038080996399327393 0 0.019817161241879943 0.0027284858872806748 0 0.019895160680983959 0.002595096806666019 0 0.016088969736212259 0.0054843971643907209 0 0.016514829101619683 0.0050397861032191391 0 0.01550849766145591 0.0090114931788905679 0 0.015456320802445493 0.0073959973000401538 0 0.016668392306353509 0.0066977207545558725 0 0.010581609157788887 0.010018377527741209 0 0.010954035249026713 0.0079250238122873067 0 0.008350919352045641 0.0089725083181012091 0 0.010581609157788887 0.010018377527741209 0 0.012420537536613721 0.009065501827625784 0 0.010954035249026713 0.0079250238122873067 0 0.012890669579871747 0.010763485422241315 0 0.010581609157788887 0.010018377527741209 0 0.012420537536613721 0.009065501827625784 0 0.012890669579871747 0.010763485422241315 0 0.013831049212860913 0.0097802712149764777 0 0.012420537536613721 0.009065501827625784 0 0.013831049212860913 0.0097802712149764777 0 0.013907697934724062 0.0085675691573246643 0 0.012420537536613721 0.009065501827625784 0 0.012670506483589044 0.0075013532980612177 0 0.010954035249026713 0.0079250238122873067 0 0.011899702099538731 0.005931221683289978 0 0.012420537536613721 0.009065501827625784 0 0.012670506483589044 0.0075013532980612177 0 0.010954035249026713 0.0079250238122873067 0 0.013907697934724062 0.0085675691573246643 0 0.012420537536613721 0.009065501827625784 0 0.012670506483589044 0.0075013532980612177 0 0.010954035249026713 0.0079250238122873067 0 0.011899702099538731 0.005931221683289978 0 0.0096780096382082237 0.0062136343543154112 0 0.010669567986358265 0.0046056274718814854 0 0.011899702099538731 0.005931221683289978 0 0.0096780096382082237 0.0062136343543154112 0 0.010669567986358265 0.0046056274718814854 0 0.010376395898186057 0.0031232901386970113 0 0.01253317932776055 0.0035487518815523404 0 0.010669567986358265 0.0046056274718814854 0 0.011899702099538731 0.005931221683289978 0 0.01253317932776055 0.0035487518815523404 0 0.011899702099538731 0.005931221683289978 0 0.013761563550353248 0.0057258283661138342 0 0.01253317932776055 0.0035487518815523404 0 0.013761563550353248 0.0057258283661138342 0 0.014426499214326928 0.0044086940207410776 0 0.01253317932776055 0.0035487518815523404 0 0.012670506483589044 0.0075013532980612177 0 0.011899702099538731 0.005931221683289978 0 0.013761563550353248 0.0057258283661138342 0 0.014380901586339971 0.0072403642456026858 0 0.012670506483589044 0.0075013532980612177 0 0.013761563550353248 0.0057258283661138342 0 0.014380901586339971 0.0072403642456026858 0 0.015199339619016079 0.0063550008230926986 0 0.013761563550353248 0.0057258283661138342 0 0.014380901586339971 0.0072403642456026858 0 0.015456320802445493 0.0073959973000401538 0 0.015199339619016079 0.0063550008230926986 0 0.015199339619016079 0.0063550008230926986 0 0.013761563550353248 0.0057258283661138342 0 0.01522741895745261 0.0052256052048386724 0 0.015456320802445493 0.0073959973000401538 0 0.015199339619016079 0.0063550008230926986 0 0.015833588565952492 0.0065723913278897478 0 0.015456320802445493 0.0073959973000401538 0 0.016668392306353509 0.0066977207545558725 0 0.015833588565952492 0.0065723913278897478 0 0.016668392306353509 0.0066977207545558725 0 0.015833588565952492 0.0065723913278897478 0 0.016005653112825827 0.0058350848024897855 0 0.015199339619016079 0.0063550008230926986 0 0.015833588565952492 0.0065723913278897478 0 0.016005653112825827 0.0058350848024897855 0 0.015199339619016079 0.0063550008230926986 0 0.016005653112825827 0.0058350848024897855 0 0.01522741895745261 0.0052256052048386724 0 0.016668392306353509 0.0066977207545558725 0 0.016005653112825827 0.0058350848024897855 0 0.016819641099811343 0.0051690386034223441 0 0.016668392306353509 0.0066977207545558725 0 0.016819641099811343 0.0051690386034223441 0 0.018060673102411693 0.0042840798464428148 0 0.016819641099811343 0.0051690386034223441 0 0.016260739552188819 0.0048548561517612523 0 0.016869927309343322 0.0041092590973986296 0 0.016005653112825827 0.0058350848024897855 0 0.016260739552188819 0.0048548561517612523 0 0.01522741895745261 0.0052256052048386724 0 0.016260739552188819 0.0048548561517612523 0 0.015735425174040644 0.0041702864542223911 0 0.01522741895745261 0.0052256052048386724 0 0.016005653112825827 0.0058350848024897855 0 0.016819641099811343 0.0051690386034223441 0 0.016260739552188819 0.0048548561517612523 0 0.016260739552188819 0.0048548561517612523 0 0.015735425174040644 0.0041702864542223911 0 0.016869927309343322 0.0041092590973986296 0 0.015735425174040644 0.0041702864542223911 0 0.016869927309343322 0.0041092590973986296 0 0.016583675359760613 0.0032039590820772145 0 0.016819641099811343 0.0051690386034223441 0 0.016869927309343322 0.0041092590973986296 0 0.018060673102411693 0.0042840798464428148 0 0.014426499214326928 0.0044086940207410776 0 0.014977112369522169 0.0032023320987899897 0 0.01253317932776055 0.0035487518815523404 0 0.013761563550353248 0.0057258283661138342 0 0.01522741895745261 0.0052256052048386724 0 0.014426499214326928 0.0044086940207410776 0 0.015735425174040644 0.0041702864542223911 0 0.01522741895745261 0.0052256052048386724 0 0.014426499214326928 0.0044086940207410776 0 0.015735425174040644 0.0041702864542223911 0 0.014426499214326928 0.0044086940207410776 0 0.014977112369522169 0.0032023320987899897 0 0.013957578696061471 0.0021307488512535564 0 0.014977112369522169 0.0032023320987899897 0 0.016461624126293942 0.0015523544527464887 0 0.013957578696061471 0.0021307488512535564 0 0.014977112369522169 0.0032023320987899897 0 0.01253317932776055 0.0035487518815523404 0 0.014977112369522169 0.0032023320987899897 0 0.016583675359760613 0.0032039590820772145 0 0.016461624126293942 0.0015523544527464887 0 0.016583675359760613 0.0032039590820772145 0 0.016461624126293942 0.0015523544527464887 0 0.018224081136557314 0.0026909668465793278 0 0.016869927309343322 0.0041092590973986296 0 0.016583675359760613 0.0032039590820772145 0 0.017711227857257567 0.0036211852219621954 0 0.015735425174040644 0.0041702864542223911 0 0.014977112369522169 0.0032023320987899897 0 0.016583675359760613 0.0032039590820772145 0 0.013957578696061471 0.0021307488512535564 0 0.012748430672889216 0.00097891190140479787 0 0.014656813572883584 -7.7389700383361537e-05 0 0.013957578696061471 0.0021307488512535564 0 0.016461624126293942 0.0015523544527464887 0 0.014656813572883584 -7.7389700383361537e-05 0 0.012748430672889216 0.00097891190140479787 0 0.010812396177733784 0.0013707773509379917 0 0.01253317932776055 0.0035487518815523404 0 0.012748430672889216 0.00097891190140479787 0 0.010812396177733784 0.0013707773509379917 0 0.012605294129949283 -0.0011417240269915405 0 0.010812396177733784 0.0013707773509379917 0 0.010376395898186057 0.0031232901386970113 0 0.01253317932776055 0.0035487518815523404 0 0.013957578696061471 0.0021307488512535564 0 0.012748430672889216 0.00097891190140479787 0 0.01253317932776055 0.0035487518815523404 0 0.022006143894895618 0.0006990710186971442 0 0.022226395737542079 0.00041896223223799646 0 0.021718182111772608 0.00038205158732541623 0 0.022380845930441123 0.0006466758694995933 0 0.02254749996938351 0.00038918770682493928 0 0.022226395737542079 0.00041896223223799646 0 0.022006143894895618 0.0006990710186971442 0 0.022380845930441123 0.0006466758694995933 0 0.022226395737542079 0.00041896223223799646 0 0.022006143894895618 0.0006990710186971442 0 0.022380845930441123 0.0006466758694995933 0 0.022246750893993788 0.0010280671312147655 0 0.022380845930441123 0.0006466758694995933 0 0.022665602667903906 0.00069988688146753214 0 0.022246750893993788 0.0010280671312147655 0 0.022380845930441123 0.0006466758694995933 0 0.022665602667903906 0.00069988688146753214 0 0.022765036498164436 0.00046436466821090798 0 0.022665602667903906 0.00069988688146753214 0 0.022765036498164436 0.00046436466821090798 0 0.023011064816716744 0.00045491964602260268 0 0.022380845930441123 0.0006466758694995933 0 0.022765036498164436 0.00046436466821090798 0 0.02254749996938351 0.00038918770682493928 0 0.022765036498164436 0.00046436466821090798 0 0.02254749996938351 0.00038918770682493928 0 0.022838652155234684 0.00023732782659172677 0 0.02254749996938351 0.00038918770682493928 0 0.022838652155234684 0.00023732782659172677 0 0.022567719338554514 0.00021906578093942489 0 0.022765036498164436 0.00046436466821090798 0 0.022838652155234684 0.00023732782659172677 0 0.023001691433664297 0.00029413799375782167 0 0.022838652155234684 0.00023732782659172677 0 0.02304178524989519 7.4484177167846041e-05 0 0.022826151191117198 8.8154927243023991e-05 0 0.022838652155234684 0.00023732782659172677 0 0.023053599299845417 0.00017806354399154249 0 0.02304178524989519 7.4484177167846041e-05 0 0.022838652155234684 0.00023732782659172677 0 0.023053599299845417 0.00017806354399154249 0 0.023001691433664297 0.00029413799375782167 0 0.022838652155234684 0.00023732782659172677 0 0.022567719338554514 0.00021906578093942489 0 0.022826151191117198 8.8154927243023991e-05 0 0.022314996482774387 0.00016793284911117133 0 0.022226395737542079 0.00041896223223799646 0 0.021718182111772608 0.00038205158732541623 0 0.022567719338554514 0.00021906578093942489 0 0.022314996482774387 0.00016793284911117133 0 0.022629892398197002 -2.9743105128486337e-05 0 0.022314996482774387 0.00016793284911117133 0 0.021718182111772608 0.00038205158732541623 0 0.022166709800434423 -0.00027754016770472137 0 0.022567719338554514 0.00021906578093942489 0 0.022314996482774387 0.00016793284911117133 0 0.022226395737542079 0.00041896223223799646 0 0.02254749996938351 0.00038918770682493928 0 0.022567719338554514 0.00021906578093942489 0 0.022226395737542079 0.00041896223223799646 0 0.02005763241969577 0.0022351861258464237 0 0.01880026302407049 0.0011647223716716279 0 0.020108313131344455 0.00025834368616664457 0 0.020585220495259505 0.0014221022206935133 0 0.020827538453467954 0.00099598435097165809 0 0.02005763241969577 0.0022351861258464237 0 0.01880026302407049 0.0011647223716716279 0 0.018224081136557314 0.0026909668465793278 0 0.016461624126293942 0.0015523544527464887 0 0.01880026302407049 0.0011647223716716279 0 0.018191092947737002 -0.00018143739058807971 0 0.016461624126293942 0.0015523544527464887 0 0.01880026302407049 0.0011647223716716279 0 0.018224081136557314 0.0026909668465793278 0 0.02005763241969577 0.0022351861258464237 0 0.018224081136557314 0.0026909668465793278 0 0.018352787920386769 0.0044494898608049196 0 0.018224081136557314 0.0026909668465793278 0 0.017711227857257567 0.0036211852219621954 0 0.018352787920386769 0.0044494898608049196 0 0.016583675359760613 0.0032039590820772145 0 0.018224081136557314 0.0026909668465793278 0 0.017711227857257567 0.0036211852219621954 0 0.020585220495259505 0.0014221022206935133 0 0.020164673446870993 0.0021466614493726084 0 0.021718182111772608 0.00038205158732541623 0 0.021564100591446436 0.00084934357175542406 0 0.021070836538586605 0.00093904694271076407 0 0.022006143894895618 0.0006990710186971442 0 0.021718182111772608 0.00038205158732541623 0 0.021564100591446436 0.00084934357175542406 0 0.022006143894895618 0.0006990710186971442 0 0.021564100591446436 0.00084934357175542406 0 0.021680304677030863 0.0011351245281159355 0 0.021564100591446436 0.00084934357175542406 0 0.021333628069588547 0.0011622946194826604 0 0.021070836538586605 0.00093904694271076407 0 0.021564100591446436 0.00084934357175542406 0 0.021333628069588547 0.0011622946194826604 0 0.021680304677030863 0.0011351245281159355 0 0.018756840428804562 0.0040426278557204138 0 0.018060673102411693 0.0042840798464428148 0 0.018352787920386769 0.0044494898608049196 0 0.017711227857257567 0.0036211852219621954 0 0.018060673102411693 0.0042840798464428148 0 0.018352787920386769 0.0044494898608049196 0 0.016869927309343322 0.0041092590973986296 0 0.017711227857257567 0.0036211852219621954 0 0.018060673102411693 0.0042840798464428148 0 0.018756840428804562 0.0040426278557204138 0 0.018352787920386769 0.0044494898608049196 0 0.01863281068188825 0.0038080996399327393 0 0.016514829101619683 0.0050397861032191391 0 0.016684109200179233 0.0048159005760171035 0 0.021070836538586605 0.00093904694271076407 0 0.0210151779230222 0.0014575364665712104 0 0.020293093590910499 0.0017057993220421009 0 0.020164673446870993 0.0021466614493726084 0 0.019895160680983959 0.002595096806666019 0 0.021333628069588547 0.0011622946194826604 0 0.021070836538586605 0.00093904694271076407 0 0.0210151779230222 0.0014575364665712104 0 0.021680304677030863 0.0011351245281159355 0 0.021399860053648408 0.0014365628444852644 0 0.021657809270447324 0.0014699278604500996 0 0.021333628069588547 0.0011622946194826604 0 0.021680304677030863 0.0011351245281159355 0 0.021399860053648408 0.0014365628444852644 0 0.021333628069588547 0.0011622946194826604 0 0.0210151779230222 0.0014575364665712104 0 0.021399860053648408 0.0014365628444852644 0 0.0210151779230222 0.0014575364665712104 0 0.021399860053648408 0.0014365628444852644 0 0.021179668684657683 0.0017318664365042506 0 0.021399860053648408 0.0014365628444852644 0 0.021575187792732486 0.0016863267940055852 0 0.021179668684657683 0.0017318664365042506 0 0.021399860053648408 0.0014365628444852644 0 0.021657809270447324 0.0014699278604500996 0 0.021575187792732486 0.0016863267940055852 0 0.021657809270447324 0.0014699278604500996 0 0.021900888351550071 0.0013876511551136174 0 0.021858275537422599 0.0016478222782683454 0 0.021657809270447324 0.0014699278604500996 0 0.021858275537422599 0.0016478222782683454 0 0.021575187792732486 0.0016863267940055852 0 0.021900888351550071 0.0013876511551136174 0 0.022179908350512811 0.0013578827593695073 0 0.022122325839690565 0.0016020067477167559 0 0.021900888351550071 0.0013876511551136174 0 0.022122325839690565 0.0016020067477167559 0 0.021858275537422599 0.0016478222782683454 0 0.021900888351550071 0.0013876511551136174 0 0.022246750893993788 0.0010280671312147655 0 0.022179908350512811 0.0013578827593695073 0 0.021680304677030863 0.0011351245281159355 0 0.021657809270447324 0.0014699278604500996 0 0.021900888351550071 0.0013876511551136174 0 0.022006143894895618 0.0006990710186971442 0 0.021680304677030863 0.0011351245281159355 0 0.022246750893993788 0.0010280671312147655 0 0.021680304677030863 0.0011351245281159355 0 0.021900888351550071 0.0013876511551136174 0 0.022246750893993788 0.0010280671312147655 0 0.022246750893993788 0.0010280671312147655 0 0.022437140336938811 0.0013304295844572555 0 0.022716808387435075 0.00095085585271220631 0 0.022665602667903906 0.00069988688146753214 0 0.022246750893993788 0.0010280671312147655 0 0.022716808387435075 0.00095085585271220631 0 0.022246750893993788 0.0010280671312147655 0 0.022437140336938811 0.0013304295844572555 0 0.022179908350512811 0.0013578827593695073 0 0.022437140336938811 0.0013304295844572555 0 0.022179908350512811 0.0013578827593695073 0 0.022122325839690565 0.0016020067477167559 0 0.022437140336938811 0.0013304295844572555 0 0.022122325839690565 0.0016020067477167559 0 0.022324706760807927 0.0016873516241501677 0 0.022437140336938811 0.0013304295844572555 0 0.022324706760807927 0.0016873516241501677 0 0.022446750493797834 0.0016723397207260222 0 0.022324706760807927 0.0016873516241501677 0 0.022429163115382962 0.0018046329208875628 0 0.022169052312913537 0.0018391096037250222 0 0.022324706760807927 0.0016873516241501677 0 0.022429163115382962 0.0018046329208875628 0 0.022446750493797834 0.0016723397207260222 0 0.022429163115382962 0.0018046329208875628 0 0.022169052312913537 0.0018391096037250222 0 0.022055093066400803 0.0021229732524844836 0 0.022122325839690565 0.0016020067477167559 0 0.022324706760807927 0.0016873516241501677 0 0.022169052312913537 0.0018391096037250222 0 0.022122325839690565 0.0016020067477167559 0 0.021858275537422599 0.0016478222782683454 0 0.021873563011892801 0.0019129175824312628 0 0.022122325839690565 0.0016020067477167559 0 0.022169052312913537 0.0018391096037250222 0 0.021873563011892801 0.0019129175824312628 0 0.021575187792732486 0.0016863267940055852 0 0.021873563011892801 0.0019129175824312628 0 0.02139312636633078 0.0020147597011067834 0 0.021858275537422599 0.0016478222782683454 0 0.021575187792732486 0.0016863267940055852 0 0.021873563011892801 0.0019129175824312628 0 0.021873563011892801 0.0019129175824312628 0 0.021637634715476649 0.0023125429179861783 0 0.02139312636633078 0.0020147597011067834 0 0.021873563011892801 0.0019129175824312628 0 0.022055093066400803 0.0021229732524844836 0 0.021637634715476649 0.0023125429179861783 0 0.022169052312913537 0.0018391096037250222 0 0.021873563011892801 0.0019129175824312628 0 0.022055093066400803 0.0021229732524844836 0 0.022055093066400803 0.0021229732524844836 0 0.021637634715476649 0.0023125429179861783 0 0.02211661278055611 0.0025994839711104348 0 0.021637634715476649 0.0023125429179861783 0 0.02211661278055611 0.0025994839711104348 0 0.021275823559502208 0.0028566151333968117 0 0.021284062619586736 0.0023613700934430521 0 0.021079668955034988 0.0024379782343240093 0 0.022429163115382962 0.0018046329208875628 0 0.022055093066400803 0.0021229732524844836 0 0.02211661278055611 0.0025994839711104348 0 0.021651623225485663 0.0018678431854560825 0 0.021886525831617532 0.0020321382737604849 0 0.021952979730817852 0.001824651814662813 0 0.022429163115382962 0.0018046329208875628 0 0.022529427108387793 0.0016621373103170097 0 0.022395705473754971 0.001684486332717692 0 0.021284062619586736 0.0023613700934430521 0 0.02155077294213386 0.0022786044811590779 0 0.021406632987829809 0.0022493747591936725 0 0.021284062619586736 0.0023613700934430521 0 0.020293093590910499 0.0017057993220421009 0 0.020548294766555685 0.002051750235118405 0 0.02021166850198635 0.0023591974729940484 0 0.020548294766555685 0.002051750235118405 0 0.020538779661118264 0.0022946797495620522 0 0.02021166850198635 0.0023591974729940484 0 0.020293093590910499 0.0017057993220421009 0 0.020769424856878393 0.0018016919763435236 0 0.020548294766555685 0.002051750235118405 0 0.0210151779230222 0.0014575364665712104 0 0.020293093590910499 0.0017057993220421009 0 0.020769424856878393 0.0018016919763435236 0 0.020548294766555685 0.002051750235118405 0 0.02089715376018288 0.0021072925201739345 0 0.020538779661118264 0.0022946797495620522 0 0.020769424856878393 0.0018016919763435236 0 0.020548294766555685 0.002051750235118405 0 0.02089715376018288 0.0021072925201739345 0 0.02089715376018288 0.0021072925201739345 0 0.02139312636633078 0.0020147597011067834 0 0.021135637208917701 0.0023827823748589338 0 0.02089715376018288 0.0021072925201739345 0 0.021179668684657683 0.0017318664365042506 0 0.02139312636633078 0.0020147597011067834 0 0.0210151779230222 0.0014575364665712104 0 0.020769424856878393 0.0018016919763435236 0 0.021179668684657683 0.0017318664365042506 0 0.020769424856878393 0.0018016919763435236 0 0.02089715376018288 0.0021072925201739345 0 0.021179668684657683 0.0017318664365042506 0 0.021575187792732486 0.0016863267940055852 0 0.021179668684657683 0.0017318664365042506 0 0.02139312636633078 0.0020147597011067834 0 0.021637634715476649 0.0023125429179861783 0 0.02139312636633078 0.0020147597011067834 0 0.021135637208917701 0.0023827823748589338 0 0.021637634715476649 0.0023125429179861783 0 0.021135637208917701 0.0023827823748589338 0 0.021275823559502208 0.0028566151333968117 0 0.021135637208917701 0.0023827823748589338 0 0.02058434800851253 0.0025577769266999051 0 0.021275823559502208 0.0028566151333968117 0 0.02089715376018288 0.0021072925201739345 0 0.021135637208917701 0.0023827823748589338 0 0.02058434800851253 0.0025577769266999051 0 0.02058434800851253 0.0025577769266999051 0 0.020089685210410969 0.0029051145779246047 0 0.021275823559502208 0.0028566151333968117 0 0.02089715376018288 0.0021072925201739345 0 0.020538779661118264 0.0022946797495620522 0 0.02058434800851253 0.0025577769266999051 0 0.020538779661118264 0.0022946797495620522 0 0.02058434800851253 0.0025577769266999051 0 0.020288062900176793 0.0025852061321080077 0 0.020010578760671752 0.002744282101934027 0 0.020288062900176793 0.0025852061321080077 0 0.020089685210410969 0.0029051145779246047 0 0.02058434800851253 0.0025577769266999051 0 0.020288062900176793 0.0025852061321080077 0 0.020089685210410969 0.0029051145779246047 0 0.020010578760671752 0.002744282101934027 0 0.020288062900176793 0.0025852061321080077 0 0.02021166850198635 0.0023591974729940484 0 0.020538779661118264 0.0022946797495620522 0 0.020288062900176793 0.0025852061321080077 0 0.02021166850198635 0.0023591974729940484 0 0.020976672012445307 0.0024692787629946645 0 0.021079668955034988 0.0024379782343240093 0 0.016991647425483196 0.0046854232364780196 0 0.017675603960355928 0.0043004038327359015 0 0.019841260413235081 0.0030253432077958779 0 0.020089685210410969 0.0029051145779246047 0 0.020161173579146277 0.0028429790413292866 0 0.020089685210410969 0.0029051145779246047 0 0.020161173579146277 0.0028429790413292866 0 0.020337727573253861 0.0027217434765104743 0 0.018837931694018869 0.0030682976212656459 0 0.020161173579146277 0.0028429790413292866 0 0.019755422726131257 0.0031137940945613475 0 0.020161173579146277 0.0028429790413292866 0 0.019755422726131257 0.0031137940945613475 0 0.02014840233621468 0.0030695626067113193 0 0.02014840233621468 0.0030695626067113193 0 0.020337727573253861 0.0027217434765104743 0 0.020533160952809437 0.0032702109730426928 0 0.020161173579146277 0.0028429790413292866 0 0.02014840233621468 0.0030695626067113193 0 0.020337727573253861 0.0027217434765104743 0 0.02014840233621468 0.0030695626067113193 0 0.020533160952809437 0.0032702109730426928 0 0.019768311218566724 0.0034750121178304971 0 0.01991478053911673 0.0042012232413362995 0 0.020533160952809437 0.0032702109730426928 0 0.019768311218566724 0.0034750121178304971 0 0.020083349057656116 0.0033861847380034613 0 0.020720216875358122 0.0028427791144112484 0 0.018837931694018869 0.0030682976212656459 0 0.019755422726131257 0.0031137940945613475 0 0.019768311218566724 0.0034750121178304971 0 0.019755422726131257 0.0031137940945613475 0 0.02014840233621468 0.0030695626067113193 0 0.019768311218566724 0.0034750121178304971 0 0.01951723947673888 0.0038714806928217536 0 0.019110514207279987 0.0036818623043194856 0 0.019768311218566724 0.0034750121178304971 0 0.021651623225485663 0.0018678431854560825 0 0.021886525831617532 0.0020321382737604849 0 0.021715930818227796 0.0022327156199544009 0 0.021886525831617532 0.0020321382737604849 0 0.021715930818227796 0.0022327156199544009 0 0.022091338869207885 0.0022605315225846796 0 0.021651623225485663 0.0018678431854560825 0 0.021334647854080898 0.0022667486453444349 0 0.021715930818227796 0.0022327156199544009 0 0.021284062619586736 0.0023613700934430521 0 0.020720216875358122 0.0028427791144112484 0 0.020971611156234731 0.0026113422627710545 0 0.020337727573253861 0.0027217434765104743 0 0.020533160952809437 0.0032702109730426928 0 0.021406303093707075 0.0025573771033069563 0 0.021334647854080898 0.0022667486453444349 0 0.021582075664284016 0.0024337208424632189 0 0.021334647854080898 0.0022667486453444349 0 0.021582075664284016 0.0024337208424632189 0 0.021715930818227796 0.0022327156199544009 0 0.021750035356377598 0.0026117908975277107 0 0.021582075664284016 0.0024337208424632189 0 0.021715930818227796 0.0022327156199544009 0 0.021750035356377598 0.0026117908975277107 0 0.021715930818227796 0.0022327156199544009 0 0.022091338869207885 0.0022605315225846796 0 0.020876271984233207 0.0030590207737573359 0 0.021295379859042354 0.0026987528501107539 0 0.021886525831617532 0.0020321382737604849 0 0.022091338869207885 0.0022605315225846796 0 0.022111167024547664 0.0019822363075355301 0 0.021886525831617532 0.0020321382737604849 0 0.022111167024547664 0.0019822363075355301 0 0.021952979730817852 0.001824651814662813 0 0.021596964558837882 0.0024176074924345471 0 0.022315667309137699 0.001975745792278976 0 0.022453889357552392 0.002388174719318222 0 0.022091338869207885 0.0022605315225846796 0 0.022111167024547664 0.0019822363075355301 0 0.022315667309137699 0.001975745792278976 0 0.021295379859042354 0.0026987528501107539 0 0.021463417398470779 0.0025539074895671054 0 0.022338238018791957 0.002911947863620912 0 0.021596964558837882 0.0024176074924345471 0 0.022453889357552392 0.002388174719318222 0 0.023006118617799252 0.0029311065786877116 0 0.022338238018791957 0.002911947863620912 0 0.022453889357552392 0.002388174719318222 0 0.023006118617799252 0.0029311065786877116 0 0.022453889357552392 0.002388174719318222 0 0.022846097593503267 0.0022334577636599026 0 0.01996458864146063 0.00025521216152762878 0 0.020652531679111363 0.00051660989561099044 0 0.022315667309137699 0.001975745792278976 0 0.022453889357552392 0.002388174719318222 0 0.022846097593503267 0.0022334577636599026 0 0.022315667309137699 0.001975745792278976 0 0.022680912108110546 0.001728648496805481 0 0.022427751172163311 0.0017110919208113292 0 0.022315667309137699 0.001975745792278976 0 0.022846097593503267 0.0022334577636599026 0 0.022680912108110546 0.001728648496805481 0 0.020652531679111363 0.00051660989561099044 0 0.021136761854759056 0.00076519635076362084 0 0.02079489734739972 -0.0021303753424092697 0 0.021656659505521366 -0.00076997439662454959 0 0.020389110455672887 -0.00099277347921387731 0 0.021656659505521366 -0.00076997439662454959 0 0.021457848260212381 6.8237739489062396e-05 0 0.020389110455672887 -0.00099277347921387731 0 0.021136761854759056 0.00076519635076362084 0 0.021429351034665291 0.00094368613028551838 0 0.021656659505521366 -0.00076997439662454959 0 0.021457848260212381 6.8237739489062396e-05 0 0.022356849583181779 0.00069439081576698849 0 0.022680912108110546 0.001728648496805481 0 0.022530461499368833 0.001577533738819221 0 0.022427751172163311 0.0017110919208113292 0 0.022680912108110546 0.001728648496805481 0 0.022530461499368833 0.001577533738819221 0 0.02266825233423057 0.0014170978215820485 0 0.022530461499368833 0.001577533738819221 0 0.022427751172163311 0.0017110919208113292 0 0.022399467556038982 0.0015896572314300376 0 0.022427751172163311 0.0017110919208113292 0 0.022362229101444728 0.0016990851922598512 0 0.022399467556038982 0.0015896572314300376 0 0.022362229101444728 0.0016990851922598512 0 0.022399467556038982 0.0015896572314300376 0 0.02235989914011902 0.0017060609737872788 0 0.022362229101444728 0.0016990851922598512 0 0.02235989914011902 0.0017060609737872788 0 0.022282785706919668 0.0017838617296772503 0 0.022399467556038982 0.0015896572314300376 0 0.022376119508345171 0.0016031125726511007 0 0.02235989914011902 0.0017060609737872788 0 0.022376119508345171 0.0016031125726511007 0 0.022401800095260101 0.0017187456348856174 0 0.02235989914011902 0.0017060609737872788 0 0.022429163115382962 0.0018046329208875628 0 0.022401800095260101 0.0017187456348856174 0 0.022446750493797834 0.0016723397207260222 0 0.022376119508345171 0.0016031125726511007 0 0.022401800095260101 0.0017187456348856174 0 0.022446750493797834 0.0016723397207260222 0 0.022429163115382962 0.0018046329208875628 0 0.022401800095260101 0.0017187456348856174 0 0.022369650604495188 0.0017407236885034439 0 0.022401800095260101 0.0017187456348856174 0 0.02235989914011902 0.0017060609737872788 0 0.022369650604495188 0.0017407236885034439 0 0.02155077294213386 0.0022786044811590779 0 0.021639688717813198 0.0022517576123223539 0 0.022369650604495188 0.0017407236885034439 0 0.022395705473754971 0.001684486332717692 0 0.022282785706919668 0.0017838617296772503 0 0.022111167024547664 0.0019822363075355301 0 0.021952979730817852 0.001824651814662813 0 0.022282785706919668 0.0017838617296772503 0 0.02235989914011902 0.0017060609737872788 0 0.022369650604495188 0.0017407236885034439 0 0.022282785706919668 0.0017838617296772503 0 0.022429163115382962 0.0018046329208875628 0 0.022369650604495188 0.0017407236885034439 0 0.022395705473754971 0.001684486332717692 0 0.022111167024547664 0.0019822363075355301 0 0.022315667309137699 0.001975745792278976 0 0.022282785706919668 0.0017838617296772503 0 0.022315667309137699 0.001975745792278976 0 0.022427751172163311 0.0017110919208113292 0 0.022282785706919668 0.0017838617296772503 0 0.022427751172163311 0.0017110919208113292 0 0.022362229101444728 0.0016990851922598512 0 0.022282785706919668 0.0017838617296772503 0 0.017299163110886338 -0.0018905846754132098 0 0.018051765544585388 -0.0029868605904344839 0 0.018405922872556865 -0.0020282916729803474 0 0.017242769571942526 -0.0018932887899325262 0 0.017537284210650074 -0.0024167344801851731 0 0.016616952421106751 -0.0012688758729430525 0 0.017392659170026487 -0.0022410703270299781 0 0.016255939297079088 -0.0019662692326986001 0 0.018051765544585388 -0.0029868605904344839 0 0.018405922872556865 -0.0020282916729803474 0 0.019167081263419899 -0.0025966720692641326 0 0.017299163110886338 -0.0018905846754132098 0 0.018405922872556865 -0.0020282916729803474 0 0.018264356695828279 -0.001155838554352218 0 0.018405922872556865 -0.0020282916729803474 0 0.019167081263419899 -0.0025966720692641326 0 0.019273674944178906 -0.0014033009140344138 0 0.019167081263419899 -0.0025966720692641326 0 0.019863974792706119 -0.0020382960488624542 0 0.019273674944178906 -0.0014033009140344138 0 0.02008624491575544 -0.0032168417901474273 0 0.019167081263419899 -0.0025966720692641326 0 0.019863974792706119 -0.0020382960488624542 0 0.02008624491575544 -0.0032168417901474273 0 0.02079489734739972 -0.0021303753424092697 0 0.019863974792706119 -0.0020382960488624542 0 0.02079489734739972 -0.0021303753424092697 0 0.019863974792706119 -0.0020382960488624542 0 0.020389110455672887 -0.00099277347921387731 0 0.019863974792706119 -0.0020382960488624542 0 0.020389110455672887 -0.00099277347921387731 0 0.019273674944178906 -0.0014033009140344138 0 0.020389110455672887 -0.00099277347921387731 0 0.020212022308401377 -3.5998060723388167e-05 0 0.019389776902793997 -0.00048794978285821532 0 0.021457848260212381 6.8237739489062396e-05 0 0.020389110455672887 -0.00099277347921387731 0 0.020212022308401377 -3.5998060723388167e-05 0 0.020115872759900608 -0.00047504326018266277 0 0.020180801663715393 -0.00037882855497569176 0 0.020212022308401377 -3.5998060723388167e-05 0 0.019389776902793997 -0.00048794978285821532 0 0.019433928872624639 0.00050740069518028972 0 0.019275235855760946 -0.00056682489302680382 0 0.018098514029122537 -1.9237206619674418e-06 0 0.019293897028711135 0.00030607224538725262 0 0.019275235855760946 -0.00056682489302680382 0 0.019273674944178906 -0.0014033009140344138 0 0.018264356695828279 -0.001155838554352218 0 0.020115872759900608 -0.00047504326018266277 0 0.020093283085907382 -0.00054753659294519614 0 0.020389110455672887 -0.00099277347921387731 0 0.019389776902793997 -0.00048794978285821532 0 0.019273674944178906 -0.0014033009140344138 0 0.018405922872556865 -0.0020282916729803474 0 0.019273674944178906 -0.0014033009140344138 0 0.018264356695828279 -0.001155838554352218 0 0.018264356695828279 -0.001155838554352218 0 0.018098514029122537 -1.9237206619674418e-06 0 0.017331364552774873 -0.00092231515405656573 0 0.019275235855760946 -0.00056682489302680382 0 0.018264356695828279 -0.001155838554352218 0 0.018098514029122537 -1.9237206619674418e-06 0 0.01930171009572294 -0.00056443279264907324 0 0.01869886220335051 -0.00069500686370366866 0 0.019198452681175832 -0.0011910714308626634 0 0.018032946951681509 -0.0013998618269330911 0 0.018035970312577577 -0.00083223003975063995 0 0.018098514029122537 -1.9237206619674418e-06 0 0.017331364552774873 -0.00092231515405656573 0 0.016770482023645866 -0.00041484841943649367 0 0.017299163110886338 -0.0018905846754132098 0 0.018264356695828279 -0.001155838554352218 0 0.017331364552774873 -0.00092231515405656573 0 0.018875008022026768 -7.803000561742853e-05 0 0.018510221593347084 -0.00047829880766944374 0 0.018155937006402955 4.1300653852539367e-05 0 0.018875008022026768 -7.803000561742853e-05 0 0.018510221593347084 -0.00047829880766944374 0 0.019441960863602809 -0.00043396654809997425 0 0.019198452681175832 -0.0011910714308626634 0 0.018510221593347084 -0.00047829880766944374 0 0.018035970312577577 -0.00083223003975063995 0 0.019198452681175832 -0.0011910714308626634 0 0.018510221593347084 -0.00047829880766944374 0 0.019441960863602809 -0.00043396654809997425 0 0.019198452681175832 -0.0011910714308626634 0 0.019441960863602809 -0.00043396654809997425 0 0.02001094173827481 -0.00096613755323190348 0 0.01930171009572294 -0.00056443279264907324 0 0.020180801663715393 -0.00037882855497569176 0 0.019441960863602809 -0.00043396654809997425 0 0.020018649734356842 -0.0001652797574679733 0 0.02001094173827481 -0.00096613755323190348 0 0.020542745303999334 8.6430033121735265e-05 0 0.020180801663715393 -0.00037882855497569176 0 0.022883940230582468 0.0005113289161720921 0 0.022914390398741526 0.00094863534935875392 0 0.022631665859983215 0.00088502139254035422 0 0.021457848260212381 6.8237739489062396e-05 0 0.020212022308401377 -3.5998060723388167e-05 0 0.020646815548109813 0.000763093386753162 0 0.020180801663715393 -0.00037882855497569176 0 0.020625649428440109 -0.00019498304177071216 0 0.020212022308401377 -3.5998060723388167e-05 0 0.019433928872624639 0.00050740069518028972 0 0.020646815548109813 0.000763093386753162 0 0.022883940230582468 0.0005113289161720921 0 0.022631665859983215 0.00088502139254035422 0 0.022571679097413318 0.00062226819045366069 0 0.022883940230582468 0.0005113289161720921 0 0.022571679097413318 0.00062226819045366069 0 0.02267437369411213 0.00038856957515659419 0 0.022883940230582468 0.0005113289161720921 0 0.022751768453263627 0.00019008591699819677 0 0.02267437369411213 0.00038856957515659419 0 0.022751768453263627 0.00019008591699819677 0 0.02267437369411213 0.00038856957515659419 0 0.022782204842156751 0.00014637890394586013 0 0.020542745303999334 8.6430033121735265e-05 0 0.02078253446420179 0.00046400065289481645 0 0.020018649734356842 -0.0001652797574679733 0 0.020179644745167209 0.00031119341861479021 0 0.019503277771958556 0.00024567068851735974 0 0.018875008022026768 -7.803000561742853e-05 0 0.019441960863602809 -0.00043396654809997425 0 0.019503277771958556 0.00024567068851735974 0 0.019441960863602809 -0.00043396654809997425 0 0.020018649734356842 -0.0001652797574679733 0 0.019503277771958556 0.00024567068851735974 0 0.020179644745167209 0.00031119341861479021 0 0.019503277771958556 0.00024567068851735974 0 0.020023629250332908 0.0005538212950994346 0 0.019503277771958556 0.00024567068851735974 0 0.019231216179099914 0.00055682042212185979 0 0.018608386568585829 0.00041081228961490783 0 0.018875008022026768 -7.803000561742853e-05 0 0.019503277771958556 0.00024567068851735974 0 0.018608386568585829 0.00041081228961490783 0 0.022444352175958394 0.001167709477657137 0 0.022192610275331447 0.001156891724921529 0 0.0224763970642478 0.00066434292675433913 0 0.022444352175958394 0.001167709477657137 0 0.022192610275331447 0.001156891724921529 0 0.02245408158777467 0.0014085027711413334 0 0.022437140336938811 0.0013304295844572555 0 0.022716808387435075 0.00095085585271220631 0 0.0231441307743761 0.001032586958574183 0 0.022716808387435075 0.00095085585271220631 0 0.0231441307743761 0.001032586958574183 0 0.023062363514210198 0.00062875662484569944 0 0.022376119508345171 0.0016031125726511007 0 0.022446750493797834 0.0016723397207260222 0 0.022192610275331447 0.001156891724921529 0 0.022437140336938811 0.0013304295844572555 0 0.022446750493797834 0.0016723397207260222 0 0.0231441307743761 0.001032586958574183 0 0.02272940322771138 0.00090192541350176433 0 0.022760500515119041 0.0008328976750042454 0 0.022376119508345171 0.0016031125726511007 0 0.022192610275331447 0.001156891724921529 0 0.022361920026303009 0.0014538421989939375 0 0.022399467556038982 0.0015896572314300376 0 0.022376119508345171 0.0016031125726511007 0 0.022361920026303009 0.0014538421989939375 0 0.022399467556038982 0.0015896572314300376 0 0.022361920026303009 0.0014538421989939375 0 0.02245408158777467 0.0014085027711413334 0 0.022192610275331447 0.001156891724921529 0 0.022361920026303009 0.0014538421989939375 0 0.02245408158777467 0.0014085027711413334 0 0.022530461499368833 0.001577533738819221 0 0.022399467556038982 0.0015896572314300376 0 0.02245408158777467 0.0014085027711413334 0 0.022530461499368833 0.001577533738819221 0 0.02245408158777467 0.0014085027711413334 0 0.02266825233423057 0.0014170978215820485 0 0.022444352175958394 0.001167709477657137 0 0.02245408158777467 0.0014085027711413334 0 0.02266825233423057 0.0014170978215820485 0 0.022631665859983215 0.00088502139254035422 0 0.022162481094301557 0.00078987005286375951 0 0.022571679097413318 0.00062226819045366069 0 0.021457848260212381 6.8237739489062396e-05 0 0.020646815548109813 0.000763093386753162 0 0.022162481094301557 0.00078987005286375951 0 0.020625649428440109 -0.00019498304177071216 0 0.020779987500369825 -0.00013465638037445183 0 0.021457848260212381 6.8237739489062396e-05 0 0.022356849583181779 0.00069439081576698849 0 0.022162481094301557 0.00078987005286375951 0 0.022571679097413318 0.00062226819045366069 0 0.022424867515739577 0.00064782509010934402 0 0.02267437369411213 0.00038856957515659419 0 0.022162481094301557 0.00078987005286375951 0 0.022571679097413318 0.00062226819045366069 0 0.022424867515739577 0.00064782509010934402 0 0.022444352175958394 0.001167709477657137 0 0.02266825233423057 0.0014170978215820485 0 0.0224763970642478 0.00066434292675433913 0 0.022356849583181779 0.00069439081576698849 0 0.022424867515739577 0.00064782509010934402 0 0.0224763970642478 0.00066434292675433913 0 0.022356849583181779 0.00069439081576698849 0 0.022162481094301557 0.00078987005286375951 0 0.022424867515739577 0.00064782509010934402 0 0.021429351034665291 0.00094368613028551838 0 0.021516501712239604 0.00097218509911124035 0 0.022424867515739577 0.00064782509010934402 0 0.02263954559571733 0.00040243733890947222 0 0.0224763970642478 0.00066434292675433913 0 0.02263954559571733 0.00040243733890947222 0 0.022427388612885076 0.0004224847518620045 0 0.0224763970642478 0.00066434292675433913 0 0.022424867515739577 0.00064782509010934402 0 0.02263954559571733 0.00040243733890947222 0 0.02267437369411213 0.00038856957515659419 0 0.02263954559571733 0.00040243733890947222 0 0.023025836174099912 0.00013714951421015645 0 0.022782204842156751 0.00014637890394586013 0 0.02263954559571733 0.00040243733890947222 0 0.02267437369411213 0.00038856957515659419 0 0.022782204842156751 0.00014637890394586013 0 0.02263954559571733 0.00040243733890947222 0 0.022427388612885076 0.0004224847518620045 0 0.023025836174099912 0.00013714951421015645 0 0.023436024256668315 0.00030502544380189004 0 0.023302450219003519 0.00015099892319513078 0 0.023025836174099912 0.00013714951421015645 0 0.022802961270264127 0.00073150473780946739 0 0.022816413788681163 0.00069574787496665396 0 0.023331551026465485 0.00023701475006445948 0 0.023436024256668315 0.00030502544380189004 0 0.023302450219003519 0.00015099892319513078 0 0.023291680648973533 0.00020362034670648956 0 0.023331551026465485 0.00023701475006445948 0 0.023302450219003519 0.00015099892319513078 0 0.023291680648973533 0.00020362034670648956 0 0.023338441875275982 0.00013033263051378619 0 0.023302450219003519 0.00015099892319513078 0 0.023331551026465485 0.00023701475006445948 0 0.023436024256668315 0.00030502544380189004 0 0.023241176284800394 0.00035629265716113402 0 0.023291680648973533 0.00020362034670648956 0 0.023331551026465485 0.00023701475006445948 0 0.023241176284800394 0.00035629265716113402 0 0.022760500515119041 0.0008328976750042454 0 0.022802961270264127 0.00073150473780946739 0 0.023436024256668315 0.00030502544380189004 0 0.023241176284800394 0.00035629265716113402 0 0.023062363514210198 0.00062875662484569944 0 0.0231441307743761 0.001032586958574183 0 0.023436024256668315 0.00030502544380189004 0 0.023062363514210198 0.00062875662484569944 0 0.022192610275331447 0.001156891724921529 0 0.022427388612885076 0.0004224847518620045 0 0.0224763970642478 0.00066434292675433913 0 0.022665602667903906 0.00069988688146753214 0 0.023062363514210198 0.00062875662484569944 0 0.023011064816716744 0.00045491964602260268 0 0.022665602667903906 0.00069988688146753214 0 0.022716808387435075 0.00095085585271220631 0 0.023062363514210198 0.00062875662484569944 0 0.023241176284800394 0.00035629265716113402 0 0.023062363514210198 0.00062875662484569944 0 0.023011064816716744 0.00045491964602260268 0 0.023241176284800394 0.00035629265716113402 0 0.023011064816716744 0.00045491964602260268 0 0.023161648715328116 0.00029802616261447176 0 0.022765036498164436 0.00046436466821090798 0 0.023011064816716744 0.00045491964602260268 0 0.023001691433664297 0.00029413799375782167 0 0.023011064816716744 0.00045491964602260268 0 0.023001691433664297 0.00029413799375782167 0 0.023161648715328116 0.00029802616261447176 0 0.023001691433664297 0.00029413799375782167 0 0.023161648715328116 0.00029802616261447176 0 0.023190931974496277 0.00019939078162307616 0 0.023291680648973533 0.00020362034670648956 0 0.023241176284800394 0.00035629265716113402 0 0.023161648715328116 0.00029802616261447176 0 0.023291680648973533 0.00020362034670648956 0 0.023190931974496277 0.00019939078162307616 0 0.023338441875275982 0.00013033263051378619 0 0.023291680648973533 0.00020362034670648956 0 0.023161648715328116 0.00029802616261447176 0 0.023190931974496277 0.00019939078162307616 0 0.023053599299845417 0.00017806354399154249 0 0.023001691433664297 0.00029413799375782167 0 0.023190931974496277 0.00019939078162307616 0 0.023053599299845417 0.00017806354399154249 0 0.023190931974496277 0.00019939078162307616 0 0.023218834530736924 0.00010606317963004407 0 0.023218834530736924 0.00010606317963004407 0 0.023256263956085568 2.6614638111447342e-05 0 0.02304178524989519 7.4484177167846041e-05 0 0.023218834530736924 0.00010606317963004407 0 0.023355970202892536 6.5796587080217412e-05 0 0.023256263956085568 2.6614638111447342e-05 0 0.023218834530736924 0.00010606317963004407 0 0.023338441875275982 0.00013033263051378619 0 0.023355970202892536 6.5796587080217412e-05 0 0.023190931974496277 0.00019939078162307616 0 0.023218834530736924 0.00010606317963004407 0 0.023338441875275982 0.00013033263051378619 0 0.023355970202892536 6.5796587080217412e-05 0 0.023463258376825273 -1.2512604593558811e-06 0 0.023463391929556023 0.00011263032621935438 0 0.023338441875275982 0.00013033263051378619 0 0.023355970202892536 6.5796587080217412e-05 0 0.023463391929556023 0.00011263032621935438 0 0.023355970202892536 6.5796587080217412e-05 0 0.023256263956085568 2.6614638111447342e-05 0 0.023463258376825273 -1.2512604593558811e-06 0 0.023463258376825273 -1.2512604593558811e-06 0 0.023783271524728693 0.00022149292839428436 0 0.023653002792042261 -1.0997252388434244e-05 0 0.023463258376825273 -1.2512604593558811e-06 0 0.023463391929556023 0.00011263032621935438 0 0.023783271524728693 0.00022149292839428436 0 0.023463391929556023 0.00011263032621935438 0 0.023383484225290459 0.00023474267849212386 0 0.023783271524728693 0.00022149292839428436 0 0.023383484225290459 0.00023474267849212386 0 0.02353064221747599 0.0004816551708943443 0 0.023783271524728693 0.00022149292839428436 0 0.023463391929556023 0.00011263032621935438 0 0.023302450219003519 0.00015099892319513078 0 0.023383484225290459 0.00023474267849212386 0 0.023338441875275982 0.00013033263051378619 0 0.023463391929556023 0.00011263032621935438 0 0.023302450219003519 0.00015099892319513078 0 0.023302450219003519 0.00015099892319513078 0 0.023025836174099912 0.00013714951421015645 0 0.023383484225290459 0.00023474267849212386 0 0.023025836174099912 0.00013714951421015645 0 0.022782204842156751 0.00014637890394586013 0 0.02298135467124552 0.00037320144250023408 0 0.023025836174099912 0.00013714951421015645 0 0.02298135467124552 0.00037320144250023408 0 0.023383484225290459 0.00023474267849212386 0 0.02298135467124552 0.00037320144250023408 0 0.023383484225290459 0.00023474267849212386 0 0.02353064221747599 0.0004816551708943443 0 0.02353064221747599 0.0004816551708943443 0 0.02344837781263167 0.00087476326150300477 0 0.023978153234190364 0.0007397205083947842 0 0.02298135467124552 0.00037320144250023408 0 0.02353064221747599 0.0004816551708943443 0 0.02344837781263167 0.00087476326150300477 0 0.02298135467124552 0.00037320144250023408 0 0.02344837781263167 0.00087476326150300477 0 0.023009863332193552 0.0013430751837527129 0 0.02344837781263167 0.00087476326150300477 0 0.023009863332193552 0.0013430751837527129 0 0.023964286534536267 0.0015071821905004972 0 0.02344837781263167 0.00087476326150300477 0 0.023978153234190364 0.0007397205083947842 0 0.023964286534536267 0.0015071821905004972 0 0.023978153234190364 0.0007397205083947842 0 0.024515624167416688 0.0014366684260108151 0 0.023964286534536267 0.0015071821905004972 0 0.023978153234190364 0.0007397205083947842 0 0.02455957641706151 0.00096338572312659699 0 0.024515624167416688 0.0014366684260108151 0 0.023978153234190364 0.0007397205083947842 0 0.02455957641706151 0.00096338572312659699 0 0.02406945255342622 6.939105547869816e-05 0 0.023783271524728693 0.00022149292839428436 0 0.02406945255342622 6.939105547869816e-05 0 0.023653002792042261 -1.0997252388434244e-05 0 0.023978153234190364 0.0007397205083947842 0 0.023783271524728693 0.00022149292839428436 0 0.02406945255342622 6.939105547869816e-05 0 0.02353064221747599 0.0004816551708943443 0 0.023978153234190364 0.0007397205083947842 0 0.023783271524728693 0.00022149292839428436 0 0.019443029107277261 0.00072456835351968844 0 0.020023629250332908 0.0005538212950994346 0 0.020329104332909423 0.00073233326973719108 0 0.019443029107277261 0.00072456835351968844 0 0.019231216179099914 0.00055682042212185979 0 0.020023629250332908 0.0005538212950994346 0 0.019503277771958556 0.00024567068851735974 0 0.019231216179099914 0.00055682042212185979 0 0.020023629250332908 0.0005538212950994346 0 0.020023629250332908 0.0005538212950994346 0 0.0207051509650421 0.00052068889821415458 0 0.020329104332909423 0.00073233326973719108 0 0.020928916417436553 0.00079088727039128834 0 0.020983757056699026 0.00095631206533142491 0 0.020179644745167209 0.00031119341861479021 0 0.020023629250332908 0.0005538212950994346 0 0.0207051509650421 0.00052068889821415458 0 0.02078253446420179 0.00046400065289481645 0 0.020928916417436553 0.00079088727039128834 0 0.022751768453263627 0.00019008591699819677 0 0.022782204842156751 0.00014637890394586013 0 0.022395205195531162 0.00022116715433875256 0 0.02298135467124552 0.00037320144250023408 0 0.022395205195531162 0.00022116715433875256 0 0.021851109299856678 0.00085504204337202936 0 0.022782204842156751 0.00014637890394586013 0 0.02298135467124552 0.00037320144250023408 0 0.022395205195531162 0.00022116715433875256 0 0.02298135467124552 0.00037320144250023408 0 0.023009863332193552 0.0013430751837527129 0 0.021851109299856678 0.00085504204337202936 0 0.023009863332193552 0.0013430751837527129 0 0.021851109299856678 0.00085504204337202936 0 0.022143034144046038 0.0014888506429764153 0 0.021851109299856678 0.00085504204337202936 0 0.020647230601475705 0.0011747411869795197 0 0.022143034144046038 0.0014888506429764153 0 0.0207051509650421 0.00052068889821415458 0 0.021851109299856678 0.00085504204337202936 0 0.020329104332909423 0.00073233326973719108 0 0.021851109299856678 0.00085504204337202936 0 0.020329104332909423 0.00073233326973719108 0 0.020647230601475705 0.0011747411869795197 0 0.020647230601475705 0.0011747411869795197 0 0.021343968794882651 0.001694426993984691 0 0.022143034144046038 0.0014888506429764153 0 0.020647230601475705 0.0011747411869795197 0 0.019995241956435462 0.001370994348404334 0 0.020681283248474968 0.0016895918052232826 0 0.020647230601475705 0.0011747411869795197 0 0.019995241956435462 0.001370994348404334 0 0.019776693902731689 0.00094270396755828201 0 0.020329104332909423 0.00073233326973719108 0 0.020647230601475705 0.0011747411869795197 0 0.019776693902731689 0.00094270396755828201 0 0.019443029107277261 0.00072456835351968844 0 0.020329104332909423 0.00073233326973719108 0 0.019776693902731689 0.00094270396755828201 0 0.020186721541120008 0.002703153798311262 0 0.020289077147949069 0.0020863845772261312 0 0.020769166132584872 0.0034095141299093634 0 0.023682882279035044 0.0018853786379160976 0 0.024011525407614906 0.0019953495811366882 0 0.020186721541120008 0.002703153798311262 0 0.020289077147949069 0.0020863845772261312 0 0.019609037247250462 0.0020014182901403701 0 0.019995241956435462 0.001370994348404334 0 0.020289077147949069 0.0020863845772261312 0 0.019609037247250462 0.0020014182901403701 0 0.019995241956435462 0.001370994348404334 0 0.020681283248474968 0.0016895918052232826 0 0.020289077147949069 0.0020863845772261312 0 0.020647230601475705 0.0011747411869795197 0 0.020681283248474968 0.0016895918052232826 0 0.021343968794882651 0.001694426993984691 0 0.020681283248474968 0.0016895918052232826 0 0.020289077147949069 0.0020863845772261312 0 0.021420197657942387 0.0023182374598049826 0 0.020681283248474968 0.0016895918052232826 0 0.021343968794882651 0.001694426993984691 0 0.021420197657942387 0.0023182374598049826 0 0.020289077147949069 0.0020863845772261312 0 0.021420197657942387 0.0023182374598049826 0 0.021050665891620888 0.0033822507121586526 0 0.021343968794882651 0.001694426993984691 0 0.021420197657942387 0.0023182374598049826 0 0.022522362734310995 0.0021992709580475958 0 0.021420197657942387 0.0023182374598049826 0 0.022522362734310995 0.0021992709580475958 0 0.022757956959896644 0.0030937447338962067 0 0.021343968794882651 0.001694426993984691 0 0.022522362734310995 0.0021992709580475958 0 0.022143034144046038 0.0014888506429764153 0 0.023009863332193552 0.0013430751837527129 0 0.022143034144046038 0.0014888506429764153 0 0.023446320187804726 0.0020300468300225019 0 0.022522362734310995 0.0021992709580475958 0 0.022143034144046038 0.0014888506429764153 0 0.023446320187804726 0.0020300468300225019 0 0.022522362734310995 0.0021992709580475958 0 0.023446320187804726 0.0020300468300225019 0 0.024117170909068671 0.0027609528468865792 0 0.022522362734310995 0.0021992709580475958 0 0.022757956959896644 0.0030937447338962067 0 0.024117170909068671 0.0027609528468865792 0 0.025033591709977421 0.0039002010039724737 0 0.022757956959896644 0.0030937447338962067 0 0.024117170909068671 0.0027609528468865792 0 0.024822054039844357 0.0025245781813357068 0 0.024835732324098778 0.0024136083047466314 0 0.025033591709977421 0.0039002010039724737 0 0.022757956959896644 0.0030937447338962067 0 0.022454580784042544 0.0049192694781739826 0 0.021420197657942387 0.0023182374598049826 0 0.022757956959896644 0.0030937447338962067 0 0.021050665891620888 0.0033822507121586526 0 0.024011525407614906 0.0019953495811366882 0 0.024835732324098778 0.0024136083047466314 0 0.024371788275272661 0.002136778675660722 0 0.024585371478952265 0.0027446592193511223 0 0.024810223268656645 0.002679722562238575 0 0.024011525407614906 0.0019953495811366882 0 0.025115477844047374 0.0023289439250474601 0 0.023579417012432775 0.0013999833106509575 0 0.023615290410051708 0.0013186788151534107 0 0.023536563118033912 0.0012716390952719064 0 0.022757956959896644 0.0030937447338962067 0 0.021050665891620888 0.0033822507121586526 0 0.022454580784042544 0.0049192694781739826 0 0.023615290410051708 0.0013186788151534107 0 0.023695831841304985 0.0013669333710532251 0 0.023656221604269688 0.0012324301363015144 0 0.023579417012432775 0.0013999833106509575 0 0.023615290410051708 0.0013186788151534107 0 0.023695831841304985 0.0013669333710532251 0 0.023638594962990134 0.001475209835318183 0 0.023579417012432775 0.0013999833106509575 0 0.023695831841304985 0.0013669333710532251 0 0.023263101860713668 0.0016153972790178552 0 0.024011525407614906 0.0019953495811366882 0 0.024830656397394072 0.0022315941080082295 0 0.025534958679272343 0.0026636757975384757 0 0.025269503535980203 0.0018410957311536787 0 0.02455957641706151 0.00096338572312659699 0 0.024515624167416688 0.0014366684260108151 0 0.025269503535980203 0.0018410957311536787 0 0.024830656397394072 0.0022315941080082295 0 0.024515624167416688 0.0014366684260108151 0 0.025269503535980203 0.0018410957311536787 0 0.024830656397394072 0.0022315941080082295 0 0.024515624167416688 0.0014366684260108151 0 0.023964286534536267 0.0015071821905004972 0 0.023009863332193552 0.0013430751837527129 0 0.023446320187804726 0.0020300468300225019 0 0.023964286534536267 0.0015071821905004972 0 0.023446320187804726 0.0020300468300225019 0 0.023964286534536267 0.0015071821905004972 0 0.024256221055157276 0.0022546334149569284 0 0.023446320187804726 0.0020300468300225019 0 0.024256221055157276 0.0022546334149569284 0 0.024117170909068671 0.0027609528468865792 0 0.024830656397394072 0.0022315941080082295 0 0.024256221055157276 0.0022546334149569284 0 0.024903368511936263 0.0028067530601810177 0 0.024830656397394072 0.0022315941080082295 0 0.023964286534536267 0.0015071821905004972 0 0.024256221055157276 0.0022546334149569284 0 0.024256221055157276 0.0022546334149569284 0 0.024903368511936263 0.0028067530601810177 0 0.024117170909068671 0.0027609528468865792 0 0.024903368511936263 0.0028067530601810177 0 0.024117170909068671 0.0027609528468865792 0 0.025034704660885591 0.0032922265513628869 0 0.025033591709977421 0.0039002010039724737 0 0.024117170909068671 0.0027609528468865792 0 0.025034704660885591 0.0032922265513628869 0 0.025033591709977421 0.0039002010039724737 0 0.025034704660885591 0.0032922265513628869 0 0.02557039201782605 0.0034955186213807997 0 0.024903368511936263 0.0028067530601810177 0 0.025538612669757509 0.0033013256063016646 0 0.02547535171019823 0.0030071787431970192 0 0.025034704660885591 0.0032922265513628869 0 0.025538612669757509 0.0033013256063016646 0 0.02557039201782605 0.0034955186213807997 0 0.024903368511936263 0.0028067530601810177 0 0.025034704660885591 0.0032922265513628869 0 0.025538612669757509 0.0033013256063016646 0 0.025538612669757509 0.0033013256063016646 0 0.02574957433320145 0.003227966646849397 0 0.02547535171019823 0.0030071787431970192 0 0.02574957433320145 0.003227966646849397 0 0.02547535171019823 0.0030071787431970192 0 0.025810272482561538 0.0031849904120925003 0 0.024830656397394072 0.0022315941080082295 0 0.024903368511936263 0.0028067530601810177 0 0.02547535171019823 0.0030071787431970192 0 0.024830656397394072 0.0022315941080082295 0 0.02547535171019823 0.0030071787431970192 0 0.025534958679272343 0.0026636757975384757 0 0.024350528982817601 0.00028303097299594329 0 0.02481809017111395 0.0005540373428373031 0 0.02547535171019823 0.0030071787431970192 0 0.025534958679272343 0.0026636757975384757 0 0.025808028646672893 0.0031980952327259116 0 0.02547535171019823 0.0030071787431970192 0 0.025810272482561538 0.0031849904120925003 0 0.025808028646672893 0.0031980952327259116 0 0.024370094987778972 -0.0010717901174759404 0 0.024341391994845543 -0.0011019035018339208 0 0.024389767877914151 -0.0011349013699347751 0 0.024341391994845543 -0.0011019035018339208 0 0.024345607158227721 -0.0011374331511565009 0 0.024389767877914151 -0.0011349013699347751 0 0.024341391994845543 -0.0011019035018339208 0 0.024301299347593737 -0.0011393388126987906 0 0.024345607158227721 -0.0011374331511565009 0 0.024341391994845543 -0.0011019035018339208 0 0.024301932003110985 -0.0010866207457554565 0 0.024301299347593737 -0.0011393388126987906 0 0.024301932003110985 -0.0010866207457554565 0 0.024325292301661493 -0.0010537298187697514 0 0.024282556853834278 -0.0010517280635600008 0 0.024341391994845543 -0.0011019035018339208 0 0.024301932003110985 -0.0010866207457554565 0 0.024325292301661493 -0.0010537298187697514 0 0.024370094987778972 -0.0010717901174759404 0 0.024341391994845543 -0.0011019035018339208 0 0.024325292301661493 -0.0010537298187697514 0 0.024325292301661493 -0.0010537298187697514 0 0.024297883477935815 -0.00099781427679681168 0 0.02435430556242987 -0.0010057029870698389 0 0.024370094987778972 -0.0010717901174759404 0 0.024325292301661493 -0.0010537298187697514 0 0.02435430556242987 -0.0010057029870698389 0 0.024350528982817601 0.00028303097299594329 0 0.023875350025954863 -0.00031334848919749628 0 0.024297883477935815 -0.00099781427679681168 0 0.024234000288634917 -0.0010468942026892998 0 0.024246667196425035 -0.0011334740122323367 0 0.025361382266586716 -0.0010713461513064788 0 0.025444588640977584 -0.0010117464916885462 0 0.024325292301661493 -0.0010537298187697514 0 0.024297883477935815 -0.00099781427679681168 0 0.024282556853834278 -0.0010517280635600008 0 0.024297883477935815 -0.00099781427679681168 0 0.024221408880061603 -0.00096920877114754149 0 0.024334451195675264 -0.00090183867648422722 0 0.023875350025954863 -0.00031334848919749628 0 0.023351891907930657 -0.0012980374465858264 0 0.024297883477935815 -0.00099781427679681168 0 0.02435430556242987 -0.0010057029870698389 0 0.024334451195675264 -0.00090183867648422722 0 0.022245052328250126 -0.0022780987898198381 0 0.021497241433579117 -0.0026484304583954104 0 0.017878377357420535 -0.0073683301387666078 0 0.020780964523249769 -0.0075222818734060745 0 0.017945805746267241 -0.0095934867446597818 0 0.024221408880061603 -0.00096920877114754149 0 0.024168612810429237 -0.001091731218693162 0 0.024234000288634917 -0.0010468942026892998 0 0.024297883477935815 -0.00099781427679681168 0 0.024221408880061603 -0.00096920877114754149 0 0.024234000288634917 -0.0010468942026892998 0 0.024221408880061603 -0.00096920877114754149 0 0.024168612810429237 -0.001091731218693162 0 0.024063566043882243 -0.0010746877101767889 0 0.024168612810429237 -0.001091731218693162 0 0.024234000288634917 -0.0010468942026892998 0 0.024246667196425035 -0.0011334740122323367 0 0.024168612810429237 -0.001091731218693162 0 0.024246667196425035 -0.0011334740122323367 0 0.024139954338331285 -0.0011976524156939116 0 0.024168612810429237 -0.001091731218693162 0 0.024063566043882243 -0.0010746877101767889 0 0.024139954338331285 -0.0011976524156939116 0 0.021497241433579117 -0.0026484304583954104 0 0.021622472266685729 -0.0025981305920574531 0 0.024034176229866099 -0.0010340579389840272 0 0.024076388871351603 -0.0011960798240792136 0 0.023956609696290938 -0.0010910183922769171 0 0.024389392206695074 -0.0014007070237750351 0 0.022585658785414808 -0.0018711854995573842 0 0.024034176229866099 -0.0010340579389840272 0 0.024076388871351603 -0.0011960798240792136 0 0.024139954338331285 -0.0011976524156939116 0 0.031969857705252139 0.00083815447709077371 0 0.031924813225625792 0.00084569394283298346 0 0.03188358689340072 0.00092298899694936282 0 0.024076388871351603 -0.0011960798240792136 0 0.024139954338331285 -0.0011976524156939116 0 0.024183537087171143 -0.0012839383949710787 0 0.031969857705252139 0.00083815447709077371 0 0.031979053145832853 0.00081807599599860806 0 0.031967736212095955 0.00081898103211974467 0 0.024389392206695074 -0.0014007070237750351 0 0.025726833802751408 -0.00077400167437005813 0 0.031969857705252139 0.00083815447709077371 0 0.031951564765056568 0.0008253564874593593 0 0.031924813225625792 0.00084569394283298346 0 0.031969857705252139 0.00083815447709077371 0 0.031951564765056568 0.0008253564874593593 0 0.031967736212095955 0.00081898103211974467 0 0.024301932003110985 -0.0010866207457554565 0 0.024282556853834278 -0.0010517280635600008 0 0.02426074546684457 -0.0011031521613025482 0 0.024246667196425035 -0.0011334740122323367 0 0.024139954338331285 -0.0011976524156939116 0 0.024183537087171143 -0.0012839383949710787 0 0.025444588640977584 -0.0010117464916885462 0 0.025726833802751408 -0.00077400167437005813 0 0.025726833802751408 -0.00077400167437005813 0 0.02590253001046235 0.00023450583174054922 0 0.025282978591891336 0.0010811226845403072 0 0.024388029414438274 -0.00082378632211387406 0 0.027273034111100249 -0.00071730742011370081 0 0.024301932003110985 -0.0010866207457554565 0 0.02426074546684457 -0.0011031521613025482 0 0.024301299347593737 -0.0011393388126987906 0 0.025726833802751408 -0.00077400167437005813 0 0.027483233136903009 0.00044845557781408212 0 0.031961311936670837 0.00081987137758885722 0 0.031967736212095955 0.00081898103211974467 0 0.031971706833634608 0.00081464315891146123 0 0.031951564765056568 0.0008253564874593593 0 0.031961311936670837 0.00081987137758885722 0 0.031948806217086338 0.00082312749065054569 0 0.031951564765056568 0.0008253564874593593 0 0.031961311936670837 0.00081987137758885722 0 0.031967736212095955 0.00081898103211974467 0 0.031979053145832853 0.00081807599599860806 0 0.031967736212095955 0.00081898103211974467 0 0.031972122410711491 0.00081388506778083312 0 0.031972122410711491 0.00081388506778083312 0 0.031973710463093122 0.00081190605584409599 0 0.031973271086857144 0.00080943462762673578 0 0.031979053145832853 0.00081807599599860806 0 0.031972122410711491 0.00081388506778083312 0 0.031973271086857144 0.00080943462762673578 0 0.031973710463093122 0.00081190605584409599 0 0.031980714187797285 0.00081140661369659959 0 0.031976073702186969 0.00081188181686785784 0 0.031967736212095955 0.00081898103211974467 0 0.031972122410711491 0.00081388506778083312 0 0.031971706833634608 0.00081464315891146123 0 0.031972122410711491 0.00081388506778083312 0 0.031973710463093122 0.00081190605584409599 0 0.031971706833634608 0.00081464315891146123 0 0.031961311936670837 0.00081987137758885722 0 0.031971706833634608 0.00081464315891146123 0 0.031966207909415158 0.00081925926246791136 0 0.031971706833634608 0.00081464315891146123 0 0.031973705810944483 0.00081712554253928437 0 0.031966207909415158 0.00081925926246791136 0 0.031971706833634608 0.00081464315891146123 0 0.031973705810944483 0.00081712554253928437 0 0.031980714187797285 0.00081140661369659959 0 0.031973710463093122 0.00081190605584409599 0 0.031971706833634608 0.00081464315891146123 0 0.031980714187797285 0.00081140661369659959 0 0.031977657796424946 0.00082273049080956013 0 0.031966207909415158 0.00081925926246791136 0 0.031948806217086338 0.00082312749065054569 0 0.031977657796424946 0.00082273049080956013 0 0.031867221921721541 0.000877021151260091 0 0.031899310429014761 0.0010470998168309153 0 0.031977657796424946 0.00082273049080956013 0 0.031948806217086338 0.00082312749065054569 0 0.031914950972214903 0.00082889562604548657 0 0.024348171308574629 -0.0024203323127463851 0 0.024118452708887753 -0.0025537623582007527 0 0.031980714187797285 0.00081140661369659959 0 0.031977657796424946 0.00082273049080956013 0 0.031997985521589528 0.0007906629465738869 0 0.031973705810944483 0.00081712554253928437 0 0.031980714187797285 0.00081140661369659959 0 0.031977657796424946 0.00082273049080956013 0 0.031973705810944483 0.00081712554253928437 0 0.031977657796424946 0.00082273049080956013 0 0.031966207909415158 0.00081925926246791136 0 0.031961311936670837 0.00081987137758885722 0 0.031966207909415158 0.00081925926246791136 0 0.031948806217086338 0.00082312749065054569 0 0.031867221921721541 0.000877021151260091 0 0.031735112178623272 0.0009453195895106094 0 0.031899310429014761 0.0010470998168309153 0 0.031977657796424946 0.00082273049080956013 0 0.031867221921721541 0.000877021151260091 0 0.031917586264633049 0.00079964710314638511 0 0.031867221921721541 0.000877021151260091 0 0.031803230505717157 0.00078994181367021265 0 0.031917586264633049 0.00079964710314638511 0 0.031735112178623272 0.0009453195895106094 0 0.031482305643933818 0.0010418854093214537 0 0.031644067534013269 0.00080572517466632619 0 0.031735112178623272 0.0009453195895106094 0 0.031644067534013269 0.00080572517466632619 0 0.031803230505717157 0.00078994181367021265 0 0.031867221921721541 0.000877021151260091 0 0.031735112178623272 0.0009453195895106094 0 0.031803230505717157 0.00078994181367021265 0 0.031713847799888291 0.0011122237929995396 0 0.031482305643933818 0.0010418854093214537 0 0.031713169891597934 0.0013203771884636513 0 0.031735112178623272 0.0009453195895106094 0 0.031713847799888291 0.0011122237929995396 0 0.031482305643933818 0.0010418854093214537 0 0.031713847799888291 0.0011122237929995396 0 0.031899310429014761 0.0010470998168309153 0 0.031806471755177992 0.0012586141940931458 0 0.031735112178623272 0.0009453195895106094 0 0.031713847799888291 0.0011122237929995396 0 0.031899310429014761 0.0010470998168309153 0 0.024118452708887753 -0.0025537623582007527 0 0.023424979992428031 -0.0029861327748048486 0 0.031924813225625792 0.00084569394283298346 0 0.031914950972214903 0.00082889562604548657 0 0.031886875540290203 0.00085894428270984246 0 0.024053208626673071 -0.0031038247237549863 0 0.023424979992428031 -0.0029861327748048486 0 0.031951564765056568 0.0008253564874593593 0 0.031924813225625792 0.00084569394283298346 0 0.03193359577934838 0.00082983715802698423 0 0.031924813225625792 0.00084569394283298346 0 0.03193359577934838 0.00082983715802698423 0 0.031914950972214903 0.00082889562604548657 0 0.031951564765056568 0.0008253564874593593 0 0.031948806217086338 0.00082312749065054569 0 0.03193359577934838 0.00082983715802698423 0 0.031948806217086338 0.00082312749065054569 0 0.03193359577934838 0.00082983715802698423 0 0.031914950972214903 0.00082889562604548657 0 0.024732993402155092 -0.0046959413165204933 0 0.024788154211618584 -0.0047039093231371412 0 0.024793108061716716 -0.0046166124256139798 0 0.031482305643933818 0.0010418854093214537 0 0.03146013979530627 0.00067859854724363516 0 0.031234648238716835 0.00075282389658517634 0 0.024788154211618584 -0.0047039093231371412 0 0.024793108061716716 -0.0046166124256139798 0 0.024821957549239264 -0.0046631872753980282 0 0.025384143012160611 -0.0014084979294508213 0 0.026823985489399294 -0.00042454712939813516 0 0.031482305643933818 0.0010418854093214537 0 0.03146013979530627 0.00067859854724363516 0 0.031644067534013269 0.00080572517466632619 0 0.025384143012160611 -0.0014084979294508213 0 0.022966693666587948 -0.0029464927725945732 0 0.024788154211618584 -0.0047039093231371412 0 0.024769629649247015 -0.0047583558452825078 0 0.02480521412142779 -0.0047609632681209118 0 0.024732993402155092 -0.0046959413165204933 0 0.024788154211618584 -0.0047039093231371412 0 0.024769629649247015 -0.0047583558452825078 0 0.024769629649247015 -0.0047583558452825078 0 0.024790745308790392 -0.0048000295461550369 0 0.02480521412142779 -0.0047609632681209118 0 0.024769629649247015 -0.0047583558452825078 0 0.024760102329205228 -0.004787612957970192 0 0.024728776920678486 -0.0047734347369622907 0 0.024769629649247015 -0.0047583558452825078 0 0.024760102329205228 -0.004787612957970192 0 0.024790745308790392 -0.0048000295461550369 0 0.024732993402155092 -0.0046959413165204933 0 0.024728776920678486 -0.0047734347369622907 0 0.024672929425345054 -0.0047692301542321394 0 0.024732993402155092 -0.0046959413165204933 0 0.024769629649247015 -0.0047583558452825078 0 0.024728776920678486 -0.0047734347369622907 0 0.024728776920678486 -0.0047734347369622907 0 0.024751357793712306 -0.0048184951261256333 0 0.024672929425345054 -0.0047692301542321394 0 0.011833589795393768 -0.0065072257319202477 0 0.014467240974671294 -0.0070913575709402685 0 0.012270529782807568 -0.0051539860918352002 0 0.022270586695237859 -0.0027656672031297421 0 0.020952172890925512 -0.0023993488243074369 0 0.020290842073601621 -0.003245074638343001 0 0.022966693666587948 -0.0029464927725945732 0 0.024760102329205228 -0.004787612957970192 0 0.024728776920678486 -0.0047734347369622907 0 0.024751357793712306 -0.0048184951261256333 0 0.024751357793712306 -0.0048184951261256333 0 0.024790745308790392 -0.0048000295461550369 0 0.024834040233755916 -0.0048392456785596605 0 0.024760102329205228 -0.004787612957970192 0 0.024751357793712306 -0.0048184951261256333 0 0.024790745308790392 -0.0048000295461550369 0 0.022585658785414808 -0.0018711854995573842 0 0.022778442037005641 -0.0028704731842082824 0 0.016097992564439282 -0.0084439153201630625 0 0.014823402958966746 -0.0072989057038180807 0 0.015675890817187392 -0.0072146572855758618 0 0.03188358689340072 0.00092298899694936282 0 0.031772549657872198 0.00091876165767444749 0 0.031749351966874916 0.0010332764809517173 0 0.0169337605733971 -0.0078196122490278158 0 0.016097992564439282 -0.0084439153201630625 0 0.015675890817187392 -0.0072146572855758618 0 0.031924813225625792 0.00084569394283298346 0 0.03188358689340072 0.00092298899694936282 0 0.031772549657872198 0.00091876165767444749 0 0.021497241433579117 -0.0026484304583954104 0 0.022585658785414808 -0.0018711854995573842 0 0.031713847799888291 0.0011122237929995396 0 0.031806471755177992 0.0012586141940931458 0 0.031713169891597934 0.0013203771884636513 0 0.023424979992428031 -0.0029861327748048486 0 0.022966693666587948 -0.0029464927725945732 0 0.031772549657872198 0.00091876165767444749 0 0.031730432363663845 0.0010097078512002536 0 0.031749351966874916 0.0010332764809517173 0 0.014364104052098661 -0.0082236786595344721 0 0.014737013427069692 -0.0077642041822358933 0 0.014467240974671294 -0.0070913575709402685 0 0.023424979992428031 -0.0029861327748048486 0 0.022797553255755304 -0.0029131677862787794 0 0.022776844931674343 -0.0023599715147731249 0 0.023245399216647297 -0.0026815620057658446 0 0.02301517155050339 -0.0029642025886517371 0 0.022966693666587948 -0.0029464927725945732 0 0.022797553255755304 -0.0029131677862787794 0 0.022797553255755304 -0.0029131677862787794 0 0.022778442037005641 -0.0028704731842082824 0 0.022270586695237859 -0.0027656672031297421 0 0.02086719378106093 -0.0025650839342960937 0 0.014822128215575813 -0.0072999965680348011 0 0.014380269164707483 -0.0069048161430806266 0 0.015083375888742888 -0.006978515781322232 0 0.014380269164707483 -0.0069048161430806266 0 0.014842730063146962 -0.006147831701953722 0 0.015083375888742888 -0.006978515781322232 0 0.022778442037005641 -0.0028704731842082824 0 0.022737994047868675 -0.0029108418016066421 0 0.011833589795393768 -0.0065072257319202477 0 0.014364104052098661 -0.0082236786595344721 0 0.014467240974671294 -0.0070913575709402685 0 0.014380269164707483 -0.0069048161430806266 0 0.014842730063146962 -0.006147831701953722 0 0.01441880098920289 -0.0053204837245524206 0 0.02233416590387588 -0.0024612618593425179 0 0.021899318939555823 -0.0029952370228158152 0 0.022903300764250654 -0.0039024096705492974 0 0.022797553255755304 -0.0029131677862787794 0 0.022270586695237859 -0.0027656672031297421 0 0.022778442037005641 -0.0028704731842082824 0 0.022270586695237859 -0.0027656672031297421 0 0.021497241433579117 -0.0026484304583954104 0 0.019214607599623991 -0.0026934939536220177 0 0.015675890817187392 -0.0072146572855758618 0 0.015083375888742888 -0.006978515781322232 0 0.015442245331763181 -0.0055320309282053479 0 0.0169337605733971 -0.0078196122490278158 0 0.015675890817187392 -0.0072146572855758618 0 0.015442245331763181 -0.0055320309282053479 0 0.017878377357420535 -0.0073683301387666078 0 0.017945805746267241 -0.0095934867446597818 0 0.016069426969529732 -0.0066470054183783156 0 0.014842730063146962 -0.006147831701953722 0 0.015083375888742888 -0.006978515781322232 0 0.015442245331763181 -0.0055320309282053479 0 0.014823402958966746 -0.0072989057038180807 0 0.015675890817187392 -0.0072146572855758618 0 0.015083375888742888 -0.006978515781322232 0 0.017268122886130308 -0.0056779160791892479 0 0.016069426969529732 -0.0066470054183783156 0 0.016298144933522846 -0.0044175109475013503 0 0.017878377357420535 -0.0073683301387666078 0 0.017268122886130308 -0.0056779160791892479 0 0.016069426969529732 -0.0066470054183783156 0 0.01441880098920289 -0.0053204837245524206 0 0.013506773603585846 -0.0047744271140583629 0 0.013923108281423957 -0.0032312755613113746 0 0.014842730063146962 -0.006147831701953722 0 0.015442245331763181 -0.0055320309282053479 0 0.01441880098920289 -0.0053204837245524206 0 0.015442245331763181 -0.0055320309282053479 0 0.01441880098920289 -0.0053204837245524206 0 0.013923108281423957 -0.0032312755613113746 0 0.014380269164707483 -0.0069048161430806266 0 0.01441880098920289 -0.0053204837245524206 0 0.013506773603585846 -0.0047744271140583629 0 0.019214607599623991 -0.0026934939536220177 0 0.017178860139865717 -0.0017653043539075806 0 0.014301714143057819 -0.0037654734051940416 0 0.016298144933522846 -0.0044175109475013503 0 0.015556481176255459 -0.0029839783030391007 0 0.016069426969529732 -0.0066470054183783156 0 0.014301714143057819 -0.0037654734051940416 0 0.016298144933522846 -0.0044175109475013503 0 0.016298144933522846 -0.0044175109475013503 0 0.01689861913184473 -0.002915186573988197 0 0.015556481176255459 -0.0029839783030391007 0 0.016298144933522846 -0.0044175109475013503 0 0.01689861913184473 -0.002915186573988197 0 0.018103677807343215 -0.0041743904938622723 0 0.017268122886130308 -0.0056779160791892479 0 0.016298144933522846 -0.0044175109475013503 0 0.018103677807343215 -0.0041743904938622723 0 0.012270529782807568 -0.0051539860918352002 0 0.011051035940535071 -0.0036262560688535323 0 0.0093590031603082453 -0.0048037910145194498 0 0.020290842073601621 -0.003245074638343001 0 0.018089144396797385 -0.003227452589913647 0 0.011833589795393768 -0.0065072257319202477 0 0.012270529782807568 -0.0051539860918352002 0 0.0093590031603082453 -0.0048037910145194498 0 0.014411868306072882 -0.0070646105121680803 0 0.013512115350364041 -0.004839701532673023 0 0.012270529782807568 -0.0051539860918352002 0 0.013512115350364041 -0.004839701532673023 0 0.012270529782807568 -0.0051539860918352002 0 0.012326582353637131 -0.004003851249476365 0 0.02086719378106093 -0.0025650839342960937 0 0.020346223563457298 -0.0023272338008238666 0 0.013506773603585846 -0.0047744271140583629 0 0.013923108281423957 -0.0032312755613113746 0 0.012596104056953295 -0.0026245274006235371 0 0.013512115350364041 -0.004839701532673023 0 0.012326582353637131 -0.004003851249476365 0 0.012596104056953295 -0.0026245274006235371 0 0.012326582353637131 -0.004003851249476365 0 0.011051035940535071 -0.0036262560688535323 0 0.012596104056953295 -0.0026245274006235371 0 0.012270529782807568 -0.0051539860918352002 0 0.012326582353637131 -0.004003851249476365 0 0.011051035940535071 -0.0036262560688535323 0 0.011051035940535071 -0.0036262560688535323 0 0.01130742953222613 -0.0019029792906950255 0 0.010057788041892054 -0.0025073542128154149 0 0.011051035940535071 -0.0036262560688535323 0 0.01130742953222613 -0.0019029792906950255 0 0.012596104056953295 -0.0026245274006235371 0 0.01130742953222613 -0.0019029792906950255 0 0.010233543557438902 -0.00048037765358714972 0 0.010057788041892054 -0.0025073542128154149 0 0.01130742953222613 -0.0019029792906950255 0 0.012347583770383657 -0.00090102789019834233 0 0.010233543557438902 -0.00048037765358714972 0 0.017178860139865717 -0.0017653043539075806 0 0.015657373342742368 -0.00062672322839140262 0 0.01130742953222613 -0.0019029792906950255 0 0.012596104056953295 -0.0026245274006235371 0 0.012347583770383657 -0.00090102789019834233 0 0.013923108281423957 -0.0032312755613113746 0 0.012596104056953295 -0.0026245274006235371 0 0.012347583770383657 -0.00090102789019834233 0 0.012748430672889216 0.00097891190140479787 0 0.012605294129949283 -0.0011417240269915405 0 0.014656813572883584 -7.7389700383361537e-05 0 0.0150191914779285 -2.9167857658409116e-05 0 0.015657373342742368 -0.00062672322839140262 0 0.010812396177733784 0.0013707773509379917 0 0.012347583770383657 -0.00090102789019834233 0 0.010233543557438902 -0.00048037765358714972 0 0.015750301744920526 -0.001500259159251321 0 0.017398556505138323 -0.0014332097423958453 0 0.01689861913184473 -0.002915186573988197 0 0.015750301744920526 -0.001500259159251321 0 0.01689861913184473 -0.002915186573988197 0 0.015556481176255459 -0.0029839783030391007 0 0.014301714143057819 -0.0037654734051940416 0 0.012605294129949283 -0.0011417240269915405 0 0.014569699307652815 -0.0018838935500230022 0 0.014301714143057819 -0.0037654734051940416 0 0.015556481176255459 -0.0029839783030391007 0 0.014569699307652815 -0.0018838935500230022 0 0.015750301744920526 -0.001500259159251321 0 0.015556481176255459 -0.0029839783030391007 0 0.014569699307652815 -0.0018838935500230022 0 0.015750301744920526 -0.001500259159251321 0 0.014569699307652815 -0.0018838935500230022 0 0.014656813572883584 -7.7389700383361537e-05 0 0.012605294129949283 -0.0011417240269915405 0 0.014569699307652815 -0.0018838935500230022 0 0.014656813572883584 -7.7389700383361537e-05 0 0.016461624126293942 0.0015523544527464887 0 0.014656813572883584 -7.7389700383361537e-05 0 0.01648766329014676 -0.00031581761503393229 0 0.016461624126293942 0.0015523544527464887 0 0.01648766329014676 -0.00031581761503393229 0 0.018191092947737002 -0.00018143739058807971 0 0.015750301744920526 -0.001500259159251321 0 0.014656813572883584 -7.7389700383361537e-05 0 0.01648766329014676 -0.00031581761503393229 0 0.015750301744920526 -0.001500259159251321 0 0.017398556505138323 -0.0014332097423958453 0 0.01648766329014676 -0.00031581761503393229 0 0.017398556505138323 -0.0014332097423958453 0 0.01648766329014676 -0.00031581761503393229 0 0.018191092947737002 -0.00018143739058807971 0 0.01880026302407049 0.0011647223716716279 0 0.018191092947737002 -0.00018143739058807971 0 0.019307160733809371 -0.00045977800805763528 0 0.018191092947737002 -0.00018143739058807971 0 0.019307160733809371 -0.00045977800805763528 0 0.018757789547920942 -0.0013764773617294698 0 0.017398556505138323 -0.0014332097423958453 0 0.018191092947737002 -0.00018143739058807971 0 0.018757789547920942 -0.0013764773617294698 0 0.017398556505138323 -0.0014332097423958453 0 0.018757789547920942 -0.0013764773617294698 0 0.018292524285079662 -0.0025682697285994201 0 0.018757789547920942 -0.0013764773617294698 0 0.019223480960605471 -0.0021650606912929776 0 0.020068677324265677 -0.0015890726542904261 0 0.019307160733809371 -0.00045977800805763528 0 0.018757789547920942 -0.0013764773617294698 0 0.020068677324265677 -0.0015890726542904261 0 0.018757789547920942 -0.0013764773617294698 0 0.019223480960605471 -0.0021650606912929776 0 0.018292524285079662 -0.0025682697285994201 0 0.019223480960605471 -0.0021650606912929776 0 0.018292524285079662 -0.0025682697285994201 0 0.019708802230124597 -0.0030497592772714519 0 0.017398556505138323 -0.0014332097423958453 0 0.01689861913184473 -0.002915186573988197 0 0.018292524285079662 -0.0025682697285994201 0 0.02077164909611871 -0.0021941702181642697 0 0.021788695893668782 -0.0018280824563363667 0 0.02133178591721822 -0.0031587995731255543 0 0.02077164909611871 -0.0021941702181642697 0 0.019708802230124597 -0.0030497592772714519 0 0.02133178591721822 -0.0031587995731255543 0 0.019223480960605471 -0.0021650606912929776 0 0.020068677324265677 -0.0015890726542904261 0 0.019708802230124597 -0.0030497592772714519 0 0.02077164909611871 -0.0021941702181642697 0 0.020068677324265677 -0.0015890726542904261 0 0.019708802230124597 -0.0030497592772714519 0 0.020068677324265677 -0.0015890726542904261 0 0.021028777195368963 -0.0013364799745296755 0 0.020740080783958344 -0.00069039938290290769 0 0.02077164909611871 -0.0021941702181642697 0 0.020068677324265677 -0.0015890726542904261 0 0.021028777195368963 -0.0013364799745296755 0 0.021028777195368963 -0.0013364799745296755 0 0.021653349746080939 -0.00091731292449788091 0 0.021788695893668782 -0.0018280824563363667 0 0.02077164909611871 -0.0021941702181642697 0 0.021028777195368963 -0.0013364799745296755 0 0.021788695893668782 -0.0018280824563363667 0 0.021028777195368963 -0.0013364799745296755 0 0.020740080783958344 -0.00069039938290290769 0 0.021653349746080939 -0.00091731292449788091 0 0.020740080783958344 -0.00069039938290290769 0 0.022166709800434423 -0.00027754016770472137 0 0.021653349746080939 -0.00091731292449788091 0 0.020740080783958344 -0.00069039938290290769 0 0.020108313131344455 0.00025834368616664457 0 0.022166709800434423 -0.00027754016770472137 0 0.02005763241969577 0.0022351861258464237 0 0.020108313131344455 0.00025834368616664457 0 0.022166709800434423 -0.00027754016770472137 0 0.019307160733809371 -0.00045977800805763528 0 0.020740080783958344 -0.00069039938290290769 0 0.020108313131344455 0.00025834368616664457 0 0.019307160733809371 -0.00045977800805763528 0 0.020068677324265677 -0.0015890726542904261 0 0.020740080783958344 -0.00069039938290290769 0 0.01880026302407049 0.0011647223716716279 0 0.019307160733809371 -0.00045977800805763528 0 0.020108313131344455 0.00025834368616664457 0 0.022314996482774387 0.00016793284911117133 0 0.022629892398197002 -2.9743105128486337e-05 0 0.022166709800434423 -0.00027754016770472137 0 0.022629892398197002 -2.9743105128486337e-05 0 0.02262990493772947 -0.00030238043082773594 0 0.022166709800434423 -0.00027754016770472137 0 0.022629892398197002 -2.9743105128486337e-05 0 0.022789201167424347 -0.00018645359563533898 0 0.02262990493772947 -0.00030238043082773594 0 0.022789201167424347 -0.00018645359563533898 0 0.02262990493772947 -0.00030238043082773594 0 0.022874734238628278 -0.00036517484487141221 0 0.02262990493772947 -0.00030238043082773594 0 0.022166709800434423 -0.00027754016770472137 0 0.022536325317586061 -0.00062967638156386451 0 0.022166709800434423 -0.00027754016770472137 0 0.021653349746080939 -0.00091731292449788091 0 0.022536325317586061 -0.00062967638156386451 0 0.02304178524989519 7.4484177167846041e-05 0 0.022899901710067179 -4.6798123350272618e-05 0 0.023144878395592757 -6.690823661132113e-05 0 0.023053599299845417 0.00017806354399154249 0 0.023218834530736924 0.00010606317963004407 0 0.02304178524989519 7.4484177167846041e-05 0 0.022567719338554514 0.00021906578093942489 0 0.022629892398197002 -2.9743105128486337e-05 0 0.022826151191117198 8.8154927243023991e-05 0 0.02304178524989519 7.4484177167846041e-05 0 0.022826151191117198 8.8154927243023991e-05 0 0.022899901710067179 -4.6798123350272618e-05 0 0.022629892398197002 -2.9743105128486337e-05 0 0.022826151191117198 8.8154927243023991e-05 0 0.022899901710067179 -4.6798123350272618e-05 0 0.022988178443346594 -0.0001785658247921031 0 0.023144878395592757 -6.690823661132113e-05 0 0.023214667501587665 -0.00016443209147012856 0 0.022789201167424347 -0.00018645359563533898 0 0.022899901710067179 -4.6798123350272618e-05 0 0.022988178443346594 -0.0001785658247921031 0 0.022629892398197002 -2.9743105128486337e-05 0 0.022789201167424347 -0.00018645359563533898 0 0.022899901710067179 -4.6798123350272618e-05 0 0.022789201167424347 -0.00018645359563533898 0 0.022988178443346594 -0.0001785658247921031 0 0.022874734238628278 -0.00036517484487141221 0 0.022899901710067179 -4.6798123350272618e-05 0 0.022988178443346594 -0.0001785658247921031 0 0.023144878395592757 -6.690823661132113e-05 0 0.023256263956085568 2.6614638111447342e-05 0 0.023463258376825273 -1.2512604593558811e-06 0 0.023144878395592757 -6.690823661132113e-05 0 0.023256263956085568 2.6614638111447342e-05 0 0.02304178524989519 7.4484177167846041e-05 0 0.023144878395592757 -6.690823661132113e-05 0 0.023214667501587665 -0.00016443209147012856 0 0.023653002792042261 -1.0997252388434244e-05 0 0.023162964997825358 -0.00016385247620116187 0 0.023463258376825273 -1.2512604593558811e-06 0 0.023144878395592757 -6.690823661132113e-05 0 0.023214667501587665 -0.00016443209147012856 0 0.023463258376825273 -1.2512604593558811e-06 0 0.023214667501587665 -0.00016443209147012856 0 0.023653002792042261 -1.0997252388434244e-05 0 0.022988178443346594 -0.0001785658247921031 0 0.023214667501587665 -0.00016443209147012856 0 0.022874734238628278 -0.00036517484487141221 0 0.023214667501587665 -0.00016443209147012856 0 0.022874734238628278 -0.00036517484487141221 0 0.023162964997825358 -0.00016385247620116187 0 0.023244667596342441 -0.0011049444904226437 0 0.023291076557500418 -0.0012117047195033036 0 0.022536325317586061 -0.00062967638156386451 0 0.022874734238628278 -0.00036517484487141221 0 0.023162964997825358 -0.00016385247620116187 0 0.022536325317586061 -0.00062967638156386451 0 0.021788695893668782 -0.0018280824563363667 0 0.023128968590025809 -0.003251117995596106 0 0.021653349746080939 -0.00091731292449788091 0 0.022536325317586061 -0.00062967638156386451 0 0.021788695893668782 -0.0018280824563363667 0 0.02262990493772947 -0.00030238043082773594 0 0.022536325317586061 -0.00062967638156386451 0 0.022874734238628278 -0.00036517484487141221 0 0.021788695893668782 -0.0018280824563363667 0 0.023128968590025809 -0.003251117995596106 0 0.02133178591721822 -0.0031587995731255543 0 0.023291076557500418 -0.0012117047195033036 0 0.023351891907930657 -0.0012980374465858264 0 0.023128968590025809 -0.003251117995596106 0 0.021799087478828454 -0.0048348181763761509 0 0.02133178591721822 -0.0031587995731255543 0 0.023128968590025809 -0.003251117995596106 0 0.021799087478828454 -0.0048348181763761509 0 0.023710844238761353 -0.0054186065066069832 0 0.02406945255342622 6.939105547869816e-05 0 0.023162964997825358 -0.00016385247620116187 0 0.023423217971881901 -0.00060559855728616497 0 0.02406945255342622 6.939105547869816e-05 0 0.023653002792042261 -1.0997252388434244e-05 0 0.023162964997825358 -0.00016385247620116187 0 0.023487823667100782 -0.0011723079483472283 0 0.023351891907930657 -0.0012980374465858264 0 0.02455957641706151 0.00096338572312659699 0 0.02406945255342622 6.939105547869816e-05 0 0.025303986175296278 0.00070404490617273345 0 0.02455957641706151 0.00096338572312659699 0 0.025269503535980203 0.0018410957311536787 0 0.025303986175296278 0.00070404490617273345 0 0.020780964523249769 -0.0075222818734060745 0 0.021799087478828454 -0.0048348181763761509 0 0.023710844238761353 -0.0054186065066069832 0 0.022245052328250126 -0.0022780987898198381 0 0.023351891907930657 -0.0012980374465858264 0 0.020780964523249769 -0.0075222818734060745 0 0.018610133827079697 -0.0059411685972733863 0 0.02006752940985726 -0.004740647905680356 0 0.020780964523249769 -0.0075222818734060745 0 0.021799087478828454 -0.0048348181763761509 0 0.02006752940985726 -0.004740647905680356 0 0.017878377357420535 -0.0073683301387666078 0 0.020780964523249769 -0.0075222818734060745 0 0.018610133827079697 -0.0059411685972733863 0 0.017878377357420535 -0.0073683301387666078 0 0.017268122886130308 -0.0056779160791892479 0 0.018610133827079697 -0.0059411685972733863 0 0.017268122886130308 -0.0056779160791892479 0 0.018610133827079697 -0.0059411685972733863 0 0.018103677807343215 -0.0041743904938622723 0 0.018610133827079697 -0.0059411685972733863 0 0.018103677807343215 -0.0041743904938622723 0 0.02006752940985726 -0.004740647905680356 0 0.01689861913184473 -0.002915186573988197 0 0.018292524285079662 -0.0025682697285994201 0 0.018103677807343215 -0.0041743904938622723 0 0.018292524285079662 -0.0025682697285994201 0 0.018103677807343215 -0.0041743904938622723 0 0.019708802230124597 -0.0030497592772714519 0 0.018103677807343215 -0.0041743904938622723 0 0.019708802230124597 -0.0030497592772714519 0 0.02006752940985726 -0.004740647905680356 0 0.019708802230124597 -0.0030497592772714519 0 0.02133178591721822 -0.0031587995731255543 0 0.02006752940985726 -0.004740647905680356 0 0.021799087478828454 -0.0048348181763761509 0 0.02133178591721822 -0.0031587995731255543 0 0.02006752940985726 -0.004740647905680356 0 0.0082270661321348065 0.00018069815287966923 0 0.0086208088236326211 0.00036893469560109708 0 0.0095664686295280823 0.00053259176716653018 0 0.0082270661321348065 0.00018069815287966923 0 0.0095664686295280823 0.00053259176716653018 0 0.0093683777371613968 4.816314088997586e-05 0 0.0082270661321348065 0.00018069815287966923 0 0.0075471958568455941 2.0953687375362048e-06 0 0.0054835722223766318 -3.6298483327299772e-06 0 0.0082270661321348065 0.00018069815287966923 0 0.0075471958568455941 2.0953687375362048e-06 0 0.0086208088236326211 0.00036893469560109708 0 0.0075471958568455941 2.0953687375362048e-06 0 0.0085973736333131955 0.00026295725385659311 0 0.0086208088236326211 0.00036893469560109708 0 0.0085973736333131955 0.00026295725385659311 0 0.0086208088236326211 0.00036893469560109708 0 0.009353661222144663 0.00078651384197331352 0 0.0075471958568455941 2.0953687375362048e-06 0 0.0085973736333131955 0.00026295725385659311 0 0.0096169696413332551 2.3426314546415882e-07 0 0.0086208088236326211 0.00036893469560109708 0 0.0095664686295280823 0.00053259176716653018 0 0.009353661222144663 0.00078651384197331352 0 0.0095664686295280823 0.00053259176716653018 0 0.010122576142567565 0.00098925813612805958 0 0.009353661222144663 0.00078651384197331352 0 0.0095664686295280823 0.00053259176716653018 0 0.01079859706321146 0.00093616486525940987 0 0.010520115537124914 0.00016542210363346092 0 0.0095664686295280823 0.00053259176716653018 0 0.01079859706321146 0.00093616486525940987 0 0.010122576142567565 0.00098925813612805958 0 0.01079859706321146 0.00093616486525940987 0 0.010520115537124914 0.00016542210363346092 0 0.011874384029888822 0.0010560472631333669 0 0.010520115537124914 0.00016542210363346092 0 0.0093683777371613968 4.816314088997586e-05 0 0.0097891786665099973 -0.00045475611687883079 0 0.0095664686295280823 0.00053259176716653018 0 0.010520115537124914 0.00016542210363346092 0 0.0093683777371613968 4.816314088997586e-05 0 0.0097891786665099973 -0.00045475611687883079 0 0.0089967779378971689 -0.0012535208544948082 0 0.0084407211043356061 -0.00040190860244841041 0 0.0093683777371613968 4.816314088997586e-05 0 0.0097891786665099973 -0.00045475611687883079 0 0.0084407211043356061 -0.00040190860244841041 0 0.0097891786665099973 -0.00045475611687883079 0 0.010844507031188107 -0.00044940197894703698 0 0.010134508650231138 -0.0011219789153750985 0 0.010520115537124914 0.00016542210363346092 0 0.0097891786665099973 -0.00045475611687883079 0 0.010844507031188107 -0.00044940197894703698 0 0.010520115537124914 0.00016542210363346092 0 0.010844507031188107 -0.00044940197894703698 0 0.011532807394540706 6.9379101667686491e-05 0 0.010134508650231138 -0.0011219789153750985 0 0.010489706068824498 -0.0017847859668880996 0 0.011032220719358481 -0.0010875744250738355 0 0.010844507031188107 -0.00044940197894703698 0 0.010134508650231138 -0.0011219789153750985 0 0.011032220719358481 -0.0010875744250738355 0 0.010134508650231138 -0.0011219789153750985 0 0.0089967779378971689 -0.0012535208544948082 0 0.0095824719790884982 -0.0018894155465940029 0 0.0097891786665099973 -0.00045475611687883079 0 0.010134508650231138 -0.0011219789153750985 0 0.0089967779378971689 -0.0012535208544948082 0 0.0089967779378971689 -0.0012535208544948082 0 0.0084407211043356061 -0.00040190860244841041 0 0.0078332431608184542 -0.0019707499130842145 0 0.0089967779378971689 -0.0012535208544948082 0 0.0078332431608184542 -0.0019707499130842145 0 0.0095824719790884982 -0.0018894155465940029 0 0.0082270661321348065 0.00018069815287966923 0 0.0093683777371613968 4.816314088997586e-05 0 0.0084407211043356061 -0.00040190860244841041 0 0.0082270661321348065 0.00018069815287966923 0 0.0084407211043356061 -0.00040190860244841041 0 0.0054835722223766318 -3.6298483327299772e-06 0 0.0054764243095737387 -1.5098937342611475e-06 0 0.0034413421655418515 5.2703848620132676e-07 0 0.0030170552228078618 -0.00025393545116116843 0 0.0084407211043356061 -0.00040190860244841041 0 0.0054835722223766318 -3.6298483327299772e-06 0 0.0078332431608184542 -0.0019707499130842145 0 0.0054786862888612951 3.2684304694514675e-07 0 0.00558154229378067 -1.157875395438213e-05 0 0.0034413421655418515 5.2703848620132676e-07 0 0.0030170552228078618 -0.00025393545116116843 0 0.0021588603229735662 0.00018793055170200854 0 0.0078332431608184542 -0.0019707499130842145 0 0.0091546303545272014 -0.0026996897321597685 0 0.0095824719790884982 -0.0018894155465940029 0 0.00558154229378067 -1.157875395438213e-05 0 0.0058462857822755938 -5.7890181064733346e-05 0 0.0030170552228078618 -0.00025393545116116843 0 0.0021588603229735662 0.00018793055170200854 0 0.0017525777930719681 5.7828402978211445e-05 0 0.0021588603229735662 0.00018793055170200854 0 0.001657355956222529 0.00024955948169832538 0 0.0017525777930719681 5.7828402978211445e-05 0 0.0034413421655418515 5.2703848620132676e-07 0 0.0021588603229735662 0.00018793055170200854 0 0.0014043926663705744 3.3542685432235634e-07 0 0.0021588603229735662 0.00018793055170200854 0 0.0014043926663705744 3.3542685432235634e-07 0 0.0013105771603937402 0.00019175333871640583 0 0.0021588603229735662 0.00018793055170200854 0 0.001657355956222529 0.00024955948169832538 0 0.0013105771603937402 0.00019175333871640583 0 0.001657355956222529 0.00024955948169832538 0 0.0013105771603937402 0.00019175333871640583 0 0.0015475273859969871 0.00016679608060222637 0 0.0013105771603937402 0.00019175333871640583 0 0.00024135680939182944 0.00018394216882231814 0 0.0015475273859969871 0.00016679608060222637 0 0.004561627120712463 -0.00038144982671046437 0 0.0049538058963186247 -0.00024860074043798938 0 0.00088371788652361505 0.00028697096755642343 0 0.00024135680939182944 0.00018394216882231814 0 0.0015696149924900333 0.0012826780434232164 0 -0.00029028394379182086 8.4561948139876987e-05 0 0.00088371788652361505 0.00028697096755642343 0 0.00024135680939182944 0.00018394216882231814 0 0.0014043926663705744 3.3542685432235634e-07 0 0.0013105771603937402 0.00019175333871640583 0 0.00024135680939182944 0.00018394216882231814 0 -0.00063240879047231705 5.4537215989121928e-07 0 -0.00029028394379182086 8.4561948139876987e-05 0 0.0014043926663705744 3.3542685432235634e-07 0 -0.00029028394379182086 8.4561948139876987e-05 0 0.0014043926663705744 3.3542685432235634e-07 0 0.00024135680939182944 0.00018394216882231814 0 0.0041695408264172873 -0.00033535751842857003 0 0.0020087937809850362 -0.00030219254954071335 0 0.0028952918822805467 0.00082064463835756682 0 0.0041695408264172873 -0.00033535751842857003 0 0.0028952918822805467 0.00082064463835756682 0 0.0039541009707795534 0.001456561898006588 0 0.0020087937809850362 -0.00030219254954071335 0 0.0028952918822805467 0.00082064463835756682 0 0.0015696149924900333 0.0012826780434232164 0 0.0020087937809850362 -0.00030219254954071335 0 0.00088371788652361505 0.00028697096755642343 0 0.0015696149924900333 0.0012826780434232164 0 0.0028952918822805467 0.00082064463835756682 0 0.0015696149924900333 0.0012826780434232164 0 0.0030534504793398999 0.0023663753340764505 0 0.001657355956222529 0.00024955948169832538 0 0.0015475273859969871 0.00016679608060222637 0 0.0015801822724982241 0.00023682297989802777 0 0.0049538058963186247 -0.00024860074043798938 0 0.0060766668084310969 0.00011505614488035735 0 0.0028952918822805467 0.00082064463835756682 0 0.0030534504793398999 0.0023663753340764505 0 0.0039541009707795534 0.001456561898006588 0 0.0030975320186219348 0.002308134128950542 0 0.0039541009707795534 0.001456561898006588 0 0.0041944734490907834 0.0031311520834175098 0 0.0060766668084310969 0.00011505614488035735 0 0.0059044844552374152 0.00026954811772261029 0 0.010182567785261254 -0.0035801795810276866 0 0.010216528511796136 -0.0025191999809387701 0 0.010979755997864512 -0.002958772667015718 0 0.0060766668084310969 0.00011505614488035735 0 0.0065389562058676175 8.85531143045289e-05 0 0.010216528511796136 -0.0025191999809387701 0 0.010975717513166942 -0.0021770319857059234 0 0.010979755997864512 -0.002958772667015718 0 0.001657355956222529 0.00024955948169832538 0 0.0015801822724982241 0.00023682297989802777 0 0.0017525777930719681 5.7828402978211445e-05 0 0.010182567785261254 -0.0035801795810276866 0 0.010216528511796136 -0.0025191999809387701 0 0.0091546303545272014 -0.0026996897321597685 0 0.0060766668084310969 0.00011505614488035735 0 0.0058462857822755938 -5.7890181064733346e-05 0 0.010216528511796136 -0.0025191999809387701 0 0.0091546303545272014 -0.0026996897321597685 0 0.0095824719790884982 -0.0018894155465940029 0 0.010216528511796136 -0.0025191999809387701 0 0.010489706068824498 -0.0017847859668880996 0 0.010975717513166942 -0.0021770319857059234 0 0.010216528511796136 -0.0025191999809387701 0 0.0095824719790884982 -0.0018894155465940029 0 0.010489706068824498 -0.0017847859668880996 0 0.010134508650231138 -0.0011219789153750985 0 0.0095824719790884982 -0.0018894155465940029 0 0.010489706068824498 -0.0017847859668880996 0 0.010489706068824498 -0.0017847859668880996 0 0.011067240101289582 -0.0016024800361205561 0 0.011032220719358481 -0.0010875744250738355 0 0.010489706068824498 -0.0017847859668880996 0 0.011067240101289582 -0.0016024800361205561 0 0.010975717513166942 -0.0021770319857059234 0 0.011067240101289582 -0.0016024800361205561 0 0.011529063195114063 -0.0017025457128539674 0 0.011699564513735876 -0.0011330112207615982 0 0.011529063195114063 -0.0017025457128539674 0 0.01185759106351441 -0.0022148241556009612 0 0.010975717513166942 -0.0021770319857059234 0 0.0069021463656309913 -8.7639031334680529e-05 0 0.0068346094928334123 -2.0300756634440044e-05 0 0.011067240101289582 -0.0016024800361205561 0 0.011529063195114063 -0.0017025457128539674 0 0.010975717513166942 -0.0021770319857059234 0 0.012470070331750271 -0.0010622352896129976 0 0.012239741333257934 -0.0012097231609123052 0 0.01238327914056247 -0.00099182855058284748 0 0.012239741333257934 -0.0012097231609123052 0 0.012372246666954769 -0.0009534011944023036 0 0.012225383274464888 -0.00077722159805106259 0 0.011529063195114063 -0.0017025457128539674 0 0.012239741333257934 -0.0012097231609123052 0 0.011699564513735876 -0.0011330112207615982 0 0.0068346094928334123 -2.0300756634440044e-05 0 0.007032033873666718 4.5401738113010309e-05 0 0.011529063195114063 -0.0017025457128539674 0 0.011744994643882232 -0.0019142870301926661 0 0.012239741333257934 -0.0012097231609123052 0 0.012239741333257934 -0.0012097231609123052 0 0.01238327914056247 -0.00099182855058284748 0 0.012372246666954769 -0.0009534011944023036 0 0.012470070331750271 -0.0010622352896129976 0 0.012533437863555203 -0.00082877586702034486 0 0.01238327914056247 -0.00099182855058284748 0 0.0052963516602445521 0.0039565773255546702 0 0.005193485860965609 0.0029382897362987149 0 0.0063224231372394652 0.0024953420450489401 0 0.0068346094928334123 -2.0300756634440044e-05 0 0.0072917186641377127 5.6278814362926879e-06 0 0.01185759106351441 -0.0022148241556009612 0 0.010975717513166942 -0.0021770319857059234 0 0.010979755997864512 -0.002958772667015718 0 0.0068346094928334123 -2.0300756634440044e-05 0 0.0065389562058676175 8.85531143045289e-05 0 0.0052963516602445521 0.0039565773255546702 0 0.005193485860965609 0.0029382897362987149 0 0.0041944734490907834 0.0031311520834175098 0 0.005193485860965609 0.0029382897362987149 0 0.0041944734490907834 0.0031311520834175098 0 0.0049629411571767501 0.0021698584418786636 0 0.0039541009707795534 0.001456561898006588 0 0.0049629411571767501 0.0021698584418786636 0 0.0055335763357846389 0.0010727845328098802 0 0.0039541009707795534 0.001456561898006588 0 0.0041944734490907834 0.0031311520834175098 0 0.0049629411571767501 0.0021698584418786636 0 0.0063224231372394652 0.0024953420450489401 0 0.0055335763357846389 0.0010727845328098802 0 0.007350120668524346 0.0010272534789415866 0 0.0049629411571767501 0.0021698584418786636 0 0.0063224231372394652 0.0024953420450489401 0 0.0055335763357846389 0.0010727845328098802 0 0.005193485860965609 0.0029382897362987149 0 0.0049629411571767501 0.0021698584418786636 0 0.0063224231372394652 0.0024953420450489401 0 0.006277641337963949 -0.00038046189442981381 0 0.0055335763357846389 0.0010727845328098802 0 0.007350120668524346 0.0010272534789415866 0 0.0041695408264172873 -0.00033535751842857003 0 0.0039541009707795534 0.001456561898006588 0 0.0055335763357846389 0.0010727845328098802 0 0.0041695408264172873 -0.00033535751842857003 0 0.006277641337963949 -0.00038046189442981381 0 0.0055335763357846389 0.0010727845328098802 0 0.012512416524671723 0.00035381820247853507 0 0.01268699128759599 -0.00045982919373387148 0 0.011970136448580511 -0.00022935401068580963 0 0.01268699128759599 -0.00045982919373387148 0 0.012306715368100275 -0.00072480246273043121 0 0.011970136448580511 -0.00022935401068580963 0 0.0073057731823516891 0.00026933670420485725 0 0.0074934987499376358 3.6699462893093663e-05 0 0.008373302832916785 -0.00043666076046588803 0 0.006277641337963949 -0.00038046189442981381 0 0.007350120668524346 0.0010272534789415866 0 0.0072917186641377127 5.6278814362926879e-06 0 0.0074934987499376358 3.6699462893093663e-05 0 0.012533437863555203 -0.00082877586702034486 0 0.01268699128759599 -0.00045982919373387148 0 0.012481035405862257 -0.00079748051793325687 0 0.01268699128759599 -0.00045982919373387148 0 0.012481035405862257 -0.00079748051793325687 0 0.012306715368100275 -0.00072480246273043121 0 0.012306715368100275 -0.00072480246273043121 0 0.012434226294520309 -0.00093975584392243228 0 0.012523669956209647 -0.0008675455368548897 0 0.012481035405862257 -0.00079748051793325687 0 0.012306715368100275 -0.00072480246273043121 0 0.012434226294520309 -0.00093975584392243228 0 0.012533437863555203 -0.00082877586702034486 0 0.012481035405862257 -0.00079748051793325687 0 0.01238327914056247 -0.00099182855058284748 0 0.012481035405862257 -0.00079748051793325687 0 0.012434226294520309 -0.00093975584392243228 0 0.01238327914056247 -0.00099182855058284748 0 0.012434226294520309 -0.00093975584392243228 0 0.012372246666954769 -0.0009534011944023036 0 0.012524342592946932 -0.00071590069967242601 0 0.012434226294520309 -0.00093975584392243228 0 0.01238327914056247 -0.00099182855058284748 0 0.012372246666954769 -0.0009534011944023036 0 0.012434226294520309 -0.00093975584392243228 0 0.012524342592946932 -0.00071590069967242601 0 0.012523669956209647 -0.0008675455368548897 0 0.012524342592946932 -0.00071590069967242601 0 0.012950956436754467 -0.00051801385068413446 0 0.012523669956209647 -0.0008675455368548897 0 0.012524342592946932 -0.00071590069967242601 0 0.012960489771643859 -2.0395159142022667e-05 0 0.012950956436754467 -0.00051801385068413446 0 0.012655392261331864 0.00014182945991286666 0 0.012928959426992825 0.00045079286548408153 0 0.012960489771643859 -2.0395159142022667e-05 0 0.012524342592946932 -0.00071590069967242601 0 0.012373282940528649 -9.079092657732286e-05 0 0.012960489771643859 -2.0395159142022667e-05 0 0.012172512186709519 3.1193266565817065e-05 0 0.012340595364528639 5.3080093031730796e-06 0 0.012524342592946932 -0.00071590069967242601 0 0.012373282940528649 -9.079092657732286e-05 0 0.012225383274464888 -0.00077722159805106259 0 0.012372246666954769 -0.0009534011944023036 0 0.012524342592946932 -0.00071590069967242601 0 0.012225383274464888 -0.00077722159805106259 0 0.012239741333257934 -0.0012097231609123052 0 0.012225383274464888 -0.00077722159805106259 0 0.011699564513735876 -0.0011330112207615982 0 0.012225383274464888 -0.00077722159805106259 0 0.011702733467030185 -0.00058620739894919545 0 0.011699564513735876 -0.0011330112207615982 0 0.010844507031188107 -0.00044940197894703698 0 0.011702733467030185 -0.00058620739894919545 0 0.011032220719358481 -0.0010875744250738355 0 0.011067240101289582 -0.0016024800361205561 0 0.011032220719358481 -0.0010875744250738355 0 0.011699564513735876 -0.0011330112207615982 0 0.011702733467030185 -0.00058620739894919545 0 0.011032220719358481 -0.0010875744250738355 0 0.011699564513735876 -0.0011330112207615982 0 0.010844507031188107 -0.00044940197894703698 0 0.011702733467030185 -0.00058620739894919545 0 0.011532807394540706 6.9379101667686491e-05 0 0.012373282940528649 -9.079092657732286e-05 0 0.012225383274464888 -0.00077722159805106259 0 0.011702733467030185 -0.00058620739894919545 0 0.012172512186709519 3.1193266565817065e-05 0 0.011835004618216552 8.1974216545923606e-05 0 0.012373282940528649 -9.079092657732286e-05 0 0.011702733467030185 -0.00058620739894919545 0 0.011532807394540706 6.9379101667686491e-05 0 0.012655392261331864 0.00014182945991286666 0 0.011942984254229435 7.8919841060674374e-05 0 0.012660043262122615 0.00082136147681628117 0 0.010520115537124914 0.00016542210363346092 0 0.011942984254229435 7.8919841060674374e-05 0 0.011874384029888822 0.0010560472631333669 0 0.01162944318501867 0.00011272144502868469 0 0.011835004618216552 8.1974216545923606e-05 0 0.011942984254229435 7.8919841060674374e-05 0 0.011874384029888822 0.0010560472631333669 0 0.012660043262122615 0.00082136147681628117 0 0.012660043262122615 0.00082136147681628117 0 0.013091873206796724 0.00096439052571133143 0 0.013061444538768329 0.0014808602974875783 0 0.013091873206796724 0.00096439052571133143 0 0.012928959426992825 0.00045079286548408153 0 0.013368134565889497 0.00067761087356703949 0 0.012660043262122615 0.00082136147681628117 0 0.013091873206796724 0.00096439052571133143 0 0.012928959426992825 0.00045079286548408153 0 0.012928959426992825 0.00045079286548408153 0 0.013368134565889497 0.00067761087356703949 0 0.012960489771643859 -2.0395159142022667e-05 0 0.012655392261331864 0.00014182945991286666 0 0.012660043262122615 0.00082136147681628117 0 0.012928959426992825 0.00045079286548408153 0 0.013368134565889497 0.00067761087356703949 0 0.014085620458086605 0.0010884969707997208 0 0.01366302124455147 0.00021023332291576739 0 0.013368134565889497 0.00067761087356703949 0 0.01366302124455147 0.00021023332291576739 0 0.012960489771643859 -2.0395159142022667e-05 0 0.013091873206796724 0.00096439052571133143 0 0.013368134565889497 0.00067761087356703949 0 0.013565155818112466 0.0013753225177120657 0 0.013368134565889497 0.00067761087356703949 0 0.014085620458086605 0.0010884969707997208 0 0.013565155818112466 0.0013753225177120657 0 0.014085620458086605 0.0010884969707997208 0 0.015094118914976268 0.00084849855928621494 0 0.014717451202147971 0.0017814411636675324 0 0.014085620458086605 0.0010884969707997208 0 0.014334129824288852 0.00053666830646084782 0 0.015094118914976268 0.00084849855928621494 0 0.014334129824288852 0.00053666830646084782 0 0.014489340973418301 -8.4314445245807108e-05 0 0.015094118914976268 0.00084849855928621494 0 0.014085620458086605 0.0010884969707997208 0 0.014334129824288852 0.00053666830646084782 0 0.01366302124455147 0.00021023332291576739 0 0.014489340973418301 -8.4314445245807108e-05 0 0.013654856036592002 -0.00030473730471350846 0 0.01366302124455147 0.00021023332291576739 0 0.014334129824288852 0.00053666830646084782 0 0.014489340973418301 -8.4314445245807108e-05 0 0.01366302124455147 0.00021023332291576739 0 0.014489340973418301 -8.4314445245807108e-05 0 0.014184418105745642 -0.00052285217524269479 0 0.015282539488960261 -0.0004233940214735353 0 0.014489340973418301 -8.4314445245807108e-05 0 0.014184418105745642 -0.00052285217524269479 0 0.013654856036592002 -0.00030473730471350846 0 0.014184418105745642 -0.00052285217524269479 0 0.013654856036592002 -0.00030473730471350846 0 0.013199728096637898 -0.00067780782059147563 0 0.013654856036592002 -0.00030473730471350846 0 0.012950956436754467 -0.00051801385068413446 0 0.013199728096637898 -0.00067780782059147563 0 0.013654856036592002 -0.00030473730471350846 0 0.01366302124455147 0.00021023332291576739 0 0.012950956436754467 -0.00051801385068413446 0 0.01366302124455147 0.00021023332291576739 0 0.012960489771643859 -2.0395159142022667e-05 0 0.012950956436754467 -0.00051801385068413446 0 0.012950956436754467 -0.00051801385068413446 0 0.012658910238860222 -0.00084482945132686971 0 0.012523669956209647 -0.0008675455368548897 0 0.012950956436754467 -0.00051801385068413446 0 0.012658910238860222 -0.00084482945132686971 0 0.013199728096637898 -0.00067780782059147563 0 0.012658910238860222 -0.00084482945132686971 0 0.012078728937870554 -0.00068880177877701169 0 0.012662202322394371 -0.00099341133897129876 0 0.012658910238860222 -0.00084482945132686971 0 0.012662202322394371 -0.00099341133897129876 0 0.013199728096637898 -0.00067780782059147563 0 0.012658910238860222 -0.00084482945132686971 0 0.012523669956209647 -0.0008675455368548897 0 0.012078728937870554 -0.00068880177877701169 0 0.012306715368100275 -0.00072480246273043121 0 0.012078728937870554 -0.00068880177877701169 0 0.011970136448580511 -0.00022935401068580963 0 0.012306715368100275 -0.00072480246273043121 0 0.012523669956209647 -0.0008675455368548897 0 0.012078728937870554 -0.00068880177877701169 0 0.012078728937870554 -0.00068880177877701169 0 0.012087505370328787 -0.00077542233762223193 0 0.012662202322394371 -0.00099341133897129876 0 0.012078728937870554 -0.00068880177877701169 0 0.011731240466574875 -0.00025856714114070412 0 0.012087505370328787 -0.00077542233762223193 0 0.012078728937870554 -0.00068880177877701169 0 0.011731240466574875 -0.00025856714114070412 0 0.01146477842383202 -2.5766484756664762e-05 0 0.011256697842822213 0.00036635157275411058 0 0.011731240466574875 -0.00025856714114070412 0 0.01146477842383202 -2.5766484756664762e-05 0 0.012078728937870554 -0.00068880177877701169 0 0.01146477842383202 -2.5766484756664762e-05 0 0.011970136448580511 -0.00022935401068580963 0 0.010845856400601301 0.00070210904014049327 0 0.01146477842383202 -2.5766484756664762e-05 0 0.011970136448580511 -0.00022935401068580963 0 0.013075850197037638 -0.0013760994225945039 0 0.013719696957994205 -0.0012642824902896923 0 0.013246898374011795 -0.0020846718042562694 0 0.01253660739503259 -0.0019666693143422578 0 0.013545266205581229 -0.0014021686421392947 0 0.012917425932646168 -0.0024600832997618825 0 0.013246898374011795 -0.0020846718042562694 0 0.01253660739503259 -0.0019666693143422578 0 0.013070551712628987 -0.0013740332367728869 0 0.013075850197037638 -0.0013760994225945039 0 0.011256697842822213 0.00036635157275411058 0 0.011731240466574875 -0.00025856714114070412 0 0.011513947431498559 -8.6861972477002131e-05 0 0.011731240466574875 -0.00025856714114070412 0 0.011513947431498559 -8.6861972477002131e-05 0 0.012087505370328787 -0.00077542233762223193 0 0.011513947431498559 -8.6861972477002131e-05 0 0.011464716420026751 -0.00029921655631516639 0 0.012087505370328787 -0.00077542233762223193 0 0.011464716420026751 -0.00029921655631516639 0 0.012711594212522152 -0.0012972182711156117 0 0.012087505370328787 -0.00077542233762223193 0 0.013075850197037638 -0.0013760994225945039 0 0.013061621520734694 -0.0012808291535917945 0 0.012711594212522152 -0.0012972182711156117 0 0.012087505370328787 -0.00077542233762223193 0 0.012662202322394371 -0.00099341133897129876 0 0.012677791579599269 -0.0028231718863795693 0 0.012711594212522152 -0.0012972182711156117 0 0.014580901360976327 -0.0020803191044776671 0 0.012711594212522152 -0.0012972182711156117 0 0.014755438273740214 -0.0012540212285767924 0 0.014580901360976327 -0.0020803191044776671 0 0.012711594212522152 -0.0012972182711156117 0 0.013754674076829218 -0.000888746379193634 0 0.014755438273740214 -0.0012540212285767924 0 0.012711594212522152 -0.0012972182711156117 0 0.013754674076829218 -0.000888746379193634 0 0.012662202322394371 -0.00099341133897129876 0 0.013754674076829218 -0.000888746379193634 0 0.012662202322394371 -0.00099341133897129876 0 0.013199728096637898 -0.00067780782059147563 0 0.014184418105745642 -0.00052285217524269479 0 0.013754674076829218 -0.000888746379193634 0 0.013199728096637898 -0.00067780782059147563 0 0.014184418105745642 -0.00052285217524269479 0 0.013754674076829218 -0.000888746379193634 0 0.014976207154808432 -0.00079273784643803529 0 0.014976207154808432 -0.00079273784643803529 0 0.015748378799207357 -0.0010941632926039493 0 0.014755438273740214 -0.0012540212285767924 0 0.014976207154808432 -0.00079273784643803529 0 0.015748378799207357 -0.0010941632926039493 0 0.016159755538048218 -0.00065462181936665122 0 0.015748378799207357 -0.0010941632926039493 0 0.016390401145263165 -0.0011047354477850657 0 0.016159755538048218 -0.00065462181936665122 0 0.015748378799207357 -0.0010941632926039493 0 0.015934351458727163 -0.0015874874598479274 0 0.014755438273740214 -0.0012540212285767924 0 0.015748378799207357 -0.0010941632926039493 0 0.015934351458727163 -0.0015874874598479274 0 0.016390401145263165 -0.0011047354477850657 0 0.013754674076829218 -0.000888746379193634 0 0.014976207154808432 -0.00079273784643803529 0 0.014755438273740214 -0.0012540212285767924 0 0.015934351458727163 -0.0015874874598479274 0 0.014755438273740214 -0.0012540212285767924 0 0.014580901360976327 -0.0020803191044776671 0 0.014270370549856986 -0.0011149931011568389 0 0.013719696957994205 -0.0012642824902896923 0 0.014860644869305098 -0.00091578630354002409 0 0.013545266205581229 -0.0014021686421392947 0 0.014267971604365236 -0.0019757493412761898 0 0.014860644869305098 -0.00091578630354002409 0 0.014267971604365236 -0.0019757493412761898 0 0.01576046004262301 -0.0014322508256113531 0 0.013312475765841575 -0.0026993406005515462 0 0.013246898374011795 -0.0020846718042562694 0 0.014267971604365236 -0.0019757493412761898 0 0.013246898374011795 -0.0020846718042562694 0 0.013545266205581229 -0.0014021686421392947 0 0.014267971604365236 -0.0019757493412761898 0 0.016255939297079088 -0.0019662692326986001 0 0.015332589226009575 -0.0023110918157752515 0 0.01576046004262301 -0.0014322508256113531 0 0.014267971604365236 -0.0019757493412761898 0 0.015332589226009575 -0.0023110918157752515 0 0.01576046004262301 -0.0014322508256113531 0 0.016616952421106751 -0.0012688758729430525 0 0.016255939297079088 -0.0019662692326986001 0 0.01576046004262301 -0.0014322508256113531 0 0.016616952421106751 -0.0012688758729430525 0 0.01576046004262301 -0.0014322508256113531 0 0.016345814084898644 -0.00087570386177713091 0 0.017299163110886338 -0.0018905846754132098 0 0.017331364552774873 -0.00092231515405656573 0 0.016532850364524412 -0.00073668382207741625 0 0.017242769571942526 -0.0018932887899325262 0 0.017093033215247813 -0.0016221530750476002 0 0.016616952421106751 -0.0012688758729430525 0 0.016345814084898644 -0.00087570386177713091 0 0.016532850364524412 -0.00073668382207741625 0 0.014270370549856986 -0.0011149931011568389 0 0.014493116745486964 -0.0010466540606030392 0 0.014860644869305098 -0.00091578630354002409 0 0.01576046004262301 -0.0014322508256113531 0 0.016345814084898644 -0.00087570386177713091 0 0.015934351458727163 -0.0015874874598479274 0 0.016345814084898644 -0.00087570386177713091 0 0.016390401145263165 -0.0011047354477850657 0 0.016390401145263165 -0.0011047354477850657 0 0.017084009274424099 -0.00084272144666387109 0 0.016159755538048218 -0.00065462181936665122 0 0.016345814084898644 -0.00087570386177713091 0 0.016390401145263165 -0.0011047354477850657 0 0.016532850364524412 -0.00073668382207741625 0 0.016390401145263165 -0.0011047354477850657 0 0.018032946951681509 -0.0013998618269330911 0 0.017084009274424099 -0.00084272144666387109 0 0.016390401145263165 -0.0011047354477850657 0 0.016532850364524412 -0.00073668382207741625 0 0.016770482023645866 -0.00041484841943649367 0 0.017331364552774873 -0.00092231515405656573 0 0.016532850364524412 -0.00073668382207741625 0 0.016770482023645866 -0.00041484841943649367 0 0.01847077015903003 -0.00074460375980794598 0 0.01869886220335051 -0.00069500686370366866 0 0.018510221593347084 -0.00047829880766944374 0 0.018035970312577577 -0.00083223003975063995 0 0.01726618061315505 -0.00034533610913715305 0 0.018035970312577577 -0.00083223003975063995 0 0.01726618061315505 -0.00034533610913715305 0 0.017084009274424099 -0.00084272144666387109 0 0.018032946951681509 -0.0013998618269330911 0 0.018035970312577577 -0.00083223003975063995 0 0.017084009274424099 -0.00084272144666387109 0 0.018510221593347084 -0.00047829880766944374 0 0.01726618061315505 -0.00034533610913715305 0 0.018155937006402955 4.1300653852539367e-05 0 0.01726618061315505 -0.00034533610913715305 0 0.017084009274424099 -0.00084272144666387109 0 0.016159755538048218 -0.00065462181936665122 0 0.01726618061315505 -0.00034533610913715305 0 0.016159755538048218 -0.00065462181936665122 0 0.015753575663967932 -1.1256090261997318e-05 0 0.016159755538048218 -0.00065462181936665122 0 0.015282539488960261 -0.0004233940214735353 0 0.015753575663967932 -1.1256090261997318e-05 0 0.014976207154808432 -0.00079273784643803529 0 0.016159755538048218 -0.00065462181936665122 0 0.015282539488960261 -0.0004233940214735353 0 0.014184418105745642 -0.00052285217524269479 0 0.014976207154808432 -0.00079273784643803529 0 0.015282539488960261 -0.0004233940214735353 0 0.014489340973418301 -8.4314445245807108e-05 0 0.015753575663967932 -1.1256090261997318e-05 0 0.015094118914976268 0.00084849855928621494 0 0.014489340973418301 -8.4314445245807108e-05 0 0.015282539488960261 -0.0004233940214735353 0 0.015753575663967932 -1.1256090261997318e-05 0 0.01726618061315505 -0.00034533610913715305 0 0.015753575663967932 -1.1256090261997318e-05 0 0.017462268982710295 0.00061998088216760157 0 0.015753575663967932 -1.1256090261997318e-05 0 0.015094118914976268 0.00084849855928621494 0 0.017462268982710295 0.00061998088216760157 0 0.015094118914976268 0.00084849855928621494 0 0.017462268982710295 0.00061998088216760157 0 0.016018496251247374 0.0017759375494133479 0 0.01751588204008445 0.00063022824864094099 0 0.017416373575699876 0.00080358971913485784 0 0.018608386568585829 0.00041081228961490783 0 0.017462268982710295 0.00061998088216760157 0 0.018636872470545279 0.00075573951227489206 0 0.019231216179099914 0.00055682042212185979 0 0.018608386568585829 0.00041081228961490783 0 0.018636872470545279 0.00075573951227489206 0 0.018875008022026768 -7.803000561742853e-05 0 0.018608386568585829 0.00041081228961490783 0 0.018155937006402955 4.1300653852539367e-05 0 0.018608386568585829 0.00041081228961490783 0 0.018155937006402955 4.1300653852539367e-05 0 0.017462268982710295 0.00061998088216760157 0 0.01726618061315505 -0.00034533610913715305 0 0.018155937006402955 4.1300653852539367e-05 0 0.017462268982710295 0.00061998088216760157 0 0.018636872470545279 0.00075573951227489206 0 0.018871693410014604 0.00089904051886050603 0 0.019142775736709951 0.00088256872654451978 0 0.019443029107277261 0.00072456835351968844 0 0.018636872470545279 0.00075573951227489206 0 0.019142775736709951 0.00088256872654451978 0 0.019443029107277261 0.00072456835351968844 0 0.019231216179099914 0.00055682042212185979 0 0.018636872470545279 0.00075573951227489206 0 0.017462268982710295 0.00061998088216760157 0 0.018636872470545279 0.00075573951227489206 0 0.018578164978478411 0.00080860986424121305 0 0.015094118914976268 0.00084849855928621494 0 0.016018496251247374 0.0017759375494133479 0 0.014717451202147971 0.0017814411636675324 0 0.016018496251247374 0.0017759375494133479 0 0.015137577945713562 0.0022396452911570132 0 0.014717451202147971 0.0017814411636675324 0 0.017416373575699876 0.00080358971913485784 0 0.017242318003010806 0.001069607889947889 0 0.018578164978478411 0.00080860986424121305 0 0.018871693410014604 0.00089904051886050603 0 0.019039814358666612 0.001005826519886902 0 0.018636872470545279 0.00075573951227489206 0 0.018578164978478411 0.00080860986424121305 0 0.018871693410014604 0.00089904051886050603 0 0.018871693410014604 0.00089904051886050603 0 0.018997965024756387 0.00092329520699897881 0 0.019039814358666612 0.001005826519886902 0 0.018871693410014604 0.00089904051886050603 0 0.018997965024756387 0.00092329520699897881 0 0.019096314973003556 0.00098080926663862071 0 0.018997965024756387 0.00092329520699897881 0 0.019039814358666612 0.001005826519886902 0 0.019092364501292942 0.0008540499269320558 0 0.019039814358666612 0.001005826519886902 0 0.019092364501292942 0.0008540499269320558 0 0.019383647121116246 0.00058966240250636181 0 0.019092364501292942 0.0008540499269320558 0 0.019204983815010596 0.00076701171764528169 0 0.019165857218623301 0.00089643571233803503 0 0.019092364501292942 0.0008540499269320558 0 0.019204983815010596 0.00076701171764528169 0 0.019383647121116246 0.00058966240250636181 0 0.018997965024756387 0.00092329520699897881 0 0.019085447710169141 0.00094431866175302042 0 0.019096314973003556 0.00098080926663862071 0 0.018997965024756387 0.00092329520699897881 0 0.019092364501292942 0.0008540499269320558 0 0.019085447710169141 0.00094431866175302042 0 0.019092364501292942 0.0008540499269320558 0 0.019085447710169141 0.00094431866175302042 0 0.019165857218623301 0.00089643571233803503 0 0.019085447710169141 0.00094431866175302042 0 0.019179742189289577 0.0010651948855269948 0 0.019165857218623301 0.00089643571233803503 0 0.019218506212007169 0.0010932920654175668 0 0.019096314973003556 0.00098080926663862071 0 0.019179742189289577 0.0010651948855269948 0 0.019085447710169141 0.00094431866175302042 0 0.019096314973003556 0.00098080926663862071 0 0.019179742189289577 0.0010651948855269948 0 0.019218506212007169 0.0010932920654175668 0 0.019096314973003556 0.00098080926663862071 0 0.019386468556451202 0.0010651532545200547 0 0.019096314973003556 0.00098080926663862071 0 0.019142775736709951 0.00088256872654451978 0 0.019386468556451202 0.0010651532545200547 0 0.018871693410014604 0.00089904051886050603 0 0.019096314973003556 0.00098080926663862071 0 0.019142775736709951 0.00088256872654451978 0 0.019776693902731689 0.00094270396755828201 0 0.019142775736709951 0.00088256872654451978 0 0.019386468556451202 0.0010651532545200547 0 0.019443029107277261 0.00072456835351968844 0 0.019776693902731689 0.00094270396755828201 0 0.019142775736709951 0.00088256872654451978 0 0.019995241956435462 0.001370994348404334 0 0.019776693902731689 0.00094270396755828201 0 0.019386468556451202 0.0010651532545200547 0 0.019995241956435462 0.001370994348404334 0 0.019386468556451202 0.0010651532545200547 0 0.019256169814911843 0.0012563945339156848 0 0.019218506212007169 0.0010932920654175668 0 0.019386468556451202 0.0010651532545200547 0 0.019256169814911843 0.0012563945339156848 0 0.019995241956435462 0.001370994348404334 0 0.019256169814911843 0.0012563945339156848 0 0.019524369106438962 0.0016292881440606373 0 0.022493676274855073 0.0014087255135867523 0 0.022677037790465093 0.0012857377395720821 0 0.019256169814911843 0.0012563945339156848 0 0.019138844762488012 0.0010970611411720557 0 0.019232229121074786 0.0010812441795860592 0 0.022589058889289641 0.0012283520207372091 0 0.022677037790465093 0.0012857377395720821 0 0.019256169814911843 0.0012563945339156848 0 0.019179742189289577 0.0010651948855269948 0 0.019232229121074786 0.0010812441795860592 0 0.019218506212007169 0.0010932920654175668 0 0.019256169814911843 0.0012563945339156848 0 0.019179742189289577 0.0010651948855269948 0 0.019179742189289577 0.0010651948855269948 0 0.019232229121074786 0.0010812441795860592 0 0.019227725185636271 0.00099003636981898351 0 0.019232229121074786 0.0010812441795860592 0 0.019227430567025146 0.00096629579313202917 0 0.019227725185636271 0.00099003636981898351 0 0.019227430567025146 0.00096629579313202917 0 0.019227725185636271 0.00099003636981898351 0 0.019232817812927107 0.00094851161369627736 0 0.023638594962990134 0.001475209835318183 0 0.023698632545428519 0.001550828802049892 0 0.023769224165162736 0.0014633624131071916 0 0.022677037790465093 0.0012857377395720821 0 0.022370298320639661 0.0011528659067824357 0 0.019138844762488012 0.0010970611411720557 0 0.019232229121074786 0.0010812441795860592 0 0.019227430567025146 0.00096629579313202917 0 0.023263101860713668 0.0016153972790178552 0 0.022677037790465093 0.0012857377395720821 0 0.023638594962990134 0.001475209835318183 0 0.023769224165162736 0.0014633624131071916 0 0.023695831841304985 0.0013669333710532251 0 0.023769224165162736 0.0014633624131071916 0 0.023695831841304985 0.0013669333710532251 0 0.023839697884567339 0.0013754928525205176 0 0.019227430567025146 0.00096629579313202917 0 0.01923521127447024 0.00096768250597843827 0 0.019232817812927107 0.00094851161369627736 0 0.022370298320639661 0.0011528659067824357 0 0.022257737939027435 0.00087293142056551793 0 0.023695831841304985 0.0013669333710532251 0 0.023839697884567339 0.0013754928525205176 0 0.023761521304982703 0.0012890365328727179 0 0.023839697884567339 0.0013754928525205176 0 0.023837364555768535 0.0012432175825550979 0 0.023761521304982703 0.0012890365328727179 0 0.023695831841304985 0.0013669333710532251 0 0.023761521304982703 0.0012890365328727179 0 0.023656221604269688 0.0012324301363015144 0 0.021778547773058269 0.00023800529881181132 0 0.022340704916077363 0.00040485724120110711 0 0.020328041667427171 -0.0010031437661883473 0 0.020037933956452227 -0.00096088989913409393 0 0.02019681741435022 -0.00095203373982391342 0 0.020328041667427171 -0.0010031437661883473 0 0.020037933956452227 -0.00096088989913409393 0 0.02026537015626435 -0.0010169025333531014 0 0.01923521127447024 0.00096768250597843827 0 0.019206788495821098 0.00096646155447336214 0 0.019219801013376989 0.00099123714461233476 0 0.022257737939027435 0.00087293142056551793 0 0.022340704916077363 0.00040485724120110711 0 0.023839697884567339 0.0013754928525205176 0 0.023837364555768535 0.0012432175825550979 0 0.023911059731227379 0.0012866887459259246 0 0.01923521127447024 0.00096768250597843827 0 0.019206788495821098 0.00096646155447336214 0 0.019232817812927107 0.00094851161369627736 0 0.021778547773058269 0.00023800529881181132 0 0.021472404334617372 0.00023982814654991053 0 0.020037933956452227 -0.00096088989913409393 0 0.019548730357031169 -0.00064124310454139431 0 0.019954201978831899 -0.00094340503145100047 0 0.019179643320825317 0.00089069545287384937 0 0.019232817812927107 0.00094851161369627736 0 0.019219201188844563 0.00089567648072058279 0 0.019206788495821098 0.00096646155447336214 0 0.019179643320825317 0.00089069545287384937 0 0.019232817812927107 0.00094851161369627736 0 0.019227725185636271 0.00099003636981898351 0 0.019232817812927107 0.00094851161369627736 0 0.019219201188844563 0.00089567648072058279 0 0.019227725185636271 0.00099003636981898351 0 0.019219201188844563 0.00089567648072058279 0 0.019165857218623301 0.00089643571233803503 0 0.019219201188844563 0.00089567648072058279 0 0.019165857218623301 0.00089643571233803503 0 0.019227426865847528 0.00078730273849964753 0 0.019179742189289577 0.0010651948855269948 0 0.019227725185636271 0.00099003636981898351 0 0.019165857218623301 0.00089643571233803503 0 0.021472404334617372 0.00023982814654991053 0 0.021380270277331422 0.00027811206458814273 0 0.019179643320825317 0.00089069545287384937 0 0.019227426865847528 0.00078730273849964753 0 0.019383647121116246 0.00058966240250636181 0 0.019179643320825317 0.00089069545287384937 0 0.019219201188844563 0.00089567648072058279 0 0.019227426865847528 0.00078730273849964753 0 0.019204983815010596 0.00076701171764528169 0 0.019165857218623301 0.00089643571233803503 0 0.019227426865847528 0.00078730273849964753 0 0.019204983815010596 0.00076701171764528169 0 0.019227426865847528 0.00078730273849964753 0 0.019383647121116246 0.00058966240250636181 0 0.019756383886859522 -0.00030451112611917574 0 0.019383647121116246 0.00058966240250636181 0 0.019740707731673152 0.00058386308659151977 0 0.019548730357031169 -0.00064124310454139431 0 0.019756383886859522 -0.00030451112611917574 0 0.019383647121116246 0.00058966240250636181 0 0.019756383886859522 -0.00030451112611917574 0 0.020275232670418204 -0.0010120247867915736 0 0.019740707731673152 0.00058386308659151977 0 0.016909582434451592 0.0013996277951738645 0 0.017085980111619901 0.0012493430074901903 0 0.014250150309576926 0.002530924264950188 0 0.014323396171117123 0.0027440173376852357 0 0.014580004166480321 0.0025200194570689487 0 0.019548730357031169 -0.00064124310454139431 0 0.019756383886859522 -0.00030451112611917574 0 0.019954201978831899 -0.00094340503145100047 0 0.019756383886859522 -0.00030451112611917574 0 0.020275232670418204 -0.0010120247867915736 0 0.019954201978831899 -0.00094340503145100047 0 0.019954201978831899 -0.00094340503145100047 0 0.020041717537444433 -0.0010125004254105186 0 0.02019681741435022 -0.00095203373982391342 0 0.020037933956452227 -0.00096088989913409393 0 0.019954201978831899 -0.00094340503145100047 0 0.02019681741435022 -0.00095203373982391342 0 0.020275232670418204 -0.0010120247867915736 0 0.019954201978831899 -0.00094340503145100047 0 0.020041717537444433 -0.0010125004254105186 0 0.020275232670418204 -0.0010120247867915736 0 0.01977176451885692 -0.0010180126585497341 0 0.020041717537444433 -0.0010125004254105186 0 0.020275232670418204 -0.0010120247867915736 0 0.01977176451885692 -0.0010180126585497341 0 0.018676334275452199 -0.001018169393955965 0 0.01977176451885692 -0.0010180126585497341 0 0.020041717537444433 -0.0010125004254105186 0 0.020175671988199022 -0.00079278766283801178 0 0.01977176451885692 -0.0010180126585497341 0 0.020175671988199022 -0.00079278766283801178 0 0.018676334275452199 -0.001018169393955965 0 0.020328041667427171 -0.0010031437661883473 0 0.02019681741435022 -0.00095203373982391342 0 0.020421389457411985 -0.001027506154830038 0 0.020175671988199022 -0.00079278766283801178 0 0.02019681741435022 -0.00095203373982391342 0 0.020421389457411985 -0.001027506154830038 0 0.020041717537444433 -0.0010125004254105186 0 0.020175671988199022 -0.00079278766283801178 0 0.02019681741435022 -0.00095203373982391342 0 0.014523982409976348 0.0017257704639794848 0 0.014569230968402059 0.0016574227371727798 0 0.015187994633797466 0.0024857210284123204 0 0.014574241108459214 0.0029030498904656448 0 0.016132549143931297 0.0024446541285000792 0 0.015740612349784154 0.0021789468333636955 0 0.015187994633797466 0.0024857210284123204 0 0.016132549143931297 0.0024446541285000792 0 0.015740612349784154 0.0021789468333636955 0 0.016132549143931297 0.0024446541285000792 0 0.016107418699304193 0.0020188846212292003 0 0.015187994633797466 0.0024857210284123204 0 0.014468790330122234 0.0027927796540034573 0 0.016468650642555444 0.001656497087304795 0 0.020175671988199022 -0.00079278766283801178 0 0.018676334275452199 -0.001018169393955965 0 0.017315484253151082 0.0014930386122318244 0 0.015187994633797466 0.0024857210284123204 0 0.014468790330122234 0.0027927796540034573 0 0.014574241108459214 0.0029030498904656448 0 0.014323396171117123 0.0027440173376852357 0 0.014468790330122234 0.0027927796540034573 0 0.014276602723372785 0.0027702096386228291 0 0.014468790330122234 0.0027927796540034573 0 0.014574241108459214 0.0029030498904656448 0 0.014276602723372785 0.0027702096386228291 0 0.016909582434451592 0.0013996277951738645 0 0.016685069187036165 0.0016316081589663742 0 0.014574241108459214 0.0029030498904656448 0 0.013979379485198276 0.0028256474988478109 0 0.013672330094368704 0.0033034342842313317 0 0.014574241108459214 0.0029030498904656448 0 0.013979379485198276 0.0028256474988478109 0 0.014276602723372785 0.0027702096386228291 0 0.013979379485198276 0.0028256474988478109 0 0.01382566409894098 0.0025914541409202017 0 0.013511926648574858 0.0026908341100440511 0 0.013979379485198276 0.0028256474988478109 0 0.01382566409894098 0.0025914541409202017 0 0.014276602723372785 0.0027702096386228291 0 0.01382566409894098 0.0025914541409202017 0 0.014276602723372785 0.0027702096386228291 0 0.014100796245800887 0.0025889475262330184 0 0.014323396171117123 0.0027440173376852357 0 0.014276602723372785 0.0027702096386228291 0 0.014100796245800887 0.0025889475262330184 0 0.014250150309576926 0.002530924264950188 0 0.014100796245800887 0.0025889475262330184 0 0.013930550463859194 0.0023602061003135653 0 0.014250150309576926 0.002530924264950188 0 0.014323396171117123 0.0027440173376852357 0 0.014100796245800887 0.0025889475262330184 0 0.01382566409894098 0.0025914541409202017 0 0.014100796245800887 0.0025889475262330184 0 0.013677255439301329 0.0024101061123101243 0 0.01382566409894098 0.0025914541409202017 0 0.013677255439301329 0.0024101061123101243 0 0.013365670295291836 0.0024271723658187117 0 0.014100796245800887 0.0025889475262330184 0 0.013677255439301329 0.0024101061123101243 0 0.013930550463859194 0.0023602061003135653 0 0.013677255439301329 0.0024101061123101243 0 0.013597108777057183 0.002187544846705582 0 0.013930550463859194 0.0023602061003135653 0 0.013597108777057183 0.002187544846705582 0 0.013981471529864722 0.0021722452404178642 0 0.013930550463859194 0.0023602061003135653 0 0.013597108777057183 0.002187544846705582 0 0.013981471529864722 0.0021722452404178642 0 0.013834868372903378 0.0018527395103596748 0 0.013597108777057183 0.002187544846705582 0 0.013834868372903378 0.0018527395103596748 0 0.013378202396146175 0.0018321230710225485 0 0.013981471529864722 0.0021722452404178642 0 0.014257519797991574 0.002036127653887808 0 0.013834868372903378 0.0018527395103596748 0 0.013981471529864722 0.0021722452404178642 0 0.013930550463859194 0.0023602061003135653 0 0.01428296707594038 0.0023685199931071242 0 0.014250150309576926 0.002530924264950188 0 0.013930550463859194 0.0023602061003135653 0 0.01428296707594038 0.0023685199931071242 0 0.01428296707594038 0.0023685199931071242 0 0.014580004166480321 0.0025200194570689487 0 0.01458814794027065 0.0022477241569794069 0 0.014250150309576926 0.002530924264950188 0 0.01428296707594038 0.0023685199931071242 0 0.014580004166480321 0.0025200194570689487 0 0.017242318003010806 0.001069607889947889 0 0.017085980111619901 0.0012493430074901903 0 0.019039814358666612 0.001005826519886902 0 0.019383647121116246 0.00058966240250636181 0 0.019740707731673152 0.00058386308659151977 0 0.015137577945713562 0.0022396452911570132 0 0.014580004166480321 0.0025200194570689487 0 0.01458814794027065 0.0022477241569794069 0 0.01428296707594038 0.0023685199931071242 0 0.01458814794027065 0.0022477241569794069 0 0.014257519797991574 0.002036127653887808 0 0.013981471529864722 0.0021722452404178642 0 0.01428296707594038 0.0023685199931071242 0 0.014257519797991574 0.002036127653887808 0 0.01458814794027065 0.0022477241569794069 0 0.014257519797991574 0.002036127653887808 0 0.014717451202147971 0.0017814411636675324 0 0.014257519797991574 0.002036127653887808 0 0.014717451202147971 0.0017814411636675324 0 0.014098829739759329 0.0016316497816009051 0 0.015137577945713562 0.0022396452911570132 0 0.01458814794027065 0.0022477241569794069 0 0.014717451202147971 0.0017814411636675324 0 0.014085620458086605 0.0010884969707997208 0 0.014717451202147971 0.0017814411636675324 0 0.014098829739759329 0.0016316497816009051 0 0.014085620458086605 0.0010884969707997208 0 0.014098829739759329 0.0016316497816009051 0 0.013565155818112466 0.0013753225177120657 0 0.013565155818112466 0.0013753225177120657 0 0.013834868372903378 0.0018527395103596748 0 0.013378202396146175 0.0018321230710225485 0 0.014098829739759329 0.0016316497816009051 0 0.013565155818112466 0.0013753225177120657 0 0.013834868372903378 0.0018527395103596748 0 0.014257519797991574 0.002036127653887808 0 0.014098829739759329 0.0016316497816009051 0 0.013834868372903378 0.0018527395103596748 0 0.012927435688610329 0.0019433185434830152 0 0.013061444538768329 0.0014808602974875783 0 0.012673728454948534 0.0016133377075835185 0 0.012927435688610329 0.0019433185434830152 0 0.013378202396146175 0.0018321230710225485 0 0.013061444538768329 0.0014808602974875783 0 0.013565155818112466 0.0013753225177120657 0 0.013378202396146175 0.0018321230710225485 0 0.013061444538768329 0.0014808602974875783 0 0.013091873206796724 0.00096439052571133143 0 0.013565155818112466 0.0013753225177120657 0 0.013061444538768329 0.0014808602974875783 0 0.012660043262122615 0.00082136147681628117 0 0.013061444538768329 0.0014808602974875783 0 0.012673728454948534 0.0016133377075835185 0 0.011874384029888822 0.0010560472631333669 0 0.012673728454948534 0.0016133377075835185 0 0.012231293042240271 0.001781096886137294 0 0.011874384029888822 0.0010560472631333669 0 0.012660043262122615 0.00082136147681628117 0 0.012673728454948534 0.0016133377075835185 0 0.011874384029888822 0.0010560472631333669 0 0.012231293042240271 0.001781096886137294 0 0.011567253869496063 0.0014714872168512681 0 0.012231293042240271 0.001781096886137294 0 0.012587514548964849 0.0024790041889613456 0 0.011892006551586806 0.0020829379631084649 0 0.012231293042240271 0.001781096886137294 0 0.012669123403097128 0.0020849445186209284 0 0.012587514548964849 0.0024790041889613456 0 0.012231293042240271 0.001781096886137294 0 0.011892006551586806 0.0020829379631084649 0 0.011567253869496063 0.0014714872168512681 0 0.012673728454948534 0.0016133377075835185 0 0.012231293042240271 0.001781096886137294 0 0.012669123403097128 0.0020849445186209284 0 0.012927435688610329 0.0019433185434830152 0 0.012673728454948534 0.0016133377075835185 0 0.012669123403097128 0.0020849445186209284 0 0.012669123403097128 0.0020849445186209284 0 0.01285537480866141 0.0023369021517345924 0 0.012587514548964849 0.0024790041889613456 0 0.012927435688610329 0.0019433185434830152 0 0.012669123403097128 0.0020849445186209284 0 0.01285537480866141 0.0023369021517345924 0 0.012587514548964849 0.0024790041889613456 0 0.012820844465569461 0.0027350860457097653 0 0.012400729991268995 0.0026863288102270295 0 0.012587514548964849 0.0024790041889613456 0 0.012881423506125964 0.0025088618957392651 0 0.012820844465569461 0.0027350860457097653 0 0.01285537480866141 0.0023369021517345924 0 0.012587514548964849 0.0024790041889613456 0 0.012881423506125964 0.0025088618957392651 0 0.01285537480866141 0.0023369021517345924 0 0.012881423506125964 0.0025088618957392651 0 0.01301235702276528 0.0023698741570530191 0 0.01285537480866141 0.0023369021517345924 0 0.01301235702276528 0.0023698741570530191 0 0.013150857415657892 0.0021847071872353966 0 0.01301235702276528 0.0023698741570530191 0 0.013150857415657892 0.0021847071872353966 0 0.013282797651601399 0.0023316103729117354 0 0.012927435688610329 0.0019433185434830152 0 0.01285537480866141 0.0023369021517345924 0 0.013150857415657892 0.0021847071872353966 0 0.012927435688610329 0.0019433185434830152 0 0.013378202396146175 0.0018321230710225485 0 0.013150857415657892 0.0021847071872353966 0 0.013597108777057183 0.002187544846705582 0 0.013378202396146175 0.0018321230710225485 0 0.013150857415657892 0.0021847071872353966 0 0.013597108777057183 0.002187544846705582 0 0.013150857415657892 0.0021847071872353966 0 0.013282797651601399 0.0023316103729117354 0 0.013677255439301329 0.0024101061123101243 0 0.013597108777057183 0.002187544846705582 0 0.013282797651601399 0.0023316103729117354 0 0.013282797651601399 0.0023316103729117354 0 0.013365670295291836 0.0024271723658187117 0 0.013087336963552357 0.0023719828778529231 0 0.013677255439301329 0.0024101061123101243 0 0.013282797651601399 0.0023316103729117354 0 0.013365670295291836 0.0024271723658187117 0 0.013087336963552357 0.0023719828778529231 0 0.012959967312713047 0.0023649588085808107 0 0.012975867651838533 0.0023495500847997186 0 0.01301235702276528 0.0023698741570530191 0 0.013087336963552357 0.0023719828778529231 0 0.012975867651838533 0.0023495500847997186 0 0.01301235702276528 0.0023698741570530191 0 0.013282797651601399 0.0023316103729117354 0 0.013087336963552357 0.0023719828778529231 0 0.013365670295291836 0.0024271723658187117 0 0.013087336963552357 0.0023719828778529231 0 0.012959967312713047 0.0023649588085808107 0 0.01382566409894098 0.0025914541409202017 0 0.013365670295291836 0.0024271723658187117 0 0.013511926648574858 0.0026908341100440511 0 0.013365670295291836 0.0024271723658187117 0 0.012959967312713047 0.0023649588085808107 0 0.013511926648574858 0.0026908341100440511 0 0.013979379485198276 0.0028256474988478109 0 0.013511926648574858 0.0026908341100440511 0 0.013672330094368704 0.0033034342842313317 0 0.013511926648574858 0.0026908341100440511 0 0.013110651766706892 0.0029622153550453814 0 0.013672330094368704 0.0033034342842313317 0 0.012959967312713047 0.0023649588085808107 0 0.013511926648574858 0.0026908341100440511 0 0.013110651766706892 0.0029622153550453814 0 0.012959967312713047 0.0023649588085808107 0 0.013110651766706892 0.0029622153550453814 0 0.012528944729805834 0.0030036211714349931 0 0.01435690484671286 0.0016862204590092752 0 0.014497444972580298 0.0015538683829864812 0 0.013110651766706892 0.0029622153550453814 0 0.012905265103155688 0.0034704488940734053 0 0.012528944729805834 0.0030036211714349931 0 0.01467904400903719 0.0014522255594560016 0 0.014569230968402059 0.0016574227371727798 0 0.013110651766706892 0.0029622153550453814 0 0.012905265103155688 0.0034704488940734053 0 0.013672330094368704 0.0033034342842313317 0 0.016137901705812693 0.0021405247131659204 0 0.016132549143931297 0.0024446541285000792 0 0.016114088614102434 0.0020685624676380432 0 0.016132549143931297 0.0024446541285000792 0 0.016107418699304193 0.0020188846212292003 0 0.016114088614102434 0.0020685624676380432 0 0.015000876307779054 0.0010711963160606232 0 0.014881068175166746 0.0010189211143561835 0 0.014221700296594118 0.00036162601032981489 0 0.013939679611681787 0.0004364160970581674 0 0.014196163294991475 0.0011262802389083156 0 0.013261320520511164 0.0007317348945729841 0 0.013368497920743332 0.0014530395481879746 0 0.014196163294991475 0.0011262802389083156 0 0.014969202045717497 0.0010696547504375231 0 0.015000876307779054 0.0010711963160606232 0 0.01467904400903719 0.0014522255594560016 0 0.015000876307779054 0.0010711963160606232 0 0.013261320520511164 0.0007317348945729841 0 0.012914302787408035 0.001515738249724506 0 0.013368497920743332 0.0014530395481879746 0 0.015000876307779054 0.0010711963160606232 0 0.014497444972580298 0.0015538683829864812 0 0.012905265103155688 0.0034704488940734053 0 0.012101803696001735 0.0035923004681848356 0 0.012528944729805834 0.0030036211714349931 0 0.012959967312713047 0.0023649588085808107 0 0.012914302787408035 0.001515738249724506 0 0.013117637218083518 0.0020302998139476078 0 0.012914302787408035 0.001515738249724506 0 0.013368497920743332 0.0014530395481879746 0 0.013117637218083518 0.0020302998139476078 0 0.013368497920743332 0.0014530395481879746 0 0.013533770442540262 0.0017494390326319542 0 0.014196163294991475 0.0011262802389083156 0 0.013368497920743332 0.0014530395481879746 0 0.013533770442540262 0.0017494390326319542 0 0.013117637218083518 0.0020302998139476078 0 0.013533770442540262 0.0017494390326319542 0 0.01317937069507358 0.0022735858944937038 0 0.013825519439475973 0.0018319530130205678 0 0.013533770442540262 0.0017494390326319542 0 0.013117637218083518 0.0020302998139476078 0 0.01317937069507358 0.0022735858944937038 0 0.013117637218083518 0.0020302998139476078 0 0.012975867651838533 0.0023495500847997186 0 0.01317937069507358 0.0022735858944937038 0 0.012959967312713047 0.0023649588085808107 0 0.013117637218083518 0.0020302998139476078 0 0.012975867651838533 0.0023495500847997186 0 0.012881423506125964 0.0025088618957392651 0 0.012975867651838533 0.0023495500847997186 0 0.01317937069507358 0.0022735858944937038 0 0.012881423506125964 0.0025088618957392651 0 0.01301235702276528 0.0023698741570530191 0 0.012975867651838533 0.0023495500847997186 0 0.012881423506125964 0.0025088618957392651 0 0.01317937069507358 0.0022735858944937038 0 0.012820844465569461 0.0027350860457097653 0 0.01317937069507358 0.0022735858944937038 0 0.013704273203879184 0.0023289706071897651 0 0.013825519439475973 0.0018319530130205678 0 0.01317937069507358 0.0022735858944937038 0 0.013704273203879184 0.0023289706071897651 0 0.012820844465569461 0.0027350860457097653 0 0.013704273203879184 0.0023289706071897651 0 0.014623618501482938 0.0015517565795983791 0 0.015193979539649544 0.0023846692534100224 0 0.013704273203879184 0.0023289706071897651 0 0.015193979539649544 0.0023846692534100224 0 0.013914794313874221 0.0027826849137150673 0 0.014623618501482938 0.0015517565795983791 0 0.013825519439475973 0.0018319530130205678 0 0.014196163294991475 0.0011262802389083156 0 0.013704273203879184 0.0023289706071897651 0 0.014623618501482938 0.0015517565795983791 0 0.013825519439475973 0.0018319530130205678 0 0.013533770442540262 0.0017494390326319542 0 0.013825519439475973 0.0018319530130205678 0 0.014196163294991475 0.0011262802389083156 0 0.014196163294991475 0.0011262802389083156 0 0.015166573683480469 0.00095691492112837074 0 0.015094274064788849 0.00056774207372405723 0 0.014623618501482938 0.0015517565795983791 0 0.015166573683480469 0.00095691492112837074 0 0.015625423501324422 0.0010520770655294536 0 0.014623618501482938 0.0015517565795983791 0 0.014196163294991475 0.0011262802389083156 0 0.015166573683480469 0.00095691492112837074 0 0.015094274064788849 0.00056774207372405723 0 0.015963394938873821 0.00057333373537640938 0 0.015950205110242841 0.00022945982954902016 0 0.015166573683480469 0.00095691492112837074 0 0.015094274064788849 0.00056774207372405723 0 0.015963394938873821 0.00057333373537640938 0 0.015094274064788849 0.00056774207372405723 0 0.015950205110242841 0.00022945982954902016 0 0.015421754867084541 8.2586763857721838e-05 0 0.015094274064788849 0.00056774207372405723 0 0.014960925030407819 0.00018172278370366307 0 0.015421754867084541 8.2586763857721838e-05 0 0.014196163294991475 0.0011262802389083156 0 0.015094274064788849 0.00056774207372405723 0 0.014618300221686861 0.00046274398397564635 0 0.014221700296594118 0.00036162601032981489 0 0.014196163294991475 0.0011262802389083156 0 0.014618300221686861 0.00046274398397564635 0 0.015094274064788849 0.00056774207372405723 0 0.014618300221686861 0.00046274398397564635 0 0.014960925030407819 0.00018172278370366307 0 0.016765411109332051 0.00024994107162754824 0 0.015963394938873821 0.00057333373537640938 0 0.016349707785516383 1.9686006946891171e-06 0 0.016765411109332051 0.00024994107162754824 0 0.016349707785516383 1.9686006946891171e-06 0 0.017626277213390631 5.0146165743144525e-07 0 0.016765411109332051 0.00024994107162754824 0 0.015963394938873821 0.00057333373537640938 0 0.015950205110242841 0.00022945982954902016 0 0.015963394938873821 0.00057333373537640938 0 0.015625423501324422 0.0010520770655294536 0 0.016349707785516383 1.9686006946891171e-06 0 0.015166573683480469 0.00095691492112837074 0 0.015963394938873821 0.00057333373537640938 0 0.015625423501324422 0.0010520770655294536 0 0.016346129589202243 -4.1609285785770721e-07 0 0.014677413449935086 9.1423180028477649e-05 0 0.015191546725458142 4.0120021886401237e-07 0 0.016342880984164674 5.0012890163169303e-07 0 0.015223291497401979 0.00040096860767753739 0 0.015625423501324422 0.0010520770655294536 0 0.016349707785516383 1.9686006946891171e-06 0 0.016071521358035395 0.0013856055131000568 0 0.014677413449935086 9.1423180028477649e-05 0 0.015191546725458142 4.0120021886401237e-07 0 0.014038909095200098 -3.7574875635823988e-07 0 0.014623618501482938 0.0015517565795983791 0 0.015625423501324422 0.0010520770655294536 0 0.015193979539649544 0.0023846692534100224 0 0.015625423501324422 0.0010520770655294536 0 0.016071521358035395 0.0013856055131000568 0 0.015193979539649544 0.0023846692534100224 0 0.015223291497401979 0.00040096860767753739 0 0.0141969091478211 0.00054570040976632686 0 0.014677413449935086 9.1423180028477649e-05 0 0.014038909095200098 -3.7574875635823988e-07 0 0.014424603105158409 -0.00027928612235804699 0 0.014677413449935086 9.1423180028477649e-05 0 0.014718635365173481 -0.00030695232911243358 0 0.014424603105158409 -0.00027928612235804699 0 0.014030923873004409 3.5433034663646156e-06 0 0.01307992385447684 0.00011322273485331461 0 0.014038909095200098 -3.7574875635823988e-07 0 0.014424603105158409 -0.00027928612235804699 0 0.014167792672747042 -0.00054696954424169654 0 0.014718635365173481 -0.00030695232911243358 0 0.014424603105158409 -0.00027928612235804699 0 0.014524357900161428 -0.00060828719274225521 0 0.014167792672747042 -0.00054696954424169654 0 0.014524357900161428 -0.00060828719274225521 0 0.014209394309915005 -0.00097816633697908758 0 0.01307992385447684 0.00011322273485331461 0 0.012110595453111319 8.9563224913169885e-05 0 0.012874024358961877 4.5588321737007732e-08 0 0.011686559227241933 -4.4608406165898843e-08 0 0.011743637088774015 -1.2237100873198999e-06 0 0.014424603105158409 -0.00027928612235804699 0 0.014167792672747042 -0.00054696954424169654 0 0.014524357900161428 -0.00060828719274225521 0 0.014524357900161428 -0.00060828719274225521 0 0.014209394309915005 -0.00097816633697908758 0 0.014619181642496077 -0.00091692460103031672 0 0.0083691844170313053 0.0031358973496345317 0 0.0091333096618201343 0.0024874658927727306 0 0.008472452285608013 0.0017450713013541016 0 0.012110595453111319 8.9563224913169885e-05 0 0.011713757791393487 0.00069189496521038761 0 0.01168510174172366 -3.1654029736941862e-07 0 0.011631435256177746 -8.8542692259061141e-06 0 0.010160406807427006 -2.9614105643049032e-05 0 0.011693374772858539 2.1127644355988038e-06 0 0.012110595453111319 8.9563224913169885e-05 0 0.012110595453111319 8.9563224913169885e-05 0 0.012550055007984097 0.000386808310788073 0 0.0083691844170313053 0.0031358973496345317 0 0.0091333096618201343 0.0024874658927727306 0 0.0094083697507071455 0.0032942250084015165 0 0.010069434010680023 0.0028587548873655749 0 0.010587114653150492 0.0024326222767719688 0 0.0098701027615729891 0.0021657502385681775 0 0.0091333096618201343 0.0024874658927727306 0 0.010069434010680023 0.0028587548873655749 0 0.0098701027615729891 0.0021657502385681775 0 0.0091333096618201343 0.0024874658927727306 0 0.010069434010680023 0.0028587548873655749 0 0.0094083697507071455 0.0032942250084015165 0 0.012550055007984097 0.000386808310788073 0 0.013072879139510949 0.00065402109264316914 0 0.010069434010680023 0.0028587548873655749 0 0.0094083697507071455 0.0032942250084015165 0 0.010659916343875567 0.0034595750664853761 0 0.014524357900161428 -0.00060828719274225521 0 0.014619181642496077 -0.00091692460103031672 0 0.015018514531227821 -0.00085934964627965374 0 0.014718635365173481 -0.00030695232911243358 0 0.014524357900161428 -0.00060828719274225521 0 0.015018514531227821 -0.00085934964627965374 0 0.0141969091478211 0.00054570040976632686 0 0.013072879139510949 0.00065402109264316914 0 0.013704273203879184 0.0023289706071897651 0 0.013914794313874221 0.0027826849137150673 0 0.012643673374411012 0.003180462380666129 0 0.015193979539649544 0.0023846692534100224 0 0.013914794313874221 0.0027826849137150673 0 0.014255581994851142 0.0036327841828445173 0 0.013914794313874221 0.0027826849137150673 0 0.012643673374411012 0.003180462380666129 0 0.014255581994851142 0.0036327841828445173 0 0.013030813784718574 0.00070925464422113313 0 0.013072879139510949 0.00065402109264316914 0 0.013704273203879184 0.0023289706071897651 0 0.012820844465569461 0.0027350860457097653 0 0.012643673374411012 0.003180462380666129 0 0.012820844465569461 0.0027350860457097653 0 0.012643673374411012 0.003180462380666129 0 0.012400729991268995 0.0026863288102270295 0 0.012643673374411012 0.003180462380666129 0 0.012400729991268995 0.0026863288102270295 0 0.011858715108985113 0.0024588026618043157 0 0.012400729991268995 0.0026863288102270295 0 0.011858715108985113 0.0024588026618043157 0 0.011892006551586806 0.0020829379631084649 0 0.012587514548964849 0.0024790041889613456 0 0.012400729991268995 0.0026863288102270295 0 0.011892006551586806 0.0020829379631084649 0 0.010069434010680023 0.0028587548873655749 0 0.011003065936265356 0.0028434714981304264 0 0.010659916343875567 0.0034595750664853761 0 0.01304061289121578 0.00070610891222306434 0 0.013072879139510949 0.00065402109264316914 0 0.012643673374411012 0.003180462380666129 0 0.011003065936265356 0.0028434714981304264 0 0.010671300442355184 0.0034775956158419243 0 0.012643673374411012 0.003180462380666129 0 0.011858715108985113 0.0024588026618043157 0 0.011003065936265356 0.0028434714981304264 0 0.011858715108985113 0.0024588026618043157 0 0.011003065936265356 0.0028434714981304264 0 0.011145190731148906 0.0024274317146248305 0 0.010069434010680023 0.0028587548873655749 0 0.011003065936265356 0.0028434714981304264 0 0.010587114653150492 0.0024326222767719688 0 0.011003065936265356 0.0028434714981304264 0 0.011145190731148906 0.0024274317146248305 0 0.010587114653150492 0.0024326222767719688 0 0.010793578241910256 0.0019791347252701244 0 0.011892006551586806 0.0020829379631084649 0 0.010882418345089771 0.0014365859598362903 0 0.011145190731148906 0.0024274317146248305 0 0.010587114653150492 0.0024326222767719688 0 0.010793578241910256 0.0019791347252701244 0 0.010587114653150492 0.0024326222767719688 0 0.010793578241910256 0.0019791347252701244 0 0.0098701027615729891 0.0021657502385681775 0 0.011858715108985113 0.0024588026618043157 0 0.011145190731148906 0.0024274317146248305 0 0.010793578241910256 0.0019791347252701244 0 0.010793578241910256 0.0019791347252701244 0 0.010882418345089771 0.0014365859598362903 0 0.010020777673318068 0.0013324378250280944 0 0.011858715108985113 0.0024588026618043157 0 0.010793578241910256 0.0019791347252701244 0 0.011892006551586806 0.0020829379631084649 0 0.011892006551586806 0.0020829379631084649 0 0.011567253869496063 0.0014714872168512681 0 0.010882418345089771 0.0014365859598362903 0 0.01079859706321146 0.00093616486525940987 0 0.011874384029888822 0.0010560472631333669 0 0.011567253869496063 0.0014714872168512681 0 0.01079859706321146 0.00093616486525940987 0 0.011567253869496063 0.0014714872168512681 0 0.010882418345089771 0.0014365859598362903 0 0.010882418345089771 0.0014365859598362903 0 0.010122576142567565 0.00098925813612805958 0 0.010020777673318068 0.0013324378250280944 0 0.01079859706321146 0.00093616486525940987 0 0.010882418345089771 0.0014365859598362903 0 0.010122576142567565 0.00098925813612805958 0 0.010122576142567565 0.00098925813612805958 0 0.009353661222144663 0.00078651384197331352 0 0.010020777673318068 0.0013324378250280944 0 0.009353661222144663 0.00078651384197331352 0 0.010020777673318068 0.0013324378250280944 0 0.0091762704797179705 0.0011453076594418572 0 0.010020777673318068 0.0013324378250280944 0 0.0091762704797179705 0.0011453076594418572 0 0.0097385721411528264 0.0016199087045193346 0 0.0085973736333131955 0.00026295725385659311 0 0.0091762704797179705 0.0011453076594418572 0 0.008472452285608013 0.0017450713013541016 0 0.011575207089512634 0.00082798371871374186 0 0.011713757791393487 0.00069189496521038761 0 0.0085973736333131955 0.00026295725385659311 0 0.009353661222144663 0.00078651384197331352 0 0.0091762704797179705 0.0011453076594418572 0 0.0085973736333131955 0.00026295725385659311 0 0.0096169696413332551 2.3426314546415882e-07 0 0.010160406807427006 -2.9614105643049032e-05 0 0.0091762704797179705 0.0011453076594418572 0 0.008472452285608013 0.0017450713013541016 0 0.0092624299373970966 0.0018131591852654405 0 0.01168510174172366 -3.1654029736941862e-07 0 0.0096169696413332551 2.3426314546415882e-07 0 0.010160406807427006 -2.9614105643049032e-05 0 0.0091333096618201343 0.0024874658927727306 0 0.008472452285608013 0.0017450713013541016 0 0.0092624299373970966 0.0018131591852654405 0 0.0091333096618201343 0.0024874658927727306 0 0.0098701027615729891 0.0021657502385681775 0 0.0092624299373970966 0.0018131591852654405 0 0.010793578241910256 0.0019791347252701244 0 0.0098701027615729891 0.0021657502385681775 0 0.0097385721411528264 0.0016199087045193346 0 0.010793578241910256 0.0019791347252701244 0 0.010020777673318068 0.0013324378250280944 0 0.0097385721411528264 0.0016199087045193346 0 0.0091762704797179705 0.0011453076594418572 0 0.0097385721411528264 0.0016199087045193346 0 0.0092624299373970966 0.0018131591852654405 0 0.0098701027615729891 0.0021657502385681775 0 0.0097385721411528264 0.0016199087045193346 0 0.0092624299373970966 0.0018131591852654405 0 0.025328232888020382 0.00015643294696686386 0 0.025008704034947149 0.00010733471940620437 0 0.024078893379174834 0.0001040001442962847 0 0.025328232888020382 0.00015643294696686386 0 0.025095494357469651 3.332261709609187e-07 0 0.024078893379174834 0.0001040001442962847 0 0.025095494357469651 3.332261709609187e-07 0 0.026347577517448054 0.00026421868394975906 0 0.027157632167481811 5.0449308771821767e-07 0 0.025328232888020382 0.00015643294696686386 0 0.025095494357469651 3.332261709609187e-07 0 0.026347577517448054 0.00026421868394975906 0 0.025328232888020382 0.00015643294696686386 0 0.026249938748549979 0.00034239489643671396 0 0.026347577517448054 0.00026421868394975906 0 0.026249938748549979 0.00034239489643671396 0 0.026188852204088897 0.00056217510899515117 0 0.026195613241986465 0.00037003512533378681 0 0.025328232888020382 0.00015643294696686386 0 0.026249938748549979 0.00034239489643671396 0 0.025008704034947149 0.00010733471940620437 0 0.026249938748549979 0.00034239489643671396 0 0.026188852204088897 0.00056217510899515117 0 0.026335278121773401 0.00055395758423198321 0 0.023587268075900541 0.0010709207912457947 0 0.023410482048953549 0.00099285341990927459 0 0.026335278121773401 0.00055395758423198321 0 0.02626076596681522 0.00067561535928897408 0 0.026377766657417132 0.00075135993108450881 0 0.026188852204088897 0.00056217510899515117 0 0.026335278121773401 0.00055395758423198321 0 0.02626076596681522 0.00067561535928897408 0 0.023410482048953549 0.00099285341990927459 0 0.022900682561510333 0.00072189315132343656 0 0.026188852204088897 0.00056217510899515117 0 0.02626076596681522 0.00067561535928897408 0 0.026148331486908594 0.00074221924930486008 0 0.026188852204088897 0.00056217510899515117 0 0.026148331486908594 0.00074221924930486008 0 0.026072413893233438 0.00066773410077757716 0 0.021269529611392401 0.00043082748496533661 0 0.020424382611680159 0.00075929223747826585 0 0.02626076596681522 0.00067561535928897408 0 0.026148331486908594 0.00074221924930486008 0 0.026221235104590179 0.00084675526087801356 0 0.026148331486908594 0.00074221924930486008 0 0.026221235104590179 0.00084675526087801356 0 0.026014798772407276 0.00076077354197694365 0 0.02626076596681522 0.00067561535928897408 0 0.026377766657417132 0.00075135993108450881 0 0.026221235104590179 0.00084675526087801356 0 0.023661848103980213 6.1920923329877891e-05 0 0.024078893379174834 0.0001040001442962847 0 0.022498917168618172 2.8619742677323443e-05 0 0.025008704034947149 0.00010733471940620437 0 0.023661848103980213 6.1920923329877891e-05 0 0.024078893379174834 0.0001040001442962847 0 0.025095494357469651 3.332261709609187e-07 0 0.024078893379174834 0.0001040001442962847 0 0.023033538277297708 5.3630920882003134e-07 0 0.023033538277297708 5.3630920882003134e-07 0 0.022498917168618172 2.8619742677323443e-05 0 0.020969736361274249 -1.292955177259455e-06 0 0.024078893379174834 0.0001040001442962847 0 0.023033538277297708 5.3630920882003134e-07 0 0.022498917168618172 2.8619742677323443e-05 0 0.022498917168618172 2.8619742677323443e-05 0 0.02169880161460112 -0.00013305507935633385 0 0.020969736361274249 -1.292955177259455e-06 0 0.022498917168618172 2.8619742677323443e-05 0 0.02169880161460112 -0.00013305507935633385 0 0.022636584639596596 -0.00041231528012956891 0 0.02169880161460112 -0.00013305507935633385 0 0.020969736361274249 -1.292955177259455e-06 0 0.020265325877309972 -0.00018168291614605874 0 0.022900682561510333 0.00072189315132343656 0 0.022056245664978828 0.00016058244570158384 0 0.023661848103980213 6.1920923329877891e-05 0 0.022498917168618172 2.8619742677323443e-05 0 0.022636584639596596 -0.00041231528012956891 0 0.018564916730684101 -0.0011460492982571485 0 0.018843465383258328 0.00010412519182422279 0 0.020265325877309972 -0.00018168291614605874 0 0.017942884685528921 -0.0014292359914197604 0 0.017546629599413398 -0.00053807624891993194 0 0.016513042782068221 -0.00101735885765032 0 0.017942884685528921 -0.0014292359914197604 0 0.017546629599413398 -0.00053807624891993194 0 0.018843465383258328 0.00010412519182422279 0 0.022056245664978828 0.00016058244570158384 0 0.021970021124254255 0.00010788056060085169 0 0.017546629599413398 -0.00053807624891993194 0 0.018843465383258328 0.00010412519182422279 0 0.018671382215389578 0.00037202769575439093 0 0.018843465383258328 0.00010412519182422279 0 0.020265325877309972 -0.00018168291614605874 0 0.018909891520580088 9.611923945042431e-07 0 0.020969736361274249 -1.292955177259455e-06 0 0.020265325877309972 -0.00018168291614605874 0 0.018909891520580088 9.611923945042431e-07 0 0.02169880161460112 -0.00013305507935633385 0 0.022636584639596596 -0.00041231528012956891 0 0.020265325877309972 -0.00018168291614605874 0 0.022056245664978828 0.00016058244570158384 0 0.02189835328530592 9.6311924848697944e-05 0 0.018843465383258328 0.00010412519182422279 0 0.018909891520580088 9.611923945042431e-07 0 0.018671382215389578 0.00037202769575439093 0 0.018905036181489514 -2.0107401197412068e-06 0 0.017021854927266294 -0.00030362090006403534 0 0.017590936682426415 4.4301220085934464e-05 0 0.018905036181489514 -2.0107401197412068e-06 0 0.016389245572065354 -0.0010811446881361898 0 0.017021854927266294 -0.00030362090006403534 0 0.018905817527000584 -4.4961282437270497e-07 0 0.018260939884347099 -0.00021886339105306885 0 0.016389245572065354 -0.0010811446881361898 0 0.016394277555465585 -0.00065338622414828744 0 0.017021854927266294 -0.00030362090006403534 0 0.016389245572065354 -0.0010811446881361898 0 0.016394277555465585 -0.00065338622414828744 0 0.016025838368116895 -0.00073420190160075995 0 0.016251723658444361 -0.00040083912405027 0 0.016394277555465585 -0.00065338622414828744 0 0.016025838368116895 -0.00073420190160075995 0 0.016251723658444361 -0.00040083912405027 0 0.017021854927266294 -0.00030362090006403534 0 0.016585793465684489 -1.0903303980169683e-05 0 0.016251723658444361 -0.00040083912405027 0 0.016394277555465585 -0.00065338622414828744 0 0.017021854927266294 -0.00030362090006403534 0 0.016765411109332051 0.00024994107162754824 0 0.016585793465684489 -1.0903303980169683e-05 0 0.015950205110242841 0.00022945982954902016 0 0.016251723658444361 -0.00040083912405027 0 0.016585793465684489 -1.0903303980169683e-05 0 0.015842543742827349 -0.00016084008794763446 0 0.016585793465684489 -1.0903303980169683e-05 0 0.015950205110242841 0.00022945982954902016 0 0.015842543742827349 -0.00016084008794763446 0 0.018905036181489514 -2.0107401197412068e-06 0 0.017626277213390631 5.0146165743144525e-07 0 0.017590936682426415 4.4301220085934464e-05 0 0.016765411109332051 0.00024994107162754824 0 0.016585793465684489 -1.0903303980169683e-05 0 0.017590936682426415 4.4301220085934464e-05 0 0.016765411109332051 0.00024994107162754824 0 0.017626277213390631 5.0146165743144525e-07 0 0.017590936682426415 4.4301220085934464e-05 0 0.017021854927266294 -0.00030362090006403534 0 0.016585793465684489 -1.0903303980169683e-05 0 0.017590936682426415 4.4301220085934464e-05 0 0.015301387004843589 -0.00027996516694731678 0 0.014640804683658856 0.00010337527245020241 0 0.014437275572667402 -0.00022927103933449846 0 0.014221700296594118 0.00036162601032981489 0 0.014618300221686861 0.00046274398397564635 0 0.014640804683658856 0.00010337527245020241 0 0.014618300221686861 0.00046274398397564635 0 0.014640804683658856 0.00010337527245020241 0 0.014960925030407819 0.00018172278370366307 0 0.015301387004843589 -0.00027996516694731678 0 0.014640804683658856 0.00010337527245020241 0 0.014960925030407819 0.00018172278370366307 0 0.015301387004843589 -0.00027996516694731678 0 0.014960925030407819 0.00018172278370366307 0 0.015421754867084541 8.2586763857721838e-05 0 0.015950205110242841 0.00022945982954902016 0 0.015421754867084541 8.2586763857721838e-05 0 0.015842543742827349 -0.00016084008794763446 0 0.015301387004843589 -0.00027996516694731678 0 0.015421754867084541 8.2586763857721838e-05 0 0.015842543742827349 -0.00016084008794763446 0 0.015301387004843589 -0.00027996516694731678 0 0.015817336096662804 -0.00052222351354289077 0 0.015696474334794343 -0.00062296720474441119 0 0.015301387004843589 -0.00027996516694731678 0 0.015842543742827349 -0.00016084008794763446 0 0.015817336096662804 -0.00052222351354289077 0 0.016251723658444361 -0.00040083912405027 0 0.015817336096662804 -0.00052222351354289077 0 0.016025838368116895 -0.00073420190160075995 0 0.016251723658444361 -0.00040083912405027 0 0.015842543742827349 -0.00016084008794763446 0 0.015817336096662804 -0.00052222351354289077 0 0.015817336096662804 -0.00052222351354289077 0 0.016025838368116895 -0.00073420190160075995 0 0.015696474334794343 -0.00062296720474441119 0 0.016025838368116895 -0.00073420190160075995 0 0.015696474334794343 -0.00062296720474441119 0 0.015869783505905406 -0.0005965748249821928 0 0.015199941819624051 0.00058609929491511661 0 0.01514980111329522 0.00069824589004128341 0 0.015301387004843589 -0.00027996516694731678 0 0.015431111454191734 -0.00070827260815719748 0 0.014437275572667402 -0.00022927103933449846 0 0.015301387004843589 -0.00027996516694731678 0 0.015696474334794343 -0.00062296720474441119 0 0.015431111454191734 -0.00070827260815719748 0 0.015431111454191734 -0.00070827260815719748 0 0.015552780935270152 -0.00074976727042787587 0 0.015572345281294163 -0.00075675008993261023 0 0.015696474334794343 -0.00062296720474441119 0 0.015431111454191734 -0.00070827260815719748 0 0.015869783505905406 -0.0005965748249821928 0 0.015431111454191734 -0.00070827260815719748 0 0.015552780935270152 -0.00074976727042787587 0 0.015869783505905406 -0.0005965748249821928 0 0.015552780935270152 -0.00074976727042787587 0 0.015869783505905406 -0.0005965748249821928 0 0.015798343387006732 -0.00092016638611102535 0 0.016389245572065354 -0.0010811446881361898 0 0.016025838368116895 -0.00073420190160075995 0 0.015869783505905406 -0.0005965748249821928 0 0.017546629599413398 -0.00053807624891993194 0 0.018671382215389578 0.00037202769575439093 0 0.015869783505905406 -0.0005965748249821928 0 0.018260939884347099 -0.00021886339105306885 0 0.017968472480336225 -0.00031482505951646957 0 0.015869783505905406 -0.0005965748249821928 0 0.016513042782068221 -0.00101735885765032 0 0.015798343387006732 -0.00092016638611102535 0 0.017546629599413398 -0.00053807624891993194 0 0.015869783505905406 -0.0005965748249821928 0 0.016513042782068221 -0.00101735885765032 0 0.017942884685528921 -0.0014292359914197604 0 0.016513042782068221 -0.00101735885765032 0 0.015711302244190407 -0.0012941369671507963 0 0.022056245664978828 0.00016058244570158384 0 0.021269529611392401 0.00043082748496533661 0 0.026377766657417132 0.00075135993108450881 0 0.026412493396441403 0.00093280637043085114 0 0.026221235104590179 0.00084675526087801356 0 0.016513042782068221 -0.00101735885765032 0 0.015798343387006732 -0.00092016638611102535 0 0.015711302244190407 -0.0012941369671507963 0 0.015595608815189951 -0.00090434507750547348 0 0.015711302244190407 -0.0012941369671507963 0 0.015566058068271599 -0.00080985979472763484 0 0.015552780935270152 -0.00074976727042787587 0 0.015595608815189951 -0.00090434507750547348 0 0.015559499205277796 -0.00076340125803714214 0 0.015552780935270152 -0.00074976727042787587 0 0.015595608815189951 -0.00090434507750547348 0 0.015798343387006732 -0.00092016638611102535 0 0.015595608815189951 -0.00090434507750547348 0 0.015798343387006732 -0.00092016638611102535 0 0.015711302244190407 -0.0012941369671507963 0 0.015566058068271599 -0.00080985979472763484 0 0.015559499205277796 -0.00076340125803714214 0 0.015628011483877196 -0.00059861149342578513 0 0.015559499205277796 -0.00076340125803714214 0 0.015628011483877196 -0.00059861149342578513 0 0.015658846116834445 -0.00070783868523699564 0 0.015595608815189951 -0.00090434507750547348 0 0.015566058068271599 -0.00080985979472763484 0 0.015559499205277796 -0.00076340125803714214 0 0.015628011483877196 -0.00059861149342578513 0 0.015826181099370937 -0.00056966940181507131 0 0.015975377026925412 -3.7058282710008171e-05 0 0.015628011483877196 -0.00059861149342578513 0 0.015826181099370937 -0.00056966940181507131 0 0.015658846116834445 -0.00070783868523699564 0 0.015826181099370937 -0.00056966940181507131 0 0.015787835481922138 -0.00071675806366958323 0 0.015658846116834445 -0.00070783868523699564 0 0.015787835481922138 -0.00071675806366958323 0 0.015658846116834445 -0.00070783868523699564 0 0.015705407249914493 -0.0007727549730279262 0 0.015658846116834445 -0.00070783868523699564 0 0.015705407249914493 -0.0007727549730279262 0 0.015572345281294163 -0.00075675008993261023 0 0.015787835481922138 -0.00071675806366958323 0 0.015705407249914493 -0.0007727549730279262 0 0.015825633758782813 -0.00079669076488970742 0 0.015559499205277796 -0.00076340125803714214 0 0.015658846116834445 -0.00070783868523699564 0 0.015572345281294163 -0.00075675008993261023 0 0.015552780935270152 -0.00074976727042787587 0 0.015559499205277796 -0.00076340125803714214 0 0.015572345281294163 -0.00075675008993261023 0 0.015572345281294163 -0.00075675008993261023 0 0.01568722838042539 -0.00086768666543562923 0 0.015535038812654127 -0.00091775217247118618 0 0.015431111454191734 -0.00070827260815719748 0 0.015572345281294163 -0.00075675008993261023 0 0.015535038812654127 -0.00091775217247118618 0 0.01568722838042539 -0.00086768666543562923 0 0.015835781949379249 -0.00092742055929642079 0 0.015825633758782813 -0.00079669076488970742 0 0.015705407249914493 -0.0007727549730279262 0 0.015572345281294163 -0.00075675008993261023 0 0.01568722838042539 -0.00086768666543562923 0 0.015705407249914493 -0.0007727549730279262 0 0.01568722838042539 -0.00086768666543562923 0 0.015825633758782813 -0.00079669076488970742 0 0.01564497819580335 -0.0010723815932772579 0 0.015659134147464917 -0.00099857764118028622 0 0.015835781949379249 -0.00092742055929642079 0 0.01568722838042539 -0.00086768666543562923 0 0.015659134147464917 -0.00099857764118028622 0 0.015835781949379249 -0.00092742055929642079 0 0.015000876307779054 0.0010711963160606232 0 0.01590822348012394 0.00063275089923551056 0 0.016137901705812693 0.0021405247131659204 0 0.01624159884078857 0.0021166482311571369 0 0.016059768990992474 0.0020164723586160102 0 0.014221700296594118 0.00036162601032981489 0 0.013730554611326181 0.00048695531616566501 0 0.014437275572667402 -0.00022927103933449846 0 0.01564497819580335 -0.0010723815932772579 0 0.015659134147464917 -0.00099857764118028622 0 0.015535038812654127 -0.00091775217247118618 0 0.015000876307779054 0.0010711963160606232 0 0.01514980111329522 0.00069824589004128341 0 0.01568722838042539 -0.00086768666543562923 0 0.015659134147464917 -0.00099857764118028622 0 0.015535038812654127 -0.00091775217247118618 0 0.014221700296594118 0.00036162601032981489 0 0.014640804683658856 0.00010337527245020241 0 0.014437275572667402 -0.00022927103933449846 0 0.016023195177845683 0.0019732613058741598 0 0.016114088614102434 0.0020685624676380432 0 0.016059768990992474 0.0020164723586160102 0 0.016023195177845683 0.0019732613058741598 0 0.016107418699304193 0.0020188846212292003 0 0.016135282352808408 0.0018948989981483421 0 0.016023195177845683 0.0019732613058741598 0 0.016107418699304193 0.0020188846212292003 0 0.016114088614102434 0.0020685624676380432 0 0.016137901705812693 0.0021405247131659204 0 0.016114088614102434 0.0020685624676380432 0 0.016059768990992474 0.0020164723586160102 0 0.015835781949379249 -0.00092742055929642079 0 0.015825633758782813 -0.00079669076488970742 0 0.016011963888640283 -0.00079362535882622845 0 0.016023195177845683 0.0019732613058741598 0 0.015758274285730456 0.0024636064161517156 0 0.016468650642555444 0.001656497087304795 0 0.01590822348012394 0.00063275089923551056 0 0.016704271833035082 0.00016682295960104515 0 0.016023195177845683 0.0019732613058741598 0 0.016059768990992474 0.0020164723586160102 0 0.015758274285730456 0.0024636064161517156 0 0.017123826258660862 -0.0017167235631748406 0 0.01635312650321109 -0.00099847890401849018 0 0.017129995455975867 -0.00058068839129739899 0 0.016704271833035082 0.00016682295960104515 0 0.016668383480513856 6.7300366270894944e-05 0 0.015825633758782813 -0.00079669076488970742 0 0.016011963888640283 -0.00079362535882622845 0 0.015902962590268771 -0.00070215637599072825 0 0.015787835481922138 -0.00071675806366958323 0 0.015825633758782813 -0.00079669076488970742 0 0.015902962590268771 -0.00070215637599072825 0 0.015826181099370937 -0.00056966940181507131 0 0.015787835481922138 -0.00071675806366958323 0 0.015902962590268771 -0.00070215637599072825 0 0.015826181099370937 -0.00056966940181507131 0 0.016429392642752592 -0.00030775488035918061 0 0.015975377026925412 -3.7058282710008171e-05 0 0.016634635172601466 5.3494802786389597e-05 0 0.016668383480513856 6.7300366270894944e-05 0 0.015826181099370937 -0.00056966940181507131 0 0.01635312650321109 -0.00099847890401849018 0 0.016429392642752592 -0.00030775488035918061 0 0.016429392642752592 -0.00030775488035918061 0 0.017129995455975867 -0.00058068839129739899 0 0.017105136538802888 0.00046581491276552608 0 0.01635312650321109 -0.00099847890401849018 0 0.016429392642752592 -0.00030775488035918061 0 0.017129995455975867 -0.00058068839129739899 0 0.016179871114185691 0.001414358159741792 0 0.015223162888280002 0.0027409380635881613 0 0.013750617628236563 0.0017802670303169123 0 0.016179871114185691 0.001414358159741792 0 0.015223162888280002 0.0027409380635881613 0 0.01760470001638919 0.0032789645061472271 0 0.015223162888280002 0.0027409380635881613 0 0.015649867585802734 0.0041890460575088155 0 0.01760470001638919 0.0032789645061472271 0 0.015223162888280002 0.0027409380635881613 0 0.015649867585802734 0.0041890460575088155 0 0.013486796768599301 0.0031047173938767293 0 0.021606365448563959 0.0012213836511755856 0 0.020837912524477014 0.000988916216142178 0 0.02549145284834162 0.0006550871919743089 0 0.025783319712338135 0.00074177652611896413 0 0.02581831561434117 0.0005826784725394983 0 0.018095099297025196 0.00095628572355714754 0 0.01847922533579497 0.00092915520159497517 0 0.015223162888280002 0.0027409380635881613 0 0.013486796768599301 0.0031047173938767293 0 0.013750617628236563 0.0017802670303169123 0 0.016429392642752592 -0.00030775488035918061 0 0.017105136538802888 0.00046581491276552608 0 0.015975377026925412 -3.7058282710008171e-05 0 0.01847922533579497 0.00092915520159497517 0 0.020424382611680159 0.00075929223747826585 0 0.015628011483877196 -0.00059861149342578513 0 0.015975377026925412 -3.7058282710008171e-05 0 0.015543469213021188 -0.00048941821281228888 0 0.013486796768599301 0.0031047173938767293 0 0.013750617628236563 0.0017802670303169123 0 0.011401288291144349 0.002091011710330166 0 0.020837912524477014 0.000988916216142178 0 0.020424382611680159 0.00075929223747826585 0 0.020964631620025886 0.00070775311965798977 0 0.020424382611680159 0.00075929223747826585 0 0.015711302244190407 -0.0012941369671507963 0 0.015566058068271599 -0.00080985979472763484 0 0.015543469213021188 -0.00048941821281228888 0 0.026148331486908594 0.00074221924930486008 0 0.026015239995695098 0.00079157803569071734 0 0.026072413893233438 0.00066773410077757716 0 0.015566058068271599 -0.00080985979472763484 0 0.015628011483877196 -0.00059861149342578513 0 0.015543469213021188 -0.00048941821281228888 0 0.026188852204088897 0.00056217510899515117 0 0.026072413893233438 0.00066773410077757716 0 0.026030522411021509 0.00056035737306662592 0 0.026015239995695098 0.00079157803569071734 0 0.026072413893233438 0.00066773410077757716 0 0.025955217999854275 0.00067512562784503188 0 0.026072413893233438 0.00066773410077757716 0 0.025955217999854275 0.00067512562784503188 0 0.026030522411021509 0.00056035737306662592 0 0.025783319712338135 0.00074177652611896413 0 0.026015239995695098 0.00079157803569071734 0 0.025955217999854275 0.00067512562784503188 0 0.025783319712338135 0.00074177652611896413 0 0.025955217999854275 0.00067512562784503188 0 0.02581831561434117 0.0005826784725394983 0 0.025955217999854275 0.00067512562784503188 0 0.02581831561434117 0.0005826784725394983 0 0.026030522411021509 0.00056035737306662592 0 0.02581831561434117 0.0005826784725394983 0 0.026030522411021509 0.00056035737306662592 0 0.025903860132373335 0.00039793072283230563 0 0.02581831561434117 0.0005826784725394983 0 0.025903860132373335 0.00039793072283230563 0 0.025692270337393242 0.00046559084810189442 0 0.026188852204088897 0.00056217510899515117 0 0.026030522411021509 0.00056035737306662592 0 0.026195613241986465 0.00037003512533378681 0 0.026030522411021509 0.00056035737306662592 0 0.026195613241986465 0.00037003512533378681 0 0.025903860132373335 0.00039793072283230563 0 0.026195613241986465 0.00037003512533378681 0 0.025903860132373335 0.00039793072283230563 0 0.025851752521138426 8.49289747578037e-05 0 0.025903860132373335 0.00039793072283230563 0 0.025614553034120954 0.00024105595958370937 0 0.025851752521138426 8.49289747578037e-05 0 0.025614553034120954 0.00024105595958370937 0 0.025440027034724737 0.00042296620418663791 0 0.025692270337393242 0.00046559084810189442 0 0.025903860132373335 0.00039793072283230563 0 0.025614553034120954 0.00024105595958370937 0 0.025692270337393242 0.00046559084810189442 0 0.025614553034120954 0.00024105595958370937 0 0.025440027034724737 0.00042296620418663791 0 0.025255433164283768 0.00022689655330975351 0 0.02549145284834162 0.0006550871919743089 0 0.025440027034724737 0.00042296620418663791 0 0.025692270337393242 0.00046559084810189442 0 0.02549145284834162 0.0006550871919743089 0 0.025440027034724737 0.00042296620418663791 0 0.025177776185876362 0.00053012633341570727 0 0.02549145284834162 0.0006550871919743089 0 0.02581831561434117 0.0005826784725394983 0 0.025692270337393242 0.00046559084810189442 0 0.022621042621866049 0.0013850418183794151 0 0.023858065954247536 0.0014289128433667912 0 0.019071532616580435 0.0050579131545516361 0 0.017849376137371108 0.0052790095554692568 0 0.019964604559893195 0.0063987424251124286 0 0.019071532616580435 0.0050579131545516361 0 0.019789383855214056 0.0052035358341478155 0 0.019964604559893195 0.0063987424251124286 0 0.019071532616580435 0.0050579131545516361 0 0.019789383855214056 0.0052035358341478155 0 0.019731928054541804 0.0042533095668386093 0 0.019071532616580435 0.0050579131545516361 0 0.017849376137371108 0.0052790095554692568 0 0.01760470001638919 0.0032789645061472271 0 0.021606365448563959 0.0012213836511755856 0 0.022621042621866049 0.0013850418183794151 0 0.025440027034724737 0.00042296620418663791 0 0.025177776185876362 0.00053012633341570727 0 0.025255433164283768 0.00022689655330975351 0 0.025177776185876362 0.00053012633341570727 0 0.025255433164283768 0.00022689655330975351 0 0.025071335891706709 0.00038279251748097562 0 0.025255433164283768 0.00022689655330975351 0 0.025050131642323625 0.00025100321906337207 0 0.025071335891706709 0.00038279251748097562 0 0.025177776185876362 0.00053012633341570727 0 0.025071335891706709 0.00038279251748097562 0 0.024872546958759373 0.00038632070876904682 0 0.025050131642323625 0.00025100321906337207 0 0.025071335891706709 0.00038279251748097562 0 0.024936030950249842 0.0003048088792473467 0 0.025071335891706709 0.00038279251748097562 0 0.024936030950249842 0.0003048088792473467 0 0.024872546958759373 0.00038632070876904682 0 0.024936030950249842 0.0003048088792473467 0 0.024872546958759373 0.00038632070876904682 0 0.024880383748145257 0.0003406980822480614 0 0.025050131642323625 0.00025100321906337207 0 0.024936030950249842 0.0003048088792473467 0 0.024939222029052622 0.00021336209657952702 0 0.024939222029052622 0.00021336209657952702 0 0.024884616354305562 0.00024564377908298452 0 0.024866679950977976 0.00018701804733490109 0 0.024936030950249842 0.0003048088792473467 0 0.024939222029052622 0.00021336209657952702 0 0.024884616354305562 0.00024564377908298452 0 0.020694431472253031 0.0062955608820368268 0 0.019964604559893195 0.0063987424251124286 0 0.021626401197724132 0.0066737497776084833 0 0.024884616354305562 0.00024564377908298452 0 0.024862252931000504 0.00029383130049799485 0 0.024819598640734977 0.00022946460622271379 0 0.024884616354305562 0.00024564377908298452 0 0.024819598640734977 0.00022946460622271379 0 0.024866679950977976 0.00018701804733490109 0 0.023858065954247536 0.0014289128433667912 0 0.025653002048987367 0.0015036549517584428 0 0.024792098449585482 0.00031427495052552268 0 0.024872546958759373 0.00038632070876904682 0 0.024556816154964325 0.00022746799698741011 0 0.024792098449585482 0.00031427495052552268 0 0.024747691415697288 0.00028344805429127341 0 0.024556816154964325 0.00022746799698741011 0 0.023858065954247536 0.0014289128433667912 0 0.023941505463078556 0.0013720645599939411 0 0.019964604559893195 0.0063987424251124286 0 0.022668410643484151 0.0074124279644870728 0 0.021626401197724132 0.0066737497776084833 0 0.024936030950249842 0.0003048088792473467 0 0.024862252931000504 0.00029383130049799485 0 0.024880383748145257 0.0003406980822480614 0 0.024936030950249842 0.0003048088792473467 0 0.024884616354305562 0.00024564377908298452 0 0.024862252931000504 0.00029383130049799485 0 0.024862252931000504 0.00029383130049799485 0 0.024880383748145257 0.0003406980822480614 0 0.024841109998739428 0.00032334408055686802 0 0.024862252931000504 0.00029383130049799485 0 0.024806226499154458 0.00028033870381872665 0 0.024841109998739428 0.00032334408055686802 0 0.024862252931000504 0.00029383130049799485 0 0.024806226499154458 0.00028033870381872665 0 0.024819598640734977 0.00022946460622271379 0 0.024792098449585482 0.00031427495052552268 0 0.024806226499154458 0.00028033870381872665 0 0.024841109998739428 0.00032334408055686802 0 0.024806226499154458 0.00028033870381872665 0 0.024819598640734977 0.00022946460622271379 0 0.024763171504413876 0.00024931519932215129 0 0.024763171504413876 0.00024931519932215129 0 0.024694830773568408 0.00024624204183461572 0 0.024747872960954535 0.00020696570891660492 0 0.024819598640734977 0.00022946460622271379 0 0.024763171504413876 0.00024931519932215129 0 0.024747872960954535 0.00020696570891660492 0 0.024763171504413876 0.00024931519932215129 0 0.024694830773568408 0.00024624204183461572 0 0.024747691415697288 0.00028344805429127341 0 0.024694830773568408 0.00024624204183461572 0 0.024676256734031957 0.00019939986085767985 0 0.024747872960954535 0.00020696570891660492 0 0.024806226499154458 0.00028033870381872665 0 0.024763171504413876 0.00024931519932215129 0 0.024747691415697288 0.00028344805429127341 0 0.024792098449585482 0.00031427495052552268 0 0.024806226499154458 0.00028033870381872665 0 0.024747691415697288 0.00028344805429127341 0 0.021118880105494856 0.0063276637236566241 0 0.020694431472253031 0.0062955608820368268 0 0.021626401197724132 0.0066737497776084833 0 0.021342981851253145 0.0063668994097226903 0 0.021118880105494856 0.0063276637236566241 0 0.021626401197724132 0.0066737497776084833 0 0.021342981851253145 0.0063668994097226903 0 0.021620190435951304 0.0062115944496579992 0 0.021200447803784151 0.0060123871450494578 0 0.021118880105494856 0.0063276637236566241 0 0.020799671922582287 0.0060575272465408139 0 0.021200447803784151 0.0060123871450494578 0 0.021342981851253145 0.0063668994097226903 0 0.021118880105494856 0.0063276637236566241 0 0.021200447803784151 0.0060123871450494578 0 0.021118880105494856 0.0063276637236566241 0 0.020694431472253031 0.0062955608820368268 0 0.020799671922582287 0.0060575272465408139 0 0.020694431472253031 0.0062955608820368268 0 0.020436517545610322 0.006145006770702185 0 0.020799671922582287 0.0060575272465408139 0 0.020694431472253031 0.0062955608820368268 0 0.020436517545610322 0.006145006770702185 0 0.019964604559893195 0.0063987424251124286 0 0.020436517545610322 0.006145006770702185 0 0.019964604559893195 0.0063987424251124286 0 0.020328821746673827 0.0059465856828229005 0 0.024872546958759373 0.00038632070876904682 0 0.024880383748145257 0.0003406980822480614 0 0.024841109998739428 0.00032334408055686802 0 0.024792098449585482 0.00031427495052552268 0 0.024872546958759373 0.00038632070876904682 0 0.024841109998739428 0.00032334408055686802 0 0.024863555592331218 0.00039288121255990748 0 0.024556816154964325 0.00022746799698741011 0 0.024522653757165797 0.00027520654324709592 0 0.022668410643484151 0.0074124279644870728 0 0.022850206698653563 0.0069586703313305647 0 0.023308607447394169 0.0070090904312601916 0 0.02451469662414205 0.00020915197849254115 0 0.024522653757165797 0.00027520654324709592 0 0.024451789159469137 0.00018199705920879446 0 0.02451469662414205 0.00020915197849254115 0 0.024556816154964325 0.00022746799698741011 0 0.024522653757165797 0.00027520654324709592 0 0.022668410643484151 0.0074124279644870728 0 0.022295517658568603 0.0069765453640396324 0 0.022552169317797615 0.0069302439376239828 0 0.022668410643484151 0.0074124279644870728 0 0.022552169317797615 0.0069302439376239828 0 0.022850206698653563 0.0069586703313305647 0 0.024694830773568408 0.00024624204183461572 0 0.024747691415697288 0.00028344805429127341 0 0.024556816154964325 0.00022746799698741011 0 0.024694830773568408 0.00024624204183461572 0 0.024556816154964325 0.00022746799698741011 0 0.024633250771436115 0.00020905333810106055 0 0.024694830773568408 0.00024624204183461572 0 0.024676256734031957 0.00019939986085767985 0 0.024633250771436115 0.00020905333810106055 0 0.022668410643484151 0.0074124279644870728 0 0.021626401197724132 0.0066737497776084833 0 0.022295517658568603 0.0069765453640396324 0 0.021626401197724132 0.0066737497776084833 0 0.021620190435951304 0.0062115944496579992 0 0.021983246824980037 0.0063858078362195878 0 0.021342981851253145 0.0063668994097226903 0 0.021626401197724132 0.0066737497776084833 0 0.021620190435951304 0.0062115944496579992 0 0.021983246824980037 0.0063858078362195878 0 0.02225464796054152 0.006641542753031934 0 0.022418147136549348 0.006222215004302663 0 0.021626401197724132 0.0066737497776084833 0 0.021983246824980037 0.0063858078362195878 0 0.02225464796054152 0.006641542753031934 0 0.021626401197724132 0.0066737497776084833 0 0.02225464796054152 0.006641542753031934 0 0.022295517658568603 0.0069765453640396324 0 0.02225464796054152 0.006641542753031934 0 0.022295517658568603 0.0069765453640396324 0 0.022552169317797615 0.0069302439376239828 0 0.022552169317797615 0.0069302439376239828 0 0.02266516661546264 0.0066590717349765448 0 0.022850206698653563 0.0069586703313305647 0 0.02225464796054152 0.006641542753031934 0 0.022552169317797615 0.0069302439376239828 0 0.02266516661546264 0.0066590717349765448 0 0.02225464796054152 0.006641542753031934 0 0.02266516661546264 0.0066590717349765448 0 0.022418147136549348 0.006222215004302663 0 0.02266516661546264 0.0066590717349765448 0 0.022418147136549348 0.006222215004302663 0 0.023056785188052788 0.0061624673370447034 0 0.02266516661546264 0.0066590717349765448 0 0.023087373711930505 0.006665557292371292 0 0.023056785188052788 0.0061624673370447034 0 0.023087373711930505 0.006665557292371292 0 0.022850206698653563 0.0069586703313305647 0 0.023308607447394169 0.0070090904312601916 0 0.02266516661546264 0.0066590717349765448 0 0.023087373711930505 0.006665557292371292 0 0.022850206698653563 0.0069586703313305647 0 0.023056785188052788 0.0061624673370447034 0 0.02259984877772897 0.0057346969986082925 0 0.023201540451045638 0.0053018353528722154 0 0.02259984877772897 0.0057346969986082925 0 0.022344286768355162 0.0051387028377858548 0 0.023201540451045638 0.0053018353528722154 0 0.022418147136549348 0.006222215004302663 0 0.023056785188052788 0.0061624673370447034 0 0.02259984877772897 0.0057346969986082925 0 0.022418147136549348 0.006222215004302663 0 0.02259984877772897 0.0057346969986082925 0 0.022055604168475611 0.00588244939053237 0 0.02259984877772897 0.0057346969986082925 0 0.022055604168475611 0.00588244939053237 0 0.022344286768355162 0.0051387028377858548 0 0.022055604168475611 0.00588244939053237 0 0.021668820320902404 0.0051879725603929472 0 0.022344286768355162 0.0051387028377858548 0 0.021620190435951304 0.0062115944496579992 0 0.021983246824980037 0.0063858078362195878 0 0.022055604168475611 0.00588244939053237 0 0.021983246824980037 0.0063858078362195878 0 0.022418147136549348 0.006222215004302663 0 0.022055604168475611 0.00588244939053237 0 0.021620190435951304 0.0062115944496579992 0 0.022055604168475611 0.00588244939053237 0 0.021553421070673862 0.005803922199563924 0 0.021620190435951304 0.0062115944496579992 0 0.021553421070673862 0.005803922199563924 0 0.021200447803784151 0.0060123871450494578 0 0.021553421070673862 0.005803922199563924 0 0.021668820320902404 0.0051879725603929472 0 0.02114519175789506 0.0055314705463540732 0 0.022055604168475611 0.00588244939053237 0 0.021553421070673862 0.005803922199563924 0 0.021668820320902404 0.0051879725603929472 0 0.021668820320902404 0.0051879725603929472 0 0.021317685657229146 0.0045739517993743468 0 0.021879554616224272 0.0043492275462737352 0 0.021668820320902404 0.0051879725603929472 0 0.022344286768355162 0.0051387028377858548 0 0.021879554616224272 0.0043492275462737352 0 0.022344286768355162 0.0051387028377858548 0 0.022685425607747538 0.0046051747626296383 0 0.023201540451045638 0.0053018353528722154 0 0.022344286768355162 0.0051387028377858548 0 0.022685425607747538 0.0046051747626296383 0 0.021879554616224272 0.0043492275462737352 0 0.019789383855214056 0.0052035358341478155 0 0.019964604559893195 0.0063987424251124286 0 0.020178831482157371 0.0056612456104086356 0 0.020621656412913903 0.0054016328018252728 0 0.020178831482157371 0.0056612456104086356 0 0.020535280792281577 0.0057965173362323902 0 0.020250262113018554 0.0052783439197510839 0 0.020621656412913903 0.0054016328018252728 0 0.020178831482157371 0.0056612456104086356 0 0.019789383855214056 0.0052035358341478155 0 0.020250262113018554 0.0052783439197510839 0 0.020178831482157371 0.0056612456104086356 0 0.019964604559893195 0.0063987424251124286 0 0.020178831482157371 0.0056612456104086356 0 0.020328821746673827 0.0059465856828229005 0 0.020178831482157371 0.0056612456104086356 0 0.020328821746673827 0.0059465856828229005 0 0.020535280792281577 0.0057965173362323902 0 0.020436517545610322 0.006145006770702185 0 0.020328821746673827 0.0059465856828229005 0 0.020535280792281577 0.0057965173362323902 0 0.020436517545610322 0.006145006770702185 0 0.020535280792281577 0.0057965173362323902 0 0.020799671922582287 0.0060575272465408139 0 0.020799671922582287 0.0060575272465408139 0 0.020849244619244738 0.0057797661566317878 0 0.021200447803784151 0.0060123871450494578 0 0.020535280792281577 0.0057965173362323902 0 0.020799671922582287 0.0060575272465408139 0 0.020849244619244738 0.0057797661566317878 0 0.021553421070673862 0.005803922199563924 0 0.021200447803784151 0.0060123871450494578 0 0.02114519175789506 0.0055314705463540732 0 0.020849244619244738 0.0057797661566317878 0 0.021200447803784151 0.0060123871450494578 0 0.02114519175789506 0.0055314705463540732 0 0.020621656412913903 0.0054016328018252728 0 0.020849244619244738 0.0057797661566317878 0 0.02114519175789506 0.0055314705463540732 0 0.020621656412913903 0.0054016328018252728 0 0.02114519175789506 0.0055314705463540732 0 0.020982573591628348 0.0050066686603074707 0 0.020621656412913903 0.0054016328018252728 0 0.020535280792281577 0.0057965173362323902 0 0.020849244619244738 0.0057797661566317878 0 0.020621656412913903 0.0054016328018252728 0 0.020982573591628348 0.0050066686603074707 0 0.020338782978828726 0.0048330536062109646 0 0.021668820320902404 0.0051879725603929472 0 0.020982573591628348 0.0050066686603074707 0 0.021317685657229146 0.0045739517993743468 0 0.021668820320902404 0.0051879725603929472 0 0.02114519175789506 0.0055314705463540732 0 0.020982573591628348 0.0050066686603074707 0 0.020982573591628348 0.0050066686603074707 0 0.021317685657229146 0.0045739517993743468 0 0.020794456430493199 0.0045077012145284283 0 0.020982573591628348 0.0050066686603074707 0 0.020794456430493199 0.0045077012145284283 0 0.020338782978828726 0.0048330536062109646 0 0.020794456430493199 0.0045077012145284283 0 0.020338782978828726 0.0048330536062109646 0 0.020418409592478325 0.0040406574518124976 0 0.019789383855214056 0.0052035358341478155 0 0.020338782978828726 0.0048330536062109646 0 0.019731928054541804 0.0042533095668386093 0 0.020250262113018554 0.0052783439197510839 0 0.020621656412913903 0.0054016328018252728 0 0.020338782978828726 0.0048330536062109646 0 0.019789383855214056 0.0052035358341478155 0 0.020250262113018554 0.0052783439197510839 0 0.020338782978828726 0.0048330536062109646 0 0.020418409592478325 0.0040406574518124976 0 0.019891832417426529 0.0032225842761207193 0 0.019731928054541804 0.0042533095668386093 0 0.020338782978828726 0.0048330536062109646 0 0.020418409592478325 0.0040406574518124976 0 0.019731928054541804 0.0042533095668386093 0 0.020794456430493199 0.0045077012145284283 0 0.020418409592478325 0.0040406574518124976 0 0.021128725142759167 0.0039468544261013526 0 0.021317685657229146 0.0045739517993743468 0 0.020794456430493199 0.0045077012145284283 0 0.021128725142759167 0.0039468544261013526 0 0.020418409592478325 0.0040406574518124976 0 0.021128725142759167 0.0039468544261013526 0 0.020752824359595211 0.0032114957202651873 0 0.021128725142759167 0.0039468544261013526 0 0.020752824359595211 0.0032114957202651873 0 0.021579747110673887 0.0034452245853584789 0 0.020752824359595211 0.0032114957202651873 0 0.021579747110673887 0.0034452245853584789 0 0.021196827028317378 0.0024043231215633933 0 0.020418409592478325 0.0040406574518124976 0 0.020752824359595211 0.0032114957202651873 0 0.019891832417426529 0.0032225842761207193 0 0.020752824359595211 0.0032114957202651873 0 0.019891832417426529 0.0032225842761207193 0 0.020275426191019959 0.0024687943889836234 0 0.022685425607747538 0.0046051747626296383 0 0.022426419731628389 0.0038149351244263236 0 0.023598371495499874 0.0043349989422874604 0 0.022685425607747538 0.0046051747626296383 0 0.022426419731628389 0.0038149351244263236 0 0.021879554616224272 0.0043492275462737352 0 0.021128725142759167 0.0039468544261013526 0 0.021879554616224272 0.0043492275462737352 0 0.021579747110673887 0.0034452245853584789 0 0.022426419731628389 0.0038149351244263236 0 0.021879554616224272 0.0043492275462737352 0 0.021579747110673887 0.0034452245853584789 0 0.021317685657229146 0.0045739517993743468 0 0.021128725142759167 0.0039468544261013526 0 0.021879554616224272 0.0043492275462737352 0 0.022426419731628389 0.0038149351244263236 0 0.021579747110673887 0.0034452245853584789 0 0.022126696908570938 0.0029688014620742544 0 0.021579747110673887 0.0034452245853584789 0 0.022126696908570938 0.0029688014620742544 0 0.021196827028317378 0.0024043231215633933 0 0.022426419731628389 0.0038149351244263236 0 0.022126696908570938 0.0029688014620742544 0 0.023187525875079315 0.0028776444993572833 0 0.022109746555144187 0.0021156603101949406 0 0.022777128673298997 0.0014057712822006607 0 0.023187525875079315 0.0028776444993572833 0 0.022126696908570938 0.0029688014620742544 0 0.022109746555144187 0.0021156603101949406 0 0.023187525875079315 0.0028776444993572833 0 0.022109746555144187 0.0021156603101949406 0 0.02129777129134737 0.0013769740243622099 0 0.021196827028317378 0.0024043231215633933 0 0.022126696908570938 0.0029688014620742544 0 0.022109746555144187 0.0021156603101949406 0 0.021196827028317378 0.0024043231215633933 0 0.022109746555144187 0.0021156603101949406 0 0.02129777129134737 0.0013769740243622099 0 0.022777128673298997 0.0014057712822006607 0 0.020275426191019959 0.0024687943889836234 0 0.021196827028317378 0.0024043231215633933 0 0.020388733430963649 0.0015761955939672474 0 0.020275426191019959 0.0024687943889836234 0 0.020388733430963649 0.0015761955939672474 0 0.019464233753521763 0.0021361015441054162 0 0.020752824359595211 0.0032114957202651873 0 0.020275426191019959 0.0024687943889836234 0 0.021196827028317378 0.0024043231215633933 0 0.02129777129134737 0.0013769740243622099 0 0.020388733430963649 0.0015761955939672474 0 0.020232933961235464 0.0004952876367292124 0 0.02129777129134737 0.0013769740243622099 0 0.021196827028317378 0.0024043231215633933 0 0.020388733430963649 0.0015761955939672474 0 0.020388733430963649 0.0015761955939672474 0 0.019723489072595149 0.0010405858118829518 0 0.019464233753521763 0.0021361015441054162 0 0.019723489072595149 0.0010405858118829518 0 0.018857453478363106 0.00097321992288644217 0 0.019464233753521763 0.0021361015441054162 0 0.019464233753521763 0.0021361015441054162 0 0.019026846980982295 0.0033464770220190693 0 0.018247020813968354 0.0022385163248328107 0 0.018857453478363106 0.00097321992288644217 0 0.019464233753521763 0.0021361015441054162 0 0.018247020813968354 0.0022385163248328107 0 0.019891832417426529 0.0032225842761207193 0 0.020275426191019959 0.0024687943889836234 0 0.019464233753521763 0.0021361015441054162 0 0.019071532616580435 0.0050579131545516361 0 0.019026846980982295 0.0033464770220190693 0 0.01760470001638919 0.0032789645061472271 0 0.019891832417426529 0.0032225842761207193 0 0.019464233753521763 0.0021361015441054162 0 0.019026846980982295 0.0033464770220190693 0 0.019071532616580435 0.0050579131545516361 0 0.019026846980982295 0.0033464770220190693 0 0.019731928054541804 0.0042533095668386093 0 0.019891832417426529 0.0032225842761207193 0 0.019026846980982295 0.0033464770220190693 0 0.019731928054541804 0.0042533095668386093 0 0.015649867585802734 0.0041890460575088155 0 0.017849376137371108 0.0052790095554692568 0 0.01760470001638919 0.0032789645061472271 0 0.019026846980982295 0.0033464770220190693 0 0.01760470001638919 0.0032789645061472271 0 0.018247020813968354 0.0022385163248328107 0 0.016179871114185691 0.001414358159741792 0 0.01760470001638919 0.0032789645061472271 0 0.018247020813968354 0.0022385163248328107 0 0.016179871114185691 0.001414358159741792 0 0.018857453478363106 0.00097321992288644217 0 0.018247020813968354 0.0022385163248328107 0 0.018095099297025196 0.00095628572355714754 0 0.018183872908303155 0.00094525543749608633 0 0.017105136538802888 0.00046581491276552608 0 0.018857453478363106 0.00097321992288644217 0 0.018052357375479493 4.9420836143209505e-05 0 0.017129995455975867 -0.00058068839129739899 0 0.017105136538802888 0.00046581491276552608 0 0.018052357375479493 4.9420836143209505e-05 0 0.018052357375479493 4.9420836143209505e-05 0 0.019477563659312414 9.839321566869325e-05 0 0.018084640101184869 -0.0010261900217491166 0 0.017129995455975867 -0.00058068839129739899 0 0.018052357375479493 4.9420836143209505e-05 0 0.018084640101184869 -0.0010261900217491166 0 0.019723489072595149 0.0010405858118829518 0 0.019477563659312414 9.839321566869325e-05 0 0.020232933961235464 0.0004952876367292124 0 0.019723489072595149 0.0010405858118829518 0 0.018857453478363106 0.00097321992288644217 0 0.019477563659312414 9.839321566869325e-05 0 0.018857453478363106 0.00097321992288644217 0 0.018052357375479493 4.9420836143209505e-05 0 0.019477563659312414 9.839321566869325e-05 0 0.017355445284480485 0.00038646620531478961 0 0.01716180500785626 0.00030285845772206986 0 0.019477563659312414 9.839321566869325e-05 0 0.019995661732982794 -0.00020273288763175107 0 0.019783140776141555 -0.00050001246040609214 0 0.019477563659312414 9.839321566869325e-05 0 0.019995661732982794 -0.00020273288763175107 0 0.020232933961235464 0.0004952876367292124 0 0.019995661732982794 -0.00020273288763175107 0 0.019783140776141555 -0.00050001246040609214 0 0.020219859805123544 -0.00055557668977116489 0 0.019477563659312414 9.839321566869325e-05 0 0.019783140776141555 -0.00050001246040609214 0 0.019465304593459153 -0.00044713971089476454 0 0.019783140776141555 -0.00050001246040609214 0 0.019465304593459153 -0.00044713971089476454 0 0.019776954329385733 -0.00082534275605170341 0 0.019783140776141555 -0.00050001246040609214 0 0.019776954329385733 -0.00082534275605170341 0 0.020232565813784048 -0.00088469792970179335 0 0.019783140776141555 -0.00050001246040609214 0 0.020232565813784048 -0.00088469792970179335 0 0.020219859805123544 -0.00055557668977116489 0 0.019109992349642158 -0.00079386429011477023 0 0.019465304593459153 -0.00044713971089476454 0 0.019776954329385733 -0.00082534275605170341 0 0.017123826258660862 -0.0017167235631748406 0 0.017129995455975867 -0.00058068839129739899 0 0.018084640101184869 -0.0010261900217491166 0 0.016704271833035082 0.00016682295960104515 0 0.01716180500785626 0.00030285845772206986 0 0.019109992349642158 -0.00079386429011477023 0 0.019776954329385733 -0.00082534275605170341 0 0.019970101062353435 -0.0012324764347766486 0 0.016704271833035082 0.00016682295960104515 0 0.017569969818637642 -0.00021218251998317609 0 0.015758274285730456 0.0024636064161517156 0 0.017315484253151082 0.0014930386122318244 0 0.016468650642555444 0.001656497087304795 0 0.019776954329385733 -0.00082534275605170341 0 0.020131749604980372 -0.0010752833507602564 0 0.019970101062353435 -0.0012324764347766486 0 0.019776954329385733 -0.00082534275605170341 0 0.020131749604980372 -0.0010752833507602564 0 0.020232565813784048 -0.00088469792970179335 0 0.017974799646857432 -0.0004285375938708364 0 0.017569969818637642 -0.00021218251998317609 0 0.020131749604980372 -0.0010752833507602564 0 0.019970101062353435 -0.0012324764347766486 0 0.020308935689646989 -0.0011046803766515186 0 0.018676334275452199 -0.001018169393955965 0 0.017315484253151082 0.0014930386122318244 0 0.016468650642555444 0.001656497087304795 0 0.016685069187036165 0.0016316081589663742 0 0.016574909840914021 0.0017792011587052588 0 0.015740612349784154 0.0021789468333636955 0 0.015187994633797466 0.0024857210284123204 0 0.016468650642555444 0.001656497087304795 0 0.015740612349784154 0.0021789468333636955 0 0.016135282352808408 0.0018948989981483421 0 0.016468650642555444 0.001656497087304795 0 0.015740612349784154 0.0021789468333636955 0 0.016107418699304193 0.0020188846212292003 0 0.016135282352808408 0.0018948989981483421 0 0.016023195177845683 0.0019732613058741598 0 0.016135282352808408 0.0018948989981483421 0 0.016468650642555444 0.001656497087304795 0 0.020328041667427171 -0.0010031437661883473 0 0.020421389457411985 -0.001027506154830038 0 0.020753403537972628 -0.0010648455813376618 0 0.020421389457411985 -0.001027506154830038 0 0.020308935689646989 -0.0011046803766515186 0 0.020695763158863806 -0.0011156709901683605 0 0.020421389457411985 -0.001027506154830038 0 0.020695763158863806 -0.0011156709901683605 0 0.020753403537972628 -0.0010648455813376618 0 0.020175671988199022 -0.00079278766283801178 0 0.020421389457411985 -0.001027506154830038 0 0.020308935689646989 -0.0011046803766515186 0 0.020175671988199022 -0.00079278766283801178 0 0.019970101062353435 -0.0012324764347766486 0 0.020308935689646989 -0.0011046803766515186 0 0.020308935689646989 -0.0011046803766515186 0 0.020336782368695031 -0.0010830454899287063 0 0.020668779735675716 -0.0011550236321257107 0 0.020308935689646989 -0.0011046803766515186 0 0.020668779735675716 -0.0011550236321257107 0 0.020695763158863806 -0.0011156709901683605 0 0.020131749604980372 -0.0010752833507602564 0 0.020308935689646989 -0.0011046803766515186 0 0.020336782368695031 -0.0010830454899287063 0 0.020131749604980372 -0.0010752833507602564 0 0.020336782368695031 -0.0010830454899287063 0 0.020232565813784048 -0.00088469792970179335 0 0.020336782368695031 -0.0010830454899287063 0 0.020232565813784048 -0.00088469792970179335 0 0.020668779735675716 -0.0011550236321257107 0 0.020232565813784048 -0.00088469792970179335 0 0.020668779735675716 -0.0011550236321257107 0 0.020670491092797571 -0.00084071791136592646 0 0.020668779735675716 -0.0011550236321257107 0 0.020695763158863806 -0.0011156709901683605 0 0.021389574613138191 -0.0014380985821021452 0 0.020668779735675716 -0.0011550236321257107 0 0.021389574613138191 -0.0014380985821021452 0 0.020670491092797571 -0.00084071791136592646 0 0.020695763158863806 -0.0011156709901683605 0 0.021389574613138191 -0.0014380985821021452 0 0.020753403537972628 -0.0010648455813376618 0 0.021389574613138191 -0.0014380985821021452 0 0.021191507441085954 -0.00051362871387710361 0 0.02288615771568632 -0.00017699310028062971 0 0.021389574613138191 -0.0014380985821021452 0 0.021191507441085954 -0.00051362871387710361 0 0.020670491092797571 -0.00084071791136592646 0 0.020232565813784048 -0.00088469792970179335 0 0.020670491092797571 -0.00084071791136592646 0 0.020219859805123544 -0.00055557668977116489 0 0.021191507441085954 -0.00051362871387710361 0 0.020670491092797571 -0.00084071791136592646 0 0.020528029547933507 -0.00025055332302992826 0 0.019995661732982794 -0.00020273288763175107 0 0.020528029547933507 -0.00025055332302992826 0 0.020219859805123544 -0.00055557668977116489 0 0.020670491092797571 -0.00084071791136592646 0 0.020528029547933507 -0.00025055332302992826 0 0.020219859805123544 -0.00055557668977116489 0 0.019995661732982794 -0.00020273288763175107 0 0.020528029547933507 -0.00025055332302992826 0 0.020232933961235464 0.0004952876367292124 0 0.020528029547933507 -0.00025055332302992826 0 0.020232933961235464 0.0004952876367292124 0 0.021348930128163003 0.0004481849420729707 0 0.021191507441085954 -0.00051362871387710361 0 0.020528029547933507 -0.00025055332302992826 0 0.021348930128163003 0.0004481849420729707 0 0.02129777129134737 0.0013769740243622099 0 0.020232933961235464 0.0004952876367292124 0 0.021348930128163003 0.0004481849420729707 0 0.020388733430963649 0.0015761955939672474 0 0.019723489072595149 0.0010405858118829518 0 0.020232933961235464 0.0004952876367292124 0 0.021348930128163003 0.0004481849420729707 0 0.02288615771568632 -0.00017699310028062971 0 0.022777128673298997 0.0014057712822006607 0 0.021191507441085954 -0.00051362871387710361 0 0.021348930128163003 0.0004481849420729707 0 0.02288615771568632 -0.00017699310028062971 0 0.02129777129134737 0.0013769740243622099 0 0.021348930128163003 0.0004481849420729707 0 0.022777128673298997 0.0014057712822006607 0 0.024034158697730162 0.00085046905202803994 0 0.02288615771568632 -0.00017699310028062971 0 0.022777128673298997 0.0014057712822006607 0 0.024034158697730162 0.00085046905202803994 0 0.025793049862388954 2.7419180873592694e-05 0 0.02288615771568632 -0.00017699310028062971 0 0.024034158697730162 0.00085046905202803994 0 0.025793049862388954 2.7419180873592694e-05 0 0.024782219496359933 0.0020951448741020904 0 0.025793049862388954 2.7419180873592694e-05 0 0.02288615771568632 -0.00017699310028062971 0 0.024787693340337459 -0.0027110137299018707 0 0.027376054474906587 4.3833263125434837e-05 0 0.027065367553349203 -0.0018065098370338222 0 0.028471874430924506 -0.0010671944738905662 0 0.024463943682568202 0.0011177108367777049 0 0.023837069394944729 0.00077947098169662405 0 0.021389574613138191 -0.0014380985821021452 0 0.02288615771568632 -0.00017699310028062971 0 0.024787693340337459 -0.0027110137299018707 0 0.021389574613138191 -0.0014380985821021452 0 0.020753403537972628 -0.0010648455813376618 0 0.019883076291762041 -0.0013296642708441253 0 0.023456132880764195 0.00068060604150814842 0 0.023837069394944729 0.00077947098169662405 0 0.023837069394944729 0.00077947098169662405 0 0.022340704916077363 0.00040485724120110711 0 0.023880240264130881 0.0011640985578817672 0 0.023837364555768535 0.0012432175825550979 0 0.023911059731227379 0.0012866887459259246 0 0.020753403537972628 -0.0010648455813376618 0 0.019883076291762041 -0.0013296642708441253 0 0.020149325806037024 -0.00030643219590300929 0 0.022231445133026287 0.00037543384524347005 0 0.022340704916077363 0.00040485724120110711 0 0.020328041667427171 -0.0010031437661883473 0 0.020753403537972628 -0.0010648455813376618 0 0.02026537015626435 -0.0010169025333531014 0 0.023761521304982703 0.0012890365328727179 0 0.023764194299118416 0.0011996664035863215 0 0.023656221604269688 0.0012324301363015144 0 0.02520167604755158 0.0011312785790470554 0 0.025955895647807058 0.0017454868528794551 0 0.023837364555768535 0.0012432175825550979 0 0.023761521304982703 0.0012890365328727179 0 0.023764194299118416 0.0011996664035863215 0 0.027065367553349203 -0.0018065098370338222 0 0.028705570396008965 -0.0022096670794933874 0 0.028471874430924506 -0.0010671944738905662 0 0.023880240264130881 0.0011640985578817672 0 0.023837364555768535 0.0012432175825550979 0 0.023764194299118416 0.0011996664035863215 0 0.023837069394944729 0.00077947098169662405 0 0.02520167604755158 0.0011312785790470554 0 0.028705570396008965 -0.0022096670794933874 0 0.029829882286870998 -0.0011678042244260727 0 0.030252564462445883 -0.0025376416988394665 0 0.028705570396008965 -0.0022096670794933874 0 0.029829882286870998 -0.0011678042244260727 0 0.028471874430924506 -0.0010671944738905662 0 0.029829882286870998 -0.0011678042244260727 0 0.028471874430924506 -0.0010671944738905662 0 0.029370374747974059 -3.0987060732621684e-05 0 0.029829882286870998 -0.0011678042244260727 0 0.029370374747974059 -3.0987060732621684e-05 0 0.030589756267901672 0.00041329441523364085 0 0.027376054474906587 4.3833263125434837e-05 0 0.028471874430924506 -0.0010671944738905662 0 0.029370374747974059 -3.0987060732621684e-05 0 0.027376054474906587 4.3833263125434837e-05 0 0.029370374747974059 -3.0987060732621684e-05 0 0.029953492443593809 0.0014661786842377559 0 0.029370374747974059 -3.0987060732621684e-05 0 0.029953492443593809 0.0014661786842377559 0 0.030589756267901672 0.00041329441523364085 0 0.029953492443593809 0.0014661786842377559 0 0.030805115218617958 0.0013774684571075705 0 0.030669966158389888 0.0011965539130087916 0 0.029953492443593809 0.0014661786842377559 0 0.030876218858861472 0.001339081351224588 0 0.031378699890184845 0.0012800419512522892 0 0.029425185529369517 0.0015605559529813661 0 0.029335525319084465 0.0016965444662461813 0 0.029953492443593809 0.0014661786842377559 0 0.030876218858861472 0.001339081351224588 0 0.030805115218617958 0.0013774684571075705 0 0.030876218858861472 0.001339081351224588 0 0.031378699890184845 0.0012800419512522892 0 0.0312388776448712 0.001128354798208268 0 0.030876218858861472 0.001339081351224588 0 0.031079495844015991 0.0012028740875226914 0 0.030805115218617958 0.0013774684571075705 0 0.030876218858861472 0.001339081351224588 0 0.031079495844015991 0.0012028740875226914 0 0.0312388776448712 0.001128354798208268 0 0.029953492443593809 0.0014661786842377559 0 0.028553436505817723 0.004235966263617017 0 0.027387745927100481 0.0026112710126493148 0 0.028553436505817723 0.004235966263617017 0 0.027387745927100481 0.0026112710126493148 0 0.026660501556429204 0.0043014630714636008 0 0.024463943682568202 0.0011177108367777049 0 0.024750771214865051 0.001548361574254408 0 0.027376054474906587 4.3833263125434837e-05 0 0.029953492443593809 0.0014661786842377559 0 0.027387745927100481 0.0026112710126493148 0 0.027387745927100481 0.0026112710126493148 0 0.024782219496359933 0.0020951448741020904 0 0.025776687721193025 0.0033512066736543179 0 0.025793049862388954 2.7419180873592694e-05 0 0.027387745927100481 0.0026112710126493148 0 0.024782219496359933 0.0020951448741020904 0 0.024782219496359933 0.0020951448741020904 0 0.022777128673298997 0.0014057712822006607 0 0.023187525875079315 0.0028776444993572833 0 0.024034158697730162 0.00085046905202803994 0 0.024782219496359933 0.0020951448741020904 0 0.022777128673298997 0.0014057712822006607 0 0.023187525875079315 0.0028776444993572833 0 0.024648929160414883 0.0035800002230148009 0 0.023598371495499874 0.0043349989422874604 0 0.024782219496359933 0.0020951448741020904 0 0.023187525875079315 0.0028776444993572833 0 0.024648929160414883 0.0035800002230148009 0 0.024648929160414883 0.0035800002230148009 0 0.024500776588076693 0.0044753228973767947 0 0.023598371495499874 0.0043349989422874604 0 0.022426419731628389 0.0038149351244263236 0 0.023187525875079315 0.0028776444993572833 0 0.023598371495499874 0.0043349989422874604 0 0.027387745927100481 0.0026112710126493148 0 0.025776687721193025 0.0033512066736543179 0 0.026660501556429204 0.0043014630714636008 0 0.024782219496359933 0.0020951448741020904 0 0.024648929160414883 0.0035800002230148009 0 0.025776687721193025 0.0033512066736543179 0 0.024648929160414883 0.0035800002230148009 0 0.025776687721193025 0.0033512066736543179 0 0.025321547502197689 0.0046692775778396194 0 0.024648929160414883 0.0035800002230148009 0 0.024500776588076693 0.0044753228973767947 0 0.025321547502197689 0.0046692775778396194 0 0.025776687721193025 0.0033512066736543179 0 0.026660501556429204 0.0043014630714636008 0 0.025321547502197689 0.0046692775778396194 0 0.026660501556429204 0.0043014630714636008 0 0.025998211297028069 0.0053336821941101188 0 0.025321547502197689 0.0046692775778396194 0 0.026660501556429204 0.0043014630714636008 0 0.025998211297028069 0.0053336821941101188 0 0.026909449998259977 0.0056133330029669443 0 0.025321547502197689 0.0046692775778396194 0 0.025193711434019155 0.0056782191630218772 0 0.024294893157982885 0.0052323600506763409 0 0.025998211297028069 0.0053336821941101188 0 0.025321547502197689 0.0046692775778396194 0 0.025193711434019155 0.0056782191630218772 0 0.025998211297028069 0.0053336821941101188 0 0.025193711434019155 0.0056782191630218772 0 0.025875533718081913 0.0061328650406504755 0 0.025193711434019155 0.0056782191630218772 0 0.024485464501006349 0.0061801907183977626 0 0.025178599321624227 0.0065023991220000488 0 0.025193711434019155 0.0056782191630218772 0 0.025875533718081913 0.0061328650406504755 0 0.025178599321624227 0.0065023991220000488 0 0.025998211297028069 0.0053336821941101188 0 0.025875533718081913 0.0061328650406504755 0 0.026909449998259977 0.0056133330029669443 0 0.025875533718081913 0.0061328650406504755 0 0.026409149197834367 0.006602740701807914 0 0.026909449998259977 0.0056133330029669443 0 0.022685425607747538 0.0046051747626296383 0 0.023598371495499874 0.0043349989422874604 0 0.023201540451045638 0.0053018353528722154 0 0.023598371495499874 0.0043349989422874604 0 0.023201540451045638 0.0053018353528722154 0 0.024294893157982885 0.0052323600506763409 0 0.024500776588076693 0.0044753228973767947 0 0.025321547502197689 0.0046692775778396194 0 0.024294893157982885 0.0052323600506763409 0 0.024500776588076693 0.0044753228973767947 0 0.023598371495499874 0.0043349989422874604 0 0.024294893157982885 0.0052323600506763409 0 0.024294893157982885 0.0052323600506763409 0 0.024485464501006349 0.0061801907183977626 0 0.023775535415291676 0.0060274996709150626 0 0.025193711434019155 0.0056782191630218772 0 0.024294893157982885 0.0052323600506763409 0 0.024485464501006349 0.0061801907183977626 0 0.023201540451045638 0.0053018353528722154 0 0.024294893157982885 0.0052323600506763409 0 0.023775535415291676 0.0060274996709150626 0 0.023056785188052788 0.0061624673370447034 0 0.023201540451045638 0.0053018353528722154 0 0.023775535415291676 0.0060274996709150626 0 0.025653002048987367 0.0015036549517584428 0 0.028312766252754005 0.0013980610737100478 0 0.022668410643484151 0.0074124279644870728 0 0.024524371240262507 0.0075945609506431182 0 0.023863819855739536 0.0072740876213139493 0 0.024522653757165797 0.00027520654324709592 0 0.024179357497339703 0.00017324617991980727 0 0.024451789159469137 0.00018199705920879446 0 0.022668410643484151 0.0074124279644870728 0 0.024524371240262507 0.0075945609506431182 0 0.025585371081093076 0.0083713697192498056 0 0.023308607447394169 0.0070090904312601916 0 0.023517825256308612 0.0065734713222443614 0 0.023802144589760044 0.0069355500455793948 0 0.023087373711930505 0.006665557292371292 0 0.023308607447394169 0.0070090904312601916 0 0.023517825256308612 0.0065734713222443614 0 0.023087373711930505 0.006665557292371292 0 0.023056785188052788 0.0061624673370447034 0 0.023517825256308612 0.0065734713222443614 0 0.023056785188052788 0.0061624673370447034 0 0.023775535415291676 0.0060274996709150626 0 0.023517825256308612 0.0065734713222443614 0 0.023775535415291676 0.0060274996709150626 0 0.023517825256308612 0.0065734713222443614 0 0.024079127220991377 0.0066454054787715979 0 0.023308607447394169 0.0070090904312601916 0 0.023802144589760044 0.0069355500455793948 0 0.023863819855739536 0.0072740876213139493 0 0.023517825256308612 0.0065734713222443614 0 0.023802144589760044 0.0069355500455793948 0 0.024079127220991377 0.0066454054787715979 0 0.023802144589760044 0.0069355500455793948 0 0.024139974968383465 0.0070231428336855308 0 0.023863819855739536 0.0072740876213139493 0 0.024139974968383465 0.0070231428336855308 0 0.024079127220991377 0.0066454054787715979 0 0.024569751183542696 0.0069881295728277558 0 0.024139974968383465 0.0070231428336855308 0 0.024569751183542696 0.0069881295728277558 0 0.024386283867171826 0.0072728547332929433 0 0.023802144589760044 0.0069355500455793948 0 0.024139974968383465 0.0070231428336855308 0 0.024079127220991377 0.0066454054787715979 0 0.024485464501006349 0.0061801907183977626 0 0.023775535415291676 0.0060274996709150626 0 0.024079127220991377 0.0066454054787715979 0 0.024485464501006349 0.0061801907183977626 0 0.024079127220991377 0.0066454054787715979 0 0.024569751183542696 0.0069881295728277558 0 0.024485464501006349 0.0061801907183977626 0 0.024569751183542696 0.0069881295728277558 0 0.025178599321624227 0.0065023991220000488 0 0.024745548533110704 0.0073397905169888698 0 0.024524371240262507 0.0075945609506431182 0 0.02502128746367864 0.0075090128399996191 0 0.024569751183542696 0.0069881295728277558 0 0.024745548533110704 0.0073397905169888698 0 0.025207216842830154 0.007205505040781341 0 0.024569751183542696 0.0069881295728277558 0 0.024745548533110704 0.0073397905169888698 0 0.024386283867171826 0.0072728547332929433 0 0.024745548533110704 0.0073397905169888698 0 0.024524371240262507 0.0075945609506431182 0 0.024386283867171826 0.0072728547332929433 0 0.024524371240262507 0.0075945609506431182 0 0.024386283867171826 0.0072728547332929433 0 0.023863819855739536 0.0072740876213139493 0 0.024139974968383465 0.0070231428336855308 0 0.024386283867171826 0.0072728547332929433 0 0.023863819855739536 0.0072740876213139493 0 0.022668410643484151 0.0074124279644870728 0 0.023308607447394169 0.0070090904312601916 0 0.023863819855739536 0.0072740876213139493 0 0.02632994788332757 0.0073171244532705447 0 0.027220922013473411 0.0065290587415191116 0 0.026379447712407356 0.0085839604936453102 0 0.026409149197834367 0.006602740701807914 0 0.02632994788332757 0.0073171244532705447 0 0.027220922013473411 0.0065290587415191116 0 0.025744822424337899 0.0068719127412003016 0 0.025691100122476874 0.00741361777650243 0 0.02632994788332757 0.0073171244532705447 0 0.026409149197834367 0.006602740701807914 0 0.025744822424337899 0.0068719127412003016 0 0.02632994788332757 0.0073171244532705447 0 0.025875533718081913 0.0061328650406504755 0 0.026409149197834367 0.006602740701807914 0 0.025744822424337899 0.0068719127412003016 0 0.025875533718081913 0.0061328650406504755 0 0.025178599321624227 0.0065023991220000488 0 0.025744822424337899 0.0068719127412003016 0 0.024569751183542696 0.0069881295728277558 0 0.025178599321624227 0.0065023991220000488 0 0.025207216842830154 0.007205505040781341 0 0.025178599321624227 0.0065023991220000488 0 0.025744822424337899 0.0068719127412003016 0 0.025207216842830154 0.007205505040781341 0 0.025744822424337899 0.0068719127412003016 0 0.025691100122476874 0.00741361777650243 0 0.025207216842830154 0.007205505040781341 0 0.025691100122476874 0.00741361777650243 0 0.025358464217650662 0.0075321900708081244 0 0.025207216842830154 0.007205505040781341 0 0.024524371240262507 0.0075945609506431182 0 0.025287077946355839 0.0078442188045016823 0 0.025585371081093076 0.0083713697192498056 0 0.025691100122476874 0.00741361777650243 0 0.025358464217650662 0.0075321900708081244 0 0.025612135827350113 0.0077734783740498531 0 0.024745548533110704 0.0073397905169888698 0 0.025207216842830154 0.007205505040781341 0 0.02502128746367864 0.0075090128399996191 0 0.025358464217650662 0.0075321900708081244 0 0.025207216842830154 0.007205505040781341 0 0.02502128746367864 0.0075090128399996191 0 0.024524371240262507 0.0075945609506431182 0 0.02502128746367864 0.0075090128399996191 0 0.025287077946355839 0.0078442188045016823 0 0.025358464217650662 0.0075321900708081244 0 0.02502128746367864 0.0075090128399996191 0 0.025287077946355839 0.0078442188045016823 0 0.025691100122476874 0.00741361777650243 0 0.025612135827350113 0.0077734783740498531 0 0.025918084108178797 0.0078849358054297238 0 0.025287077946355839 0.0078442188045016823 0 0.025612135827350113 0.0077734783740498531 0 0.025585371081093076 0.0083713697192498056 0 0.025612135827350113 0.0077734783740498531 0 0.025918084108178797 0.0078849358054297238 0 0.025585371081093076 0.0083713697192498056 0 0.025358464217650662 0.0075321900708081244 0 0.025287077946355839 0.0078442188045016823 0 0.025612135827350113 0.0077734783740498531 0 0.025918084108178797 0.0078849358054297238 0 0.02632994788332757 0.0073171244532705447 0 0.026379447712407356 0.0085839604936453102 0 0.025691100122476874 0.00741361777650243 0 0.025918084108178797 0.0078849358054297238 0 0.02632994788332757 0.0073171244532705447 0 0.029183984516655263 0.001732436833120363 0 0.028686206179202711 0.0014609158370120954 0 0.031931493002229146 0.00072639640957402262 0 0.031891053335748237 0.00055316820096114241 0 0.031551604861405284 0.00090612066964610523 0 0.029183984516655263 0.001732436833120363 0 0.029918259439632739 0.0014190055671429024 0 0.031931493002229146 0.00072639640957402262 0 0.031891053335748237 0.00055316820096114241 0 0.032031215754434808 0.00033469987422713159 0 0.031551604861405284 0.00090612066964610523 0 0.031764745649221611 0.00041833354308269091 0 0.031584910432340678 0.00059321045431520801 0 0.031891053335748237 0.00055316820096114241 0 0.031551604861405284 0.00090612066964610523 0 0.03206102374716923 0.00032102721339909905 0 0.031551604861405284 0.00090612066964610523 0 0.031584910432340678 0.00059321045431520801 0 0.031431853455812654 0.0007920195089601153 0 0.032438623503959957 0.00038403482910351013 0 0.032481578163631696 0.00028801413137391832 0 0.031551604861405284 0.00090612066964610523 0 0.03129655027001714 0.0010079299767191366 0 0.031431853455812654 0.0007920195089601153 0 0.031079495844015991 0.0012028740875226914 0 0.03129655027001714 0.0010079299767191366 0 0.0312388776448712 0.001128354798208268 0 0.031378699890184845 0.0012800419512522892 0 0.031551604861405284 0.00090612066964610523 0 0.0312388776448712 0.001128354798208268 0 0.031551604861405284 0.00090612066964610523 0 0.03129655027001714 0.0010079299767191366 0 0.0312388776448712 0.001128354798208268 0 0.029335525319084465 0.0016965444662461813 0 0.029183984516655263 0.001732436833120363 0 0.031378699890184845 0.0012800419512522892 0 0.031931493002229146 0.00072639640957402262 0 0.031551604861405284 0.00090612066964610523 0 0.028553436505817723 0.004235966263617017 0 0.027323944035901934 0.0067136412797915677 0 0.026909449998259977 0.0056133330029669443 0 0.028553436505817723 0.004235966263617017 0 0.026660501556429204 0.0043014630714636008 0 0.026909449998259977 0.0056133330029669443 0 0.026409149197834367 0.006602740701807914 0 0.027220922013473411 0.0065290587415191116 0 0.026909449998259977 0.0056133330029669443 0 0.029183984516655263 0.001732436833120363 0 0.029194708677947882 0.0018502673445815665 0 0.029685915154120571 0.0012761522344971483 0 0.029624183010645413 0.0014125468567792851 0 0.029543421566744651 0.001200589849452306 0 0.029685915154120571 0.0012761522344971483 0 0.029637895400721502 0.0011859869908092202 0 0.029543421566744651 0.001200589849452306 0 0.029685915154120571 0.0012761522344971483 0 0.029624183010645413 0.0014125468567792851 0 0.029701964645169616 0.0013586363137488996 0 0.029685915154120571 0.0012761522344971483 0 0.029701964645169616 0.0013586363137488996 0 0.029760496926404 0.0013182662105891243 0 0.029685915154120571 0.0012761522344971483 0 0.029771087682338267 0.0012375540500353987 0 0.029736438250559136 0.0011855382154474558 0 0.029685915154120571 0.0012761522344971483 0 0.029637895400721502 0.0011859869908092202 0 0.029736438250559136 0.0011855382154474558 0 0.029685915154120571 0.0012761522344971483 0 0.029760496926404 0.0013182662105891243 0 0.029771087682338267 0.0012375540500353987 0 0.032195162824800359 0.00024404855992017429 0 0.03206102374716923 0.00032102721339909905 0 0.032596921289464918 -2.8467736645652135e-05 0 0.029918259439632739 0.0014190055671429024 0 0.031250353319210007 0.0011517873241524929 0 0.032195162824800359 0.00024404855992017429 0 0.032502247756625614 2.8971606543271298e-06 0 0.032596921289464918 -2.8467736645652135e-05 0 0.032195162824800359 0.00024404855992017429 0 0.032315663926547063 0.0002854176936561495 0 0.032502247756625614 2.8971606543271298e-06 0 0.032481578163631696 0.00028801413137391832 0 0.032611158951291928 0.00014279879740109204 0 0.032195162824800359 0.00024404855992017429 0 0.03206102374716923 0.00032102721339909905 0 0.032031215754434808 0.00033469987422713159 0 0.030010249290884469 0.0014216630255328446 0 0.029918259439632739 0.0014190055671429024 0 0.031764745649221611 0.00041833354308269091 0 0.031584910432340678 0.00059321045431520801 0 0.03167485248408048 0.00040680843237317626 0 0.031891053335748237 0.00055316820096114241 0 0.03206102374716923 0.00032102721339909905 0 0.032031215754434808 0.00033469987422713159 0 0.029554965275094901 0.0016595453222156093 0 0.029120466436120103 0.00054921450652628339 0 0.029909518678274894 0.00077885219252704716 0 0.029624183010645413 0.0014125468567792851 0 0.029701964645169616 0.0013586363137488996 0 0.029778119402221449 0.0014575424207795998 0 0.029918259439632739 0.0014190055671429024 0 0.028686206179202711 0.0014609158370120954 0 0.029701964645169616 0.0013586363137488996 0 0.029778119402221449 0.0014575424207795998 0 0.029760496926404 0.0013182662105891243 0 0.029766992403897134 0.0014729493979045889 0 0.029836980727271051 0.0014930431819117269 0 0.029862109220324777 0.001247838817041211 0 0.028312766252754005 0.0013980610737100478 0 0.029347132677828902 0.0010863260084714521 0 0.028686206179202711 0.0014609158370120954 0 0.028312766252754005 0.0013980610737100478 0 0.025918084108178797 0.0078849358054297238 0 0.026379447712407356 0.0085839604936453102 0 0.025585371081093076 0.0083713697192498056 0 0.024179357497339703 0.00017324617991980727 0 0.024451789159469137 0.00018199705920879446 0 0.024357921457465782 5.7652699841429176e-05 0 0.024179357497339703 0.00017324617991980727 0 0.024357921457465782 5.7652699841429176e-05 0 0.024323120093313198 -0.00017233554307719909 0 0.024451789159469137 0.00018199705920879446 0 0.024357921457465782 5.7652699841429176e-05 0 0.024473993511302056 3.5721556311522536e-05 0 0.024357921457465782 5.7652699841429176e-05 0 0.024323120093313198 -0.00017233554307719909 0 0.024473993511302056 3.5721556311522536e-05 0 0.024323120093313198 -0.00017233554307719909 0 0.024604192212773459 -7.7274735721959001e-05 0 0.024473993511302056 3.5721556311522536e-05 0 0.028686206179202711 0.0014609158370120954 0 0.028784654880668788 0.0013748455887508443 0 0.029778119402221449 0.0014575424207795998 0 0.029760496926404 0.0013182662105891243 0 0.029862109220324777 0.001247838817041211 0 0.029836980727271051 0.0014930431819117269 0 0.02994397044465668 0.0012464117380758925 0 0.029862109220324777 0.001247838817041211 0 0.02994397044465668 0.0012464117380758925 0 0.029862109220324777 0.001247838817041211 0 0.029854361115152068 0.0011656314733305704 0 0.029862109220324777 0.001247838817041211 0 0.029771087682338267 0.0012375540500353987 0 0.029854361115152068 0.0011656314733305704 0 0.029760496926404 0.0013182662105891243 0 0.029862109220324777 0.001247838817041211 0 0.029771087682338267 0.0012375540500353987 0 0.029771087682338267 0.0012375540500353987 0 0.029854361115152068 0.0011656314733305704 0 0.029736438250559136 0.0011855382154474558 0 0.029854361115152068 0.0011656314733305704 0 0.030043583203577251 0.0010109604446300029 0 0.029775654396663073 0.0010655510908182133 0 0.029854361115152068 0.0011656314733305704 0 0.029775654396663073 0.0010655510908182133 0 0.029736438250559136 0.0011855382154474558 0 0.02994397044465668 0.0012464117380758925 0 0.029854361115152068 0.0011656314733305704 0 0.030043583203577251 0.0010109604446300029 0 0.024323120093313198 -0.00017233554307719909 0 0.024471467506031554 -0.00051426870836705817 0 0.024610123430501056 -0.00032365330292082804 0 0.029347132677828902 0.0010863260084714521 0 0.030791151168294804 0.00068891396837329321 0 0.030791151168294804 0.00068891396837329321 0 0.031603968234036169 0.00083527809514789115 0 0.034987153646116931 3.5773958395582499e-06 0 0.034988014020753411 4.1287487830813791e-06 0 0.034990402420352472 2.7291999085879532e-06 0 0.034988014020753411 4.1287487830813791e-06 0 0.034988909214783294 3.4872941269646572e-06 0 0.034990402420352472 2.7291999085879532e-06 0 0.034988014020753411 4.1287487830813791e-06 0 0.034988909214783294 3.4872941269646572e-06 0 0.034986323351291843 5.111475613837578e-06 0 0.034988909214783294 3.4872941269646572e-06 0 0.034989847184672442 2.9778453770389646e-06 0 0.034990968024915817 2.5343589925555521e-06 0 0.029775654396663073 0.0010655510908182133 0 0.029637895400721502 0.0011859869908092202 0 0.029512253631934767 0.0011192191190001607 0 0.031603968234036169 0.00083527809514789115 0 0.031791607426412162 0.0011308559545464955 0 0.029775654396663073 0.0010655510908182133 0 0.029637895400721502 0.0011859869908092202 0 0.029736438250559136 0.0011855382154474558 0 0.032502247756625614 2.8971606543271298e-06 0 0.032634098805481529 1.1841453057888896e-05 0 0.032596921289464918 -2.8467736645652135e-05 0 0.031250353319210007 0.0011517873241524929 0 0.031791607426412162 0.0011308559545464955 0 0.029637895400721502 0.0011859869908092202 0 0.029543421566744651 0.001200589849452306 0 0.029512253631934767 0.0011192191190001607 0 0.034987950093473483 3.7463334453167307e-06 0 0.034990813355294352 1.3601988729489546e-06 0 0.034987630389505753 3.3553825365674099e-06 0 0.034986323351291843 5.111475613837578e-06 0 0.034987950093473483 3.7463334453167307e-06 0 0.034987630389505753 3.3553825365674099e-06 0 0.034988909214783294 3.4872941269646572e-06 0 0.034986323351291843 5.111475613837578e-06 0 0.034987950093473483 3.7463334453167307e-06 0 0.031791607426412162 0.0011308559545464955 0 0.032412159657228608 0.00077311312794720304 0 0.034987950093473483 3.7463334453167307e-06 0 0.034989847184672442 2.9778453770389646e-06 0 0.034991171308120753 2.4180949023743637e-06 0 0.034988909214783294 3.4872941269646572e-06 0 0.034987950093473483 3.7463334453167307e-06 0 0.034989847184672442 2.9778453770389646e-06 0 0.034996904182769073 1.1505681255072613e-06 0 0.03499733972301735 8.2101722852912537e-07 0 0.034987950093473483 3.7463334453167307e-06 0 0.034991171308120753 2.4180949023743637e-06 0 0.034992587814895129 1.8778669068581537e-06 0 0.034989847184672442 2.9778453770389646e-06 0 0.034991171308120753 2.4180949023743637e-06 0 0.034990968024915817 2.5343589925555521e-06 0 0.034991171308120753 2.4180949023743637e-06 0 0.034990968024915817 2.5343589925555521e-06 0 0.034992857857801943 1.8646508927751993e-06 0 0.034991171308120753 2.4180949023743637e-06 0 0.034992587814895129 1.8778669068581537e-06 0 0.034992857857801943 1.8646508927751993e-06 0 0.034990968024915817 2.5343589925555521e-06 0 0.034992639616522714 1.9347244864187316e-06 0 0.034990402420352472 2.7291999085879532e-06 0 0.034988909214783294 3.4872941269646572e-06 0 0.034990968024915817 2.5343589925555521e-06 0 0.034990402420352472 2.7291999085879532e-06 0 0.034990968024915817 2.5343589925555521e-06 0 0.034992639616522714 1.9347244864187316e-06 0 0.034992857857801943 1.8646508927751993e-06 0 0.034992639616522714 1.9347244864187316e-06 0 0.03499463221956494 1.396921487872276e-06 0 0.034993557132699783 1.570023771049959e-06 0 0.034992639616522714 1.9347244864187316e-06 0 0.03499463221956494 1.396921487872276e-06 0 0.034992857857801943 1.8646508927751993e-06 0 0.034992587814895129 1.8778669068581537e-06 0 0.034994815863070267 1.3518972217284726e-06 0 0.03499661803800086 9.2978958036052949e-07 0 0.034992587814895129 1.8778669068581537e-06 0 0.034992857857801943 1.8646508927751993e-06 0 0.034994815863070267 1.3518972217284726e-06 0 0.03499463221956494 1.396921487872276e-06 0 0.034992857857801943 1.8646508927751993e-06 0 0.034994815863070267 1.3518972217284726e-06 0 0.03499463221956494 1.396921487872276e-06 0 0.034994815863070267 1.3518972217284726e-06 0 0.034997448826202586 7.2491145737685014e-07 0 0.034994815863070267 1.3518972217284726e-06 0 0.034997448826202586 7.2491145737685014e-07 0 0.03499661803800086 9.2978958036052949e-07 0 0.03499463221956494 1.396921487872276e-06 0 0.034997448826202586 7.2491145737685014e-07 0 0.034996912999278686 8.1878619610450968e-07 0 0.03499463221956494 1.396921487872276e-06 0 0.034996912999278686 8.1878619610450968e-07 0 0.034993557132699783 1.570023771049959e-06 0 0.034999995164466745 8.2728398015098467e-10 0 0.034999996310870723 1.9104163829550815e-10 0 0.034996912999278686 8.1878619610450968e-07 0 0.034997448826202586 7.2491145737685014e-07 0 0.034999995164466745 8.2728398015098467e-10 0 0.034996912999278686 8.1878619610450968e-07 0 0.034997448826202586 7.2491145737685014e-07 0 0.034999995164466745 8.2728398015098467e-10 0 0.034999996998357021 4.3244231105098866e-10 0 0.034999996310870723 1.9104163829550815e-10 0 0.0349952770704057 9.3262073544251438e-07 0 0.034999990249485205 2.7474782397297329e-09 0 0.034999996310870723 1.9104163829550815e-10 0 0.034996912999278686 8.1878619610450968e-07 0 0.0349952770704057 9.3262073544251438e-07 0 0.034996912999278686 8.1878619610450968e-07 0 0.0349952770704057 9.3262073544251438e-07 0 0.034993557132699783 1.570023771049959e-06 0 0.0349952770704057 9.3262073544251438e-07 0 0.034991374331849567 1.8550209190014287e-06 0 0.034990443590531418 1.2251988787659555e-06 0 0.0349952770704057 9.3262073544251438e-07 0 0.034993557132699783 1.570023771049959e-06 0 0.034991374331849567 1.8550209190014287e-06 0 0.034993557132699783 1.570023771049959e-06 0 0.034990402420352472 2.7291999085879532e-06 0 0.034991374331849567 1.8550209190014287e-06 0 0.034992639616522714 1.9347244864187316e-06 0 0.034993557132699783 1.570023771049959e-06 0 0.034990402420352472 2.7291999085879532e-06 0 0.034987153646116931 3.5773958395582499e-06 0 0.034990402420352472 2.7291999085879532e-06 0 0.034991374331849567 1.8550209190014287e-06 0 0.034947617793784899 3.5174553482921542e-05 0 0.034966598237331066 1.1140704891554563e-05 0 0.034975020439228705 2.6195289751573543e-05 0 0.034987153646116931 3.5773958395582499e-06 0 0.034991374331849567 1.8550209190014287e-06 0 0.034990443590531418 1.2251988787659555e-06 0 0.030791151168294804 0.00068891396837329321 0 0.031891336292810928 -7.8851140362657567e-05 0 0.034966598237331066 1.1140704891554563e-05 0 0.034986270813279985 7.6542057813473403e-06 0 0.034975020439228705 2.6195289751573543e-05 0 0.031891336292810928 -7.8851140362657567e-05 0 0.032217712376712587 -0.00027155859533883398 0 0.034966598237331066 1.1140704891554563e-05 0 0.034991398475055384 4.6109033592756329e-07 0 0.034986270813279985 7.6542057813473403e-06 0 0.0349952770704057 9.3262073544251438e-07 0 0.034990443590531418 1.2251988787659555e-06 0 0.034991398475055384 4.6109033592756329e-07 0 0.034991398475055384 4.6109033592756329e-07 0 0.034999990249485205 2.7474782397297329e-09 0 0.034999989259332093 -6.398349616388391e-10 0 0.0349952770704057 9.3262073544251438e-07 0 0.034991398475055384 4.6109033592756329e-07 0 0.034999990249485205 2.7474782397297329e-09 0 0.034999989259332093 -6.398349616388391e-10 0 0.03499475506964949 1.2188660249500693e-06 0 0.03499999538766984 6.5024766665751397e-10 0 0.034991398475055384 4.6109033592756329e-07 0 0.034999989259332093 -6.398349616388391e-10 0 0.03499475506964949 1.2188660249500693e-06 0 0.03499475506964949 1.2188660249500693e-06 0 0.034993480702386691 3.801189890813568e-06 0 0.034986270813279985 7.6542057813473403e-06 0 0.034991398475055384 4.6109033592756329e-07 0 0.03499475506964949 1.2188660249500693e-06 0 0.034986270813279985 7.6542057813473403e-06 0 0.03499475506964949 1.2188660249500693e-06 0 0.034993480702386691 3.801189890813568e-06 0 0.03499999538766984 6.5024766665751397e-10 0 0.034993480702386691 3.801189890813568e-06 0 0.034988220468340048 1.515386832003127e-05 0 0.034993439161174401 6.0250178731095593e-06 0 0.034993480702386691 3.801189890813568e-06 0 0.034986270813279985 7.6542057813473403e-06 0 0.034988220468340048 1.515386832003127e-05 0 0.034986270813279985 7.6542057813473403e-06 0 0.034988220468340048 1.515386832003127e-05 0 0.034975020439228705 2.6195289751573543e-05 0 0.025161569740268553 -0.00067344513006970896 0 0.025089352637062686 -0.00037827267711514669 0 0.0253804297070972 -0.00047470621805754444 0 0.025467501419707571 -0.00010774784707429354 0 0.025564639904757817 -4.5287466855568712e-05 0 0.025089352637062686 -0.00037827267711514669 0 0.025101066391326893 -0.00016713418293919655 0 0.025484579750413208 -0.00015405892310875591 0 0.025089352637062686 -0.00037827267711514669 0 0.02482187717009525 -0.00026136697025439123 0 0.025101066391326893 -0.00016713418293919655 0 0.025089352637062686 -0.00037827267711514669 0 0.024825567666509622 -0.00058755958811013067 0 0.02482187717009525 -0.00026136697025439123 0 0.025161569740268553 -0.00067344513006970896 0 0.025089352637062686 -0.00037827267711514669 0 0.024825567666509622 -0.00058755958811013067 0 0.030304260510320008 0.00011436548607968302 0 0.030412824198508603 0.00036986345665112843 0 0.030791151168294804 0.00068891396837329321 0 0.030412824198508603 0.00036986345665112843 0 0.024471467506031554 -0.00051426870836705817 0 0.024825567666509622 -0.00058755958811013067 0 0.024610123430501056 -0.00032365330292082804 0 0.024825567666509622 -0.00058755958811013067 0 0.024610123430501056 -0.00032365330292082804 0 0.02482187717009525 -0.00026136697025439123 0 0.02482187717009525 -0.00026136697025439123 0 0.024781030661667317 -5.1712247431786908e-05 0 0.024951280593216111 -3.0399535506649927e-05 0 0.02482187717009525 -0.00026136697025439123 0 0.024781030661667317 -5.1712247431786908e-05 0 0.024604192212773459 -7.7274735721959001e-05 0 0.024781030661667317 -5.1712247431786908e-05 0 0.024604192212773459 -7.7274735721959001e-05 0 0.024695040370276256 8.9323217788434095e-05 0 0.024781030661667317 -5.1712247431786908e-05 0 0.024825188082680319 5.0856420271437811e-05 0 0.024951280593216111 -3.0399535506649927e-05 0 0.024610123430501056 -0.00032365330292082804 0 0.02482187717009525 -0.00026136697025439123 0 0.024604192212773459 -7.7274735721959001e-05 0 0.024323120093313198 -0.00017233554307719909 0 0.024610123430501056 -0.00032365330292082804 0 0.024604192212773459 -7.7274735721959001e-05 0 0.024604192212773459 -7.7274735721959001e-05 0 0.024473993511302056 3.5721556311522536e-05 0 0.024580176354017203 7.3380504393958586e-05 0 0.024473993511302056 3.5721556311522536e-05 0 0.024580176354017203 7.3380504393958586e-05 0 0.024527638203522221 0.00015144195856542269 0 0.024604192212773459 -7.7274735721959001e-05 0 0.024580176354017203 7.3380504393958586e-05 0 0.024695040370276256 8.9323217788434095e-05 0 0.024580176354017203 7.3380504393958586e-05 0 0.024605190268931806 0.00016330079437889788 0 0.024695040370276256 8.9323217788434095e-05 0 0.024676256734031957 0.00019939986085767985 0 0.024605190268931806 0.00016330079437889788 0 0.024695040370276256 8.9323217788434095e-05 0 0.024676256734031957 0.00019939986085767985 0 0.024633250771436115 0.00020905333810106055 0 0.024605190268931806 0.00016330079437889788 0 0.024556816154964325 0.00022746799698741011 0 0.024633250771436115 0.00020905333810106055 0 0.024605190268931806 0.00016330079437889788 0 0.024451789159469137 0.00018199705920879446 0 0.024473993511302056 3.5721556311522536e-05 0 0.024527638203522221 0.00015144195856542269 0 0.024580176354017203 7.3380504393958586e-05 0 0.024605190268931806 0.00016330079437889788 0 0.024527638203522221 0.00015144195856542269 0 0.024556816154964325 0.00022746799698741011 0 0.024605190268931806 0.00016330079437889788 0 0.024527638203522221 0.00015144195856542269 0 0.02451469662414205 0.00020915197849254115 0 0.024556816154964325 0.00022746799698741011 0 0.024527638203522221 0.00015144195856542269 0 0.02451469662414205 0.00020915197849254115 0 0.024451789159469137 0.00018199705920879446 0 0.024527638203522221 0.00015144195856542269 0 0.024825188082680319 5.0856420271437811e-05 0 0.024792119804151573 0.00014616851583631839 0 0.024906795900450932 0.00010125255036219256 0 0.024781030661667317 -5.1712247431786908e-05 0 0.024825188082680319 5.0856420271437811e-05 0 0.024695040370276256 8.9323217788434095e-05 0 0.024825188082680319 5.0856420271437811e-05 0 0.024695040370276256 8.9323217788434095e-05 0 0.024792119804151573 0.00014616851583631839 0 0.024676256734031957 0.00019939986085767985 0 0.024695040370276256 8.9323217788434095e-05 0 0.024726623689085573 0.00015869425933302258 0 0.024695040370276256 8.9323217788434095e-05 0 0.024726623689085573 0.00015869425933302258 0 0.024792119804151573 0.00014616851583631839 0 0.024676256734031957 0.00019939986085767985 0 0.024726623689085573 0.00015869425933302258 0 0.024747872960954535 0.00020696570891660492 0 0.024726623689085573 0.00015869425933302258 0 0.024747872960954535 0.00020696570891660492 0 0.024792119804151573 0.00014616851583631839 0 0.024819598640734977 0.00022946460622271379 0 0.024792119804151573 0.00014616851583631839 0 0.024866679950977976 0.00018701804733490109 0 0.024792119804151573 0.00014616851583631839 0 0.024866679950977976 0.00018701804733490109 0 0.024906795900450932 0.00010125255036219256 0 0.024819598640734977 0.00022946460622271379 0 0.024747872960954535 0.00020696570891660492 0 0.024792119804151573 0.00014616851583631839 0 0.025050352904979062 0.00012751034325326051 0 0.025196742380568158 -6.641017803256368e-06 0 0.024951280593216111 -3.0399535506649927e-05 0 0.024939222029052622 0.00021336209657952702 0 0.024866679950977976 0.00018701804733490109 0 0.024906795900450932 0.00010125255036219256 0 0.024939222029052622 0.00021336209657952702 0 0.024906795900450932 0.00010125255036219256 0 0.025050352904979062 0.00012751034325326051 0 0.024906795900450932 0.00010125255036219256 0 0.025050352904979062 0.00012751034325326051 0 0.024951280593216111 -3.0399535506649927e-05 0 0.024825188082680319 5.0856420271437811e-05 0 0.024906795900450932 0.00010125255036219256 0 0.024951280593216111 -3.0399535506649927e-05 0 0.025050131642323625 0.00025100321906337207 0 0.024939222029052622 0.00021336209657952702 0 0.025050352904979062 0.00012751034325326051 0 0.025255433164283768 0.00022689655330975351 0 0.025050352904979062 0.00012751034325326051 0 0.025196742380568158 -6.641017803256368e-06 0 0.025255433164283768 0.00022689655330975351 0 0.025196742380568158 -6.641017803256368e-06 0 0.025484579750413208 -0.00015405892310875591 0 0.025255433164283768 0.00022689655330975351 0 0.025050131642323625 0.00025100321906337207 0 0.025050352904979062 0.00012751034325326051 0 0.025196742380568158 -6.641017803256368e-06 0 0.025101066391326893 -0.00016713418293919655 0 0.025484579750413208 -0.00015405892310875591 0 0.025196742380568158 -6.641017803256368e-06 0 0.025101066391326893 -0.00016713418293919655 0 0.024951280593216111 -3.0399535506649927e-05 0 0.02482187717009525 -0.00026136697025439123 0 0.025101066391326893 -0.00016713418293919655 0 0.024951280593216111 -3.0399535506649927e-05 0 0.025564639904757817 -4.5287466855568712e-05 0 0.025736155225751678 6.4822337394347944e-05 0 0.02540688065492171 -0.00010340987263207395 0 0.025867137822931891 0.0002342488385159918 0 0.025708335811369967 -0.00032850601682223176 0 0.025614553034120954 0.00024105595958370937 0 0.025255433164283768 0.00022689655330975351 0 0.025484579750413208 -0.00015405892310875591 0 0.025614553034120954 0.00024105595958370937 0 0.025484579750413208 -0.00015405892310875591 0 0.025851752521138426 8.49289747578037e-05 0 0.025826224947727693 0.00012214957174834225 0 0.025736155225751678 6.4822337394347944e-05 0 0.026195613241986465 0.00037003512533378681 0 0.025867137822931891 0.0002342488385159918 0 0.026179161883718004 0.00019614840527317826 0 0.026179161883718004 0.00019614840527317826 0 0.026055082119767946 -6.4977634709816834e-05 0 0.026326275350035684 6.5220334853739289e-05 0 0.026055082119767946 -6.4977634709816834e-05 0 0.026246365164341173 -0.00021849272436737409 0 0.026326275350035684 6.5220334853739289e-05 0 0.025867137822931891 0.0002342488385159918 0 0.026179161883718004 0.00019614840527317826 0 0.026055082119767946 -6.4977634709816834e-05 0 0.025867137822931891 0.0002342488385159918 0 0.026055082119767946 -6.4977634709816834e-05 0 0.025708335811369967 -0.00032850601682223176 0 0.026055082119767946 -6.4977634709816834e-05 0 0.026044875446828177 -0.000455126078894906 0 0.025708335811369967 -0.00032850601682223176 0 0.026055082119767946 -6.4977634709816834e-05 0 0.026246365164341173 -0.00021849272436737409 0 0.026044875446828177 -0.000455126078894906 0 0.026246365164341173 -0.00021849272436737409 0 0.026044875446828177 -0.000455126078894906 0 0.026401286184696018 -0.00047489215448000299 0 0.026044875446828177 -0.000455126078894906 0 0.026316843132291993 -0.00084918455628845812 0 0.026401286184696018 -0.00047489215448000299 0 0.026044875446828177 -0.000455126078894906 0 0.026316843132291993 -0.00084918455628845812 0 0.025986502595985325 -0.00079794339839123359 0 0.026044875446828177 -0.000455126078894906 0 0.025802499957919313 -0.00058509035470418803 0 0.025708335811369967 -0.00032850601682223176 0 0.026044875446828177 -0.000455126078894906 0 0.025802499957919313 -0.00058509035470418803 0 0.025986502595985325 -0.00079794339839123359 0 0.025802499957919313 -0.00058509035470418803 0 0.025986502595985325 -0.00079794339839123359 0 0.025728725620002259 -0.00079445881437407951 0 0.025622823284370388 -0.00059899151764173687 0 0.0253804297070972 -0.00047470621805754444 0 0.025530697033297071 -0.0008113500337158222 0 0.025622823284370388 -0.00059899151764173687 0 0.025708335811369967 -0.00032850601682223176 0 0.0253804297070972 -0.00047470621805754444 0 0.025802499957919313 -0.00058509035470418803 0 0.025622823284370388 -0.00059899151764173687 0 0.025728725620002259 -0.00079445881437407951 0 0.025802499957919313 -0.00058509035470418803 0 0.025622823284370388 -0.00059899151764173687 0 0.025708335811369967 -0.00032850601682223176 0 0.025089352637062686 -0.00037827267711514669 0 0.02540688065492171 -0.00010340987263207395 0 0.0253804297070972 -0.00047470621805754444 0 0.02540688065492171 -0.00010340987263207395 0 0.025708335811369967 -0.00032850601682223176 0 0.0253804297070972 -0.00047470621805754444 0 0.025161569740268553 -0.00067344513006970896 0 0.0253804297070972 -0.00047470621805754444 0 0.025530697033297071 -0.0008113500337158222 0 0.030304260510320008 0.00011436548607968302 0 0.030289865583233259 -8.3714278932147594e-05 0 0.034988220468340048 1.515386832003127e-05 0 0.034991344192982325 7.5102764096051282e-06 0 0.034993439161174401 6.0250178731095593e-06 0 0.034991344192982325 7.5102764096051282e-06 0 0.034993721346498724 4.0965804026101506e-06 0 0.034991400310095302 3.0645509936717813e-06 0 0.030289865583233259 -8.3714278932147594e-05 0 0.030246113121557307 -0.00022652772977631381 0 0.025622823284370388 -0.00059899151764173687 0 0.025530697033297071 -0.0008113500337158222 0 0.025728725620002259 -0.00079445881437407951 0 0.034991344192982325 7.5102764096051282e-06 0 0.034993721346498724 4.0965804026101506e-06 0 0.034993439161174401 6.0250178731095593e-06 0 0.034993721346498724 4.0965804026101506e-06 0 0.034993439161174401 6.0250178731095593e-06 0 0.034996521662264655 2.4222043591845893e-06 0 0.034993480702386691 3.801189890813568e-06 0 0.034993439161174401 6.0250178731095593e-06 0 0.034996521662264655 2.4222043591845893e-06 0 0.034993480702386691 3.801189890813568e-06 0 0.034996521662264655 2.4222043591845893e-06 0 0.03499999538766984 6.5024766665751397e-10 0 0.034996521662264655 2.4222043591845893e-06 0 0.034999997123801856 1.2906046109519802e-09 0 0.034995813496694617 1.964128227900144e-06 0 0.034993721346498724 4.0965804026101506e-06 0 0.034996521662264655 2.4222043591845893e-06 0 0.034995813496694617 1.964128227900144e-06 0 0.034996521662264655 2.4222043591845893e-06 0 0.034999997123801856 1.2906046109519802e-09 0 0.03499999538766984 6.5024766665751397e-10 0 0.034997403167290428 8.9927853849539429e-07 0 0.034999991469150275 1.8427504607047997e-09 0 0.034995148582364487 6.6158760734889042e-07 0 0.034994311558811289 1.3152914864937145e-06 0 0.033726133253110246 -9.6900901875031644e-05 0 0.034999997123801856 1.2906046109519802e-09 0 0.034997403167290428 8.9927853849539429e-07 0 0.034995813496694617 1.964128227900144e-06 0 0.034999997123801856 1.2906046109519802e-09 0 0.034997403167290428 8.9927853849539429e-07 0 0.034999991469150275 1.8427504607047997e-09 0 0.034997403167290428 8.9927853849539429e-07 0 0.034994710865394553 6.9730462053924786e-07 0 0.034995148582364487 6.6158760734889042e-07 0 0.034995813496694617 1.964128227900144e-06 0 0.034994710865394553 6.9730462053924786e-07 0 0.034992278181929785 7.2461422117122383e-07 0 0.034997403167290428 8.9927853849539429e-07 0 0.034995813496694617 1.964128227900144e-06 0 0.034994710865394553 6.9730462053924786e-07 0 0.031225068851770982 -0.00028867548888615531 0 0.030246113121557307 -0.00022652772977631381 0 0.034995813496694617 1.964128227900144e-06 0 0.034992278181929785 7.2461422117122383e-07 0 0.034991400310095302 3.0645509936717813e-06 0 0.026348440219027401 -0.0015822402728971063 0 0.02580987877874414 -0.0012061029966363654 0 0.026355829065942929 -0.0013173614085130116 0 0.034993721346498724 4.0965804026101506e-06 0 0.034995813496694617 1.964128227900144e-06 0 0.034991400310095302 3.0645509936717813e-06 0 0.025530697033297071 -0.0008113500337158222 0 0.025925676757658576 -0.00094530407780336087 0 0.025728725620002259 -0.00079445881437407951 0 0.025986502595985325 -0.00079794339839123359 0 0.02596011692487572 -0.0010963217050692358 0 0.025728725620002259 -0.00079445881437407951 0 0.030246113121557307 -0.00022652772977631381 0 0.02994634760114126 -0.00011660488922381413 0 0.02596011692487572 -0.0010963217050692358 0 0.026355829065942929 -0.0013173614085130116 0 0.026190158458469021 -0.0010318857636873713 0 0.030246113121557307 -0.00022652772977631381 0 0.029860641273506162 -0.00020224615173705058 0 0.026355829065942929 -0.0013173614085130116 0 0.026190158458469021 -0.0010318857636873713 0 0.026404792867745854 -0.0011166700382488817 0 0.025986502595985325 -0.00079794339839123359 0 0.02596011692487572 -0.0010963217050692358 0 0.026190158458469021 -0.0010318857636873713 0 0.026316843132291993 -0.00084918455628845812 0 0.025986502595985325 -0.00079794339839123359 0 0.026190158458469021 -0.0010318857636873713 0 0.026316843132291993 -0.00084918455628845812 0 0.026190158458469021 -0.0010318857636873713 0 0.026404792867745854 -0.0011166700382488817 0 0.026316843132291993 -0.00084918455628845812 0 0.026404792867745854 -0.0011166700382488817 0 0.026624816962238656 -0.0011032043341102739 0 0.026316843132291993 -0.00084918455628845812 0 0.026624816962238656 -0.0011032043341102739 0 0.026681879980786694 -0.00078394037320480593 0 0.026624816962238656 -0.0011032043341102739 0 0.026931041316597574 -0.0010717632004725521 0 0.026681879980786694 -0.00078394037320480593 0 0.026624816962238656 -0.0011032043341102739 0 0.026842745487104861 -0.0014259308010928929 0 0.026572743194788716 -0.0013684811056178059 0 0.026624816962238656 -0.0011032043341102739 0 0.026842745487104861 -0.0014259308010928929 0 0.026931041316597574 -0.0010717632004725521 0 0.026404792867745854 -0.0011166700382488817 0 0.026624816962238656 -0.0011032043341102739 0 0.026572743194788716 -0.0013684811056178059 0 0.026355829065942929 -0.0013173614085130116 0 0.026404792867745854 -0.0011166700382488817 0 0.026572743194788716 -0.0013684811056178059 0 0.026842745487104861 -0.0014259308010928929 0 0.027406338642086914 -0.0013135047257680744 0 0.026931041316597574 -0.0010717632004725521 0 0.027406338642086914 -0.0013135047257680744 0 0.026931041316597574 -0.0010717632004725521 0 0.027159950045871503 -0.00070746648702058534 0 0.032499560022597088 -0.00030407923424837651 0 0.032566981634653575 -0.000173857306843155 0 0.026842745487104861 -0.0014259308010928929 0 0.027406338642086914 -0.0013135047257680744 0 0.02682596711544117 -0.0019145638110515681 0 0.030380872683771511 0.001095407808193051 0 0.030244374347402816 0.0011869022180569008 0 0.029700252652320357 0.00086743151718402737 0 0.029813598226720049 0.00028549219804143821 0 0.030380872683771511 0.001095407808193051 0 0.029700252652320357 0.00086743151718402737 0 0.031228341767973615 -0.00075172123772235581 0 0.032282600198763764 -0.00033686498569273477 0 0.031225068851770982 -0.00028867548888615531 0 0.032282600198763764 -0.00033686498569273477 0 0.026348440219027401 -0.0015822402728971063 0 0.026660018904547195 -0.0015993749376293582 0 0.02682596711544117 -0.0019145638110515681 0 0.034994710865394553 6.9730462053924786e-07 0 0.034992278181929785 7.2461422117122383e-07 0 0.03499137481972267 -5.5498531121387228e-07 0 0.026842745487104861 -0.0014259308010928929 0 0.026660018904547195 -0.0015993749376293582 0 0.02682596711544117 -0.0019145638110515681 0 0.026348440219027401 -0.0015822402728971063 0 0.026572743194788716 -0.0013684811056178059 0 0.026660018904547195 -0.0015993749376293582 0 0.026348440219027401 -0.0015822402728971063 0 0.026355829065942929 -0.0013173614085130116 0 0.026572743194788716 -0.0013684811056178059 0 0.026842745487104861 -0.0014259308010928929 0 0.026572743194788716 -0.0013684811056178059 0 0.026660018904547195 -0.0015993749376293582 0 0.034994710865394553 6.9730462053924786e-07 0 0.03499137481972267 -5.5498531121387228e-07 0 0.034995148582364487 6.6158760734889042e-07 0 0.034996950552591291 -1.9986706725978392e-06 0 0.034995297627503454 -3.2301922977240009e-06 0 0.034998154142834727 -1.1844606824586768e-06 0 0.032282600198763764 -0.00033686498569273477 0 0.033726133253110246 -9.6900901875031644e-05 0 0.034994849138380642 -4.1005238850563896e-06 0 0.034995297627503454 -3.2301922977240009e-06 0 0.034998154142834727 -1.1844606824586768e-06 0 0.033653848592184954 8.6216345705734563e-05 0 0.033011156956221137 0.00051601358759649756 0 0.032721760815669701 -0.00046507962798540426 0 0.032282600198763764 -0.00033686498569273477 0 0.032499560022597088 -0.00030407923424837651 0 0.034994849138380642 -4.1005238850563896e-06 0 0.034995297627503454 -3.2301922977240009e-06 0 0.034993705961402777 -3.7827607052038221e-06 0 0.034995297627503454 -3.2301922977240009e-06 0 0.034995153031613511 -3.5286841606246545e-06 0 0.03499612524239875 -2.5679319969995027e-06 0 0.032508452851826568 -0.00030006357507024792 0 0.032499560022597088 -0.00030407923424837651 0 0.032499560022597088 -0.00030407923424837651 0 0.033374498263136376 -0.00034796714650743988 0 0.034995153031613511 -3.5286841606246545e-06 0 0.034994923388790157 -2.7158497983494383e-06 0 0.03499612524239875 -2.5679319969995027e-06 0 0.034996950552591291 -1.9986706725978392e-06 0 0.03499612524239875 -2.5679319969995027e-06 0 0.034997942910185167 -1.1999124062932232e-06 0 0.034994923388790157 -2.7158497983494383e-06 0 0.03499612524239875 -2.5679319969995027e-06 0 0.034997942910185167 -1.1999124062932232e-06 0 0.034996950552591291 -1.9986706725978392e-06 0 0.034995297627503454 -3.2301922977240009e-06 0 0.03499612524239875 -2.5679319969995027e-06 0 0.034994923388790157 -2.7158497983494383e-06 0 0.034997942910185167 -1.1999124062932232e-06 0 0.034999988718845992 -2.3470504572014226e-09 0 0.033374498263136376 -0.00034796714650743988 0 0.034992712465957768 2.2394963197366549e-07 0 0.035000001610352008 8.1186554484185218e-10 0 0.034997942910185167 -1.1999124062932232e-06 0 0.034999988718845992 -2.3470504572014226e-09 0 0.035000001610352008 8.1186554484185218e-10 0 0.034997942910185167 -1.1999124062932232e-06 0 0.034998154142834727 -1.1844606824586768e-06 0 0.034996950552591291 -1.9986706725978392e-06 0 0.034997942910185167 -1.1999124062932232e-06 0 0.034998154142834727 -1.1844606824586768e-06 0 0.035000687623885175 -1.8623048394649759e-07 0 0.034997676857423131 3.4726088084022705e-07 0 0.034886117822773788 -6.7599332089468503e-06 0 0.034997676857423131 3.4726088084022705e-07 0 0.03344732845385328 0.00014155975473612066 0 0.031287299511294039 -5.0736783011652779e-07 0 0.034997676857423131 3.4726088084022705e-07 0 0.034886117822773788 -6.7599332089468503e-06 0 0.03344732845385328 0.00014155975473612066 0 0.034886117822773788 -6.7599332089468503e-06 0 0.033709871523696228 3.6624056888551813e-07 0 0.03344732845385328 0.00014155975473612066 0 0.033511626062277713 -0.00034161001934422962 0 0.033477230944155445 -0.0003451845495599118 0 0.034977466707712519 -7.0073631134057307e-05 0 0.035000687623885175 -1.8623048394649759e-07 0 0.034932298864445002 -3.9103058564483498e-05 0 0.035000687623885175 -1.8623048394649759e-07 0 0.034886117822773788 -6.7599332089468503e-06 0 0.034932298864445002 -3.9103058564483498e-05 0 0.033374498263136376 -0.00034796714650743988 0 0.033477230944155445 -0.0003451845495599118 0 0.033374498263136376 -0.00034796714650743988 0 0.032566981634653575 -0.000173857306843155 0 0.033709871523696228 3.6624056888551813e-07 0 0.033504144932642026 9.8737473707839665e-05 0 0.03344732845385328 0.00014155975473612066 0 0.033478299103380973 8.739823038872045e-05 0 0.033504144932642026 9.8737473707839665e-05 0 0.033412897198199815 1.880940921042041e-05 0 0.033478299103380973 8.739823038872045e-05 0 0.033709871523696228 3.6624056888551813e-07 0 0.033504144932642026 9.8737473707839665e-05 0 0.033504144932642026 9.8737473707839665e-05 0 0.03344732845385328 0.00014155975473612066 0 0.033412897198199815 1.880940921042041e-05 0 0.03344732845385328 0.00014155975473612066 0 0.032773013561265392 -0.00014453360955733253 0 0.031287299511294039 -5.0736783011652779e-07 0 0.03344732845385328 0.00014155975473612066 0 0.032773013561265392 -0.00014453360955733253 0 0.033412897198199815 1.880940921042041e-05 0 0.031893977182004478 -0.00010839532294606493 0 0.032566981634653575 -0.000173857306843155 0 0.032566981634653575 -0.000173857306843155 0 0.032285618399754253 -0.0002994924316434283 0 0.029813598226720049 0.00028549219804143821 0 0.029700252652320357 0.00086743151718402737 0 0.029283312617367798 9.0848596465840093e-05 0 0.029876240898423442 -0.0010342552439672238 0 0.029057319358579359 -0.0015320600136970839 0 0.029283312617367798 9.0848596465840093e-05 0 0.029876240898423442 -0.0010342552439672238 0 0.031279998234064535 -1.8304648012201788e-06 0 0.029283312617367798 9.0848596465840093e-05 0 0.031893977182004478 -0.00010839532294606493 0 0.031286002431362585 -1.3833340144098745e-06 0 0.028649131881686409 -0.00012424613267468339 0 0.029220611394457512 4.1818688416383781e-07 0 0.029283312617367798 9.0848596465840093e-05 0 0.031279998234064535 -1.8304648012201788e-06 0 0.029220611394457512 4.1818688416383781e-07 0 0.029283312617367798 9.0848596465840093e-05 0 0.028649131881686409 -0.00012424613267468339 0 0.029220611394457512 4.1818688416383781e-07 0 0.02762589117215836 0.00015012495074206297 0 0.028649131881686409 -0.00012424613267468339 0 0.02760099738328296 5.993888400630967e-05 0 0.02762589117215836 0.00015012495074206297 0 0.028649131881686409 -0.00012424613267468339 0 0.02760099738328296 5.993888400630967e-05 0 0.027305828075282569 -0.00019370881000534536 0 0.027406338642086914 -0.0013135047257680744 0 0.028649131881686409 -0.00012424613267468339 0 0.027159950045871503 -0.00070746648702058534 0 0.029813598226720049 0.00028549219804143821 0 0.028649131881686409 -0.00012424613267468339 0 0.029283312617367798 9.0848596465840093e-05 0 0.031228341767973615 -0.00075172123772235581 0 0.030963129295264662 -0.00077609123860259972 0 0.028649131881686409 -0.00012424613267468339 0 0.027159950045871503 -0.00070746648702058534 0 0.027305828075282569 -0.00019370881000534536 0 0.026931041316597574 -0.0010717632004725521 0 0.027159950045871503 -0.00070746648702058534 0 0.026681879980786694 -0.00078394037320480593 0 0.027159950045871503 -0.00070746648702058534 0 0.026681879980786694 -0.00078394037320480593 0 0.026783548883574277 -0.0003624320209096831 0 0.027159950045871503 -0.00070746648702058534 0 0.027305828075282569 -0.00019370881000534536 0 0.026783548883574277 -0.0003624320209096831 0 0.026316843132291993 -0.00084918455628845812 0 0.026681879980786694 -0.00078394037320480593 0 0.026401286184696018 -0.00047489215448000299 0 0.026681879980786694 -0.00078394037320480593 0 0.026401286184696018 -0.00047489215448000299 0 0.026783548883574277 -0.0003624320209096831 0 0.026246365164341173 -0.00021849272436737409 0 0.026401286184696018 -0.00047489215448000299 0 0.026501919778115862 -0.00017365683561464069 0 0.026401286184696018 -0.00047489215448000299 0 0.026501919778115862 -0.00017365683561464069 0 0.026783548883574277 -0.0003624320209096831 0 0.026501919778115862 -0.00017365683561464069 0 0.026783548883574277 -0.0003624320209096831 0 0.026818270071616478 5.6946366805132221e-05 0 0.026246365164341173 -0.00021849272436737409 0 0.026501919778115862 -0.00017365683561464069 0 0.026326275350035684 6.5220334853739289e-05 0 0.02760099738328296 5.993888400630967e-05 0 0.027305828075282569 -0.00019370881000534536 0 0.026818270071616478 5.6946366805132221e-05 0 0.027305828075282569 -0.00019370881000534536 0 0.026783548883574277 -0.0003624320209096831 0 0.026818270071616478 5.6946366805132221e-05 0 0.02760099738328296 5.993888400630967e-05 0 0.026818270071616478 5.6946366805132221e-05 0 0.026893397129003929 0.00026482734513231122 0 0.026818270071616478 5.6946366805132221e-05 0 0.026423503115616715 0.0002732223887240119 0 0.026893397129003929 0.00026482734513231122 0 0.026818270071616478 5.6946366805132221e-05 0 0.026326275350035684 6.5220334853739289e-05 0 0.026423503115616715 0.0002732223887240119 0 0.026179161883718004 0.00019614840527317826 0 0.026326275350035684 6.5220334853739289e-05 0 0.026423503115616715 0.0002732223887240119 0 0.026501919778115862 -0.00017365683561464069 0 0.026818270071616478 5.6946366805132221e-05 0 0.026326275350035684 6.5220334853739289e-05 0 0.026249938748549979 0.00034239489643671396 0 0.026195613241986465 0.00037003512533378681 0 0.026423503115616715 0.0002732223887240119 0 0.026195613241986465 0.00037003512533378681 0 0.026179161883718004 0.00019614840527317826 0 0.026423503115616715 0.0002732223887240119 0 0.026249938748549979 0.00034239489643671396 0 0.026423503115616715 0.0002732223887240119 0 0.026893397129003929 0.00026482734513231122 0 0.026249938748549979 0.00034239489643671396 0 0.026347577517448054 0.00026421868394975906 0 0.026893397129003929 0.00026482734513231122 0 0.026347577517448054 0.00026421868394975906 0 0.027157632167481811 5.0449308771821767e-07 0 0.02762589117215836 0.00015012495074206297 0 0.029220611394457512 4.1818688416383781e-07 0 0.027157632167481811 5.0449308771821767e-07 0 0.02762589117215836 0.00015012495074206297 0 0.02760099738328296 5.993888400630967e-05 0 0.02762589117215836 0.00015012495074206297 0 0.026893397129003929 0.00026482734513231122 0 0.026347577517448054 0.00026421868394975906 0 0.02762589117215836 0.00015012495074206297 0 0.026893397129003929 0.00026482734513231122 0 0.032919566689465454 -0.00077856509148291884 0 0.03282946875502335 -0.00032767783642571429 0 0.033396878897512562 -0.00099542241888188766 0 0.030204507269457528 0.00064490280154339366 0 0.03043743386443902 0.0004057233319007652 0 0.032919566689465454 -0.00077856509148291884 0 0.033396878897512562 -0.00099542241888188766 0 0.033020564566511562 -0.0012469365354614503 0 0.032919566689465454 -0.00077856509148291884 0 0.032428285528620551 -0.00098358604318790816 0 0.032733318120760212 -0.0011826484032650421 0 0.032919566689465454 -0.00077856509148291884 0 0.032428285528620551 -0.00098358604318790816 0 0.032491876342892072 -0.00055977658405704351 0 0.032919566689465454 -0.00077856509148291884 0 0.032491876342892072 -0.00055977658405704351 0 0.032800654008377415 -0.00035983098980583821 0 0.032335947969813941 -0.00025031902882586182 0 0.032491876342892072 -0.00055977658405704351 0 0.032800654008377415 -0.00035983098980583821 0 0.027229128989174588 0.0029466764390204073 0 0.027336356035345958 0.002976213032833267 0 0.027270078577705106 0.00252967035361024 0 0.027229128989174588 0.0029466764390204073 0 0.027336356035345958 0.002976213032833267 0 0.027360231583697662 0.0030671722789495618 0 0.030286041935010631 0.00050517556197092895 0 0.030204507269457528 0.00064490280154339366 0 0.027336356035345958 0.002976213032833267 0 0.027458437250275382 0.0029401924502105597 0 0.027270078577705106 0.00252967035361024 0 0.027336356035345958 0.002976213032833267 0 0.027458437250275382 0.0029401924502105597 0 0.027433786774984911 0.0030726503887264054 0 0.027458437250275382 0.0029401924502105597 0 0.027592104703066181 0.0030839555460475971 0 0.027433786774984911 0.0030726503887264054 0 0.027662138809282626 0.0028660396151973522 0 0.027592104703066181 0.0030839555460475971 0 0.027921083666216099 0.0030299270102023619 0 0.027458437250275382 0.0029401924502105597 0 0.027662138809282626 0.0028660396151973522 0 0.027592104703066181 0.0030839555460475971 0 0.027790761995251788 0.0025751077443854349 0 0.027270078577705106 0.00252967035361024 0 0.027996226915361397 0.0021555665681527972 0 0.027662138809282626 0.0028660396151973522 0 0.027790761995251788 0.0025751077443854349 0 0.027270078577705106 0.00252967035361024 0 0.027662138809282626 0.0028660396151973522 0 0.027790761995251788 0.0025751077443854349 0 0.028134909365654319 0.0027066453029477673 0 0.027790761995251788 0.0025751077443854349 0 0.027996226915361397 0.0021555665681527972 0 0.028134909365654319 0.0027066453029477673 0 0.027458437250275382 0.0029401924502105597 0 0.027662138809282626 0.0028660396151973522 0 0.027270078577705106 0.00252967035361024 0 0.033396878897512562 -0.00099542241888188766 0 0.033356808267415668 -0.0014614471212206798 0 0.033850195469423895 -0.0016837820819584248 0 0.03043743386443902 0.0004057233319007652 0 0.030741781730808174 4.7338488535390987e-05 0 0.033396878897512562 -0.00099542241888188766 0 0.033356808267415668 -0.0014614471212206798 0 0.033020564566511562 -0.0012469365354614503 0 0.027270078577705106 0.00252967035361024 0 0.027996226915361397 0.0021555665681527972 0 0.027764195373132631 0.001483018054845877 0 0.033850195469423895 -0.0016837820819584248 0 0.033341739684176974 -0.001802472301686028 0 0.033843409505770881 -0.0018957857219747485 0 0.033356808267415668 -0.0014614471212206798 0 0.033850195469423895 -0.0016837820819584248 0 0.033341739684176974 -0.001802472301686028 0 0.033356808267415668 -0.0014614471212206798 0 0.033341739684176974 -0.001802472301686028 0 0.033069010522435285 -0.00149778999262937 0 0.034259128997610314 -0.0018799117060235573 0 0.034051319249182539 -0.0018476613754912882 0 0.034119980558314639 -0.0018468388811646258 0 0.033341739684176974 -0.001802472301686028 0 0.033069010522435285 -0.00149778999262937 0 0.032609000402429714 -0.001502515599119992 0 0.034259128997610314 -0.0018799117060235573 0 0.034033013769388207 -0.0017041767890452534 0 0.034051319249182539 -0.0018476613754912882 0 0.033460834092275911 -0.0017091724833676902 0 0.033280695468978723 -0.0016376140666232908 0 0.033356808267415668 -0.0014614471212206798 0 0.033069010522435285 -0.00149778999262937 0 0.033020564566511562 -0.0012469365354614503 0 0.033069010522435285 -0.00149778999262937 0 0.032874291022297324 -0.0013701639418949889 0 0.032609000402429714 -0.001502515599119992 0 0.032919566689465454 -0.00077856509148291884 0 0.033020564566511562 -0.0012469365354614503 0 0.032733318120760212 -0.0011826484032650421 0 0.033069010522435285 -0.00149778999262937 0 0.032874291022297324 -0.0013701639418949889 0 0.033020564566511562 -0.0012469365354614503 0 0.032874291022297324 -0.0013701639418949889 0 0.033020564566511562 -0.0012469365354614503 0 0.032733318120760212 -0.0011826484032650421 0 0.032428285528620551 -0.00098358604318790816 0 0.032733318120760212 -0.0011826484032650421 0 0.032609000402429714 -0.001502515599119992 0 0.033809310534871219 -0.0019184166240407644 0 0.034033013769388207 -0.0017041767890452534 0 0.032044216712342942 -0.0012223133181833747 0 0.032874291022297324 -0.0013701639418949889 0 0.032733318120760212 -0.0011826484032650421 0 0.032609000402429714 -0.001502515599119992 0 0.033809310534871219 -0.0019184166240407644 0 0.034033013769388207 -0.0017041767890452534 0 0.034051319249182539 -0.0018476613754912882 0 0.034051319249182539 -0.0018476613754912882 0 0.033988513869509941 -0.0018707368082509521 0 0.034119980558314639 -0.0018468388811646258 0 0.033809310534871219 -0.0019184166240407644 0 0.034051319249182539 -0.0018476613754912882 0 0.033925533417281176 -0.0018823475090573901 0 0.034051319249182539 -0.0018476613754912882 0 0.033925533417281176 -0.0018823475090573901 0 0.033988513869509941 -0.0018707368082509521 0 0.033809310534871219 -0.0019184166240407644 0 0.033925533417281176 -0.0018823475090573901 0 0.033959379558937026 -0.0018786407965611421 0 0.033925533417281176 -0.0018823475090573901 0 0.033959379558937026 -0.0018786407965611421 0 0.033988513869509941 -0.0018707368082509521 0 0.033809310534871219 -0.0019184166240407644 0 0.033959379558937026 -0.0018786407965611421 0 0.034153446260616817 -0.0019089550200169949 0 0.033809310534871219 -0.0019184166240407644 0 0.031686176263752683 -0.0023470706770953578 0 0.032044216712342942 -0.0012223133181833747 0 0.032948798750021407 -0.0017117126176665431 0 0.032739793927798314 -0.0017284119306380124 0 0.031686176263752683 -0.0023470706770953578 0 0.031342184547637507 -0.0015178499872768125 0 0.030919907969845374 -0.0018547946031119964 0 0.031686176263752683 -0.0023470706770953578 0 0.031342184547637507 -0.0015178499872768125 0 0.032044216712342942 -0.0012223133181833747 0 0.031342184547637507 -0.0015178499872768125 0 0.032044216712342942 -0.0012223133181833747 0 0.031139818523752912 -0.00067990827061941523 0 0.033280695468978723 -0.0016376140666232908 0 0.033125628416985964 -0.0015789840089130852 0 0.032428285528620551 -0.00098358604318790816 0 0.032609000402429714 -0.001502515599119992 0 0.032044216712342942 -0.0012223133181833747 0 0.030919907969845374 -0.0018547946031119964 0 0.030372683040469934 -0.0016702097828138053 0 0.030495485419252781 -0.0024297833686087846 0 0.030372683040469934 -0.0016702097828138053 0 0.030495485419252781 -0.0024297833686087846 0 0.029946532061972623 -0.0019145681306298591 0 0.030372683040469934 -0.0016702097828138053 0 0.029946532061972623 -0.0019145681306298591 0 0.029897849241682914 -0.0015000737321452114 0 0.031686176263752683 -0.0023470706770953578 0 0.030919907969845374 -0.0018547946031119964 0 0.030495485419252781 -0.0024297833686087846 0 0.032739793927798314 -0.0017284119306380124 0 0.032351179149756916 -0.0017171231786118949 0 0.031342184547637507 -0.0015178499872768125 0 0.030804428081632959 -0.0013499194088608727 0 0.031139818523752912 -0.00067990827061941523 0 0.031342184547637507 -0.0015178499872768125 0 0.030919907969845374 -0.0018547946031119964 0 0.030804428081632959 -0.0013499194088608727 0 0.030919907969845374 -0.0018547946031119964 0 0.030804428081632959 -0.0013499194088608727 0 0.030372683040469934 -0.0016702097828138053 0 0.030372683040469934 -0.0016702097828138053 0 0.030187935676619211 -0.00086833756599648867 0 0.029897849241682914 -0.0015000737321452114 0 0.030804428081632959 -0.0013499194088608727 0 0.030372683040469934 -0.0016702097828138053 0 0.030187935676619211 -0.00086833756599648867 0 0.030187935676619211 -0.00086833756599648867 0 0.031139818523752912 -0.00067990827061941523 0 0.030198069167784659 0.00021842238562973872 0 0.030804428081632959 -0.0013499194088608727 0 0.030187935676619211 -0.00086833756599648867 0 0.031139818523752912 -0.00067990827061941523 0 0.031139818523752912 -0.00067990827061941523 0 0.031999975568973521 -0.00043461879962960256 0 0.031359271826323185 0.00035791986399646205 0 0.032428285528620551 -0.00098358604318790816 0 0.032491876342892072 -0.00055977658405704351 0 0.031999975568973521 -0.00043461879962960256 0 0.032428285528620551 -0.00098358604318790816 0 0.032044216712342942 -0.0012223133181833747 0 0.031999975568973521 -0.00043461879962960256 0 0.032044216712342942 -0.0012223133181833747 0 0.031139818523752912 -0.00067990827061941523 0 0.031999975568973521 -0.00043461879962960256 0 0.032335947969813941 -0.00025031902882586182 0 0.032491876342892072 -0.00055977658405704351 0 0.031999975568973521 -0.00043461879962960256 0 0.032335947969813941 -0.00025031902882586182 0 0.031999975568973521 -0.00043461879962960256 0 0.032199858793047202 0.0001212593492883779 0 0.031999975568973521 -0.00043461879962960256 0 0.032199858793047202 0.0001212593492883779 0 0.031672390612332589 6.3426145159155406e-05 0 0.029490771194868256 -0.00093201007283698215 0 0.029173395651518819 -0.00080921986325453797 0 0.031672390612332589 6.3426145159155406e-05 0 0.031825425895947404 0.0003552100737793128 0 0.031445029166089287 0.00043769988367944732 0 0.032199858793047202 0.0001212593492883779 0 0.031672390612332589 6.3426145159155406e-05 0 0.031825425895947404 0.0003552100737793128 0 0.032199858793047202 0.0001212593492883779 0 0.031825425895947404 0.0003552100737793128 0 0.032122109559070064 0.00035633720733519808 0 0.031139818523752912 -0.00067990827061941523 0 0.031359271826323185 0.00035791986399646205 0 0.030198069167784659 0.00021842238562973872 0 0.029173395651518819 -0.00080921986325453797 0 0.028298864895363582 -0.00060342382804999528 0 0.031359271826323185 0.00035791986399646205 0 0.030198069167784659 0.00021842238562973872 0 0.030769229829574616 0.0011649013998466721 0 0.030198069167784659 0.00021842238562973872 0 0.030769229829574616 0.0011649013998466721 0 0.029966885510394715 0.00116863390079476 0 0.028298864895363582 -0.00060342382804999528 0 0.026823985489399294 -0.00042454712939813516 0 0.030769229829574616 0.0011649013998466721 0 0.029990554417048804 0.0018430135028221623 0 0.029966885510394715 0.00116863390079476 0 0.031445029166089287 0.00043769988367944732 0 0.03146013979530627 0.00067859854724363516 0 0.031726311880718089 0.00062255589456510819 0 0.03146013979530627 0.00067859854724363516 0 0.031726311880718089 0.00062255589456510819 0 0.031644067534013269 0.00080572517466632619 0 0.031445029166089287 0.00043769988367944732 0 0.03146013979530627 0.00067859854724363516 0 0.031234648238716835 0.00075282389658517634 0 0.030769229829574616 0.0011649013998466721 0 0.030174971441722927 0.0020699964537953704 0 0.029990554417048804 0.0018430135028221623 0 0.026823985489399294 -0.00042454712939813516 0 0.026885810464331087 -0.0003582633200711021 0 0.032122109559070064 0.00035633720733519808 0 0.03197472290707172 0.00055281776667860823 0 0.03217288168907452 0.00061740406936084779 0 0.031825425895947404 0.0003552100737793128 0 0.032122109559070064 0.00035633720733519808 0 0.03197472290707172 0.00055281776667860823 0 0.031825425895947404 0.0003552100737793128 0 0.031445029166089287 0.00043769988367944732 0 0.031726311880718089 0.00062255589456510819 0 0.031825425895947404 0.0003552100737793128 0 0.03197472290707172 0.00055281776667860823 0 0.031726311880718089 0.00062255589456510819 0 0.031726311880718089 0.00062255589456510819 0 0.031803230505717157 0.00078994181367021265 0 0.031917202563338562 0.00070723501254371256 0 0.031726311880718089 0.00062255589456510819 0 0.031644067534013269 0.00080572517466632619 0 0.031803230505717157 0.00078994181367021265 0 0.031803230505717157 0.00078994181367021265 0 0.031917586264633049 0.00079964710314638511 0 0.031917202563338562 0.00070723501254371256 0 0.03197472290707172 0.00055281776667860823 0 0.031726311880718089 0.00062255589456510819 0 0.031917202563338562 0.00070723501254371256 0 0.03197472290707172 0.00055281776667860823 0 0.031917202563338562 0.00070723501254371256 0 0.03203589953972507 0.00068833129817143538 0 0.03197472290707172 0.00055281776667860823 0 0.03203589953972507 0.00068833129817143538 0 0.03217288168907452 0.00061740406936084779 0 0.031917202563338562 0.00070723501254371256 0 0.03203589953972507 0.00068833129817143538 0 0.031997985521589528 0.0007906629465738869 0 0.031917586264633049 0.00079964710314638511 0 0.031917202563338562 0.00070723501254371256 0 0.031997985521589528 0.0007906629465738869 0 0.031977657796424946 0.00082273049080956013 0 0.031917586264633049 0.00079964710314638511 0 0.031997985521589528 0.0007906629465738869 0 0.031980714187797285 0.00081140661369659959 0 0.031997985521589528 0.0007906629465738869 0 0.031976073702186969 0.00081188181686785784 0 0.028248809582177205 0.00045139001301115457 0 0.028167470520475173 0.0004472668891517837 0 0.03203589953972507 0.00068833129817143538 0 0.031997985521589528 0.0007906629465738869 0 0.03212380051211753 0.00079567783187089861 0 0.028167470520475173 0.0004472668891517837 0 0.027483233136903009 0.00044845557781408212 0 0.031973710463093122 0.00081190605584409599 0 0.031976073702186969 0.00081188181686785784 0 0.031973271086857144 0.00080943462762673578 0 0.027540989333575808 0.001742858773821146 0 0.029070258756398588 0.0017995079842814158 0 0.027990811320172698 -0.00049727345412966693 0 0.027398755304726897 0.0030994394123032808 0 0.027397466225949511 0.0030957697782155041 0 0.027404394496208566 0.0030921671652890635 0 0.027483233136903009 0.00044845557781408212 0 0.028305762822127364 0.00084830160777451169 0 0.03203589953972507 0.00068833129817143538 0 0.03212380051211753 0.00079567783187089861 0 0.03217288168907452 0.00061740406936084779 0 0.028167470520475173 0.0004472668891517837 0 0.028305762822127364 0.00084830160777451169 0 0.027398755304726897 0.0030994394123032808 0 0.027404394496208566 0.0030921671652890635 0 0.027422478629072149 0.0030927146305905645 0 0.027483233136903009 0.00044845557781408212 0 0.02590253001046235 0.00023450583174054922 0 0.027404394496208566 0.0030921671652890635 0 0.027410431185460136 0.0030966337126347556 0 0.027427463405866992 0.0030771188971982352 0 0.027404394496208566 0.0030921671652890635 0 0.027389472934190234 0.0030991680555460927 0 0.027410431185460136 0.0030966337126347556 0 0.027397466225949511 0.0030957697782155041 0 0.027404394496208566 0.0030921671652890635 0 0.027389472934190234 0.0030991680555460927 0 0.027389472934190234 0.0030991680555460927 0 0.027410431185460136 0.0030966337126347556 0 0.027385637554998194 0.003102781478051278 0 0.032122109559070064 0.00035633720733519808 0 0.032259511782034636 0.00066074334199687362 0 0.032360507090030653 0.00020504093907134234 0 0.027397466225949511 0.0030957697782155041 0 0.027389472934190234 0.0030991680555460927 0 0.027349926456672696 0.0030993225987794603 0 0.028513883880393217 0.00095141270523700346 0 0.028305762822127364 0.00084830160777451169 0 0.028305762822127364 0.00084830160777451169 0 0.029273410146023866 0.0009418905004034599 0 0.032199858793047202 0.0001212593492883779 0 0.032122109559070064 0.00035633720733519808 0 0.032360507090030653 0.00020504093907134234 0 0.027389472934190234 0.0030991680555460927 0 0.027349926456672696 0.0030993225987794603 0 0.027385637554998194 0.003102781478051278 0 0.027410431185460136 0.0030966337126347556 0 0.027385637554998194 0.003102781478051278 0 0.027425574435907277 0.0031139492560280447 0 0.027385637554998194 0.003102781478051278 0 0.027360231583697662 0.0030671722789495618 0 0.027425574435907277 0.0031139492560280447 0 0.027349926456672696 0.0030993225987794603 0 0.027385637554998194 0.003102781478051278 0 0.027360231583697662 0.0030671722789495618 0 0.027229128989174588 0.0029466764390204073 0 0.027349926456672696 0.0030993225987794603 0 0.027360231583697662 0.0030671722789495618 0 0.030204507269457528 0.00064490280154339366 0 0.029273410146023866 0.0009418905004034599 0 0.032420485775507601 -0.00013441064430770827 0 0.032199858793047202 0.0001212593492883779 0 0.032360507090030653 0.00020504093907134234 0 0.030204507269457528 0.00064490280154339366 0 0.030605497733568916 0.00031931866408356263 0 0.032335947969813941 -0.00025031902882586182 0 0.032800654008377415 -0.00035983098980583821 0 0.032199858793047202 0.0001212593492883779 0 0.027480952245554698 0.0031253302784807887 0 0.027592104703066181 0.0030839555460475971 0 0.027494007297861885 0.0031656537496286717 0 0.027592104703066181 0.0030839555460475971 0 0.027494007297861885 0.0031656537496286717 0 0.027614610418607344 0.0031711763679387376 0 0.027480952245554698 0.0031253302784807887 0 0.027592104703066181 0.0030839555460475971 0 0.027433786774984911 0.0030726503887264054 0 0.027360231583697662 0.0030671722789495618 0 0.027433786774984911 0.0030726503887264054 0 0.027425574435907277 0.0031139492560280447 0 0.027480952245554698 0.0031253302784807887 0 0.027433786774984911 0.0030726503887264054 0 0.027425574435907277 0.0031139492560280447 0 0.027336356035345958 0.002976213032833267 0 0.027360231583697662 0.0030671722789495618 0 0.027433786774984911 0.0030726503887264054 0 0.027480952245554698 0.0031253302784807887 0 0.027425574435907277 0.0031139492560280447 0 0.027460389533414533 0.0031280551533279005 0 0.027425574435907277 0.0031139492560280447 0 0.027460389533414533 0.0031280551533279005 0 0.027443974752505196 0.0030919915847520685 0 0.027480952245554698 0.0031253302784807887 0 0.027460389533414533 0.0031280551533279005 0 0.027494007297861885 0.0031656537496286717 0 0.027460389533414533 0.0031280551533279005 0 0.027494007297861885 0.0031656537496286717 0 0.027423793161353054 0.0031090974343712463 0 0.027423793161353054 0.0031090974343712463 0 0.027404776369300277 0.0030443630543622903 0 0.027443974752505196 0.0030919915847520685 0 0.027460389533414533 0.0031280551533279005 0 0.027423793161353054 0.0031090974343712463 0 0.027443974752505196 0.0030919915847520685 0 0.027404776369300277 0.0030443630543622903 0 0.027443974752505196 0.0030919915847520685 0 0.027439802931329641 0.0030362233853266246 0 0.027410431185460136 0.0030966337126347556 0 0.027443974752505196 0.0030919915847520685 0 0.027427463405866992 0.0030771188971982352 0 0.027410431185460136 0.0030966337126347556 0 0.027425574435907277 0.0031139492560280447 0 0.027443974752505196 0.0030919915847520685 0 0.027443974752505196 0.0030919915847520685 0 0.027427463405866992 0.0030771188971982352 0 0.027439802931329641 0.0030362233853266246 0 0.02590253001046235 0.00023450583174054922 0 0.025418000945023028 0.00041029058336725847 0 0.027558868004074845 0.0029262990992233598 0 0.027439802931329641 0.0030362233853266246 0 0.027402042759514012 0.0029193702891508575 0 0.027404394496208566 0.0030921671652890635 0 0.027427463405866992 0.0030771188971982352 0 0.027422478629072149 0.0030927146305905645 0 0.027427463405866992 0.0030771188971982352 0 0.027422478629072149 0.0030927146305905645 0 0.027439802931329641 0.0030362233853266246 0 0.02590253001046235 0.00023450583174054922 0 0.025902397268702252 0.00034811580053029345 0 0.025418000945023028 0.00041029058336725847 0 0.02481809017111395 0.0005540373428373031 0 0.027359527218012811 0.0029722146962728106 0 0.027402042759514012 0.0029193702891508575 0 0.027290997183088823 0.0029004029190425381 0 0.027404776369300277 0.0030443630543622903 0 0.027359527218012811 0.0029722146962728106 0 0.027439802931329641 0.0030362233853266246 0 0.027359527218012811 0.0029722146962728106 0 0.027439802931329641 0.0030362233853266246 0 0.027402042759514012 0.0029193702891508575 0 0.027404776369300277 0.0030443630543622903 0 0.027359527218012811 0.0029722146962728106 0 0.027237674198948316 0.0029665380201021477 0 0.027359527218012811 0.0029722146962728106 0 0.027290997183088823 0.0029004029190425381 0 0.027237674198948316 0.0029665380201021477 0 0.02481809017111395 0.0005540373428373031 0 0.024843026746791216 0.0012166870596693592 0 0.025882209696907601 0.0032012724381045026 0 0.026213095218044952 0.0032243351649635203 0 0.025959362384521491 0.0032292566208737268 0 0.025810272482561538 0.0031849904120925003 0 0.025882209696907601 0.0032012724381045026 0 0.025959362384521491 0.0032292566208737268 0 0.024839382409122368 0.00056782310366753719 0 0.02481809017111395 0.0005540373428373031 0 0.024843026746791216 0.0012166870596693592 0 0.024853747984539223 0.0014361805249525233 0 0.027237674198948316 0.0029665380201021477 0 0.02734755518750355 0.0031601446817876924 0 0.027014135658790722 0.003143089790328939 0 0.027423793161353054 0.0031090974343712463 0 0.027404776369300277 0.0030443630543622903 0 0.027237674198948316 0.0029665380201021477 0 0.027423793161353054 0.0031090974343712463 0 0.027237674198948316 0.0029665380201021477 0 0.02734755518750355 0.0031601446817876924 0 0.026213095218044952 0.0032243351649635203 0 0.026550918522263382 0.0031880617389672158 0 0.026058431335868243 0.0032582667393678453 0 0.026213095218044952 0.0032243351649635203 0 0.026550918522263382 0.0031880617389672158 0 0.027014135658790722 0.003143089790328939 0 0.026213095218044952 0.0032243351649635203 0 0.026058431335868243 0.0032582667393678453 0 0.025959362384521491 0.0032292566208737268 0 0.02574957433320145 0.003227966646849397 0 0.025810272482561538 0.0031849904120925003 0 0.025959362384521491 0.0032292566208737268 0 0.025538612669757509 0.0033013256063016646 0 0.02574957433320145 0.003227966646849397 0 0.026058431335868243 0.0032582667393678453 0 0.02574957433320145 0.003227966646849397 0 0.026058431335868243 0.0032582667393678453 0 0.025959362384521491 0.0032292566208737268 0 0.025538612669757509 0.0033013256063016646 0 0.02557039201782605 0.0034955186213807997 0 0.026150264431962458 0.0033006464531761268 0 0.025538612669757509 0.0033013256063016646 0 0.026058431335868243 0.0032582667393678453 0 0.026150264431962458 0.0033006464531761268 0 0.025033591709977421 0.0039002010039724737 0 0.02557039201782605 0.0034955186213807997 0 0.026132382961239924 0.0033140652606791078 0 0.02557039201782605 0.0034955186213807997 0 0.026132382961239924 0.0033140652606791078 0 0.026150264431962458 0.0033006464531761268 0 0.026562391378338691 0.0031803934372411874 0 0.026150264431962458 0.0033006464531761268 0 0.02679409785492682 0.003144163010541782 0 0.026132382961239924 0.0033140652606791078 0 0.026562391378338691 0.0031803934372411874 0 0.026150264431962458 0.0033006464531761268 0 0.026550918522263382 0.0031880617389672158 0 0.026058431335868243 0.0032582667393678453 0 0.026150264431962458 0.0033006464531761268 0 0.026550918522263382 0.0031880617389672158 0 0.026150264431962458 0.0033006464531761268 0 0.02679409785492682 0.003144163010541782 0 0.026550918522263382 0.0031880617389672158 0 0.02679409785492682 0.003144163010541782 0 0.027113646394059731 0.0031544200234577728 0 0.02679409785492682 0.003144163010541782 0 0.027149784700981713 0.0031019659317515357 0 0.027113646394059731 0.0031544200234577728 0 0.027149784700981713 0.0031019659317515357 0 0.027113646394059731 0.0031544200234577728 0 0.027453489349668698 0.0031273348160353398 0 0.02679409785492682 0.003144163010541782 0 0.026998943205252698 0.0030464761584460113 0 0.027258550939833398 0.0030091068389555657 0 0.026562391378338691 0.0031803934372411874 0 0.02679409785492682 0.003144163010541782 0 0.026998943205252698 0.0030464761584460113 0 0.02679409785492682 0.003144163010541782 0 0.027149784700981713 0.0031019659317515357 0 0.027258550939833398 0.0030091068389555657 0 0.026998943205252698 0.0030464761584460113 0 0.027258550939833398 0.0030091068389555657 0 0.027466207237073291 0.0029044734866916747 0 0.027258550939833398 0.0030091068389555657 0 0.02767797027590805 0.0028174440028679842 0 0.027466207237073291 0.0029044734866916747 0 0.027258550939833398 0.0030091068389555657 0 0.027587631340503939 0.0028727025998088978 0 0.027453489349668698 0.0031273348160353398 0 0.027258550939833398 0.0030091068389555657 0 0.027587631340503939 0.0028727025998088978 0 0.02767797027590805 0.0028174440028679842 0 0.027453489349668698 0.0031273348160353398 0 0.027560397610557296 0.0031498049632784938 0 0.029192507150618899 0.002352562442577334 0 0.027113646394059731 0.0031544200234577728 0 0.027453489349668698 0.0031273348160353398 0 0.027560397610557296 0.0031498049632784938 0 0.027149784700981713 0.0031019659317515357 0 0.027258550939833398 0.0030091068389555657 0 0.027453489349668698 0.0031273348160353398 0 0.027113646394059731 0.0031544200234577728 0 0.027560397610557296 0.0031498049632784938 0 0.027389331361754459 0.0031797256596770352 0 0.027560397610557296 0.0031498049632784938 0 0.027762458476509912 0.0031447543397565636 0 0.027389331361754459 0.0031797256596770352 0 0.027560397610557296 0.0031498049632784938 0 0.027762458476509912 0.0031447543397565636 0 0.028185674748411146 0.0030268903336413762 0 0.027762458476509912 0.0031447543397565636 0 0.027614610418607344 0.0031711763679387376 0 0.027921083666216099 0.0030299270102023619 0 0.027592104703066181 0.0030839555460475971 0 0.027614610418607344 0.0031711763679387376 0 0.027921083666216099 0.0030299270102023619 0 0.027762458476509912 0.0031447543397565636 0 0.027614610418607344 0.0031711763679387376 0 0.027389331361754459 0.0031797256596770352 0 0.027494007297861885 0.0031656537496286717 0 0.027614610418607344 0.0031711763679387376 0 0.02734755518750355 0.0031601446817876924 0 0.027614610418607344 0.0031711763679387376 0 0.02734755518750355 0.0031601446817876924 0 0.027389331361754459 0.0031797256596770352 0 0.027494007297861885 0.0031656537496286717 0 0.027423793161353054 0.0031090974343712463 0 0.02734755518750355 0.0031601446817876924 0 0.02734755518750355 0.0031601446817876924 0 0.027014135658790722 0.003143089790328939 0 0.027389331361754459 0.0031797256596770352 0 0.026550918522263382 0.0031880617389672158 0 0.027113646394059731 0.0031544200234577728 0 0.027014135658790722 0.003143089790328939 0 0.027113646394059731 0.0031544200234577728 0 0.027014135658790722 0.003143089790328939 0 0.027389331361754459 0.0031797256596770352 0 0.029829882286870998 -0.0011678042244260727 0 0.030252564462445883 -0.0025376416988394665 0 0.031126852356810088 -0.00079746212384396609 0 0.028366049467281471 0.0033881167992695208 0 0.028183809704934538 0.0033059374150035169 0 0.028195503513615404 0.0030928646521479002 0 0.025955895647807058 0.0017454868528794551 0 0.027059757918035394 0.0018234583014521617 0 0.023615290410051708 0.0013186788151534107 0 0.023656221604269688 0.0012324301363015144 0 0.023536563118033912 0.0012716390952719064 0 0.028366049467281471 0.0033881167992695208 0 0.028058607817604487 0.0034820058006098018 0 0.028183809704934538 0.0033059374150035169 0 0.025955895647807058 0.0017454868528794551 0 0.025115477844047374 0.0023289439250474601 0 0.025115477844047374 0.0023289439250474601 0 0.024835732324098778 0.0024136083047466314 0 0.025115477844047374 0.0023289439250474601 0 0.025637060361633587 0.0027478946676244053 0 0.028058607817604487 0.0034820058006098018 0 0.028183809704934538 0.0033059374150035169 0 0.02794331448302903 0.0031665116775199957 0 0.028183809704934538 0.0033059374150035169 0 0.02794331448302903 0.0031665116775199957 0 0.028195503513615404 0.0030928646521479002 0 0.027222021879714252 0.0035393736889059511 0 0.027097294228713941 0.0030097126575423017 0 0.026662885802174539 0.0032224884921936451 0 0.027097294228713941 0.0030097126575423017 0 0.026662885802174539 0.0032224884921936451 0 0.026804083338349691 0.0030970147091496708 0 0.025033591709977421 0.0039002010039724737 0 0.026662885802174539 0.0032224884921936451 0 0.027113268917047465 0.0039025926990938443 0 0.027222021879714252 0.0035393736889059511 0 0.026662885802174539 0.0032224884921936451 0 0.026968840823732625 0.0036103607712592283 0 0.025003932370136459 0.0025764556265394866 0 0.024835732324098778 0.0024136083047466314 0 0.025033591709977421 0.0039002010039724737 0 0.026132382961239924 0.0033140652606791078 0 0.026662885802174539 0.0032224884921936451 0 0.026132382961239924 0.0033140652606791078 0 0.026662885802174539 0.0032224884921936451 0 0.026804083338349691 0.0030970147091496708 0 0.026562391378338691 0.0031803934372411874 0 0.026998943205252698 0.0030464761584460113 0 0.026804083338349691 0.0030970147091496708 0 0.026132382961239924 0.0033140652606791078 0 0.026562391378338691 0.0031803934372411874 0 0.026804083338349691 0.0030970147091496708 0 0.026998943205252698 0.0030464761584460113 0 0.026804083338349691 0.0030970147091496708 0 0.027238704129958179 0.0029782183702298909 0 0.026998943205252698 0.0030464761584460113 0 0.027238704129958179 0.0029782183702298909 0 0.027466207237073291 0.0029044734866916747 0 0.02767797027590805 0.0028174440028679842 0 0.027466207237073291 0.0029044734866916747 0 0.027901043396935162 0.0027033312949895161 0 0.027466207237073291 0.0029044734866916747 0 0.027901043396935162 0.0027033312949895161 0 0.02780030035174072 0.0028170378633349661 0 0.027238704129958179 0.0029782183702298909 0 0.027466207237073291 0.0029044734866916747 0 0.02780030035174072 0.0028170378633349661 0 0.025637060361633587 0.0027478946676244053 0 0.025786117937124466 0.0028084300518503953 0 0.02794331448302903 0.0031665116775199957 0 0.02780030035174072 0.0028170378633349661 0 0.028026155876368048 0.0027712181046663517 0 0.027097294228713941 0.0030097126575423017 0 0.026804083338349691 0.0030970147091496708 0 0.027238704129958179 0.0029782183702298909 0 0.027097294228713941 0.0030097126575423017 0 0.027238704129958179 0.0029782183702298909 0 0.02780030035174072 0.0028170378633349661 0 0.027685041830587804 0.0017952305496569268 0 0.027059757918035394 0.0018234583014521617 0 0.02794331448302903 0.0031665116775199957 0 0.028026155876368048 0.0027712181046663517 0 0.028195503513615404 0.0030928646521479002 0 0.031462480607194261 0.00075486903108685252 0 0.030589756267901672 0.00041329441523364085 0 0.031126852356810088 -0.00079746212384396609 0 0.031462480607194261 0.00075486903108685252 0 0.030589756267901672 0.00041329441523364085 0 0.03099984425139022 0.0010719409619444143 0 0.029829882286870998 -0.0011678042244260727 0 0.030589756267901672 0.00041329441523364085 0 0.031126852356810088 -0.00079746212384396609 0 0.031079495844015991 0.0012028740875226914 0 0.031081130646665799 0.0012397552155318588 0 0.030805115218617958 0.0013774684571075705 0 0.031081130646665799 0.0012397552155318588 0 0.030987249311649215 0.0013181407078952754 0 0.030805115218617958 0.0013774684571075705 0 0.030987249311649215 0.0013181407078952754 0 0.030805115218617958 0.0013774684571075705 0 0.030669966158389888 0.0011965539130087916 0 0.029953492443593809 0.0014661786842377559 0 0.030589756267901672 0.00041329441523364085 0 0.030669966158389888 0.0011965539130087916 0 0.030589756267901672 0.00041329441523364085 0 0.030669966158389888 0.0011965539130087916 0 0.03099984425139022 0.0010719409619444143 0 0.030987249311649215 0.0013181407078952754 0 0.030669966158389888 0.0011965539130087916 0 0.03099984425139022 0.0010719409619444143 0 0.030987249311649215 0.0013181407078952754 0 0.03099984425139022 0.0010719409619444143 0 0.031114235749944128 0.0012769028604970212 0 0.031462480607194261 0.00075486903108685252 0 0.03099984425139022 0.0010719409619444143 0 0.031114235749944128 0.0012769028604970212 0 0.030987249311649215 0.0013181407078952754 0 0.031114235749944128 0.0012769028604970212 0 0.0310668235168086 0.0013101358804111039 0 0.031081130646665799 0.0012397552155318588 0 0.030987249311649215 0.0013181407078952754 0 0.0310668235168086 0.0013101358804111039 0 0.031114235749944128 0.0012769028604970212 0 0.0310668235168086 0.0013101358804111039 0 0.030962810859665044 0.0015233291259844821 0 0.0310668235168086 0.0013101358804111039 0 0.030962810859665044 0.0015233291259844821 0 0.030883573496921446 0.0011447569679757348 0 0.030962810859665044 0.0015233291259844821 0 0.029746870253137367 0.001340882358421307 0 0.030883573496921446 0.0011447569679757348 0 0.031462480607194261 0.00075486903108685252 0 0.031114235749944128 0.0012769028604970212 0 0.030962810859665044 0.0015233291259844821 0 0.027901043396935162 0.0027033312949895161 0 0.02780030035174072 0.0028170378633349661 0 0.028460773168909683 0.002405382080647818 0 0.02780030035174072 0.0028170378633349661 0 0.028026155876368048 0.0027712181046663517 0 0.028460773168909683 0.002405382080647818 0 0.027685041830587804 0.0017952305496569268 0 0.027938176237461317 0.0016354082385474124 0 0.028460773168909683 0.002405382080647818 0 0.028098926643485317 0.0025760200712307496 0 0.028618009579333824 0.0021875481642493573 0 0.027901043396935162 0.0027033312949895161 0 0.028460773168909683 0.002405382080647818 0 0.028098926643485317 0.0025760200712307496 0 0.02767797027590805 0.0028174440028679842 0 0.027901043396935162 0.0027033312949895161 0 0.028098926643485317 0.0025760200712307496 0 0.028460773168909683 0.002405382080647818 0 0.028618009579333824 0.0021875481642493573 0 0.029746870253137367 0.001340882358421307 0 0.027938176237461317 0.0016354082385474124 0 0.027979722947767405 0.0015075588139374083 0 0.028618009579333824 0.0021875481642493573 0 0.029746870253137367 0.001340882358421307 0 0.029104441090928045 0.0010526580413834658 0 0.029746870253137367 0.001340882358421307 0 0.030558703232532326 0.00089242792957993354 0 0.030883573496921446 0.0011447569679757348 0 0.029746870253137367 0.001340882358421307 0 0.030298118555025226 0.00073452874369461406 0 0.030558703232532326 0.00089242792957993354 0 0.029746870253137367 0.001340882358421307 0 0.030298118555025226 0.00073452874369461406 0 0.029104441090928045 0.0010526580413834658 0 0.030298118555025226 0.00073452874369461406 0 0.029104441090928045 0.0010526580413834658 0 0.030950963325605426 0.00012377983878693707 0 0.030298118555025226 0.00073452874369461406 0 0.030958996167558091 0.00056602547018448689 0 0.030950963325605426 0.00012377983878693707 0 0.030298118555025226 0.00073452874369461406 0 0.030958996167558091 0.00056602547018448689 0 0.030558703232532326 0.00089242792957993354 0 0.030958996167558091 0.00056602547018448689 0 0.031086834752720751 0.00082755959461415583 0 0.030558703232532326 0.00089242792957993354 0 0.030958996167558091 0.00056602547018448689 0 0.031086834752720751 0.00082755959461415583 0 0.03138725745215025 0.00053479848748553464 0 0.031086834752720751 0.00082755959461415583 0 0.030558703232532326 0.00089242792957993354 0 0.030883573496921446 0.0011447569679757348 0 0.031081130646665799 0.0012397552155318588 0 0.0310668235168086 0.0013101358804111039 0 0.031194226913502519 0.00098845771446397657 0 0.031086834752720751 0.00082755959461415583 0 0.030883573496921446 0.0011447569679757348 0 0.031194226913502519 0.00098845771446397657 0 0.0310668235168086 0.0013101358804111039 0 0.030883573496921446 0.0011447569679757348 0 0.031194226913502519 0.00098845771446397657 0 0.031086834752720751 0.00082755959461415583 0 0.031194226913502519 0.00098845771446397657 0 0.03138725745215025 0.00053479848748553464 0 0.031194226913502519 0.00098845771446397657 0 0.03138725745215025 0.00053479848748553464 0 0.031404232232279658 0.00072308732199206438 0 0.03138725745215025 0.00053479848748553464 0 0.031404232232279658 0.00072308732199206438 0 0.03155910322706517 0.00050431933065199464 0 0.031404232232279658 0.00072308732199206438 0 0.031584910432340678 0.00059321045431520801 0 0.03155910322706517 0.00050431933065199464 0 0.031404232232279658 0.00072308732199206438 0 0.031584910432340678 0.00059321045431520801 0 0.031431853455812654 0.0007920195089601153 0 0.031404232232279658 0.00072308732199206438 0 0.031431853455812654 0.0007920195089601153 0 0.031250293907995323 0.0010017685888732675 0 0.03129655027001714 0.0010079299767191366 0 0.031431853455812654 0.0007920195089601153 0 0.031250293907995323 0.0010017685888732675 0 0.031194226913502519 0.00098845771446397657 0 0.031404232232279658 0.00072308732199206438 0 0.031250293907995323 0.0010017685888732675 0 0.031081130646665799 0.0012397552155318588 0 0.031194226913502519 0.00098845771446397657 0 0.031250293907995323 0.0010017685888732675 0 0.031079495844015991 0.0012028740875226914 0 0.031081130646665799 0.0012397552155318588 0 0.031250293907995323 0.0010017685888732675 0 0.031079495844015991 0.0012028740875226914 0 0.03129655027001714 0.0010079299767191366 0 0.031250293907995323 0.0010017685888732675 0 0.028545584110929018 0.0027553810859590072 0 0.028185674748411146 0.0030268903336413762 0 0.029064303033345971 0.0028238862377589517 0 0.028545584110929018 0.0027553810859590072 0 0.029064303033345971 0.0028238862377589517 0 0.02920324885521659 0.0022248237998471103 0 0.028545584110929018 0.0027553810859590072 0 0.02920324885521659 0.0022248237998471103 0 0.028553367815830104 0.0023004652517235437 0 0.028545584110929018 0.0027553810859590072 0 0.028134909365654319 0.0027066453029477673 0 0.028553367815830104 0.0023004652517235437 0 0.027996226915361397 0.0021555665681527972 0 0.028134909365654319 0.0027066453029477673 0 0.028553367815830104 0.0023004652517235437 0 0.028545584110929018 0.0027553810859590072 0 0.028134909365654319 0.0027066453029477673 0 0.027921083666216099 0.0030299270102023619 0 0.027662138809282626 0.0028660396151973522 0 0.028134909365654319 0.0027066453029477673 0 0.027921083666216099 0.0030299270102023619 0 0.027762458476509912 0.0031447543397565636 0 0.027921083666216099 0.0030299270102023619 0 0.028185674748411146 0.0030268903336413762 0 0.027560397610557296 0.0031498049632784938 0 0.028185674748411146 0.0030268903336413762 0 0.029064303033345971 0.0028238862377589517 0 0.028545584110929018 0.0027553810859590072 0 0.027921083666216099 0.0030299270102023619 0 0.028185674748411146 0.0030268903336413762 0 0.029821824475567544 0.0020270353777373565 0 0.030007989759955892 0.001714846661581042 0 0.027560397610557296 0.0031498049632784938 0 0.029192507150618899 0.002352562442577334 0 0.028610576324250833 0.002092154134997957 0 0.028892463374732467 0.0020210967472081044 0 0.029014023985520245 0.00185481415140066 0 0.027587631340503939 0.0028727025998088978 0 0.027453489349668698 0.0031273348160353398 0 0.02769608458514421 0.0024057282866794456 0 0.027587631340503939 0.0028727025998088978 0 0.027884766421649238 0.0026351419371993014 0 0.02769608458514421 0.0024057282866794456 0 0.028618009579333824 0.0021875481642493573 0 0.027884766421649238 0.0026351419371993014 0 0.02769608458514421 0.0024057282866794456 0 0.027587631340503939 0.0028727025998088978 0 0.02767797027590805 0.0028174440028679842 0 0.027884766421649238 0.0026351419371993014 0 0.02767797027590805 0.0028174440028679842 0 0.028098926643485317 0.0025760200712307496 0 0.027884766421649238 0.0026351419371993014 0 0.028098926643485317 0.0025760200712307496 0 0.028618009579333824 0.0021875481642493573 0 0.027884766421649238 0.0026351419371993014 0 0.029192507150618899 0.002352562442577334 0 0.029487130128591069 0.0015463174574902973 0 0.030425205695011337 0.00097862281742430745 0 0.028618009579333824 0.0021875481642493573 0 0.02769608458514421 0.0024057282866794456 0 0.029104441090928045 0.0010526580413834658 0 0.029014023985520245 0.00185481415140066 0 0.029255184687970285 0.0015052740486040997 0 0.029192507150618899 0.002352562442577334 0 0.028610576324250833 0.002092154134997957 0 0.029487130128591069 0.0015463174574902973 0 0.028610576324250833 0.002092154134997957 0 0.029487130128591069 0.0015463174574902973 0 0.029662812675288027 0.00072289504240961649 0 0.029487130128591069 0.0015463174574902973 0 0.030425205695011337 0.00097862281742430745 0 0.029662812675288027 0.00072289504240961649 0 0.030007989759955892 0.001714846661581042 0 0.030431091779326881 0.0010012334600470955 0 0.030425205695011337 0.00097862281742430745 0 0.030470628987155236 0.00041366217647709425 0 0.030950963325605426 0.00012377983878693707 0 0.029255184687970285 0.0015052740486040997 0 0.02939181047526308 0.0012994130956692188 0 0.030425205695011337 0.00097862281742430745 0 0.030470628987155236 0.00041366217647709425 0 0.029662812675288027 0.00072289504240961649 0 0.030541723083009096 0.0014914722110077054 0 0.029061823242748121 0.001302024432101779 0 0.030334751122359616 0.00049171287045199905 0 0.030541723083009096 0.0014914722110077054 0 0.02920324885521659 0.0022248237998471103 0 0.029061823242748121 0.001302024432101779 0 0.02920324885521659 0.0022248237998471103 0 0.028553367815830104 0.0023004652517235437 0 0.029061823242748121 0.001302024432101779 0 0.029064303033345971 0.0028238862377589517 0 0.030541723083009096 0.0014914722110077054 0 0.02920324885521659 0.0022248237998471103 0 0.027996226915361397 0.0021555665681527972 0 0.028553367815830104 0.0023004652517235437 0 0.029061823242748121 0.001302024432101779 0 0.027996226915361397 0.0021555665681527972 0 0.027764195373132631 0.001483018054845877 0 0.029061823242748121 0.001302024432101779 0 0.027764195373132631 0.001483018054845877 0 0.029061823242748121 0.001302024432101779 0 0.029329104000829064 -0.00014663926968927127 0 0.030741781730808174 4.7338488535390987e-05 0 0.0309907965958592 -0.00023832326685760326 0 0.033850195469423895 -0.0016837820819584248 0 0.033613334415897408 -0.0020046819808343056 0 0.033843409505770881 -0.0018957857219747485 0 0.033613334415897408 -0.0020046819808343056 0 0.033831011913207636 -0.0016859597639845823 0 0.033843409505770881 -0.0018957857219747485 0 0.033613334415897408 -0.0020046819808343056 0 0.033831011913207636 -0.0016859597639845823 0 0.033488918379424922 -0.0013879735175664762 0 0.033831011913207636 -0.0016859597639845823 0 0.033488918379424922 -0.0013879735175664762 0 0.033910856179727375 -0.0013373105287108006 0 0.0309907965958592 -0.00023832326685760326 0 0.031095109738761343 -0.00033835032852007839 0 0.033613334415897408 -0.0020046819808343056 0 0.033488918379424922 -0.0013879735175664762 0 0.032333966292281691 -0.0012554810355871638 0 0.029329104000829064 -0.00014663926968927127 0 0.032087431307218105 -0.00070857406755446626 0 0.032333966292281691 -0.0012554810355871638 0 0.029061823242748121 0.001302024432101779 0 0.029329104000829064 -0.00014663926968927127 0 0.030334751122359616 0.00049171287045199905 0 0.029329104000829064 -0.00014663926968927127 0 0.030334751122359616 0.00049171287045199905 0 0.032087431307218105 -0.00070857406755446626 0 0.030431091779326881 0.0010012334600470955 0 0.030905932685859779 0.00030789465382406413 0 0.030541723083009096 0.0014914722110077054 0 0.030334751122359616 0.00049171287045199905 0 0.032087431307218105 -0.00070857406755446626 0 0.030470628987155236 0.00041366217647709425 0 0.029662812675288027 0.00072289504240961649 0 0.030821068849670816 2.2028979172944027e-05 0 0.030470628987155236 0.00041366217647709425 0 0.030821068849670816 2.2028979172944027e-05 0 0.030950963325605426 0.00012377983878693707 0 0.031562184182838522 -0.00011429144658453936 0 0.030821068849670816 2.2028979172944027e-05 0 0.030950963325605426 0.00012377983878693707 0 0.032087431307218105 -0.00070857406755446626 0 0.032773342483123816 -0.0011583974951497049 0 0.032333966292281691 -0.0012554810355871638 0 0.031562184182838522 -0.00011429144658453936 0 0.030821068849670816 2.2028979172944027e-05 0 0.031971810997483092 -0.00024437640512309125 0 0.032773342483123816 -0.0011583974951497049 0 0.032333966292281691 -0.0012554810355871638 0 0.033057727547488383 -0.0010493655935157917 0 0.030905932685859779 0.00030789465382406413 0 0.031269273276310433 -3.7183825201911821e-05 0 0.031562184182838522 -0.00011429144658453936 0 0.031971810997483092 -0.00024437640512309125 0 0.032369755265071798 -0.00026829972266021043 0 0.031562184182838522 -0.00011429144658453936 0 0.032369755265071798 -0.00026829972266021043 0 0.032172819152182772 -0.00021653630437059343 0 0.031971810997483092 -0.00024437640512309125 0 0.032369755265071798 -0.00026829972266021043 0 0.033372703878215615 -0.00028759059372348238 0 0.032369755265071798 -0.00026829972266021043 0 0.032172819152182772 -0.00021653630437059343 0 0.032776695206492366 -0.00027249109435038962 0 0.031269273276310433 -3.7183825201911821e-05 0 0.031415770763689045 -9.7314271162995768e-05 0 0.032773342483123816 -0.0011583974951497049 0 0.033360612136677792 -0.00066436488253257813 0 0.033468009205225441 -0.00080311970414908597 0 0.032773342483123816 -0.0011583974951497049 0 0.033360612136677792 -0.00066436488253257813 0 0.033372703878215615 -0.00028759059372348238 0 0.033360612136677792 -0.00066436488253257813 0 0.033468009205225441 -0.00080311970414908597 0 0.03384850107916345 -0.00050129939328163737 0 0.033468009205225441 -0.00080311970414908597 0 0.034063974761727185 -0.00070039257370531458 0 0.033677600004528824 -0.0010037129185042691 0 0.033468009205225441 -0.00080311970414908597 0 0.034063974761727185 -0.00070039257370531458 0 0.03384850107916345 -0.00050129939328163737 0 0.034063974761727185 -0.00070039257370531458 0 0.033677600004528824 -0.0010037129185042691 0 0.034050657522857831 -0.0010253859731821555 0 0.033677600004528824 -0.0010037129185042691 0 0.034050657522857831 -0.0010253859731821555 0 0.033910856179727375 -0.0013373105287108006 0 0.033488918379424922 -0.0013879735175664762 0 0.033677600004528824 -0.0010037129185042691 0 0.033910856179727375 -0.0013373105287108006 0 0.033488918379424922 -0.0013879735175664762 0 0.033677600004528824 -0.0010037129185042691 0 0.033057727547488383 -0.0010493655935157917 0 0.032773342483123816 -0.0011583974951497049 0 0.033468009205225441 -0.00080311970414908597 0 0.033057727547488383 -0.0010493655935157917 0 0.033488918379424922 -0.0013879735175664762 0 0.032333966292281691 -0.0012554810355871638 0 0.033057727547488383 -0.0010493655935157917 0 0.033468009205225441 -0.00080311970414908597 0 0.033677600004528824 -0.0010037129185042691 0 0.033057727547488383 -0.0010493655935157917 0 0.031793924038580411 0.00020371408099547719 0 0.031894122945375511 -7.5260583444355421e-06 0 0.032017741072479899 -5.5235843965960583e-05 0 0.031764745649221611 0.00041833354308269091 0 0.031793924038580411 0.00020371408099547719 0 0.032017741072479899 -5.5235843965960583e-05 0 0.031764745649221611 0.00041833354308269091 0 0.031793924038580411 0.00020371408099547719 0 0.03167485248408048 0.00040680843237317626 0 0.031584910432340678 0.00059321045431520801 0 0.03167485248408048 0.00040680843237317626 0 0.03155910322706517 0.00050431933065199464 0 0.03138725745215025 0.00053479848748553464 0 0.03155910322706517 0.00050431933065199464 0 0.031668760736310579 0.00032458803592347508 0 0.03167485248408048 0.00040680843237317626 0 0.03155910322706517 0.00050431933065199464 0 0.031668760736310579 0.00032458803592347508 0 0.031793924038580411 0.00020371408099547719 0 0.03167485248408048 0.00040680843237317626 0 0.031668760736310579 0.00032458803592347508 0 0.031793924038580411 0.00020371408099547719 0 0.031668760736310579 0.00032458803592347508 0 0.031641101724296003 0.00022244195809640054 0 0.03138725745215025 0.00053479848748553464 0 0.031668760736310579 0.00032458803592347508 0 0.031641101724296003 0.00022244195809640054 0 0.03138725745215025 0.00053479848748553464 0 0.031641101724296003 0.00022244195809640054 0 0.031352472564065217 0.0002575355888180202 0 0.031641101724296003 0.00022244195809640054 0 0.031701642050406938 5.5947726661512678e-05 0 0.031352472564065217 0.0002575355888180202 0 0.031641101724296003 0.00022244195809640054 0 0.031701642050406938 5.5947726661512678e-05 0 0.031894122945375511 -7.5260583444355421e-06 0 0.031793924038580411 0.00020371408099547719 0 0.031641101724296003 0.00022244195809640054 0 0.031894122945375511 -7.5260583444355421e-06 0 0.031701642050406938 5.5947726661512678e-05 0 0.031894122945375511 -7.5260583444355421e-06 0 0.031989384408147477 -0.00011848813996326794 0 0.031548864547285838 2.8152488071459327e-05 0 0.031697143946440055 -9.4828859911436119e-05 0 0.031989384408147477 -0.00011848813996326794 0 0.031701642050406938 5.5947726661512678e-05 0 0.031548864547285838 2.8152488071459327e-05 0 0.031989384408147477 -0.00011848813996326794 0 0.031701642050406938 5.5947726661512678e-05 0 0.031548864547285838 2.8152488071459327e-05 0 0.031352472564065217 0.0002575355888180202 0 0.030958996167558091 0.00056602547018448689 0 0.03138725745215025 0.00053479848748553464 0 0.031352472564065217 0.0002575355888180202 0 0.030958996167558091 0.00056602547018448689 0 0.031352472564065217 0.0002575355888180202 0 0.030950963325605426 0.00012377983878693707 0 0.031548864547285838 2.8152488071459327e-05 0 0.031352472564065217 0.0002575355888180202 0 0.030950963325605426 0.00012377983878693707 0 0.031548864547285838 2.8152488071459327e-05 0 0.030950963325605426 0.00012377983878693707 0 0.031697143946440055 -9.4828859911436119e-05 0 0.031562184182838522 -0.00011429144658453936 0 0.030950963325605426 0.00012377983878693707 0 0.031697143946440055 -9.4828859911436119e-05 0 0.031697143946440055 -9.4828859911436119e-05 0 0.032172819152182772 -0.00021653630437059343 0 0.032328408615039321 -0.00022730078069073964 0 0.031562184182838522 -0.00011429144658453936 0 0.031697143946440055 -9.4828859911436119e-05 0 0.032172819152182772 -0.00021653630437059343 0 0.032172819152182772 -0.00021653630437059343 0 0.032328408615039321 -0.00022730078069073964 0 0.032776695206492366 -0.00027249109435038962 0 0.032328408615039321 -0.00022730078069073964 0 0.03284693097351369 -0.00023637481672402578 0 0.032776695206492366 -0.00027249109435038962 0 0.032328408615039321 -0.00022730078069073964 0 0.032444956694477167 -0.00023195463313990873 0 0.03284693097351369 -0.00023637481672402578 0 0.032328408615039321 -0.00022730078069073964 0 0.031989384408147477 -0.00011848813996326794 0 0.032444956694477167 -0.00023195463313990873 0 0.031697143946440055 -9.4828859911436119e-05 0 0.032328408615039321 -0.00022730078069073964 0 0.031989384408147477 -0.00011848813996326794 0 0.031989384408147477 -0.00011848813996326794 0 0.032152536173378203 -0.00015054620383157439 0 0.032444956694477167 -0.00023195463313990873 0 0.031894122945375511 -7.5260583444355421e-06 0 0.031989384408147477 -0.00011848813996326794 0 0.032152536173378203 -0.00015054620383157439 0 0.032444956694477167 -0.00023195463313990873 0 0.032405952253042734 -0.00022797324187213625 0 0.032839100006180913 -0.00020522124438148313 0 0.032152536173378203 -0.00015054620383157439 0 0.032444956694477167 -0.00023195463313990873 0 0.032405952253042734 -0.00022797324187213625 0 0.033267724671517063 6.9752710223714657e-05 0 0.032951483782704453 6.8545757456898868e-05 0 0.032596921289464918 -2.8467736645652135e-05 0 0.032809008306851989 7.317705571077289e-05 0 0.032611158951291928 0.00014279879740109204 0 0.032152536173378203 -0.00015054620383157439 0 0.032405952253042734 -0.00022797324187213625 0 0.032017741072479899 -5.5235843965960583e-05 0 0.032634098805481529 1.1841453057888896e-05 0 0.032951483782704453 6.8545757456898868e-05 0 0.032596921289464918 -2.8467736645652135e-05 0 0.031894122945375511 -7.5260583444355421e-06 0 0.032152536173378203 -0.00015054620383157439 0 0.032017741072479899 -5.5235843965960583e-05 0 0.034990813355294352 1.3601988729489546e-06 0 0.034991279271985629 1.1314724055384333e-06 0 0.034995021068244016 6.4456469312179728e-07 0 0.03499733972301735 8.2101722852912537e-07 0 0.034998466543684367 3.0594002149016862e-07 0 0.033324839736474994 0.00037344776399513105 0 0.034161750416752332 0.00011787671376280088 0 0.034990813355294352 1.3601988729489546e-06 0 0.034987630389505753 3.3553825365674099e-06 0 0.034991279271985629 1.1314724055384333e-06 0 0.033267724671517063 6.9752710223714657e-05 0 0.032951483782704453 6.8545757456898868e-05 0 0.03352887927713432 0.00017625383385241541 0 0.032412159657228608 0.00077311312794720304 0 0.033324839736474994 0.00037344776399513105 0 0.032809008306851989 7.317705571077289e-05 0 0.033009783009244516 6.1991782295467036e-05 0 0.032405952253042734 -0.00022797324187213625 0 0.032839100006180913 -0.00020522124438148313 0 0.033163731817841595 -7.6753573282585562e-05 0 0.033267724671517063 6.9752710223714657e-05 0 0.03352887927713432 0.00017625383385241541 0 0.033941671620787713 0.00018087714750889217 0 0.032839100006180913 -0.00020522124438148313 0 0.033163731817841595 -7.6753573282585562e-05 0 0.033324596932268032 -0.00015497889584947588 0 0.03352887927713432 0.00017625383385241541 0 0.033941671620787713 0.00018087714750889217 0 0.034155317136329501 0.00018611399343451094 0 0.033163731817841595 -7.6753573282585562e-05 0 0.033324596932268032 -0.00015497889584947588 0 0.033887401008854894 -2.0515014037104313e-05 0 0.033324596932268032 -0.00015497889584947588 0 0.033820935388627404 -7.517158544524899e-05 0 0.033887401008854894 -2.0515014037104313e-05 0 0.032839100006180913 -0.00020522124438148313 0 0.033324596932268032 -0.00015497889584947588 0 0.03284693097351369 -0.00023637481672402578 0 0.032444956694477167 -0.00023195463313990873 0 0.032839100006180913 -0.00020522124438148313 0 0.03284693097351369 -0.00023637481672402578 0 0.033324596932268032 -0.00015497889584947588 0 0.03284693097351369 -0.00023637481672402578 0 0.033223825120510524 -0.0002139039858779962 0 0.03284693097351369 -0.00023637481672402578 0 0.032776695206492366 -0.00027249109435038962 0 0.033223825120510524 -0.0002139039858779962 0 0.033324596932268032 -0.00015497889584947588 0 0.033223825120510524 -0.0002139039858779962 0 0.033820935388627404 -7.517158544524899e-05 0 0.033223825120510524 -0.0002139039858779962 0 0.033820935388627404 -7.517158544524899e-05 0 0.033372703878215615 -0.00028759059372348238 0 0.033820935388627404 -7.517158544524899e-05 0 0.034375168375837484 8.7918941111626981e-06 0 0.034288584587359193 -2.7993094370823335e-05 0 0.033820935388627404 -7.517158544524899e-05 0 0.034375168375837484 8.7918941111626981e-06 0 0.033887401008854894 -2.0515014037104313e-05 0 0.034375168375837484 8.7918941111626981e-06 0 0.034999087871727175 3.9054573246920402e-08 0 0.034288584587359193 -2.7993094370823335e-05 0 0.034375168375837484 8.7918941111626981e-06 0 0.034999087871727175 3.9054573246920402e-08 0 0.034601748939070726 7.6783921981372568e-05 0 0.034999087871727175 3.9054573246920402e-08 0 0.034601748939070726 7.6783921981372568e-05 0 0.034998275931094454 1.3695009562608747e-07 0 0.034375168375837484 8.7918941111626981e-06 0 0.034601748939070726 7.6783921981372568e-05 0 0.033887401008854894 -2.0515014037104313e-05 0 0.033163731817841595 -7.6753573282585562e-05 0 0.034601748939070726 7.6783921981372568e-05 0 0.033887401008854894 -2.0515014037104313e-05 0 0.033009783009244516 6.1991782295467036e-05 0 0.033111185556000539 6.8466447409588237e-05 0 0.033941671620787713 0.00018087714750889217 0 0.034601748939070726 7.6783921981372568e-05 0 0.034155317136329501 0.00018611399343451094 0 0.034996106075053525 5.6472860327671356e-07 0 0.034999999823857486 -3.9176101836400947e-10 0 0.034999994122077667 1.2941086296953437e-09 0 0.034601748939070726 7.6783921981372568e-05 0 0.034155317136329501 0.00018611399343451094 0 0.034998275931094454 1.3695009562608747e-07 0 0.034161750416752332 0.00011787671376280088 0 0.034996737138617368 6.5017472238473574e-07 0 0.034999993584829976 1.0231484894222419e-09 0 0.034998466543684367 3.0594002149016862e-07 0 0.034997448826202586 7.2491145737685014e-07 0 0.034999996998357021 4.3244231105098866e-10 0 0.03499661803800086 9.2978958036052949e-07 0 0.034996106075053525 5.6472860327671356e-07 0 0.034999994122077667 1.2941086296953437e-09 0 0.034995021068244016 6.4456469312179728e-07 0 0.034991279271985629 1.1314724055384333e-06 0 0.034996106075053525 5.6472860327671356e-07 0 0.034995021068244016 6.4456469312179728e-07 0 0.034214633977199635 -0.00020519171012278281 0 0.033372703878215615 -0.00028759059372348238 0 0.034438399215825678 -2.989032796893853e-05 0 0.034214633977199635 -0.00020519171012278281 0 0.034661618504097179 -6.0920391996911269e-05 0 0.034356249447966544 -0.00036184361522668084 0 0.034214633977199635 -0.00020519171012278281 0 0.03384850107916345 -0.00050129939328163737 0 0.034356249447966544 -0.00036184361522668084 0 0.034063974761727185 -0.00070039257370531458 0 0.03384850107916345 -0.00050129939328163737 0 0.034356249447966544 -0.00036184361522668084 0 0.034214633977199635 -0.00020519171012278281 0 0.03384850107916345 -0.00050129939328163737 0 0.033372703878215615 -0.00028759059372348238 0 0.033360612136677792 -0.00066436488253257813 0 0.03384850107916345 -0.00050129939328163737 0 0.033372703878215615 -0.00028759059372348238 0 0.032369755265071798 -0.00026829972266021043 0 0.032776695206492366 -0.00027249109435038962 0 0.033372703878215615 -0.00028759059372348238 0 0.032776695206492366 -0.00027249109435038962 0 0.033223825120510524 -0.0002139039858779962 0 0.033372703878215615 -0.00028759059372348238 0 0.033820935388627404 -7.517158544524899e-05 0 0.033372703878215615 -0.00028759059372348238 0 0.034288584587359193 -2.7993094370823335e-05 0 0.033372703878215615 -0.00028759059372348238 0 0.034288584587359193 -2.7993094370823335e-05 0 0.034438399215825678 -2.989032796893853e-05 0 0.034999087871727175 3.9054573246920402e-08 0 0.034288584587359193 -2.7993094370823335e-05 0 0.034999151736473069 2.0235983138797235e-08 0 0.034288584587359193 -2.7993094370823335e-05 0 0.034999151736473069 2.0235983138797235e-08 0 0.034438399215825678 -2.989032796893853e-05 0 0.034999151736473069 2.0235983138797235e-08 0 0.034438399215825678 -2.989032796893853e-05 0 0.034999447506432357 5.5662318384920836e-08 0 0.034214633977199635 -0.00020519171012278281 0 0.034438399215825678 -2.989032796893853e-05 0 0.034661618504097179 -6.0920391996911269e-05 0 0.034999447506432357 5.5662318384920836e-08 0 0.034999721291501314 -6.6204319990946908e-09 0 0.034661618504097179 -6.0920391996911269e-05 0 0.034438399215825678 -2.989032796893853e-05 0 0.034999447506432357 5.5662318384920836e-08 0 0.034661618504097179 -6.0920391996911269e-05 0 0.034999721291501314 -6.6204319990946908e-09 0 0.034879862461189542 -5.1111584784045283e-05 0 0.034661618504097179 -6.0920391996911269e-05 0 0.034999721291501314 -6.6204319990946908e-09 0 0.034879862461189542 -5.1111584784045283e-05 0 0.034999896273750108 -1.1457866856457892e-08 0 0.034879862461189542 -5.1111584784045283e-05 0 0.034883990441072849 -0.00015314164301328872 0 0.034689359535072094 -0.00022135500266268283 0 0.034879862461189542 -5.1111584784045283e-05 0 0.034661618504097179 -6.0920391996911269e-05 0 0.034689359535072094 -0.00022135500266268283 0 0.034999896273750108 -1.1457866856457892e-08 0 0.034980830613526748 -4.5976231277752112e-05 0 0.035000031434457395 -2.7216673647697024e-08 0 0.034879862461189542 -5.1111584784045283e-05 0 0.034999896273750108 -1.1457866856457892e-08 0 0.034980830613526748 -4.5976231277752112e-05 0 0.034879862461189542 -5.1111584784045283e-05 0 0.034980830613526748 -4.5976231277752112e-05 0 0.034883990441072849 -0.00015314164301328872 0 0.034980830613526748 -4.5976231277752112e-05 0 0.03501849656587671 -0.00015919317914025031 0 0.034883990441072849 -0.00015314164301328872 0 0.034906281562155687 -0.00014350512762631475 0 0.034892554942267805 -0.00016711482530441034 0 0.03501849656587671 -0.00015919317914025031 0 0.034883990441072849 -0.00015314164301328872 0 0.034853770262346137 -0.00036658129223632292 0 0.034883990441072849 -0.00015314164301328872 0 0.034853770262346137 -0.00036658129223632292 0 0.034689359535072094 -0.00022135500266268283 0 0.034853770262346137 -0.00036658129223632292 0 0.034689359535072094 -0.00022135500266268283 0 0.034815760000876661 -0.00039512347716674865 0 0.034853770262346137 -0.00036658129223632292 0 0.034815760000876661 -0.00039512347716674865 0 0.034808226183062736 -0.00037907404484893904 0 0.034853770262346137 -0.00036658129223632292 0 0.034808226183062736 -0.00037907404484893904 0 0.034756998336590281 -0.00041734230105627644 0 0.034726016315506446 -0.00038430411295872167 0 0.034853770262346137 -0.00036658129223632292 0 0.034756998336590281 -0.00041734230105627644 0 0.034661618504097179 -6.0920391996911269e-05 0 0.034689359535072094 -0.00022135500266268283 0 0.034356249447966544 -0.00036184361522668084 0 0.034468243938309905 -0.00070322328332848329 0 0.034494500836676198 -0.00080725476659293158 0 0.034689359535072094 -0.00022135500266268283 0 0.034431759633684805 -0.00060102344265785385 0 0.034571093609951371 -0.00071030090467596974 0 0.034689359535072094 -0.00022135500266268283 0 0.034571093609951371 -0.00071030090467596974 0 0.034754693362549494 -0.00065336840947453954 0 0.034063974761727185 -0.00070039257370531458 0 0.034356249447966544 -0.00036184361522668084 0 0.034431759633684805 -0.00060102344265785385 0 0.034689359535072094 -0.00022135500266268283 0 0.034356249447966544 -0.00036184361522668084 0 0.034431759633684805 -0.00060102344265785385 0 0.034063974761727185 -0.00070039257370531458 0 0.034431759633684805 -0.00060102344265785385 0 0.0343195970959108 -0.00087838727015638349 0 0.034063974761727185 -0.00070039257370531458 0 0.0343195970959108 -0.00087838727015638349 0 0.034050657522857831 -0.0010253859731821555 0 0.0343195970959108 -0.00087838727015638349 0 0.034050657522857831 -0.0010253859731821555 0 0.034238339195364446 -0.0012089337255523469 0 0.034050657522857831 -0.0010253859731821555 0 0.034238339195364446 -0.0012089337255523469 0 0.033910856179727375 -0.0013373105287108006 0 0.034238339195364446 -0.0012089337255523469 0 0.034508611802335054 -0.0010496505025878017 0 0.034390022527907335 -0.001445333052746552 0 0.034508611802335054 -0.0010496505025878017 0 0.034707436626002758 -0.0012005369603366887 0 0.034390022527907335 -0.001445333052746552 0 0.0343195970959108 -0.00087838727015638349 0 0.034238339195364446 -0.0012089337255523469 0 0.034508611802335054 -0.0010496505025878017 0 0.034508611802335054 -0.0010496505025878017 0 0.034571093609951371 -0.00071030090467596974 0 0.034726251502278635 -0.00095759603965309234 0 0.0343195970959108 -0.00087838727015638349 0 0.034508611802335054 -0.0010496505025878017 0 0.034571093609951371 -0.00071030090467596974 0 0.034431759633684805 -0.00060102344265785385 0 0.0343195970959108 -0.00087838727015638349 0 0.034571093609951371 -0.00071030090467596974 0 0.034754693362549494 -0.00065336840947453954 0 0.034726251502278635 -0.00095759603965309234 0 0.035106887700097442 -0.0011741737965962396 0 0.034494500836676198 -0.00080725476659293158 0 0.03451136947458347 -0.0010305576674176592 0 0.034571093609951371 -0.00071030090467596974 0 0.034754693362549494 -0.00065336840947453954 0 0.034726251502278635 -0.00095759603965309234 0 0.034808226183062736 -0.00037907404484893904 0 0.034806036850893861 -0.00034299351827612627 0 0.034754905110357642 -0.00037678365605159543 0 0.034815760000876661 -0.00039512347716674865 0 0.034808226183062736 -0.00037907404484893904 0 0.034806036850893861 -0.00034299351827612627 0 0.034726251502278635 -0.00095759603965309234 0 0.035106887700097442 -0.0011741737965962396 0 0.034707436626002758 -0.0012005369603366887 0 0.035106887700097442 -0.0011741737965962396 0 0.034707436626002758 -0.0012005369603366887 0 0.034802589115078476 -0.0014828162493904563 0 0.034508611802335054 -0.0010496505025878017 0 0.034726251502278635 -0.00095759603965309234 0 0.034707436626002758 -0.0012005369603366887 0 0.034707436626002758 -0.0012005369603366887 0 0.034802589115078476 -0.0014828162493904563 0 0.034390022527907335 -0.001445333052746552 0 0.034802589115078476 -0.0014828162493904563 0 0.034303779304646273 -0.0017967217722992112 0 0.034390022527907335 -0.001445333052746552 0 0.034456386810528102 -0.001132891403085895 0 0.034436013822186071 -0.0011686577453616576 0 0.034065434620090436 -0.0018167308306922573 0 0.034064759484981992 -0.0017904083810683991 0 0.034083533495170779 -0.0017070189640385166 0 0.03451136947458347 -0.0010305576674176592 0 0.034511773734056887 -0.001076665480756817 0 0.03451136947458347 -0.0010305576674176592 0 0.034456386810528102 -0.001132891403085895 0 0.034065434620090436 -0.0018167308306922573 0 0.034108636365117427 -0.0018425362634231128 0 0.034064759484981992 -0.0017904083810683991 0 0.034108636365117427 -0.0018425362634231128 0 0.034064759484981992 -0.0017904083810683991 0 0.034062153527795166 -0.0018368024442224783 0 0.034064759484981992 -0.0017904083810683991 0 0.034019404156253374 -0.0018494733929431298 0 0.034083533495170779 -0.0017070189640385166 0 0.034064759484981992 -0.0017904083810683991 0 0.034062153527795166 -0.0018368024442224783 0 0.034019404156253374 -0.0018494733929431298 0 0.034062153527795166 -0.0018368024442224783 0 0.033988513869509941 -0.0018707368082509521 0 0.034119980558314639 -0.0018468388811646258 0 0.033959379558937026 -0.0018786407965611421 0 0.033988513869509941 -0.0018707368082509521 0 0.034019404156253374 -0.0018494733929431298 0 0.034062153527795166 -0.0018368024442224783 0 0.033988513869509941 -0.0018707368082509521 0 0.034019404156253374 -0.0018494733929431298 0 0.034108636365117427 -0.0018425362634231128 0 0.034180949545050174 -0.0018199651996201245 0 0.034303779304646273 -0.0017967217722992112 0 0.034108636365117427 -0.0018425362634231128 0 0.034062153527795166 -0.0018368024442224783 0 0.034180949545050174 -0.0018199651996201245 0 0.034259128997610314 -0.0018799117060235573 0 0.034180949545050174 -0.0018199651996201245 0 0.034303779304646273 -0.0017967217722992112 0 0.034062153527795166 -0.0018368024442224783 0 0.034180949545050174 -0.0018199651996201245 0 0.034119980558314639 -0.0018468388811646258 0 0.034259128997610314 -0.0018799117060235573 0 0.034180949545050174 -0.0018199651996201245 0 0.034119980558314639 -0.0018468388811646258 0 0.033460834092275911 -0.0017091724833676902 0 0.033521821532223779 -0.0017346183271378464 0 0.034259128997610314 -0.0018799117060235573 0 0.034303779304646273 -0.0017967217722992112 0 0.034129126843372055 -0.0017403470335677217 0 0.034259128997610314 -0.0018799117060235573 0 0.034129126843372055 -0.0017403470335677217 0 0.033843409505770881 -0.0018957857219747485 0 0.033831011913207636 -0.0016859597639845823 0 0.034129126843372055 -0.0017403470335677217 0 0.033843409505770881 -0.0018957857219747485 0 0.033831011913207636 -0.0016859597639845823 0 0.034129126843372055 -0.0017403470335677217 0 0.034103366085041394 -0.0015128127671031814 0 0.033831011913207636 -0.0016859597639845823 0 0.033910856179727375 -0.0013373105287108006 0 0.034103366085041394 -0.0015128127671031814 0 0.034238339195364446 -0.0012089337255523469 0 0.033910856179727375 -0.0013373105287108006 0 0.034103366085041394 -0.0015128127671031814 0 0.034238339195364446 -0.0012089337255523469 0 0.034103366085041394 -0.0015128127671031814 0 0.034390022527907335 -0.001445333052746552 0 0.034303779304646273 -0.0017967217722992112 0 0.034129126843372055 -0.0017403470335677217 0 0.034390022527907335 -0.001445333052746552 0 0.034129126843372055 -0.0017403470335677217 0 0.034103366085041394 -0.0015128127671031814 0 0.034390022527907335 -0.001445333052746552 0 0.034825987491905623 -0.0016977183670238789 0 0.034872329719919083 -0.0014334418163469479 0 0.03508323804089359 -0.0015902136736591075 0 0.034825987491905623 -0.0016977183670238789 0 0.034872329719919083 -0.0014334418163469479 0 0.034682206654390299 -0.0015614977503953661 0 0.034872329719919083 -0.0014334418163469479 0 0.034682206654390299 -0.0015614977503953661 0 0.034635306974653654 -0.0013753341661769062 0 0.034872329719919083 -0.0014334418163469479 0 0.03508323804089359 -0.0015902136736591075 0 0.035091007623791991 -0.0013369469530359712 0 0.035272100886122329 -0.0014710737143944072 0 0.03508323804089359 -0.0015902136736591075 0 0.035091007623791991 -0.0013369469530359712 0 0.035272100886122329 -0.0014710737143944072 0 0.035281823834140517 -0.0012592459523416519 0 0.035448347471260806 -0.001385343381045072 0 0.035272100886122329 -0.0014710737143944072 0 0.035281823834140517 -0.0012592459523416519 0 0.035091007623791991 -0.0013369469530359712 0 0.035272100886122329 -0.0014710737143944072 0 0.035283491869540627 -0.0016837815976956073 0 0.035434432726765171 -0.0015723852549051952 0 0.035272100886122329 -0.0014710737143944072 0 0.03508323804089359 -0.0015902136736591075 0 0.035283491869540627 -0.0016837815976956073 0 0.032351179149756916 -0.0017171231786118949 0 0.032434968235203823 -0.0015659785922077891 0 0.035106823302118458 -0.0019457400664751857 0 0.035283491869540627 -0.0016837815976956073 0 0.035504298863409771 -0.0017989738577060227 0 0.03508323804089359 -0.0015902136736591075 0 0.035106823302118458 -0.0019457400664751857 0 0.035283491869540627 -0.0016837815976956073 0 0.034825987491905623 -0.0016977183670238789 0 0.035106823302118458 -0.0019457400664751857 0 0.03458026823223162 -0.0019566250454316602 0 0.032351179149756916 -0.0017171231786118949 0 0.03316151711431016 -0.001790125749447768 0 0.034153446260616817 -0.0019089550200169949 0 0.034289315970943188 -0.001865228933174969 0 0.034173335916035198 -0.0018577224245144937 0 0.034825987491905623 -0.0016977183670238789 0 0.03508323804089359 -0.0015902136736591075 0 0.035106823302118458 -0.0019457400664751857 0 0.034153446260616817 -0.0019089550200169949 0 0.034173335916035198 -0.0018577224245144937 0 0.034019404156253374 -0.0018494733929431298 0 0.034825987491905623 -0.0016977183670238789 0 0.03458026823223162 -0.0019566250454316602 0 0.034598230117276488 -0.0017243505549407903 0 0.03458026823223162 -0.0019566250454316602 0 0.034391962064290196 -0.0017971964006179408 0 0.034598230117276488 -0.0017243505549407903 0 0.034391962064290196 -0.0017971964006179408 0 0.034019404156253374 -0.0018494733929431298 0 0.034238676351921994 -0.0017527703195967497 0 0.033959379558937026 -0.0018786407965611421 0 0.034153446260616817 -0.0019089550200169949 0 0.034019404156253374 -0.0018494733929431298 0 0.03458026823223162 -0.0019566250454316602 0 0.034391962064290196 -0.0017971964006179408 0 0.034019404156253374 -0.0018494733929431298 0 0.03316151711431016 -0.001790125749447768 0 0.033363865794428689 -0.0018080067726231051 0 0.034019404156253374 -0.0018494733929431298 0 0.034083533495170779 -0.0017070189640385166 0 0.034238676351921994 -0.0017527703195967497 0 0.033786576287954534 -0.0012706940988483387 0 0.034083533495170779 -0.0017070189640385166 0 0.034298410571227775 -0.0013378519118892763 0 0.034083533495170779 -0.0017070189640385166 0 0.034238676351921994 -0.0017527703195967497 0 0.034432913800997139 -0.0016169029664168117 0 0.034083533495170779 -0.0017070189640385166 0 0.034432913800997139 -0.0016169029664168117 0 0.034298410571227775 -0.0013378519118892763 0 0.034598230117276488 -0.0017243505549407903 0 0.034682206654390299 -0.0015614977503953661 0 0.034432913800997139 -0.0016169029664168117 0 0.034825987491905623 -0.0016977183670238789 0 0.034598230117276488 -0.0017243505549407903 0 0.034682206654390299 -0.0015614977503953661 0 0.034391962064290196 -0.0017971964006179408 0 0.034598230117276488 -0.0017243505549407903 0 0.034432913800997139 -0.0016169029664168117 0 0.034391962064290196 -0.0017971964006179408 0 0.034238676351921994 -0.0017527703195967497 0 0.034432913800997139 -0.0016169029664168117 0 0.034432913800997139 -0.0016169029664168117 0 0.034635306974653654 -0.0013753341661769062 0 0.034298410571227775 -0.0013378519118892763 0 0.034682206654390299 -0.0015614977503953661 0 0.034432913800997139 -0.0016169029664168117 0 0.034635306974653654 -0.0013753341661769062 0 0.034635306974653654 -0.0013753341661769062 0 0.034541863406621749 -0.0011385894993023314 0 0.034900591728602666 -0.0011570241714833807 0 0.034541863406621749 -0.0011385894993023314 0 0.034760992433777629 -0.00088306977301922003 0 0.034900591728602666 -0.0011570241714833807 0 0.034635306974653654 -0.0013753341661769062 0 0.034541863406621749 -0.0011385894993023314 0 0.034298410571227775 -0.0013378519118892763 0 0.033786576287954534 -0.0012706940988483387 0 0.034298410571227775 -0.0013378519118892763 0 0.034213654857913216 -0.00088078464575367743 0 0.034541863406621749 -0.0011385894993023314 0 0.034298410571227775 -0.0013378519118892763 0 0.034213654857913216 -0.00088078464575367743 0 0.03451136947458347 -0.0010305576674176592 0 0.034563188424588921 -0.00093097130621667718 0 0.034808226183062736 -0.00037907404484893904 0 0.034754905110357642 -0.00037678365605159543 0 0.034756998336590281 -0.00041734230105627644 0 0.034541863406621749 -0.0011385894993023314 0 0.034213654857913216 -0.00088078464575367743 0 0.034760992433777629 -0.00088306977301922003 0 0.034213654857913216 -0.00088078464575367743 0 0.034760992433777629 -0.00088306977301922003 0 0.034709193601193053 -0.000506592304409739 0 0.034563188424588921 -0.00093097130621667718 0 0.034592781847729848 -0.00088775789439982512 0 0.034760992433777629 -0.00088306977301922003 0 0.034927275027458446 -0.00071743785325022365 0 0.034709193601193053 -0.000506592304409739 0 0.034760992433777629 -0.00088306977301922003 0 0.034900591728602666 -0.0011570241714833807 0 0.035084401477180151 -0.00092142812428606155 0 0.034927275027458446 -0.00071743785325022365 0 0.035084401477180151 -0.00092142812428606155 0 0.035050301121627728 -0.00056948373517755021 0 0.034760992433777629 -0.00088306977301922003 0 0.034927275027458446 -0.00071743785325022365 0 0.035084401477180151 -0.00092142812428606155 0 0.034900591728602666 -0.0011570241714833807 0 0.035136642568976965 -0.0011375458432762275 0 0.035084401477180151 -0.00092142812428606155 0 0.034900591728602666 -0.0011570241714833807 0 0.035091007623791991 -0.0013369469530359712 0 0.035136642568976965 -0.0011375458432762275 0 0.034872329719919083 -0.0014334418163469479 0 0.034900591728602666 -0.0011570241714833807 0 0.035091007623791991 -0.0013369469530359712 0 0.034872329719919083 -0.0014334418163469479 0 0.034635306974653654 -0.0013753341661769062 0 0.034900591728602666 -0.0011570241714833807 0 0.035281823834140517 -0.0012592459523416519 0 0.035091007623791991 -0.0013369469530359712 0 0.035136642568976965 -0.0011375458432762275 0 0.035136642568976965 -0.0011375458432762275 0 0.035314566479234116 -0.0010193235330875402 0 0.035084401477180151 -0.00092142812428606155 0 0.035281823834140517 -0.0012592459523416519 0 0.035136642568976965 -0.0011375458432762275 0 0.035314566479234116 -0.0010193235330875402 0 0.035314566479234116 -0.0010193235330875402 0 0.035084401477180151 -0.00092142812428606155 0 0.035350144266467015 -0.00072088214701812147 0 0.035084401477180151 -0.00092142812428606155 0 0.035050301121627728 -0.00056948373517755021 0 0.035350144266467015 -0.00072088214701812147 0 0.035229093941603028 -0.00049935103864753004 0 0.035050301121627728 -0.00056948373517755021 0 0.035350144266467015 -0.00072088214701812147 0 0.035229093941603028 -0.00049935103864753004 0 0.035050301121627728 -0.00056948373517755021 0 0.035012773753941455 -0.00038956494056746876 0 0.034927275027458446 -0.00071743785325022365 0 0.034877197513154039 -0.00045357366632032376 0 0.035050301121627728 -0.00056948373517755021 0 0.034927275027458446 -0.00071743785325022365 0 0.034877197513154039 -0.00045357366632032376 0 0.034709193601193053 -0.000506592304409739 0 0.034877197513154039 -0.00045357366632032376 0 0.035050301121627728 -0.00056948373517755021 0 0.035012773753941455 -0.00038956494056746876 0 0.034877197513154039 -0.00045357366632032376 0 0.035012773753941455 -0.00038956494056746876 0 0.034923604328082836 -0.00031296459291007585 0 0.035012773753941455 -0.00038956494056746876 0 0.034923604328082836 -0.00031296459291007585 0 0.035039545733484181 -0.00024086441459400518 0 0.035012773753941455 -0.00038956494056746876 0 0.035160028842774339 -0.00034586554664268695 0 0.035039545733484181 -0.00024086441459400518 0 0.035160028842774339 -0.00034586554664268695 0 0.035145361126563045 -0.00022454012924687095 0 0.035425769822282412 -0.00042687546601304798 0 0.035160028842774339 -0.00034586554664268695 0 0.035145361126563045 -0.00022454012924687095 0 0.035039545733484181 -0.00024086441459400518 0 0.035229093941603028 -0.00049935103864753004 0 0.035160028842774339 -0.00034586554664268695 0 0.035425769822282412 -0.00042687546601304798 0 0.035229093941603028 -0.00049935103864753004 0 0.035012773753941455 -0.00038956494056746876 0 0.035160028842774339 -0.00034586554664268695 0 0.034754905110357642 -0.00037678365605159543 0 0.034756998336590281 -0.00041734230105627644 0 0.034709193601193053 -0.000506592304409739 0 0.034756998336590281 -0.00041734230105627644 0 0.034709193601193053 -0.000506592304409739 0 0.034769688633346008 -0.00037877959350913505 0 0.034877197513154039 -0.00045357366632032376 0 0.034709193601193053 -0.000506592304409739 0 0.034769688633346008 -0.00037877959350913505 0 0.034877197513154039 -0.00045357366632032376 0 0.034923604328082836 -0.00031296459291007585 0 0.034769688633346008 -0.00037877959350913505 0 0.034923604328082836 -0.00031296459291007585 0 0.034769688633346008 -0.00037877959350913505 0 0.034875245175276445 -0.00021666109512412742 0 0.034726016315506446 -0.00038430411295872167 0 0.034756998336590281 -0.00041734230105627644 0 0.034769688633346008 -0.00037877959350913505 0 0.034980830613526748 -4.5976231277752112e-05 0 0.03501849656587671 -0.00015919317914025031 0 0.03503104564237973 -4.0701974701777612e-05 0 0.034726016315506446 -0.00038430411295872167 0 0.034769688633346008 -0.00037877959350913505 0 0.034766455009402973 -0.00018900686534883534 0 0.034906281562155687 -0.00014350512762631475 0 0.034942167632528019 -8.469028254314241e-05 0 0.034769688633346008 -0.00037877959350913505 0 0.034766455009402973 -0.00018900686534883534 0 0.034875245175276445 -0.00021666109512412742 0 0.034942167632528019 -8.469028254314241e-05 0 0.034999873405126745 -2.1730197100742286e-07 0 0.03503104564237973 -4.0701974701777612e-05 0 0.035000044326619094 -5.8134211649301534e-09 0 0.035000031434457395 -2.7216673647697024e-08 0 0.034766455009402973 -0.00018900686534883534 0 0.034875245175276445 -0.00021666109512412742 0 0.034999532828393229 1.5090842926125354e-09 0 0.034980830613526748 -4.5976231277752112e-05 0 0.03503104564237973 -4.0701974701777612e-05 0 0.035000031434457395 -2.7216673647697024e-08 0 0.035195734986211605 -0.00010553047404336453 0 0.035145361126563045 -0.00022454012924687095 0 0.035425769822282412 -0.00042687546601304798 0 0.035052335042336472 -0.00013696268712487048 0 0.035132479079726268 -0.00012282220950717024 0 0.035145361126563045 -0.00022454012924687095 0 0.035132479079726268 -0.00012282220950717024 0 0.035161940621971199 -0.00011422682906883459 0 0.03502933850802796 -6.115376850559567e-05 0 0.035052335042336472 -0.00013696268712487048 0 0.035132479079726268 -0.00012282220950717024 0 0.03502933850802796 -6.115376850559567e-05 0 0.035132479079726268 -0.00012282220950717024 0 0.035195734986211605 -0.00010553047404336453 0 0.035145361126563045 -0.00022454012924687095 0 0.035041667344882489 -9.1009139457945608e-05 0 0.035040899104161846 -9.107450050846779e-05 0 0.035052335042336472 -0.00013696268712487048 0 0.035145361126563045 -0.00022454012924687095 0 0.035039545733484181 -0.00024086441459400518 0 0.034923604328082836 -0.00031296459291007585 0 0.035039545733484181 -0.00024086441459400518 0 0.034984336779055776 -0.00014576932712546801 0 0.034923604328082836 -0.00031296459291007585 0 0.034875245175276445 -0.00021666109512412742 0 0.034984336779055776 -0.00014576932712546801 0 0.035052335042336472 -0.00013696268712487048 0 0.035039545733484181 -0.00024086441459400518 0 0.034984336779055776 -0.00014576932712546801 0 0.035052335042336472 -0.00013696268712487048 0 0.034984336779055776 -0.00014576932712546801 0 0.03502933850802796 -6.115376850559567e-05 0 0.034999532828393229 1.5090842926125354e-09 0 0.035000455069575644 -5.9810718089669172e-08 0 0.03502933850802796 -6.115376850559567e-05 0 0.034875245175276445 -0.00021666109512412742 0 0.034999532828393229 1.5090842926125354e-09 0 0.034984336779055776 -0.00014576932712546801 0 0.034999532828393229 1.5090842926125354e-09 0 0.034984336779055776 -0.00014576932712546801 0 0.03502933850802796 -6.115376850559567e-05 0 0.035161940621971199 -0.00011422682906883459 0 0.035000455069575644 -5.9810718089669172e-08 0 0.03502933850802796 -6.115376850559567e-05 0 0.035040899104161846 -9.107450050846779e-05 0 0.035000127615401791 -2.4923131685352913e-07 0 0.035000069520986048 -5.9264666730573164e-08 0 0.035000000137944923 8.1133942892881982e-12 0 0.03500000014839471 -6.7564142749659104e-11 0 0.035000069520986048 -5.9264666730573164e-08 0 0.03500000014839471 -6.7564142749659104e-11 0 0.035000020712966422 -3.2106405971435773e-08 0 0.035040899104161846 -9.107450050846779e-05 0 0.035027019369959181 -6.8719612628641871e-05 0 0.035016380476523196 -6.0879210862939795e-08 0 0.035012917006076547 1.7647589828599907e-06 0 0.035014772817625134 3.213987470940288e-06 0 0.035016380476523196 -6.0879210862939795e-08 0 0.035012917006076547 1.7647589828599907e-06 0 0.035012659982192947 -7.4149697564126488e-07 0 0.035012917006076547 1.7647589828599907e-06 0 0.035012659982192947 -7.4149697564126488e-07 0 0.035010211163301469 1.8085097012143989e-06 0 0.03500000014839471 -6.7564142749659104e-11 0 0.035000020712966422 -3.2106405971435773e-08 0 0.034999999641031961 6.9158133329885457e-12 0 0.035012659982192947 -7.4149697564126488e-07 0 0.035007076263636742 -1.565938693893085e-06 0 0.035007687884081345 8.7035412814408422e-07 0 0.035027019369959181 -6.8719612628641871e-05 0 0.035019940286256566 -5.6437387801218088e-05 0 0.035000020712966422 -3.2106405971435773e-08 0 0.034999999641031961 6.9158133329885457e-12 0 0.034999963714977628 -2.9266107038301034e-09 0 0.034999999641031961 6.9158133329885457e-12 0 0.034999963714977628 -2.9266107038301034e-09 0 0.035000001029636144 -1.5015971908279589e-10 0 0.035007076263636742 -1.565938693893085e-06 0 0.03500450985389756 6.683099075828355e-07 0 0.035007687884081345 8.7035412814408422e-07 0 0.035007687884081345 8.7035412814408422e-07 0 0.035005161201208952 3.4749851067741806e-06 0 0.035010211163301469 1.8085097012143989e-06 0 0.035164919119566776 -0.00011717839161521582 0 0.035139327770743883 -0.00010962541644003978 0 0.03500450985389756 6.683099075828355e-07 0 0.035007687884081345 8.7035412814408422e-07 0 0.035005161201208952 3.4749851067741806e-06 0 0.035012659982192947 -7.4149697564126488e-07 0 0.035007687884081345 8.7035412814408422e-07 0 0.035010211163301469 1.8085097012143989e-06 0 0.035012917006076547 1.7647589828599907e-06 0 0.035010211163301469 1.8085097012143989e-06 0 0.035010697632611651 3.8896675074074891e-06 0 0.035008772616587434 1.9268072560549644e-06 0 0.035010211163301469 1.8085097012143989e-06 0 0.035010697632611651 3.8896675074074891e-06 0 0.035164919119566776 -0.00011717839161521582 0 0.035212111895672235 -0.00022590844380072382 0 0.036405246635897323 -0.00027320904603626953 0 0.03632253519605895 -0.00077858139514443516 0 0.036057191427962834 -0.0006109391021972767 0 0.03632253519605895 -0.00077858139514443516 0 0.036057191427962834 -0.0006109391021972767 0 0.0361137623670756 -0.0010360497276527408 0 0.035012917006076547 1.7647589828599907e-06 0 0.035010697632611651 3.8896675074074891e-06 0 0.035014772817625134 3.213987470940288e-06 0 0.035212111895672235 -0.00022590844380072382 0 0.035125089164449744 -0.0003950591309361718 0 0.035010697632611651 3.8896675074074891e-06 0 0.035014772817625134 3.213987470940288e-06 0 0.035013499530237677 5.9048801645349043e-06 0 0.035099202544978315 -0.00025606596780413228 0 0.035125089164449744 -0.0003950591309361718 0 0.035229093941603028 -0.00049935103864753004 0 0.035350144266467015 -0.00072088214701812147 0 0.035425769822282412 -0.00042687546601304798 0 0.035350144266467015 -0.00072088214701812147 0 0.035425769822282412 -0.00042687546601304798 0 0.03567593457988965 -0.00089492519342272063 0 0.035040899104161846 -9.107450050846779e-05 0 0.035099202544978315 -0.00025606596780413228 0 0.034988666035982337 -4.2752667611259e-06 0 0.034983120495968779 -6.3160846571061088e-06 0 0.034992268903357361 -1.9380408125052142e-06 0 0.034983120495968779 -6.3160846571061088e-06 0 0.034992268903357361 -1.9380408125052142e-06 0 0.034991269649959141 -4.6313458890770494e-06 0 0.034992268903357361 -1.9380408125052142e-06 0 0.034995843266511235 -1.6059079665619744e-06 0 0.034991269649959141 -4.6313458890770494e-06 0 0.034999993402499915 -2.6947274339332767e-09 0 0.034995843266511235 -1.6059079665619744e-06 0 0.034999996098039464 2.2810892333883379e-09 0 0.034992268903357361 -1.9380408125052142e-06 0 0.034995843266511235 -1.6059079665619744e-06 0 0.034999996098039464 2.2810892333883379e-09 0 0.034999993402499915 -2.6947274339332767e-09 0 0.034995843266511235 -1.6059079665619744e-06 0 0.034996874693576714 -2.650063463949432e-06 0 0.034995843266511235 -1.6059079665619744e-06 0 0.034996874693576714 -2.650063463949432e-06 0 0.034991269649959141 -4.6313458890770494e-06 0 0.034999993402499915 -2.6947274339332767e-09 0 0.034996874693576714 -2.650063463949432e-06 0 0.034999985459068739 -3.9593709065735266e-09 0 0.034995694052123751 -3.9487577523937156e-06 0 0.034996862287464299 -1.334359247954432e-06 0 0.034990753632072463 -1.3886281872370697e-06 0 0.034996874693576714 -2.650063463949432e-06 0 0.034991269649959141 -4.6313458890770494e-06 0 0.034995694052123751 -3.9487577523937156e-06 0 0.034983120495968779 -6.3160846571061088e-06 0 0.034991269649959141 -4.6313458890770494e-06 0 0.034990753632072463 -1.3886281872370697e-06 0 0.034991269649959141 -4.6313458890770494e-06 0 0.034995694052123751 -3.9487577523937156e-06 0 0.034990753632072463 -1.3886281872370697e-06 0 0.034996874693576714 -2.650063463949432e-06 0 0.034995694052123751 -3.9487577523937156e-06 0 0.034994882517105336 -3.1452428221268327e-06 0 0.034995694052123751 -3.9487577523937156e-06 0 0.034994882517105336 -3.1452428221268327e-06 0 0.034995483977339668 -4.9650435418021726e-06 0 0.034859468874540285 -0.00022184609602008288 0 0.034853551500857276 -0.00023273166166119306 0 0.035000000296753202 -1.6150154819473213e-09 0 0.035000166668483233 -1.6742797364368116e-07 0 0.035000001029636144 -1.5015971908279589e-10 0 0.034996874693576714 -2.650063463949432e-06 0 0.034999985459068739 -3.9593709065735266e-09 0 0.034994882517105336 -3.1452428221268327e-06 0 0.035000330178670144 -2.9268801474977769e-07 0 0.035077210653420343 -5.7893669770407853e-05 0 0.035000000296753202 -1.6150154819473213e-09 0 0.035000166668483233 -1.6742797364368116e-07 0 0.035001239346859669 8.3888755110979778e-07 0 0.035019940286256566 -5.6437387801218088e-05 0 0.035017627515992404 -5.2528491067453292e-05 0 0.03500450985389756 6.683099075828355e-07 0 0.035000166668483233 -1.6742797364368116e-07 0 0.035001239346859669 8.3888755110979778e-07 0 0.035007076263636742 -1.565938693893085e-06 0 0.03500450985389756 6.683099075828355e-07 0 0.035000166668483233 -1.6742797364368116e-07 0 0.034999963714977628 -2.9266107038301034e-09 0 0.035000166668483233 -1.6742797364368116e-07 0 0.035000001029636144 -1.5015971908279589e-10 0 0.035164919119566776 -0.00011717839161521582 0 0.035077210653420343 -5.7893669770407853e-05 0 0.034993463671343046 -4.9295293021250438e-06 0 0.034994882517105336 -3.1452428221268327e-06 0 0.034995483977339668 -4.9650435418021726e-06 0 0.03500450985389756 6.683099075828355e-07 0 0.035005161201208952 3.4749851067741806e-06 0 0.035001239346859669 8.3888755110979778e-07 0 0.035164919119566776 -0.00011717839161521582 0 0.034853551500857276 -0.00023273166166119306 0 0.036405246635897323 -0.00027320904603626953 0 0.036627936573811366 -0.00073091623059698245 0 0.036830656667580758 -0.0003313706617086301 0 0.036405246635897323 -0.00027320904603626953 0 0.03632253519605895 -0.00077858139514443516 0 0.036627936573811366 -0.00073091623059698245 0 0.034627487834972319 -0.00015153826928203065 0 0.034703014451238773 6.4399911226411175e-06 0 0.03475185925980883 -0.00011272299180109417 0 0.034627487834972319 -0.00015153826928203065 0 0.03475185925980883 -0.00011272299180109417 0 0.034782943916033766 -0.00023626654254365733 0 0.034502248500352092 -0.00032332583999629042 0 0.034853551500857276 -0.00023273166166119306 0 0.034703014451238773 6.4399911226411175e-06 0 0.034817239094389864 -2.5494965611779091e-06 0 0.03475185925980883 -0.00011272299180109417 0 0.034853551500857276 -0.00023273166166119306 0 0.034867908833587646 -0.00021576467954517641 0 0.034817239094389864 -2.5494965611779091e-06 0 0.03475185925980883 -0.00011272299180109417 0 0.034857939717707599 -0.00015619751308271771 0 0.03475185925980883 -0.00011272299180109417 0 0.034857939717707599 -0.00015619751308271771 0 0.034782943916033766 -0.00023626654254365733 0 0.034857939717707599 -0.00015619751308271771 0 0.034910923696112484 -0.00010425082879555986 0 0.034909878944826431 -0.00013560081031863542 0 0.034857939717707599 -0.00015619751308271771 0 0.03489052664922223 -0.00022749794254123173 0 0.034909672244851163 -0.00016673627450152962 0 0.034857939717707599 -0.00015619751308271771 0 0.034909878944826431 -0.00013560081031863542 0 0.034909672244851163 -0.00016673627450152962 0 0.034857939717707599 -0.00015619751308271771 0 0.034964425174220527 -1.4445487477209111e-05 0 0.034996891693018534 -1.2452652841486247e-05 0 0.034867908833587646 -0.00021576467954517641 0 0.034875783952928271 -0.00021067844895768868 0 0.034817239094389864 -2.5494965611779091e-06 0 0.034857939717707599 -0.00015619751308271771 0 0.034964425174220527 -1.4445487477209111e-05 0 0.034947322432165265 -6.4000032238598845e-05 0 0.034959352286271825 -4.9498016468319153e-05 0 0.034983120495968779 -6.3160846571061088e-06 0 0.034990753632072463 -1.3886281872370697e-06 0 0.034964425174220527 -1.4445487477209111e-05 0 0.034988666035982337 -4.2752667611259e-06 0 0.034964425174220527 -1.4445487477209111e-05 0 0.034996891693018534 -1.2452652841486247e-05 0 0.034988666035982337 -4.2752667611259e-06 0 0.034983120495968779 -6.3160846571061088e-06 0 0.034964425174220527 -1.4445487477209111e-05 0 0.034857939717707599 -0.00015619751308271771 0 0.03489052664922223 -0.00022749794254123173 0 0.034782943916033766 -0.00023626654254365733 0 0.034882384800536931 -0.00031403082651479852 0 0.03489052664922223 -0.00022749794254123173 0 0.034782943916033766 -0.00023626654254365733 0 0.032258241383230239 -0.00076739959287494238 0 0.0320702195995805 -0.0009550242838310103 0 0.034882384800536931 -0.00031403082651479852 0 0.034782943916033766 -0.00023626654254365733 0 0.03475838308659978 -0.00036397872801825738 0 0.034782943916033766 -0.00023626654254365733 0 0.03466792792194346 -0.00029145530736657591 0 0.03475838308659978 -0.00036397872801825738 0 0.03466792792194346 -0.00029145530736657591 0 0.034615825835024282 -0.00040998418559317062 0 0.03475838308659978 -0.00036397872801825738 0 0.034627487834972319 -0.00015153826928203065 0 0.034782943916033766 -0.00023626654254365733 0 0.03466792792194346 -0.00029145530736657591 0 0.034502248500352092 -0.00032332583999629042 0 0.033880417424660643 -0.00058297743779512062 0 0.03632253519605895 -0.00077858139514443516 0 0.036627936573811366 -0.00073091623059698245 0 0.036428475673271093 -0.0011388217983438549 0 0.034627487834972319 -0.00015153826928203065 0 0.03466792792194346 -0.00029145530736657591 0 0.03454945541063506 -0.00029614148086958393 0 0.03466792792194346 -0.00029145530736657591 0 0.034615825835024282 -0.00040998418559317062 0 0.03454945541063506 -0.00029614148086958393 0 0.027687740874021507 -0.0020483834205004508 0 0.028074795066200246 -0.0019697454865720931 0 0.027838865897151711 -0.001704690272035422 0 0.027687740874021507 -0.0020483834205004508 0 0.027419175182334971 -0.0017351289902747553 0 0.027838865897151711 -0.001704690272035422 0 0.027687740874021507 -0.0020483834205004508 0 0.027419175182334971 -0.0017351289902747553 0 0.027219519405798694 -0.001776805355569303 0 0.032238680687139393 -0.0010768468398458424 0 0.0320702195995805 -0.0009550242838310103 0 0.027219519405798694 -0.001776805355569303 0 0.02725273247493298 -0.0017517219500102538 0 0.027348894020611195 -0.0015306020562143308 0 0.027419175182334971 -0.0017351289902747553 0 0.027219519405798694 -0.001776805355569303 0 0.02725273247493298 -0.0017517219500102538 0 0.027419175182334971 -0.0017351289902747553 0 0.02725273247493298 -0.0017517219500102538 0 0.027275693500162734 -0.001734638467650244 0 0.02725273247493298 -0.0017517219500102538 0 0.027275693500162734 -0.001734638467650244 0 0.027269489839520003 -0.0018649862195180388 0 0.02725273247493298 -0.0017517219500102538 0 0.027269489839520003 -0.0018649862195180388 0 0.027541272966889262 -0.0019656970204157648 0 0.02725273247493298 -0.0017517219500102538 0 0.027348894020611195 -0.0015306020562143308 0 0.027541272966889262 -0.0019656970204157648 0 0.027401671639466073 -0.00087553646110426762 0 0.027348894020611195 -0.0015306020562143308 0 0.028315680757934992 -0.0010826211145987157 0 0.027401671639466073 -0.00087553646110426762 0 0.027219519405798694 -0.001776805355569303 0 0.027348894020611195 -0.0015306020562143308 0 0.03575914906428191 -0.0010945786112763014 0 0.035874726158385321 -0.0012088135300193366 0 0.035694473051798702 -0.0012170563896318869 0 0.03575914906428191 -0.0010945786112763014 0 0.035694473051798702 -0.0012170563896318869 0 0.035636742249361544 -0.001101269724824007 0 0.03575914906428191 -0.0010945786112763014 0 0.035636742249361544 -0.001101269724824007 0 0.035610334758838395 -0.00097237272882422026 0 0.03575914906428191 -0.0010945786112763014 0 0.035874726158385321 -0.0012088135300193366 0 0.035901201603184697 -0.00097894395273352567 0 0.035874726158385321 -0.0012088135300193366 0 0.035722632847256637 -0.0013719162460365927 0 0.035885346597830062 -0.0014573701876282234 0 0.035874726158385321 -0.0012088135300193366 0 0.035694473051798702 -0.0012170563896318869 0 0.035722632847256637 -0.0013719162460365927 0 0.035694473051798702 -0.0012170563896318869 0 0.035586463252149834 -0.0013181451216246023 0 0.035722632847256637 -0.0013719162460365927 0 0.035586463252149834 -0.0013181451216246023 0 0.035451309925678048 -0.0012075700520385577 0 0.035572115678541093 -0.0011827845386994254 0 0.035694473051798702 -0.0012170563896318869 0 0.035586463252149834 -0.0013181451216246023 0 0.035572115678541093 -0.0011827845386994254 0 0.035281823834140517 -0.0012592459523416519 0 0.035451309925678048 -0.0012075700520385577 0 0.035448347471260806 -0.001385343381045072 0 0.035586463252149834 -0.0013181451216246023 0 0.035451309925678048 -0.0012075700520385577 0 0.035448347471260806 -0.001385343381045072 0 0.035281823834140517 -0.0012592459523416519 0 0.035314566479234116 -0.0010193235330875402 0 0.035451309925678048 -0.0012075700520385577 0 0.035314566479234116 -0.0010193235330875402 0 0.035451309925678048 -0.0012075700520385577 0 0.035497556476827667 -0.0010547127279518244 0 0.035694473051798702 -0.0012170563896318869 0 0.035572115678541093 -0.0011827845386994254 0 0.035636742249361544 -0.001101269724824007 0 0.035451309925678048 -0.0012075700520385577 0 0.035572115678541093 -0.0011827845386994254 0 0.035497556476827667 -0.0010547127279518244 0 0.035572115678541093 -0.0011827845386994254 0 0.035497556476827667 -0.0010547127279518244 0 0.035636742249361544 -0.001101269724824007 0 0.035610334758838395 -0.00097237272882422026 0 0.035478704043680996 -0.00091465370825926349 0 0.03567593457988965 -0.00089492519342272063 0 0.035350144266467015 -0.00072088214701812147 0 0.035478704043680996 -0.00091465370825926349 0 0.03567593457988965 -0.00089492519342272063 0 0.035497556476827667 -0.0010547127279518244 0 0.035636742249361544 -0.001101269724824007 0 0.035610334758838395 -0.00097237272882422026 0 0.035314566479234116 -0.0010193235330875402 0 0.035350144266467015 -0.00072088214701812147 0 0.035478704043680996 -0.00091465370825926349 0 0.035497556476827667 -0.0010547127279518244 0 0.035610334758838395 -0.00097237272882422026 0 0.035478704043680996 -0.00091465370825926349 0 0.035314566479234116 -0.0010193235330875402 0 0.035497556476827667 -0.0010547127279518244 0 0.035478704043680996 -0.00091465370825926349 0 0.036057191427962834 -0.0006109391021972767 0 0.0357033588599667 -0.0009502994189970965 0 0.035901201603184697 -0.00097894395273352567 0 0.03575914906428191 -0.0010945786112763014 0 0.0357033588599667 -0.0009502994189970965 0 0.035901201603184697 -0.00097894395273352567 0 0.03575914906428191 -0.0010945786112763014 0 0.035610334758838395 -0.00097237272882422026 0 0.035689697275203547 -0.00089493620346091558 0 0.03513868841900545 -0.00042127224783433122 0 0.035125089164449744 -0.0003950591309361718 0 0.035126184390254944 -0.00039685488280745299 0 0.035125089164449744 -0.0003950591309361718 0 0.036057191427962834 -0.0006109391021972767 0 0.035901201603184697 -0.00097894395273352567 0 0.0361137623670756 -0.0010360497276527408 0 0.035874726158385321 -0.0012088135300193366 0 0.035901201603184697 -0.00097894395273352567 0 0.0361137623670756 -0.0010360497276527408 0 0.03632253519605895 -0.00077858139514443516 0 0.0361137623670756 -0.0010360497276527408 0 0.036428475673271093 -0.0011388217983438549 0 0.036428475673271093 -0.0011388217983438549 0 0.03619909259676124 -0.0012637250401119373 0 0.036223874990053861 -0.001566100135488271 0 0.0361137623670756 -0.0010360497276527408 0 0.036428475673271093 -0.0011388217983438549 0 0.03619909259676124 -0.0012637250401119373 0 0.035874726158385321 -0.0012088135300193366 0 0.0361137623670756 -0.0010360497276527408 0 0.036030525697686673 -0.0013153553204301343 0 0.0361137623670756 -0.0010360497276527408 0 0.03619909259676124 -0.0012637250401119373 0 0.036030525697686673 -0.0013153553204301343 0 0.035874726158385321 -0.0012088135300193366 0 0.036030525697686673 -0.0013153553204301343 0 0.035885346597830062 -0.0014573701876282234 0 0.03619909259676124 -0.0012637250401119373 0 0.036030525697686673 -0.0013153553204301343 0 0.036223874990053861 -0.001566100135488271 0 0.036030525697686673 -0.0013153553204301343 0 0.036223874990053861 -0.001566100135488271 0 0.035885346597830062 -0.0014573701876282234 0 0.032866657358498953 -0.0010994978886724701 0 0.032583676091715884 -0.0013699007825086124 0 0.036223874990053861 -0.001566100135488271 0 0.035872144479505069 -0.0016722082986084213 0 0.035885346597830062 -0.0014573701876282234 0 0.027687740874021507 -0.0020483834205004508 0 0.028277461804625967 -0.0021559281395188128 0 0.028074795066200246 -0.0019697454865720931 0 0.033880417424660643 -0.00058297743779512062 0 0.032866657358498953 -0.0010994978886724701 0 0.032238680687139393 -0.0010768468398458424 0 0.032866657358498953 -0.0010994978886724701 0 0.034615825835024282 -0.00040998418559317062 0 0.03454945541063506 -0.00029614148086958393 0 0.034466959740565982 -0.00045008881211406032 0 0.032866657358498953 -0.0010994978886724701 0 0.032841527656700606 -0.0011250808155114007 0 0.028074795066200246 -0.0019697454865720931 0 0.028262782754197038 -0.0018689578480594177 0 0.027838865897151711 -0.001704690272035422 0 0.028074795066200246 -0.0019697454865720931 0 0.028262782754197038 -0.0018689578480594177 0 0.028354169414066793 -0.0020750183110796673 0 0.028277461804625967 -0.0021559281395188128 0 0.028074795066200246 -0.0019697454865720931 0 0.028354169414066793 -0.0020750183110796673 0 0.028299883755254645 -0.0021757700678330383 0 0.028354169414066793 -0.0020750183110796673 0 0.028751719153194084 -0.0021080278055210905 0 0.028565428899304302 -0.001998368388235553 0 0.028354169414066793 -0.0020750183110796673 0 0.028751719153194084 -0.0021080278055210905 0 0.028262782754197038 -0.0018689578480594177 0 0.028565428899304302 -0.001998368388235553 0 0.028354169414066793 -0.0020750183110796673 0 0.028262782754197038 -0.0018689578480594177 0 0.028565428899304302 -0.001998368388235553 0 0.028519629325505697 -0.0018457339666078541 0 0.032583676091715884 -0.0013699007825086124 0 0.032434968235203823 -0.0015659785922077891 0 0.028565428899304302 -0.001998368388235553 0 0.029035055063063565 -0.0018546890993272171 0 0.028519629325505697 -0.0018457339666078541 0 0.028565428899304302 -0.001998368388235553 0 0.028751719153194084 -0.0021080278055210905 0 0.029035055063063565 -0.0018546890993272171 0 0.028751719153194084 -0.0021080278055210905 0 0.029035055063063565 -0.0018546890993272171 0 0.029172422051329836 -0.0020167135938777424 0 0.035872144479505069 -0.0016722082986084213 0 0.035624157989565794 -0.001539449009823707 0 0.035504298863409771 -0.0017989738577060227 0 0.035872144479505069 -0.0016722082986084213 0 0.035885346597830062 -0.0014573701876282234 0 0.035624157989565794 -0.001539449009823707 0 0.035722632847256637 -0.0013719162460365927 0 0.035885346597830062 -0.0014573701876282234 0 0.035624157989565794 -0.001539449009823707 0 0.035586463252149834 -0.0013181451216246023 0 0.035722632847256637 -0.0013719162460365927 0 0.035624157989565794 -0.001539449009823707 0 0.035272100886122329 -0.0014710737143944072 0 0.035448347471260806 -0.001385343381045072 0 0.035434432726765171 -0.0015723852549051952 0 0.035586463252149834 -0.0013181451216246023 0 0.035448347471260806 -0.001385343381045072 0 0.035624157989565794 -0.001539449009823707 0 0.035448347471260806 -0.001385343381045072 0 0.035624157989565794 -0.001539449009823707 0 0.035434432726765171 -0.0015723852549051952 0 0.035624157989565794 -0.001539449009823707 0 0.035434432726765171 -0.0015723852549051952 0 0.035504298863409771 -0.0017989738577060227 0 0.035283491869540627 -0.0016837815976956073 0 0.035434432726765171 -0.0015723852549051952 0 0.035504298863409771 -0.0017989738577060227 0 0.032351179149756916 -0.0017171231786118949 0 0.03091543774492302 -0.0016861369931117694 0 0.029632479218823244 -0.0019024869364320668 0 0.029035055063063565 -0.0018546890993272171 0 0.029172422051329836 -0.0020167135938777424 0 0.029485650456708673 -0.0022039043319234033 0 0.029946532061972623 -0.0019145681306298591 0 0.029498945846542377 -0.0015737170062716324 0 0.030495485419252781 -0.0024297833686087846 0 0.029485650456708673 -0.0022039043319234033 0 0.029946532061972623 -0.0019145681306298591 0 0.029946532061972623 -0.0019145681306298591 0 0.029897849241682914 -0.0015000737321452114 0 0.029498945846542377 -0.0015737170062716324 0 0.03091543774492302 -0.0016861369931117694 0 0.030437956502212055 -0.0016711404454776281 0 0.029485650456708673 -0.0022039043319234033 0 0.029030321202810305 -0.0016936679935497581 0 0.029498945846542377 -0.0015737170062716324 0 0.029485650456708673 -0.0022039043319234033 0 0.029030321202810305 -0.0016936679935497581 0 0.028519629325505697 -0.0018457339666078541 0 0.029038126481279871 -0.0011919837738647002 0 0.029498945846542377 -0.0015737170062716324 0 0.029602287447431038 -0.0010939635249511029 0 0.029030321202810305 -0.0016936679935497581 0 0.029038126481279871 -0.0011919837738647002 0 0.029498945846542377 -0.0015737170062716324 0 0.029030321202810305 -0.0016936679935497581 0 0.029038126481279871 -0.0011919837738647002 0 0.028618673359770131 -0.0015264674727706216 0 0.030187935676619211 -0.00086833756599648867 0 0.029897849241682914 -0.0015000737321452114 0 0.029602287447431038 -0.0010939635249511029 0 0.029897849241682914 -0.0015000737321452114 0 0.029498945846542377 -0.0015737170062716324 0 0.029602287447431038 -0.0010939635249511029 0 0.030187935676619211 -0.00086833756599648867 0 0.029602287447431038 -0.0010939635249511029 0 0.02932902903510801 -0.00049705668725792272 0 0.030187935676619211 -0.00086833756599648867 0 0.030198069167784659 0.00021842238562973872 0 0.02932902903510801 -0.00049705668725792272 0 0.029038126481279871 -0.0011919837738647002 0 0.029602287447431038 -0.0010939635249511029 0 0.02932902903510801 -0.00049705668725792272 0 0.029038126481279871 -0.0011919837738647002 0 0.02932902903510801 -0.00049705668725792272 0 0.02853938612552755 -0.00081000004843302935 0 0.028148699762547698 -0.00091807338856392826 0 0.026903454803067037 -0.0019135623118466075 0 0.027160575981814747 -0.00080616309999519966 0 0.028003535900373775 -0.00081280566358272804 0 0.027662331941555904 -0.0010953549192496026 0 0.028566650006313771 -0.00016861158640468638 0 0.02853938612552755 -0.00081000004843302935 0 0.02797527647666273 -0.00067878238438950575 0 0.02932902903510801 -0.00049705668725792272 0 0.028566650006313771 -0.00016861158640468638 0 0.02853938612552755 -0.00081000004843302935 0 0.02853938612552755 -0.00081000004843302935 0 0.028041602620642418 -0.0010616505864352603 0 0.028372777765272167 -0.0012508506552211525 0 0.02853938612552755 -0.00081000004843302935 0 0.028041602620642418 -0.0010616505864352603 0 0.02797527647666273 -0.00067878238438950575 0 0.028372777765272167 -0.0012508506552211525 0 0.028211460277119158 -0.0016044629231795077 0 0.027904806903954537 -0.0013857259081315027 0 0.028041602620642418 -0.0010616505864352603 0 0.028372777765272167 -0.0012508506552211525 0 0.027904806903954537 -0.0013857259081315027 0 0.028372777765272167 -0.0012508506552211525 0 0.028618673359770131 -0.0015264674727706216 0 0.028211460277119158 -0.0016044629231795077 0 0.029038126481279871 -0.0011919837738647002 0 0.02853938612552755 -0.00081000004843302935 0 0.028372777765272167 -0.0012508506552211525 0 0.029038126481279871 -0.0011919837738647002 0 0.028372777765272167 -0.0012508506552211525 0 0.028618673359770131 -0.0015264674727706216 0 0.029030321202810305 -0.0016936679935497581 0 0.028618673359770131 -0.0015264674727706216 0 0.028519629325505697 -0.0018457339666078541 0 0.028618673359770131 -0.0015264674727706216 0 0.028519629325505697 -0.0018457339666078541 0 0.028211460277119158 -0.0016044629231795077 0 0.028262782754197038 -0.0018689578480594177 0 0.028211460277119158 -0.0016044629231795077 0 0.027838865897151711 -0.001704690272035422 0 0.028262782754197038 -0.0018689578480594177 0 0.028519629325505697 -0.0018457339666078541 0 0.028211460277119158 -0.0016044629231795077 0 0.028211460277119158 -0.0016044629231795077 0 0.027838865897151711 -0.001704690272035422 0 0.027904806903954537 -0.0013857259081315027 0 0.027838865897151711 -0.001704690272035422 0 0.027561728130317126 -0.0015153706132084953 0 0.027904806903954537 -0.0013857259081315027 0 0.027419175182334971 -0.0017351289902747553 0 0.027838865897151711 -0.001704690272035422 0 0.027561728130317126 -0.0015153706132084953 0 0.027419175182334971 -0.0017351289902747553 0 0.027561728130317126 -0.0015153706132084953 0 0.027257413179662109 -0.001556426595776742 0 0.02736212894477015 -0.0013454921150562148 0 0.027189630384480579 -0.0015042596998209002 0 0.027561728130317126 -0.0015153706132084953 0 0.027522830220481149 -0.0011613256248911149 0 0.027257413179662109 -0.001556426595776742 0 0.028041602620642418 -0.0010616505864352603 0 0.027522830220481149 -0.0011613256248911149 0 0.027904806903954537 -0.0013857259081315027 0 0.027561728130317126 -0.0015153706132084953 0 0.027522830220481149 -0.0011613256248911149 0 0.027904806903954537 -0.0013857259081315027 0 0.027269489839520003 -0.0018649862195180388 0 0.027002800744868067 -0.0018020357912285412 0 0.026642848007177759 -0.0017651359462229742 0 0.027275693500162734 -0.001734638467650244 0 0.027269489839520003 -0.0018649862195180388 0 0.027257413179662109 -0.001556426595776742 0 0.027143796148894145 -0.0015580733660590909 0 0.027189630384480579 -0.0015042596998209002 0 0.027419175182334971 -0.0017351289902747553 0 0.027275693500162734 -0.001734638467650244 0 0.027257413179662109 -0.001556426595776742 0 0.026303527159225022 -0.0019939415200597144 0 0.026642848007177759 -0.0017651359462229742 0 0.026482886510549478 -0.0019707545309648974 0 0.026642848007177759 -0.0017651359462229742 0 0.026719644478294127 -0.0018916656250950921 0 0.026482886510549478 -0.0019707545309648974 0 0.026895190049821736 -0.0028393986698163646 0 0.026832840644645951 -0.00294093770997741 0 0.027002800744868067 -0.0018020357912285412 0 0.026719644478294127 -0.0018916656250950921 0 0.026750558347381027 -0.0019991533844366163 0 0.027002800744868067 -0.0018020357912285412 0 0.026642848007177759 -0.0017651359462229742 0 0.026719644478294127 -0.0018916656250950921 0 0.026719644478294127 -0.0018916656250950921 0 0.026750558347381027 -0.0019991533844366163 0 0.026482886510549478 -0.0019707545309648974 0 0.026750558347381027 -0.0019991533844366163 0 0.026482886510549478 -0.0019707545309648974 0 0.026428169465866989 -0.0021062271938994855 0 0.026482886510549478 -0.0019707545309648974 0 0.026428169465866989 -0.0021062271938994855 0 0.026204658967092346 -0.0018417971487270637 0 0.026750558347381027 -0.0019991533844366163 0 0.026428169465866989 -0.0021062271938994855 0 0.026667494360618077 -0.0022875567597186917 0 0.026832840644645951 -0.00294093770997741 0 0.026784384039860571 -0.0029603075172290418 0 0.026303527159225022 -0.0019939415200597144 0 0.026903454803067037 -0.0019135623118466075 0 0.026204658967092346 -0.0018417971487270637 0 0.02736212894477015 -0.0013454921150562148 0 0.027662331941555904 -0.0010953549192496026 0 0.028041602620642418 -0.0010616505864352603 0 0.027522830220481149 -0.0011613256248911149 0 0.02797527647666273 -0.00067878238438950575 0 0.026303527159225022 -0.0019939415200597144 0 0.026482886510549478 -0.0019707545309648974 0 0.026204658967092346 -0.0018417971487270637 0 0.026428169465866989 -0.0021062271938994855 0 0.026204658967092346 -0.0018417971487270637 0 0.026205509258568831 -0.002200989519087696 0 0.026269162538760531 -0.0017263922215538523 0 0.026273483290214259 -0.0017339537049849867 0 0.026204658967092346 -0.0018417971487270637 0 0.025877532305583692 -0.0024062935229391541 0 0.026205509258568831 -0.002200989519087696 0 0.026903454803067037 -0.0019135623118466075 0 0.026204658967092346 -0.0018417971487270637 0 0.027160575981814747 -0.00080616309999519966 0 0.026204658967092346 -0.0018417971487270637 0 0.026320983254637245 -0.00034029255054000368 0 0.027160575981814747 -0.00080616309999519966 0 0.026320983254637245 -0.00034029255054000368 0 0.027160575981814747 -0.00080616309999519966 0 0.027185682124422968 0.00027686347879466458 0 0.026205509258568831 -0.002200989519087696 0 0.026114134376497067 -0.0025579988785799949 0 0.026337344486303666 -0.0023969684722928461 0 0.025877532305583692 -0.0024062935229391541 0 0.026205509258568831 -0.002200989519087696 0 0.026114134376497067 -0.0025579988785799949 0 0.026114134376497067 -0.0025579988785799949 0 0.025898435819766613 -0.0026583320741714591 0 0.026058382921964704 -0.0028086305447594263 0 0.025877532305583692 -0.0024062935229391541 0 0.026114134376497067 -0.0025579988785799949 0 0.025898435819766613 -0.0026583320741714591 0 0.026320983254637245 -0.00034029255054000368 0 0.026646021118297 0.0010100215487274754 0 0.027185682124422968 0.00027686347879466458 0 0.026273483290214259 -0.0017339537049849867 0 0.026269234365014618 -0.0018893476082299414 0 0.025877532305583692 -0.0024062935229391541 0 0.025898435819766613 -0.0026583320741714591 0 0.02575238833698873 -0.0027840423834810785 0 0.025898435819766613 -0.0026583320741714591 0 0.025679542464350662 -0.0027741103689618864 0 0.025856396392051378 -0.0028027233111172969 0 0.02623805277939922 -0.0019231562145934496 0 0.026269234365014618 -0.0018893476082299414 0 0.026646021118297 0.0010100215487274754 0 0.027491126418484051 0.0010334447496507641 0 0.027185682124422968 0.00027686347879466458 0 0.026428169465866989 -0.0021062271938994855 0 0.026667494360618077 -0.0022875567597186917 0 0.026337344486303666 -0.0023969684722928461 0 0.026667494360618077 -0.0022875567597186917 0 0.026337344486303666 -0.0023969684722928461 0 0.026302243411708282 -0.0027120504338426681 0 0.026428169465866989 -0.0021062271938994855 0 0.026205509258568831 -0.002200989519087696 0 0.026337344486303666 -0.0023969684722928461 0 0.026302243411708282 -0.0027120504338426681 0 0.026448425765349202 -0.0029324451340468011 0 0.026282215187355743 -0.0028802753512631417 0 0.026114134376497067 -0.0025579988785799949 0 0.026302243411708282 -0.0027120504338426681 0 0.026058382921964704 -0.0028086305447594263 0 0.026114134376497067 -0.0025579988785799949 0 0.026337344486303666 -0.0023969684722928461 0 0.026302243411708282 -0.0027120504338426681 0 0.026784384039860571 -0.0029603075172290418 0 0.026765116686779493 -0.002955137734484616 0 0.026667494360618077 -0.0022875567597186917 0 0.026302243411708282 -0.0027120504338426681 0 0.026448425765349202 -0.0029324451340468011 0 0.026531514764049954 -0.0035459642654940178 0 0.026448425765349202 -0.0029324451340468011 0 0.026116018997044872 -0.0031752493090724497 0 0.026448425765349202 -0.0029324451340468011 0 0.026406992886253228 -0.0027995746645489801 0 0.026116018997044872 -0.0031752493090724497 0 0.026448425765349202 -0.0029324451340468011 0 0.026406992886253228 -0.0027995746645489801 0 0.026282215187355743 -0.0028802753512631417 0 0.026406992886253228 -0.0027995746645489801 0 0.026282215187355743 -0.0028802753512631417 0 0.026301870567188947 -0.0029760246674721269 0 0.026302243411708282 -0.0027120504338426681 0 0.026282215187355743 -0.0028802753512631417 0 0.026058382921964704 -0.0028086305447594263 0 0.026282215187355743 -0.0028802753512631417 0 0.026058382921964704 -0.0028086305447594263 0 0.026023990164004016 -0.0029931165412266118 0 0.026122868311653506 -0.0030449466700308678 0 0.026301870567188947 -0.0029760246674721269 0 0.026432484396080862 -0.003295156355271341 0 0.026282215187355743 -0.0028802753512631417 0 0.026122868311653506 -0.0030449466700308678 0 0.026023990164004016 -0.0029931165412266118 0 0.026122868311653506 -0.0030449466700308678 0 0.025939104162228496 -0.0031343146327426023 0 0.026040423875427456 -0.0033347408443312305 0 0.026122868311653506 -0.0030449466700308678 0 0.026023990164004016 -0.0029931165412266118 0 0.025939104162228496 -0.0031343146327426023 0 0.026282215187355743 -0.0028802753512631417 0 0.026122868311653506 -0.0030449466700308678 0 0.026301870567188947 -0.0029760246674721269 0 0.026406992886253228 -0.0027995746645489801 0 0.025908399751801734 -0.002440696666756116 0 0.026675383429546329 -0.0016916655599396797 0 0.024974373822688915 -0.0033433285474004566 0 0.024840873565302939 -0.0035576846859408152 0 0.026406992886253228 -0.0027995746645489801 0 0.026301870567188947 -0.0029760246674721269 0 0.026432484396080862 -0.003295156355271341 0 0.0253404396401745 -0.002609386591508616 0 0.025226619160625796 -0.0031160961677264738 0 0.024925862590691412 -0.0029934584932729907 0 0.026269234365014618 -0.0018893476082299414 0 0.025984485746085213 -0.0026191012468188704 0 0.025776266429192028 -0.0029792532686022787 0 0.025679542464350662 -0.0027741103689618864 0 0.025493890453607251 -0.0031890531938188059 0 0.025776266429192028 -0.0029792532686022787 0 0.025679542464350662 -0.0027741103689618864 0 0.025856396392051378 -0.0028027233111172969 0 0.025776266429192028 -0.0029792532686022787 0 0.025856396392051378 -0.0028027233111172969 0 0.026058382921964704 -0.0028086305447594263 0 0.025776266429192028 -0.0029792532686022787 0 0.026058382921964704 -0.0028086305447594263 0 0.025761227366282766 -0.0033217542910254617 0 0.025898435819766613 -0.0026583320741714591 0 0.025856396392051378 -0.0028027233111172969 0 0.026058382921964704 -0.0028086305447594263 0 0.026058382921964704 -0.0028086305447594263 0 0.026023990164004016 -0.0029931165412266118 0 0.025660929970904613 -0.0031287655015748632 0 0.025613761980194601 -0.0033113902571464348 0 0.025548212422889162 -0.0034285165011557067 0 0.026023990164004016 -0.0029931165412266118 0 0.025939104162228496 -0.0031343146327426023 0 0.025660929970904613 -0.0031287655015748632 0 0.025939104162228496 -0.0031343146327426023 0 0.025660929970904613 -0.0031287655015748632 0 0.025828956275186051 -0.0032667083206895054 0 0.025776266429192028 -0.0029792532686022787 0 0.025761227366282766 -0.0033217542910254617 0 0.025493890453607251 -0.0031890531938188059 0 0.025226619160625796 -0.0031160961677264738 0 0.024925862590691412 -0.0029934584932729907 0 0.024913927334406904 -0.0033381815474285946 0 0.024925862590691412 -0.0029934584932729907 0 0.024913927334406904 -0.0033381815474285946 0 0.024524410045807101 -0.0033742589868665544 0 0.026646021118297 0.0010100215487274754 0 0.027659321801315036 0.0018108687906535986 0 0.027491126418484051 0.0010334447496507641 0 0.026269234365014618 -0.0018893476082299414 0 0.026583125285094315 -0.001639472530318204 0 0.027659321801315036 0.0018108687906535986 0 0.027491126418484051 0.0010334447496507641 0 0.028127067254352479 0.0013091355931484777 0 0.027491126418484051 0.0010334447496507641 0 0.028127067254352479 0.0013091355931484777 0 0.027797385700819834 0.0006953743596738788 0 0.027659321801315036 0.0018108687906535986 0 0.028127067254352479 0.0013091355931484777 0 0.028478540720725476 0.0017799825297500455 0 0.028127067254352479 0.0013091355931484777 0 0.028905846920547377 0.0013629818851450641 0 0.028619357565271612 0.00077164035425789904 0 0.028127067254352479 0.0013091355931484777 0 0.028478540720725476 0.0017799825297500455 0 0.028905846920547377 0.0013629818851450641 0 0.028127067254352479 0.0013091355931484777 0 0.027797385700819834 0.0006953743596738788 0 0.028619357565271612 0.00077164035425789904 0 0.028478540720725476 0.0017799825297500455 0 0.029138591063441396 0.0019222607312392361 0 0.028516460167684908 0.0024767159793646258 0 0.026583125285094315 -0.001639472530318204 0 0.026817221941449074 -0.0016126454598456832 0 0.027659321801315036 0.0018108687906535986 0 0.028478540720725476 0.0017799825297500455 0 0.028516460167684908 0.0024767159793646258 0 0.029138591063441396 0.0019222607312392361 0 0.028516460167684908 0.0024767159793646258 0 0.029157590459902082 0.0024131154854252117 0 0.029138591063441396 0.0019222607312392361 0 0.029670746457629318 0.0020890925963328666 0 0.029157590459902082 0.0024131154854252117 0 0.028478540720725476 0.0017799825297500455 0 0.029138591063441396 0.0019222607312392361 0 0.028905846920547377 0.0013629818851450641 0 0.029921766141046798 0.0021126594775804316 0 0.029670746457629318 0.0020890925963328666 0 0.029817220823409044 0.0025863866182337255 0 0.029921766141046798 0.0021126594775804316 0 0.029670746457629318 0.0020890925963328666 0 0.029990554417048804 0.0018430135028221623 0 0.030176904530235426 0.0020993371320619622 0 0.029921766141046798 0.0021126594775804316 0 0.029990554417048804 0.0018430135028221623 0 0.029138591063441396 0.0019222607312392361 0 0.029670746457629318 0.0020890925963328666 0 0.029662367685668475 0.0016753192138279744 0 0.029138591063441396 0.0019222607312392361 0 0.029662367685668475 0.0016753192138279744 0 0.029499121373394471 0.0013855452668316776 0 0.029670746457629318 0.0020890925963328666 0 0.029662367685668475 0.0016753192138279744 0 0.029990554417048804 0.0018430135028221623 0 0.029662367685668475 0.0016753192138279744 0 0.029990554417048804 0.0018430135028221623 0 0.029966885510394715 0.00116863390079476 0 0.029662367685668475 0.0016753192138279744 0 0.029499121373394471 0.0013855452668316776 0 0.029966885510394715 0.00116863390079476 0 0.029499121373394471 0.0013855452668316776 0 0.029966885510394715 0.00116863390079476 0 0.029478478808249935 0.00083333705255716497 0 0.028905846920547377 0.0013629818851450641 0 0.029478478808249935 0.00083333705255716497 0 0.028619357565271612 0.00077164035425789904 0 0.029138591063441396 0.0019222607312392361 0 0.029499121373394471 0.0013855452668316776 0 0.028905846920547377 0.0013629818851450641 0 0.029499121373394471 0.0013855452668316776 0 0.028905846920547377 0.0013629818851450641 0 0.029478478808249935 0.00083333705255716497 0 0.029478478808249935 0.00083333705255716497 0 0.02917132560369913 0.00028449583225836098 0 0.028619357565271612 0.00077164035425789904 0 0.030198069167784659 0.00021842238562973872 0 0.029478478808249935 0.00083333705255716497 0 0.02917132560369913 0.00028449583225836098 0 0.030198069167784659 0.00021842238562973872 0 0.029966885510394715 0.00116863390079476 0 0.029478478808249935 0.00083333705255716497 0 0.030198069167784659 0.00021842238562973872 0 0.02932902903510801 -0.00049705668725792272 0 0.02917132560369913 0.00028449583225836098 0 0.02932902903510801 -0.00049705668725792272 0 0.028566650006313771 -0.00016861158640468638 0 0.02917132560369913 0.00028449583225836098 0 0.028148699762547698 -0.00091807338856392826 0 0.02917132560369913 0.00028449583225836098 0 0.028025891159130355 7.9911132028280616e-05 0 0.028003535900373775 -0.00081280566358272804 0 0.02818246456710144 -0.00066245158393689861 0 0.028148699762547698 -0.00091807338856392826 0 0.028025891159130355 7.9911132028280616e-05 0 0.027160575981814747 -0.00080616309999519966 0 0.028025891159130355 7.9911132028280616e-05 0 0.027160575981814747 -0.00080616309999519966 0 0.027185682124422968 0.00027686347879466458 0 0.028025891159130355 7.9911132028280616e-05 0 0.027185682124422968 0.00027686347879466458 0 0.027797385700819834 0.0006953743596738788 0 0.027491126418484051 0.0010334447496507641 0 0.027185682124422968 0.00027686347879466458 0 0.027797385700819834 0.0006953743596738788 0 0.028025891159130355 7.9911132028280616e-05 0 0.027797385700819834 0.0006953743596738788 0 0.028619357565271612 0.00077164035425789904 0 0.02917132560369913 0.00028449583225836098 0 0.028025891159130355 7.9911132028280616e-05 0 0.028619357565271612 0.00077164035425789904 0 0.023549651259220452 -0.0035197936467947365 0 0.023471143649896595 -0.0035391453955752254 0 0.023478169519722668 -0.0034653234970355266 0 0.023549651259220452 -0.0035197936467947365 0 0.023478169519722668 -0.0034653234970355266 0 0.023547772535189502 -0.0034608495076580725 0 0.023549651259220452 -0.0035197936467947365 0 0.023547772535189502 -0.0034608495076580725 0 0.023578059003500743 -0.0035040093021594214 0 0.025568799398871946 -0.0033381424863512333 0 0.025443947751742579 -0.003547741431198227 0 0.025788094171489345 -0.0035295935901222732 0 0.02486378684076512 -0.0033400425336105326 0 0.024973020770753512 -0.0032879589377963355 0 0.025443947751742579 -0.003547741431198227 0 0.025141519176309836 -0.0034786995521111446 0 0.025276404128339949 -0.0036975753068445804 0 0.025568799398871946 -0.0033381424863512333 0 0.025443947751742579 -0.003547741431198227 0 0.025141519176309836 -0.0034786995521111446 0 0.023032702500839219 -0.0044057511317338021 0 0.02287828626446034 -0.0045516023003615022 0 0.022853978614510904 -0.0044352725538243029 0 0.023471143649896595 -0.0035391453955752254 0 0.023445675197067643 -0.0035171379201332227 0 0.023416526478148278 -0.0035540939338079202 0 0.024973020770753512 -0.0032879589377963355 0 0.025622104915317055 -0.0030458525365331048 0 0.024639934852760961 -0.0036501802746232194 0 0.025622104915317055 -0.0030458525365331048 0 0.023032702500839219 -0.0044057511317338021 0 0.022853978614510904 -0.0044352725538243029 0 0.022825785498027926 -0.0043018311910314562 0 0.023032702500839219 -0.0044057511317338021 0 0.023006749670060188 -0.0042201222100368679 0 0.022825785498027926 -0.0043018311910314562 0 0.023471143649896595 -0.0035391453955752254 0 0.023445675197067643 -0.0035171379201332227 0 0.023478169519722668 -0.0034653234970355266 0 0.023032702500839219 -0.0044057511317338021 0 0.023006749670060188 -0.0042201222100368679 0 0.023220481200814116 -0.0041991208659783556 0 0.024639934852760961 -0.0036501802746232194 0 0.024161564554842505 -0.0038452062753558149 0 0.023045446766882461 -0.004082183980166655 0 0.023006749670060188 -0.0042201222100368679 0 0.023220481200814116 -0.0041991208659783556 0 0.023045446766882461 -0.004082183980166655 0 0.023178337592890581 -0.0039698648240079478 0 0.023220481200814116 -0.0041991208659783556 0 0.023006749670060188 -0.0042201222100368679 0 0.022825785498027926 -0.0043018311910314562 0 0.02284954847326533 -0.0041004766601304733 0 0.023045446766882461 -0.004082183980166655 0 0.023006749670060188 -0.0042201222100368679 0 0.02284954847326533 -0.0041004766601304733 0 0.023045446766882461 -0.004082183980166655 0 0.022971363659557625 -0.003925749433215212 0 0.02284954847326533 -0.0041004766601304733 0 0.022971363659557625 -0.003925749433215212 0 0.023178337592890581 -0.0039698648240079478 0 0.023131505956038603 -0.0038557447510938515 0 0.023045446766882461 -0.004082183980166655 0 0.022971363659557625 -0.003925749433215212 0 0.023178337592890581 -0.0039698648240079478 0 0.023178337592890581 -0.0039698648240079478 0 0.023220481200814116 -0.0041991208659783556 0 0.023370565092278219 -0.0039548434815541772 0 0.023178337592890581 -0.0039698648240079478 0 0.023370565092278219 -0.0039548434815541772 0 0.023284423895344485 -0.0037858190553717191 0 0.024161564554842505 -0.0038452062753558149 0 0.023937549315641599 -0.0038725709597062265 0 0.023478169519722668 -0.0034653234970355266 0 0.023547772535189502 -0.0034608495076580725 0 0.023555904315973316 -0.0033608328146595783 0 0.023547772535189502 -0.0034608495076580725 0 0.023555904315973316 -0.0033608328146595783 0 0.0236422677076355 -0.0033529356648671336 0 0.023555904315973316 -0.0033608328146595783 0 0.0236422677076355 -0.0033529356648671336 0 0.023664700018828821 -0.0033419792969700572 0 0.0236422677076355 -0.0033529356648671336 0 0.023741124903043462 -0.003287174142505238 0 0.023664700018828821 -0.0033419792969700572 0 0.0236422677076355 -0.0033529356648671336 0 0.023741124903043462 -0.003287174142505238 0 0.023817322821483449 -0.0032816677605254385 0 0.023741124903043462 -0.003287174142505238 0 0.023817322821483449 -0.0032816677605254385 0 0.023978811700860154 -0.0032521016891526723 0 0.023817322821483449 -0.0032816677605254385 0 0.023578059003500743 -0.0035040093021594214 0 0.023591583470209027 -0.0036457573395102059 0 0.023817322821483449 -0.0032816677605254385 0 0.0245982730431097 -0.0032905131513167409 0 0.023591583470209027 -0.0036457573395102059 0 0.0236422677076355 -0.0033529356648671336 0 0.023817322821483449 -0.0032816677605254385 0 0.023578059003500743 -0.0035040093021594214 0 0.023547772535189502 -0.0034608495076580725 0 0.0236422677076355 -0.0033529356648671336 0 0.023578059003500743 -0.0035040093021594214 0 0.023578003428313388 -0.0032233873696872533 0 0.023257160074830474 -0.0034331248951917108 0 0.023636849911315535 -0.0033675093505330135 0 0.024779031784875019 -0.00350485015434048 0 0.024840873565302939 -0.0035576846859408152 0 0.023741124903043462 -0.003287174142505238 0 0.023978811700860154 -0.0032521016891526723 0 0.023636849911315535 -0.0033675093505330135 0 0.023578003428313388 -0.0032233873696872533 0 0.023978811700860154 -0.0032521016891526723 0 0.023636849911315535 -0.0033675093505330135 0 0.023817322821483449 -0.0032816677605254385 0 0.023978811700860154 -0.0032521016891526723 0 0.0245982730431097 -0.0032905131513167409 0 0.025154130143119135 -0.0032558598432760118 0 0.024997185610321094 -0.0033064813202323385 0 0.025908399751801734 -0.002440696666756116 0 0.0245982730431097 -0.0032905131513167409 0 0.025701765462377506 -0.0031200042588502897 0 0.0245982730431097 -0.0032905131513167409 0 0.025701765462377506 -0.0031200042588502897 0 0.023591583470209027 -0.0036457573395102059 0 0.023578003428313388 -0.0032233873696872533 0 0.023978811700860154 -0.0032521016891526723 0 0.0245982730431097 -0.0032905131513167409 0 0.024779031784875019 -0.00350485015434048 0 0.02470594981786315 -0.0035484165429348936 0 0.026406992886253228 -0.0027995746645489801 0 0.025701765462377506 -0.0031200042588502897 0 0.026116018997044872 -0.0031752493090724497 0 0.026406992886253228 -0.0027995746645489801 0 0.025908399751801734 -0.002440696666756116 0 0.025701765462377506 -0.0031200042588502897 0 0.025701765462377506 -0.0031200042588502897 0 0.026116018997044872 -0.0031752493090724497 0 0.025905438946171436 -0.0032306637135275026 0 0.026116018997044872 -0.0031752493090724497 0 0.025905438946171436 -0.0032306637135275026 0 0.026121752793952787 -0.0033684002367932206 0 0.025905438946171436 -0.0032306637135275026 0 0.026121752793952787 -0.0033684002367932206 0 0.025944744379097336 -0.0033415103876329052 0 0.025701765462377506 -0.0031200042588502897 0 0.025905438946171436 -0.0032306637135275026 0 0.025918103757057949 -0.0032646520155826531 0 0.026119374835967386 -0.003508399658275132 0 0.026121752793952787 -0.0033684002367932206 0 0.025944744379097336 -0.0033415103876329052 0 0.026119374835967386 -0.003508399658275132 0 0.025944744379097336 -0.0033415103876329052 0 0.02598265436732982 -0.0035655046149239205 0 0.026119374835967386 -0.003508399658275132 0 0.026121752793952787 -0.0033684002367932206 0 0.026427792705870371 -0.00367923289388141 0 0.026531514764049954 -0.0035459642654940178 0 0.026116018997044872 -0.0031752493090724497 0 0.026121752793952787 -0.0033684002367932206 0 0.026531514764049954 -0.0035459642654940178 0 0.026121752793952787 -0.0033684002367932206 0 0.026427792705870371 -0.00367923289388141 0 0.023549651259220452 -0.0035197936467947365 0 0.023578059003500743 -0.0035040093021594214 0 0.023591583470209027 -0.0036457573395102059 0 0.02486378684076512 -0.0033400425336105326 0 0.024997185610321094 -0.0033064813202323385 0 0.025568799398871946 -0.0033381424863512333 0 0.025918103757057949 -0.0032646520155826531 0 0.025836395114365335 -0.0033740564470624065 0 0.025905438946171436 -0.0032306637135275026 0 0.025918103757057949 -0.0032646520155826531 0 0.025944744379097336 -0.0033415103876329052 0 0.025918103757057949 -0.0032646520155826531 0 0.025944744379097336 -0.0033415103876329052 0 0.025836395114365335 -0.0033740564470624065 0 0.025944744379097336 -0.0033415103876329052 0 0.025774412057764397 -0.0035290273274356338 0 0.02598265436732982 -0.0035655046149239205 0 0.025944744379097336 -0.0033415103876329052 0 0.025788094171489345 -0.0035295935901222732 0 0.025836395114365335 -0.0033740564470624065 0 0.025668247992664029 -0.0036160161248742586 0 0.025615001903103042 -0.0036551187543415378 0 0.025568799398871946 -0.0033381424863512333 0 0.025788094171489345 -0.0035295935901222732 0 0.025836395114365335 -0.0033740564470624065 0 0.025774412057764397 -0.0035290273274356338 0 0.025960953562379985 -0.0038480817657653805 0 0.025601358323393865 -0.0040131668881713146 0 0.025615001903103042 -0.0036551187543415378 0 0.025493971411029208 -0.0037421268580780064 0 0.02598265436732982 -0.0035655046149239205 0 0.025960953562379985 -0.0038480817657653805 0 0.026171688653094605 -0.0037165851222755119 0 0.025774412057764397 -0.0035290273274356338 0 0.02598265436732982 -0.0035655046149239205 0 0.025960953562379985 -0.0038480817657653805 0 0.025960953562379985 -0.0038480817657653805 0 0.02637131119663005 -0.0040579105255861619 0 0.025856129665294079 -0.0042273095147185354 0 0.025960953562379985 -0.0038480817657653805 0 0.025856129665294079 -0.0042273095147185354 0 0.025601358323393865 -0.0040131668881713146 0 0.026809908486970884 -0.0039531839795853589 0 0.026531514764049954 -0.0035459642654940178 0 0.026427792705870371 -0.00367923289388141 0 0.026119374835967386 -0.003508399658275132 0 0.026427792705870371 -0.00367923289388141 0 0.026171688653094605 -0.0037165851222755119 0 0.026119374835967386 -0.003508399658275132 0 0.02598265436732982 -0.0035655046149239205 0 0.026171688653094605 -0.0037165851222755119 0 0.025960953562379985 -0.0038480817657653805 0 0.026171688653094605 -0.0037165851222755119 0 0.02637131119663005 -0.0040579105255861619 0 0.026427792705870371 -0.00367923289388141 0 0.026171688653094605 -0.0037165851222755119 0 0.02637131119663005 -0.0040579105255861619 0 0.026809908486970884 -0.0039531839795853589 0 0.026427792705870371 -0.00367923289388141 0 0.02637131119663005 -0.0040579105255861619 0 0.026975380527495988 -0.004646719974160109 0 0.026809908486970884 -0.0039531839795853589 0 0.026834536543402551 -0.0043478920220585545 0 0.026809908486970884 -0.0039531839795853589 0 0.02637131119663005 -0.0040579105255861619 0 0.026834536543402551 -0.0043478920220585545 0 0.02637131119663005 -0.0040579105255861619 0 0.026834536543402551 -0.0043478920220585545 0 0.026227681971633079 -0.0046194616397358876 0 0.026834536543402551 -0.0043478920220585545 0 0.027297293777023609 -0.0044011994069013466 0 0.026227681971633079 -0.0046194616397358876 0 0.02845928193151654 -0.0034148269282092318 0 0.028730775622489817 -0.0033184549258701945 0 0.027297293777023609 -0.0044011994069013466 0 0.030920440274960385 -0.0042984936330109497 0 0.029089990813745588 -0.0031483568476089992 0 0.027297293777023609 -0.0044011994069013466 0 0.027720680575101863 -0.003155680458681847 0 0.029089990813745588 -0.0031483568476089992 0 0.026975380527495988 -0.004646719974160109 0 0.027297293777023609 -0.0044011994069013466 0 0.027720680575101863 -0.003155680458681847 0 0.026975380527495988 -0.004646719974160109 0 0.026834536543402551 -0.0043478920220585545 0 0.027297293777023609 -0.0044011994069013466 0 0.025856129665294079 -0.0042273095147185354 0 0.025667894021512296 -0.0045587339805166121 0 0.025459628472787866 -0.004285336676916226 0 0.025856129665294079 -0.0042273095147185354 0 0.025459628472787866 -0.004285336676916226 0 0.025601358323393865 -0.0040131668881713146 0 0.02637131119663005 -0.0040579105255861619 0 0.025856129665294079 -0.0042273095147185354 0 0.026227681971633079 -0.0046194616397358876 0 0.028730775622489817 -0.0033184549258701945 0 0.029238074050660586 -0.0030353406171239826 0 0.025856129665294079 -0.0042273095147185354 0 0.026227681971633079 -0.0046194616397358876 0 0.025667894021512296 -0.0045587339805166121 0 0.030920440274960385 -0.0042984936330109497 0 0.033497338567928414 -0.0036335797851836751 0 0.033090495271109258 -0.0027466757600012543 0 0.033497338567928414 -0.0036335797851836751 0 0.034818200672902977 -0.0030013044100725902 0 0.034451953071404716 -0.0027141718048938352 0 0.029238074050660586 -0.0030353406171239826 0 0.02974336856511358 -0.0025784877777935747 0 0.025667894021512296 -0.0045587339805166121 0 0.025242127282197897 -0.004523192182497541 0 0.025459628472787866 -0.004285336676916226 0 0.025242127282197897 -0.004523192182497541 0 0.025186433263183119 -0.0042720650685318445 0 0.025459628472787866 -0.004285336676916226 0 0.025186433263183119 -0.0042720650685318445 0 0.025459628472787866 -0.004285336676916226 0 0.025201533622417473 -0.0039671489684237841 0 0.025459628472787866 -0.004285336676916226 0 0.025601358323393865 -0.0040131668881713146 0 0.025201533622417473 -0.0039671489684237841 0 0.025601358323393865 -0.0040131668881713146 0 0.025201533622417473 -0.0039671489684237841 0 0.025485774165683053 -0.0037501897589235951 0 0.025368435179677504 -0.0038311980214118121 0 0.025493971411029208 -0.0037421268580780064 0 0.025252611662334213 -0.0039438350970488626 0 0.025276404128339949 -0.0036975753068445804 0 0.0255330005595613 -0.0037338698176245977 0 0.025443947751742579 -0.003547741431198227 0 0.025276404128339949 -0.0036975753068445804 0 0.0255330005595613 -0.0037338698176245977 0 0.025774412057764397 -0.0035290273274356338 0 0.025601358323393865 -0.0040131668881713146 0 0.025485774165683053 -0.0037501897589235951 0 0.025443947751742579 -0.003547741431198227 0 0.025788094171489345 -0.0035295935901222732 0 0.0255330005595613 -0.0037338698176245977 0 0.02499984448965022 -0.0037847238658019725 0 0.024756171680892548 -0.0039394189061693879 0 0.024704278748530199 -0.0036413692995558942 0 0.025141519176309836 -0.0034786995521111446 0 0.02499984448965022 -0.0037847238658019725 0 0.024704278748530199 -0.0036413692995558942 0 0.025141519176309836 -0.0034786995521111446 0 0.025276404128339949 -0.0036975753068445804 0 0.02499984448965022 -0.0037847238658019725 0 0.025252611662334213 -0.0039438350970488626 0 0.025276404128339949 -0.0036975753068445804 0 0.02499984448965022 -0.0037847238658019725 0 0.025252611662334213 -0.0039438350970488626 0 0.02499984448965022 -0.0037847238658019725 0 0.024950882794127931 -0.0041513815990329161 0 0.025368435179677504 -0.0038311980214118121 0 0.025307988432191297 -0.0038736531537075869 0 0.02499984448965022 -0.0037847238658019725 0 0.024756171680892548 -0.0039394189061693879 0 0.024950882794127931 -0.0041513815990329161 0 0.024756171680892548 -0.0039394189061693879 0 0.024950882794127931 -0.0041513815990329161 0 0.024658100284404162 -0.0041908822761215431 0 0.024950882794127931 -0.0041513815990329161 0 0.024828362503355839 -0.0043266474202244319 0 0.024658100284404162 -0.0041908822761215431 0 0.024950882794127931 -0.0041513815990329161 0 0.025019134455657205 -0.0043654755094781755 0 0.024828362503355839 -0.0043266474202244319 0 0.025186433263183119 -0.0042720650685318445 0 0.024950882794127931 -0.0041513815990329161 0 0.025019134455657205 -0.0043654755094781755 0 0.025186433263183119 -0.0042720650685318445 0 0.025201533622417473 -0.0039671489684237841 0 0.024950882794127931 -0.0041513815990329161 0 0.025242127282197897 -0.004523192182497541 0 0.025186433263183119 -0.0042720650685318445 0 0.025019134455657205 -0.0043654755094781755 0 0.034818200672902977 -0.0030013044100725902 0 0.035507074388711868 -0.0028246893750246247 0 0.035068732714881132 -0.0028665545222587726 0 0.02974336856511358 -0.0025784877777935747 0 0.030220310985025266 -0.0019244607356717061 0 0.025242127282197897 -0.004523192182497541 0 0.025019134455657205 -0.0043654755094781755 0 0.02485430548895539 -0.0045262008205728191 0 0.024828362503355839 -0.0043266474202244319 0 0.02485430548895539 -0.0045262008205728191 0 0.024656406144506947 -0.0043922976222422697 0 0.025019134455657205 -0.0043654755094781755 0 0.024828362503355839 -0.0043266474202244319 0 0.02485430548895539 -0.0045262008205728191 0 0.035507074388711868 -0.0028246893750246247 0 0.035392821694992894 -0.0024288576784202548 0 0.035713076832203296 -0.0025571019930567375 0 0.035468805479709029 -0.0020568447591701854 0 0.035661681814855392 -0.0014052418771632849 0 0.035338103103298289 -0.0015525102617911382 0 0.034250150788748039 -0.0013911109600688711 0 0.034162507557492144 -0.0011486169275316119 0 0.035392821694992894 -0.0024288576784202548 0 0.035713076832203296 -0.0025571019930567375 0 0.035702440751448357 -0.0023696042855047964 0 0.035392821694992894 -0.0024288576784202548 0 0.035659105192314293 -0.0020812694872410263 0 0.035702440751448357 -0.0023696042855047964 0 0.035053718274784255 -0.0016343252502287605 0 0.035057965759877345 -0.0020648918181289371 0 0.034785072232133382 -0.0016717516896450505 0 0.035053718274784255 -0.0016343252502287605 0 0.035057965759877345 -0.0020648918181289371 0 0.035338103103298289 -0.0015525102617911382 0 0.035468805479709029 -0.0020568447591701854 0 0.035057965759877345 -0.0020648918181289371 0 0.035338103103298289 -0.0015525102617911382 0 0.035507074388711868 -0.0028246893750246247 0 0.035392821694992894 -0.0024288576784202548 0 0.035068732714881132 -0.0028665545222587726 0 0.035057965759877345 -0.0020648918181289371 0 0.035068732714881132 -0.0028665545222587726 0 0.034834656404266098 -0.0025809356871449025 0 0.034250150788748039 -0.0013911109600688711 0 0.034251226314745954 -0.0015087741456291813 0 0.035468805479709029 -0.0020568447591701854 0 0.035057965759877345 -0.0020648918181289371 0 0.035068732714881132 -0.0028665545222587726 0 0.034818200672902977 -0.0030013044100725902 0 0.035068732714881132 -0.0028665545222587726 0 0.034834656404266098 -0.0025809356871449025 0 0.034818200672902977 -0.0030013044100725902 0 0.034451953071404716 -0.0027141718048938352 0 0.034834656404266098 -0.0025809356871449025 0 0.034451953071404716 -0.0027141718048938352 0 0.034114077394036928 -0.0022502295384371276 0 0.034732488227167409 -0.0022219633621042558 0 0.034451953071404716 -0.0027141718048938352 0 0.034834656404266098 -0.0025809356871449025 0 0.034732488227167409 -0.0022219633621042558 0 0.035057965759877345 -0.0020648918181289371 0 0.034834656404266098 -0.0025809356871449025 0 0.034732488227167409 -0.0022219633621042558 0 0.033497338567928414 -0.0036335797851836751 0 0.034451953071404716 -0.0027141718048938352 0 0.034114077394036928 -0.0022502295384371276 0 0.034114077394036928 -0.0022502295384371276 0 0.033908366063147774 -0.0015906903021919443 0 0.033460167479113227 -0.0020218520215778747 0 0.034114077394036928 -0.0022502295384371276 0 0.034318471000518012 -0.0016484619055908705 0 0.034495907334171336 -0.001940635784486553 0 0.034114077394036928 -0.0022502295384371276 0 0.034318471000518012 -0.0016484619055908705 0 0.033908366063147774 -0.0015906903021919443 0 0.034114077394036928 -0.0022502295384371276 0 0.034732488227167409 -0.0022219633621042558 0 0.034495907334171336 -0.001940635784486553 0 0.034732488227167409 -0.0022219633621042558 0 0.034495907334171336 -0.001940635784486553 0 0.034785072232133382 -0.0016717516896450505 0 0.035057965759877345 -0.0020648918181289371 0 0.034732488227167409 -0.0022219633621042558 0 0.034785072232133382 -0.0016717516896450505 0 0.034318471000518012 -0.0016484619055908705 0 0.034495907334171336 -0.001940635784486553 0 0.034785072232133382 -0.0016717516896450505 0 0.034785072232133382 -0.0016717516896450505 0 0.034609369967786456 -0.0012086738463969796 0 0.035030220530334659 -0.0012754879028469676 0 0.034318471000518012 -0.0016484619055908705 0 0.034785072232133382 -0.0016717516896450505 0 0.034609369967786456 -0.0012086738463969796 0 0.034609369967786456 -0.0012086738463969796 0 0.034850010152136145 -0.0010530329015470445 0 0.035030220530334659 -0.0012754879028469676 0 0.033908366063147774 -0.0015906903021919443 0 0.034262823427563233 -0.0012451408238021106 0 0.033852527176630863 -0.0012009091258513281 0 0.034318471000518012 -0.0016484619055908705 0 0.034609369967786456 -0.0012086738463969796 0 0.034262823427563233 -0.0012451408238021106 0 0.034318471000518012 -0.0016484619055908705 0 0.033908366063147774 -0.0015906903021919443 0 0.034262823427563233 -0.0012451408238021106 0 0.034609369967786456 -0.0012086738463969796 0 0.034262823427563233 -0.0012451408238021106 0 0.034320295761563195 -0.00088007709024821293 0 0.034262823427563233 -0.0012451408238021106 0 0.034109524461145402 -0.0010426939139314062 0 0.034320295761563195 -0.00088007709024821293 0 0.034109524461145402 -0.0010426939139314062 0 0.033852527176630863 -0.0012009091258513281 0 0.034003241032172372 -0.00087390235968157345 0 0.034262823427563233 -0.0012451408238021106 0 0.034109524461145402 -0.0010426939139314062 0 0.033852527176630863 -0.0012009091258513281 0 0.034320295761563195 -0.00088007709024821293 0 0.034180011540282211 -0.00060089826677795692 0 0.034625565571713667 -0.00054236282269554559 0 0.034109524461145402 -0.0010426939139314062 0 0.034320295761563195 -0.00088007709024821293 0 0.034003241032172372 -0.00087390235968157345 0 0.034320295761563195 -0.00088007709024821293 0 0.034003241032172372 -0.00087390235968157345 0 0.034180011540282211 -0.00060089826677795692 0 0.034320295761563195 -0.00088007709024821293 0 0.034719768885976596 -0.00085632807318417417 0 0.034625565571713667 -0.00054236282269554559 0 0.034609369967786456 -0.0012086738463969796 0 0.034850010152136145 -0.0010530329015470445 0 0.034719768885976596 -0.00085632807318417417 0 0.034850010152136145 -0.0010530329015470445 0 0.034719768885976596 -0.00085632807318417417 0 0.035031796149607219 -0.0008925108407373632 0 0.034609369967786456 -0.0012086738463969796 0 0.034320295761563195 -0.00088007709024821293 0 0.034719768885976596 -0.00085632807318417417 0 0.034719768885976596 -0.00085632807318417417 0 0.035031796149607219 -0.0008925108407373632 0 0.034871107697622063 -0.00064616434468369778 0 0.034850010152136145 -0.0010530329015470445 0 0.035031796149607219 -0.0008925108407373632 0 0.035030220530334659 -0.0012754879028469676 0 0.035031796149607219 -0.0008925108407373632 0 0.035331707000530177 -0.00080593026676491024 0 0.035319253692474718 -0.001127273444784121 0 0.035031796149607219 -0.0008925108407373632 0 0.035319253692474718 -0.001127273444784121 0 0.035030220530334659 -0.0012754879028469676 0 0.035031796149607219 -0.0008925108407373632 0 0.035331707000530177 -0.00080593026676491024 0 0.035108779891515299 -0.00058445401355013778 0 0.035331707000530177 -0.00080593026676491024 0 0.035544779059174386 -0.0010039943066086686 0 0.035551286377132396 -0.00076052548075348266 0 0.035331707000530177 -0.00080593026676491024 0 0.035544779059174386 -0.0010039943066086686 0 0.035319253692474718 -0.001127273444784121 0 0.035544779059174386 -0.0010039943066086686 0 0.035319253692474718 -0.001127273444784121 0 0.035661681814855392 -0.0014052418771632849 0 0.035319253692474718 -0.001127273444784121 0 0.035661681814855392 -0.0014052418771632849 0 0.035338103103298289 -0.0015525102617911382 0 0.035053718274784255 -0.0016343252502287605 0 0.035338103103298289 -0.0015525102617911382 0 0.035030220530334659 -0.0012754879028469676 0 0.035053718274784255 -0.0016343252502287605 0 0.034785072232133382 -0.0016717516896450505 0 0.035030220530334659 -0.0012754879028469676 0 0.035319253692474718 -0.001127273444784121 0 0.035338103103298289 -0.0015525102617911382 0 0.035030220530334659 -0.0012754879028469676 0 0.027348894020611195 -0.0015306020562143308 0 0.028315680757934992 -0.0010826211145987157 0 0.027541272966889262 -0.0019656970204157648 0 0.028315680757934992 -0.0010826211145987157 0 0.027541272966889262 -0.0019656970204157648 0 0.028805259409281414 -0.002020275764597775 0 0.027541272966889262 -0.0019656970204157648 0 0.027720680575101863 -0.003155680458681847 0 0.028805259409281414 -0.002020275764597775 0 0.027269489839520003 -0.0018649862195180388 0 0.027002800744868067 -0.0018020357912285412 0 0.027541272966889262 -0.0019656970204157648 0 0.026975380527495988 -0.004646719974160109 0 0.027541272966889262 -0.0019656970204157648 0 0.027720680575101863 -0.003155680458681847 0 0.026895190049821736 -0.0028393986698163646 0 0.026937409808186027 -0.0026963307805556486 0 0.027720680575101863 -0.003155680458681847 0 0.028805259409281414 -0.002020275764597775 0 0.029089990813745588 -0.0031483568476089992 0 0.030920440274960385 -0.0042984936330109497 0 0.029089990813745588 -0.0031483568476089992 0 0.030308455321844455 -0.0025833553018695977 0 0.028805259409281414 -0.002020275764597775 0 0.029089990813745588 -0.0031483568476089992 0 0.030308455321844455 -0.0025833553018695977 0 0.028315680757934992 -0.0010826211145987157 0 0.029957739937082364 -0.0013591189008244418 0 0.029162032077221418 0.00035329042285251703 0 0.028315680757934992 -0.0010826211145987157 0 0.028805259409281414 -0.002020275764597775 0 0.029957739937082364 -0.0013591189008244418 0 0.028805259409281414 -0.002020275764597775 0 0.030308455321844455 -0.0025833553018695977 0 0.029957739937082364 -0.0013591189008244418 0 0.029957739937082364 -0.0013591189008244418 0 0.032179939199271847 -0.0021273969940938551 0 0.031831311521057101 -0.00048254520503087376 0 0.033209138118285159 -0.00089975926384142199 0 0.03322540845862261 -0.00073719440011779994 0 0.030308455321844455 -0.0025833553018695977 0 0.029957739937082364 -0.0013591189008244418 0 0.032179939199271847 -0.0021273969940938551 0 0.032179939199271847 -0.0021273969940938551 0 0.033317570758607015 -0.0015449294065188362 0 0.032831735451907249 -0.0014588875031175575 0 0.030920440274960385 -0.0042984936330109497 0 0.030308455321844455 -0.0025833553018695977 0 0.032179939199271847 -0.0021273969940938551 0 0.030920440274960385 -0.0042984936330109497 0 0.032179939199271847 -0.0021273969940938551 0 0.033090495271109258 -0.0027466757600012543 0 0.032179939199271847 -0.0021273969940938551 0 0.033090495271109258 -0.0027466757600012543 0 0.033460167479113227 -0.0020218520215778747 0 0.034114077394036928 -0.0022502295384371276 0 0.033090495271109258 -0.0027466757600012543 0 0.033460167479113227 -0.0020218520215778747 0 0.033497338567928414 -0.0036335797851836751 0 0.034114077394036928 -0.0022502295384371276 0 0.033090495271109258 -0.0027466757600012543 0 0.032179939199271847 -0.0021273969940938551 0 0.033460167479113227 -0.0020218520215778747 0 0.033317570758607015 -0.0015449294065188362 0 0.033908366063147774 -0.0015906903021919443 0 0.033460167479113227 -0.0020218520215778747 0 0.033317570758607015 -0.0015449294065188362 0 0.033908366063147774 -0.0015906903021919443 0 0.033317570758607015 -0.0015449294065188362 0 0.033852527176630863 -0.0012009091258513281 0 0.033317570758607015 -0.0015449294065188362 0 0.03343152176847837 -0.0011773879524460352 0 0.033852527176630863 -0.0012009091258513281 0 0.033317570758607015 -0.0015449294065188362 0 0.03343152176847837 -0.0011773879524460352 0 0.032831735451907249 -0.0014588875031175575 0 0.03343152176847837 -0.0011773879524460352 0 0.033679470459027146 -0.00079804942149960486 0 0.033143854375612222 -0.00085441740522172857 0 0.03343152176847837 -0.0011773879524460352 0 0.033744430684189593 -0.00096823726491991656 0 0.033679470459027146 -0.00079804942149960486 0 0.03343152176847837 -0.0011773879524460352 0 0.033744430684189593 -0.00096823726491991656 0 0.033852527176630863 -0.0012009091258513281 0 0.033744430684189593 -0.00096823726491991656 0 0.033852527176630863 -0.0012009091258513281 0 0.034003241032172372 -0.00087390235968157345 0 0.033933784034841839 -0.00070483228884671582 0 0.033679470459027146 -0.00079804942149960486 0 0.034048017070598263 -0.00045069499078754979 0 0.033744430684189593 -0.00096823726491991656 0 0.034003241032172372 -0.00087390235968157345 0 0.033933784034841839 -0.00070483228884671582 0 0.034003241032172372 -0.00087390235968157345 0 0.033933784034841839 -0.00070483228884671582 0 0.034180011540282211 -0.00060089826677795692 0 0.033744430684189593 -0.00096823726491991656 0 0.033933784034841839 -0.00070483228884671582 0 0.033679470459027146 -0.00079804942149960486 0 0.033679470459027146 -0.00079804942149960486 0 0.033644998581031059 -0.00080260614210798757 0 0.034048017070598263 -0.00045069499078754979 0 0.035051997266685328 -0.0002444437071982545 0 0.035000039945858652 -0.0002084057530830588 0 0.03504275292604659 -0.00015198425959064065 0 0.03327978811846162 -0.00042343631175217932 0 0.033928502268356329 -0.00038006500864334896 0 0.033283278895399789 -0.00042589991209959847 0 0.03327978811846162 -0.00042343631175217932 0 0.031695309279522292 0.0011362664998323512 0 0.031831311521057101 -0.00048254520503087376 0 0.029162032077221418 0.00035329042285251703 0 0.03343152176847837 -0.0011773879524460352 0 0.033143854375612222 -0.00085441740522172857 0 0.032831735451907249 -0.0014588875031175575 0 0.03327978811846162 -0.00042343631175217932 0 0.03322540845862261 -0.00073719440011779994 0 0.03327978811846162 -0.00042343631175217932 0 0.0327103798818002 -0.0005672351936747128 0 0.029957739937082364 -0.0013591189008244418 0 0.031831311521057101 -0.00048254520503087376 0 0.029162032077221418 0.00035329042285251703 0 0.034972556686736732 -0.00027124217069502803 0 0.035000039945858652 -0.0002084057530830588 0 0.034946450730432024 -0.00019175063911733796 0 0.035051997266685328 -0.0002444437071982545 0 0.034972556686736732 -0.00027124217069502803 0 0.035000039945858652 -0.0002084057530830588 0 0.03489052664922223 -0.00022749794254123173 0 0.034972556686736732 -0.00027124217069502803 0 0.034946450730432024 -0.00019175063911733796 0 0.03489052664922223 -0.00022749794254123173 0 0.034909672244851163 -0.00016673627450152962 0 0.034946450730432024 -0.00019175063911733796 0 0.034882384800536931 -0.00031403082651479852 0 0.03489052664922223 -0.00022749794254123173 0 0.034972556686736732 -0.00027124217069502803 0 0.027401671639466073 -0.00087553646110426762 0 0.028315680757934992 -0.0010826211145987157 0 0.029162032077221418 0.00035329042285251703 0 0.032258241383230239 -0.00076739959287494238 0 0.0327103798818002 -0.0005672351936747128 0 0.034910923696112484 -0.00010425082879555986 0 0.034946857654006007 -0.00010040176791434702 0 0.034928461341273545 -0.0001169384638817003 0 0.034946857654006007 -0.00010040176791434702 0 0.034928461341273545 -0.0001169384638817003 0 0.034940920514529537 -0.00013622404627471759 0 0.034946857654006007 -0.00010040176791434702 0 0.034940920514529537 -0.00013622404627471759 0 0.034980227689015077 -0.00010762120585416383 0 0.034910923696112484 -0.00010425082879555986 0 0.034928461341273545 -0.0001169384638817003 0 0.034909878944826431 -0.00013560081031863542 0 0.034928461341273545 -0.0001169384638817003 0 0.034909878944826431 -0.00013560081031863542 0 0.034940920514529537 -0.00013622404627471759 0 0.034909878944826431 -0.00013560081031863542 0 0.034909672244851163 -0.00016673627450152962 0 0.034940920514529537 -0.00013622404627471759 0 0.034909672244851163 -0.00016673627450152962 0 0.034946450730432024 -0.00019175063911733796 0 0.034940920514529537 -0.00013622404627471759 0 0.034946450730432024 -0.00019175063911733796 0 0.034940920514529537 -0.00013622404627471759 0 0.034982065246799525 -0.00015887180374510917 0 0.035000039945858652 -0.0002084057530830588 0 0.034982065246799525 -0.00015887180374510917 0 0.03504275292604659 -0.00015198425959064065 0 0.034982065246799525 -0.00015887180374510917 0 0.034980227689015077 -0.00010762120585416383 0 0.03504275292604659 -0.00015198425959064065 0 0.035000039945858652 -0.0002084057530830588 0 0.034946450730432024 -0.00019175063911733796 0 0.034982065246799525 -0.00015887180374510917 0 0.034940920514529537 -0.00013622404627471759 0 0.034982065246799525 -0.00015887180374510917 0 0.034980227689015077 -0.00010762120585416383 0 0.034980227689015077 -0.00010762120585416383 0 0.03504275292604659 -0.00015198425959064065 0 0.035026004677017129 -6.4150425708827145e-05 0 0.034048017070598263 -0.00045069499078754979 0 0.034543302628190345 -0.00018885349610976921 0 0.034520391915086282 -0.00012511029188447002 0 0.033928502268356329 -0.00038006500864334896 0 0.03448583835958801 -0.00023151042791154128 0 0.033933784034841839 -0.00070483228884671582 0 0.034048017070598263 -0.00045069499078754979 0 0.034180011540282211 -0.00060089826677795692 0 0.034048017070598263 -0.00045069499078754979 0 0.034180011540282211 -0.00060089826677795692 0 0.034495061474038469 -0.00034811453982199538 0 0.034048017070598263 -0.00045069499078754979 0 0.034543302628190345 -0.00018885349610976921 0 0.034495061474038469 -0.00034811453982199538 0 0.034543302628190345 -0.00018885349610976921 0 0.034766771598487581 -5.8208156969192258e-05 0 0.034520391915086282 -0.00012511029188447002 0 0.034543302628190345 -0.00018885349610976921 0 0.034766771598487581 -5.8208156969192258e-05 0 0.034813933799102727 -8.7053909175052323e-05 0 0.034766771598487581 -5.8208156969192258e-05 0 0.034999397458839676 -1.2439048438427142e-08 0 0.034999686751890538 -3.1696891320137192e-08 0 0.035000111138596475 -2.5778528633894117e-08 0 0.035026004677017129 -6.4150425708827145e-05 0 0.034999896630164715 2.1475610412703669e-08 0 0.034766771598487581 -5.8208156969192258e-05 0 0.034999397458839676 -1.2439048438427142e-08 0 0.034520391915086282 -0.00012511029188447002 0 0.034998010966034374 -6.2294273894332495e-07 0 0.03448583835958801 -0.00023151042791154128 0 0.034980227689015077 -0.00010762120585416383 0 0.035026004677017129 -6.4150425708827145e-05 0 0.034960277943476427 -4.6652078245181635e-05 0 0.034946857654006007 -0.00010040176791434702 0 0.034980227689015077 -0.00010762120585416383 0 0.034960277943476427 -4.6652078245181635e-05 0 0.034999955041573279 -5.2567198861406686e-08 0 0.034979170421179477 -2.5379085824638441e-05 0 0.035000002314526685 -1.3719750163945627e-09 0 0.034999996098039464 2.2810892333883379e-09 0 0.034999390737968594 -9.7735990963509249e-07 0 0.035026004677017129 -6.4150425708827145e-05 0 0.034999896630164715 2.1475610412703669e-08 0 0.034960277943476427 -4.6652078245181635e-05 0 0.034992268903357361 -1.9380408125052142e-06 0 0.034999996098039464 2.2810892333883379e-09 0 0.034999390737968594 -9.7735990963509249e-07 0 0.034959352286271825 -4.9498016468319153e-05 0 0.034979170421179477 -2.5379085824638441e-05 0 0.034910923696112484 -0.00010425082879555986 0 0.034946857654006007 -0.00010040176791434702 0 0.034960277943476427 -4.6652078245181635e-05 0 0.034988666035982337 -4.2752667611259e-06 0 0.034992268903357361 -1.9380408125052142e-06 0 0.034999390737968594 -9.7735990963509249e-07 0 0.034988666035982337 -4.2752667611259e-06 0 0.034996891693018534 -1.2452652841486247e-05 0 0.034999390737968594 -9.7735990963509249e-07 0 0.035100508010684296 -0.00031466141542712997 0 0.034924050343724429 -0.00044608029406049965 0 0.034825069456943539 -0.00027374520446523819 0 0.035100508010684296 -0.00031466141542712997 0 0.034825069456943539 -0.00027374520446523819 0 0.035010739550767618 -8.977169290310801e-05 0 0.035100508010684296 -0.00031466141542712997 0 0.035342654470403786 -0.00051798215898223596 0 0.035318290152057577 -0.00014506647150541746 0 0.035100508010684296 -0.00031466141542712997 0 0.035342654470403786 -0.00051798215898223596 0 0.035108779891515299 -0.00058445401355013778 0 0.035331707000530177 -0.00080593026676491024 0 0.035342654470403786 -0.00051798215898223596 0 0.035551286377132396 -0.00076052548075348266 0 0.035331707000530177 -0.00080593026676491024 0 0.035342654470403786 -0.00051798215898223596 0 0.035108779891515299 -0.00058445401355013778 0 0.035100508010684296 -0.00031466141542712997 0 0.035108779891515299 -0.00058445401355013778 0 0.034924050343724429 -0.00044608029406049965 0 0.035108779891515299 -0.00058445401355013778 0 0.034924050343724429 -0.00044608029406049965 0 0.034871107697622063 -0.00064616434468369778 0 0.035031796149607219 -0.0008925108407373632 0 0.035108779891515299 -0.00058445401355013778 0 0.034871107697622063 -0.00064616434468369778 0 0.034924050343724429 -0.00044608029406049965 0 0.034625565571713667 -0.00054236282269554559 0 0.034825069456943539 -0.00027374520446523819 0 0.034719768885976596 -0.00085632807318417417 0 0.034871107697622063 -0.00064616434468369778 0 0.034625565571713667 -0.00054236282269554559 0 0.034924050343724429 -0.00044608029406049965 0 0.034871107697622063 -0.00064616434468369778 0 0.034625565571713667 -0.00054236282269554559 0 0.034180011540282211 -0.00060089826677795692 0 0.034625565571713667 -0.00054236282269554559 0 0.034495061474038469 -0.00034811453982199538 0 0.034543302628190345 -0.00018885349610976921 0 0.034495061474038469 -0.00034811453982199538 0 0.034813933799102727 -8.7053909175052323e-05 0 0.034625565571713667 -0.00054236282269554559 0 0.034495061474038469 -0.00034811453982199538 0 0.034825069456943539 -0.00027374520446523819 0 0.034495061474038469 -0.00034811453982199538 0 0.034825069456943539 -0.00027374520446523819 0 0.034813933799102727 -8.7053909175052323e-05 0 0.034825069456943539 -0.00027374520446523819 0 0.034813933799102727 -8.7053909175052323e-05 0 0.035010739550767618 -8.977169290310801e-05 0 0.034766771598487581 -5.8208156969192258e-05 0 0.034813933799102727 -8.7053909175052323e-05 0 0.034999686751890538 -3.1696891320137192e-08 0 0.034813933799102727 -8.7053909175052323e-05 0 0.034999686751890538 -3.1696891320137192e-08 0 0.034999864280468466 -3.1436373224232836e-08 0 0.034813933799102727 -8.7053909175052323e-05 0 0.034999864280468466 -3.1436373224232836e-08 0 0.035010739550767618 -8.977169290310801e-05 0 0.034999864280468466 -3.1436373224232836e-08 0 0.035010739550767618 -8.977169290310801e-05 0 0.035000569268368732 7.5087374008573386e-08 0 0.035100508010684296 -0.00031466141542712997 0 0.035010739550767618 -8.977169290310801e-05 0 0.035318290152057577 -0.00014506647150541746 0 0.035010739550767618 -8.977169290310801e-05 0 0.035000569268368732 7.5087374008573386e-08 0 0.035318290152057577 -0.00014506647150541746 0 0.034999991519992904 3.9387004241332113e-09 0 0.034999029293542386 -3.0471056019870105e-06 0 0.034999997616536764 -4.9637656393342641e-09 0 0.034999991519992904 3.9387004241332113e-09 0 0.034999029293542386 -3.0471056019870105e-06 0 0.034993644454967034 -1.3026429862711661e-05 0 0.034998496901773084 -8.1425486020952729e-07 0 0.0346036083917379 -0.00031740294485051125 0 0.034999029293542386 -3.0471056019870105e-06 0 0.034996596562846503 -2.1196954851483128e-06 0 0.034996666563443933 -2.2584364580326563e-06 0 0.034999029293542386 -3.0471056019870105e-06 0 0.034999997616536764 -4.9637656393342641e-09 0 0.034996596562846503 -2.1196954851483128e-06 0 0.034999997616536764 -4.9637656393342641e-09 0 0.034996596562846503 -2.1196954851483128e-06 0 0.034997435832391267 -1.1261977425916e-06 0 0.034996596562846503 -2.1196954851483128e-06 0 0.034993374185338225 -2.5901664221383943e-06 0 0.034997435832391267 -1.1261977425916e-06 0 0.034996596562846503 -2.1196954851483128e-06 0 0.034995596113300394 -2.0144102493288457e-06 0 0.034996666563443933 -2.2584364580326563e-06 0 0.034996596562846503 -2.1196954851483128e-06 0 0.034995596113300394 -2.0144102493288457e-06 0 0.034994226524554216 -1.8933465089463654e-06 0 0.034995596113300394 -2.0144102493288457e-06 0 0.034994226524554216 -1.8933465089463654e-06 0 0.03499383845063532 -1.2130972653186341e-06 0 0.034996596562846503 -2.1196954851483128e-06 0 0.034994226524554216 -1.8933465089463654e-06 0 0.034993374185338225 -2.5901664221383943e-06 0 0.03424988292580753 -0.00036234884893026286 0 0.034217619160356948 -0.00042381937569488859 0 0.034999029293542386 -3.0471056019870105e-06 0 0.034993644454967034 -1.3026429862711661e-05 0 0.034994625141402537 -1.6327637063579286e-05 0 0.034999029293542386 -3.0471056019870105e-06 0 0.034996666563443933 -2.2584364580326563e-06 0 0.034995564526951989 -1.8157946549508965e-06 0 0.034995596113300394 -2.0144102493288457e-06 0 0.034996666563443933 -2.2584364580326563e-06 0 0.034995564526951989 -1.8157946549508965e-06 0 0.034995596113300394 -2.0144102493288457e-06 0 0.034995564526951989 -1.8157946549508965e-06 0 0.03499383845063532 -1.2130972653186341e-06 0 0.034995564526951989 -1.8157946549508965e-06 0 0.03499383845063532 -1.2130972653186341e-06 0 0.034992810991012084 -1.6521787815104262e-07 0 0.035342654470403786 -0.00051798215898223596 0 0.035318290152057577 -0.00014506647150541746 0 0.035656473477388297 -0.00054640401099926921 0 0.0346036083917379 -0.00031740294485051125 0 0.034119718077037828 -0.00063100968611408241 0 0.034217619160356948 -0.00042381937569488859 0 0.034119718077037828 -0.00063100968611408241 0 0.034993644454967034 -1.3026429862711661e-05 0 0.034994625141402537 -1.6327637063579286e-05 0 0.034989117797856607 -3.531022573947556e-05 0 0.034994226524554216 -1.8933465089463654e-06 0 0.034990179204590535 4.4296461902061876e-07 0 0.034993374185338225 -2.5901664221383943e-06 0 0.034994226524554216 -1.8933465089463654e-06 0 0.03499383845063532 -1.2130972653186341e-06 0 0.034990179204590535 4.4296461902061876e-07 0 0.03499383845063532 -1.2130972653186341e-06 0 0.034992810991012084 -1.6521787815104262e-07 0 0.034990179204590535 4.4296461902061876e-07 0 0.034098236829314378 -0.00056406241088225286 0 0.033849714986513707 -0.00084071391998354105 0 0.034990179204590535 4.4296461902061876e-07 0 0.03499074951904374 1.1339040993153639e-05 0 0.034985902496119915 9.4489428743183435e-06 0 0.034992810991012084 -1.6521787815104262e-07 0 0.034990179204590535 4.4296461902061876e-07 0 0.034991392478702463 1.0112797784255288e-07 0 0.034119718077037828 -0.00063100968611408241 0 0.033874797006558793 -0.00091359230833300915 0 0.035342654470403786 -0.00051798215898223596 0 0.035656473477388297 -0.00054640401099926921 0 0.035551286377132396 -0.00076052548075348266 0 0.035656473477388297 -0.00054640401099926921 0 0.035818021650602085 -0.00094725294401869122 0 0.035551286377132396 -0.00076052548075348266 0 0.034119718077037828 -0.00063100968611408241 0 0.033849714986513707 -0.00084071391998354105 0 0.034980195456155098 4.2193273441619473e-06 0 0.034970013933333481 7.0474860069290504e-06 0 0.034973960836216345 1.2900285694308871e-05 0 0.034980195456155098 4.2193273441619473e-06 0 0.034981987233083066 8.3575820742081925e-06 0 0.034973960836216345 1.2900285694308871e-05 0 0.034981987233083066 8.3575820742081925e-06 0 0.034990179204590535 4.4296461902061876e-07 0 0.034985902496119915 9.4489428743183435e-06 0 0.034980195456155098 4.2193273441619473e-06 0 0.034981987233083066 8.3575820742081925e-06 0 0.034990179204590535 4.4296461902061876e-07 0 0.034990179204590535 4.4296461902061876e-07 0 0.034989346372787541 -3.5257572258637978e-06 0 0.034993374185338225 -2.5901664221383943e-06 0 0.034980195456155098 4.2193273441619473e-06 0 0.034990179204590535 4.4296461902061876e-07 0 0.034989346372787541 -3.5257572258637978e-06 0 0.034859541507502034 5.2286546536678165e-05 0 0.034833577898934681 6.2237856236116345e-05 0 0.034980195456155098 4.2193273441619473e-06 0 0.034989346372787541 -3.5257572258637978e-06 0 0.03496781956958727 -3.1947436106811743e-06 0 0.034989346372787541 -3.5257572258637978e-06 0 0.034996116670448746 -7.5665357981148282e-07 0 0.034996206579616995 -2.4169951299923325e-06 0 0.034989346372787541 -3.5257572258637978e-06 0 0.034996116670448746 -7.5665357981148282e-07 0 0.034993374185338225 -2.5901664221383943e-06 0 0.034996116670448746 -7.5665357981148282e-07 0 0.034993374185338225 -2.5901664221383943e-06 0 0.034997435832391267 -1.1261977425916e-06 0 0.034996116670448746 -7.5665357981148282e-07 0 0.034999995066426912 5.0096349839918153e-10 0 0.034997435832391267 -1.1261977425916e-06 0 0.034999997616536764 -4.9637656393342641e-09 0 0.034999995066426912 5.0096349839918153e-10 0 0.034997435832391267 -1.1261977425916e-06 0 0.034996116670448746 -7.5665357981148282e-07 0 0.034999995066426912 5.0096349839918153e-10 0 0.03499999068350311 -2.8449406948233483e-09 0 0.034996116670448746 -7.5665357981148282e-07 0 0.03499999068350311 -2.8449406948233483e-09 0 0.034997713291839781 -9.6151362639888233e-07 0 0.034999995945269605 -3.4922083965816402e-10 0 0.034998650818803725 1.0257048249385872e-07 0 0.03499999068350311 -2.8449406948233483e-09 0 0.034997713291839781 -9.6151362639888233e-07 0 0.034996304541478472 -2.1318346921718258e-06 0 0.034999999536266806 -2.8840204559723176e-10 0 0.03500000122001147 6.9804786939710859e-10 0 0.035000046956010659 1.4411179230001219e-07 0 0.034997713291839781 -9.6151362639888233e-07 0 0.034996304541478472 -2.1318346921718258e-06 0 0.034996464868283929 -1.3924234784945646e-06 0 0.034997713291839781 -9.6151362639888233e-07 0 0.034996464868283929 -1.3924234784945646e-06 0 0.034996911469979464 -1.3636998494508097e-06 0 0.034996464868283929 -1.3924234784945646e-06 0 0.034995917558325505 -9.9604792073123343e-07 0 0.034996911469979464 -1.3636998494508097e-06 0 0.034996116670448746 -7.5665357981148282e-07 0 0.034997713291839781 -9.6151362639888233e-07 0 0.034996911469979464 -1.3636998494508097e-06 0 0.034996116670448746 -7.5665357981148282e-07 0 0.034996911469979464 -1.3636998494508097e-06 0 0.034996206579616995 -2.4169951299923325e-06 0 0.03499999544569344 -1.6703329093831647e-09 0 0.034996549420758943 1.6186009911961504e-07 0 0.034999546715351749 6.6222608359432284e-07 0 0.03500000122001147 6.9804786939710859e-10 0 0.035000046956010659 1.4411179230001219e-07 0 0.034999546715351749 6.6222608359432284e-07 0 0.034996304541478472 -2.1318346921718258e-06 0 0.034996464868283929 -1.3924234784945646e-06 0 0.034993538234734535 -2.0849980909909104e-06 0 0.03500000122001147 6.9804786939710859e-10 0 0.03499999544569344 -1.6703329093831647e-09 0 0.034999546715351749 6.6222608359432284e-07 0 0.034998650818803725 1.0257048249385872e-07 0 0.034997945998192358 6.2542471209256306e-08 0 0.034996464868283929 -1.3924234784945646e-06 0 0.034995917558325505 -9.9604792073123343e-07 0 0.034993538234734535 -2.0849980909909104e-06 0 0.034995917558325505 -9.9604792073123343e-07 0 0.034993538234734535 -2.0849980909909104e-06 0 0.034993639129675999 -1.381613800091814e-07 0 0.034997945998192358 6.2542471209256306e-08 0 0.034997581867986495 6.6240530964247133e-08 0 0.034993538234734535 -2.0849980909909104e-06 0 0.034991683680119651 -6.7031776469732043e-07 0 0.034991204586453023 -6.0279315196717463e-07 0 0.034996549420758943 1.6186009911961504e-07 0 0.034999546715351749 6.6222608359432284e-07 0 0.034991204586453023 -6.0279315196717463e-07 0 0.034993538234734535 -2.0849980909909104e-06 0 0.034991683680119651 -6.7031776469732043e-07 0 0.034993639129675999 -1.381613800091814e-07 0 0.034991748161844728 8.737050143261336e-07 0 0.034993639129675999 -1.381613800091814e-07 0 0.03499288975957706 1.7935782547601618e-06 0 0.034991748161844728 8.737050143261336e-07 0 0.034991683680119651 -6.7031776469732043e-07 0 0.034993639129675999 -1.381613800091814e-07 0 0.034995917558325505 -9.9604792073123343e-07 0 0.034993639129675999 -1.381613800091814e-07 0 0.034995403381330496 1.524772820017998e-07 0 0.034947697687279407 8.5615118069438123e-06 0 0.03493812273973413 6.1596728363282242e-06 0 0.034952183223862308 9.8174990630059319e-07 0 0.034562322421042367 0.00016567253416679547 0 0.03474601560525737 9.5768993484315738e-05 0 0.034993639129675999 -1.381613800091814e-07 0 0.03499288975957706 1.7935782547601618e-06 0 0.034995403381330496 1.524772820017998e-07 0 0.034912940906904444 -3.5028129863271589e-05 0 0.03492780670447073 -5.7603116013301346e-05 0 0.034959857532221403 -4.6759859787850824e-05 0 0.034959435475392667 -1.5918507920617599e-05 0 0.034937332445983939 -3.6972282892488932e-05 0 0.034969990490615041 -3.0150771833519191e-05 0 0.034562322421042367 0.00016567253416679547 0 0.034605091307605182 0.0001481382833944198 0 0.034937332445983939 -3.6972282892488932e-05 0 0.034959857532221403 -4.6759859787850824e-05 0 0.034969990490615041 -3.0150771833519191e-05 0 0.034609784518131743 0.00016970017376108799 0 0.034562322421042367 0.00016567253416679547 0 0.034995917558325505 -9.9604792073123343e-07 0 0.034996206579616995 -2.4169951299923325e-06 0 0.034995403381330496 1.524772820017998e-07 0 0.034833577898934681 6.2237856236116345e-05 0 0.03474601560525737 9.5768993484315738e-05 0 0.034995917558325505 -9.9604792073123343e-07 0 0.034996911469979464 -1.3636998494508097e-06 0 0.034996206579616995 -2.4169951299923325e-06 0 0.034947697687279407 8.5615118069438123e-06 0 0.034952183223862308 9.8174990630059319e-07 0 0.034955894122021006 1.1014110592010828e-05 0 0.034952183223862308 9.8174990630059319e-07 0 0.034962634073124006 5.50979212158893e-06 0 0.034955894122021006 1.1014110592010828e-05 0 0.03496781956958727 -3.1947436106811743e-06 0 0.034952183223862308 9.8174990630059319e-07 0 0.034962634073124006 5.50979212158893e-06 0 0.03496781956958727 -3.1947436106811743e-06 0 0.034962634073124006 5.50979212158893e-06 0 0.034970013933333481 7.0474860069290504e-06 0 0.034962634073124006 5.50979212158893e-06 0 0.034970013933333481 7.0474860069290504e-06 0 0.034964670807132843 1.3622104717082996e-05 0 0.034980195456155098 4.2193273441619473e-06 0 0.03496781956958727 -3.1947436106811743e-06 0 0.034970013933333481 7.0474860069290504e-06 0 0.034970013933333481 7.0474860069290504e-06 0 0.034964670807132843 1.3622104717082996e-05 0 0.034973960836216345 1.2900285694308871e-05 0 0.034964670807132843 1.3622104717082996e-05 0 0.034967464504005771 1.9027477809325304e-05 0 0.034962645769242254 2.0245390116416615e-05 0 0.034964670807132843 1.3622104717082996e-05 0 0.034967464504005771 1.9027477809325304e-05 0 0.034973960836216345 1.2900285694308871e-05 0 0.034964670807132843 1.3622104717082996e-05 0 0.034958519363251422 1.9026185779819843e-05 0 0.034962645769242254 2.0245390116416615e-05 0 0.034962634073124006 5.50979212158893e-06 0 0.034964670807132843 1.3622104717082996e-05 0 0.034955894122021006 1.1014110592010828e-05 0 0.034955894122021006 1.1014110592010828e-05 0 0.034958519363251422 1.9026185779819843e-05 0 0.034949196656591394 1.735183114221384e-05 0 0.034947697687279407 8.5615118069438123e-06 0 0.034955894122021006 1.1014110592010828e-05 0 0.034949196656591394 1.735183114221384e-05 0 0.034964670807132843 1.3622104717082996e-05 0 0.034955894122021006 1.1014110592010828e-05 0 0.034958519363251422 1.9026185779819843e-05 0 0.03489761203764484 -8.1470240859600349e-05 0 0.034889193332999287 -7.8173767590153221e-05 0 0.034894416783576285 -8.1817892544569469e-05 0 0.034958519363251422 1.9026185779819843e-05 0 0.034958012901999909 2.602415945389497e-05 0 0.034949196656591394 1.735183114221384e-05 0 0.033560198823966852 8.2147837835945761e-05 0 0.03415793399475206 0.00016752462990526136 0 0.034958519363251422 1.9026185779819843e-05 0 0.034958012901999909 2.602415945389497e-05 0 0.034960382789041074 2.4858811329865546e-05 0 0.033560198823966852 8.2147837835945761e-05 0 0.033572235188552429 7.8692572336137804e-05 0 0.034957950945094927 2.5610986674127303e-05 0 0.034960382789041074 2.4858811329865546e-05 0 0.034962970758722491 2.552630017065887e-05 0 0.034960382789041074 2.4858811329865546e-05 0 0.034964163627627706 2.2693334034420988e-05 0 0.034962645769242254 2.0245390116416615e-05 0 0.034960382789041074 2.4858811329865546e-05 0 0.034964163627627706 2.2693334034420988e-05 0 0.034962970758722491 2.552630017065887e-05 0 0.034964163627627706 2.2693334034420988e-05 0 0.034967464504005771 1.9027477809325304e-05 0 0.034967381540339036 2.3600088164306816e-05 0 0.034964163627627706 2.2693334034420988e-05 0 0.034962970758722491 2.552630017065887e-05 0 0.034967381540339036 2.3600088164306816e-05 0 0.034964163627627706 2.2693334034420988e-05 0 0.034967464504005771 1.9027477809325304e-05 0 0.034962645769242254 2.0245390116416615e-05 0 0.034958519363251422 1.9026185779819843e-05 0 0.034960382789041074 2.4858811329865546e-05 0 0.034962645769242254 2.0245390116416615e-05 0 0.034912940906904444 -3.5028129863271589e-05 0 0.03492780670447073 -5.7603116013301346e-05 0 0.034908995235896682 -7.1085345936415447e-05 0 0.034934647574845386 -7.7850253659713414e-05 0 0.03492780670447073 -5.7603116013301346e-05 0 0.034959857532221403 -4.6759859787850824e-05 0 0.034934647574845386 -7.7850253659713414e-05 0 0.03492780670447073 -5.7603116013301346e-05 0 0.034908995235896682 -7.1085345936415447e-05 0 0.034562322421042367 0.00016567253416679547 0 0.03415793399475206 0.00016752462990526136 0 0.034947697687279407 8.5615118069438123e-06 0 0.03493812273973413 6.1596728363282242e-06 0 0.034949196656591394 1.735183114221384e-05 0 0.034912940906904444 -3.5028129863271589e-05 0 0.034908995235896682 -7.1085345936415447e-05 0 0.034889193332999287 -7.8173767590153221e-05 0 0.034908995235896682 -7.1085345936415447e-05 0 0.034889193332999287 -7.8173767590153221e-05 0 0.034890301068259764 -9.0013891003526352e-05 0 0.034889193332999287 -7.8173767590153221e-05 0 0.034894416783576285 -8.1817892544569469e-05 0 0.034890301068259764 -9.0013891003526352e-05 0 0.034894416783576285 -8.1817892544569469e-05 0 0.034890301068259764 -9.0013891003526352e-05 0 0.034897708640751104 -7.2397335195962666e-05 0 0.034934647574845386 -7.7850253659713414e-05 0 0.034908995235896682 -7.1085345936415447e-05 0 0.034890301068259764 -9.0013891003526352e-05 0 0.034837168544765172 -0.00014757512915994909 0 0.034890301068259764 -9.0013891003526352e-05 0 0.034836351032748396 -8.1598365816957334e-05 0 0.034773895362771916 -7.7993648920769086e-05 0 0.034784988881016277 -7.2415881052066648e-05 0 0.034831564911351406 -4.3646573271442424e-05 0 0.034870855602968952 -3.7340787340117194e-05 0 0.034792270699371707 -4.4976535256070719e-06 0 0.034890301068259764 -9.0013891003526352e-05 0 0.034836351032748396 -8.1598365816957334e-05 0 0.034869884616159579 -4.47792508123994e-05 0 0.034836351032748396 -8.1598365816957334e-05 0 0.034831564911351406 -4.3646573271442424e-05 0 0.034869884616159579 -4.47792508123994e-05 0 0.033531590589239109 0.00021657388295346323 0 0.033472536404818953 0.0002121679577151539 0 0.033380386540142547 0.00020699427958746183 0 0.033334357841089547 0.00022373064588409664 0 0.033308421965690727 0.00019380444750540678 0 0.033472536404818953 0.0002121679577151539 0 0.033028705821297369 0.00010070436864303469 0 0.033472536404818953 0.0002121679577151539 0 0.033577106856155281 0.00012864411074747694 0 0.034890301068259764 -9.0013891003526352e-05 0 0.034869884616159579 -4.47792508123994e-05 0 0.034897708640751104 -7.2397335195962666e-05 0 0.032354954702903699 0.0011043699396449905 0 0.032449001011409094 0.0011538503442617934 0 0.032403306898387968 0.001214553565258972 0 0.033472536404818953 0.0002121679577151539 0 0.033566460568063637 0.00036390393287301202 0 0.032354954702903699 0.0011043699396449905 0 0.03225440680726966 0.0010985280361258554 0 0.032306376122123691 0.0012159917815053182 0 0.032354954702903699 0.0011043699396449905 0 0.032306376122123691 0.0012159917815053182 0 0.032403306898387968 0.001214553565258972 0 0.034957950945094927 2.5610986674127303e-05 0 0.034962970758722491 2.552630017065887e-05 0 0.034965850377321417 2.8532501115461054e-05 0 0.033288482697393595 0.00024071915514120088 0 0.033308421965690727 0.00019380444750540678 0 0.033236122107904741 0.00018071174637036217 0 0.033560198823966852 8.2147837835945761e-05 0 0.032634277385607438 -8.1811829167807297e-05 0 0.034957950945094927 2.5610986674127303e-05 0 0.034964972321010347 3.4064715977571648e-05 0 0.034965850377321417 2.8532501115461054e-05 0 0.034962970758722491 2.552630017065887e-05 0 0.034965850377321417 2.8532501115461054e-05 0 0.034967381540339036 2.3600088164306816e-05 0 0.033288482697393595 0.00024071915514120088 0 0.033334357841089547 0.00022373064588409664 0 0.033308421965690727 0.00019380444750540678 0 0.033560198823966852 8.2147837835945761e-05 0 0.033577106856155281 0.00012864411074747694 0 0.03489761203764484 -8.1470240859600349e-05 0 0.034894416783576285 -8.1817892544569469e-05 0 0.034897708640751104 -7.2397335195962666e-05 0 0.032449001011409094 0.0011538503442617934 0 0.03247417234293215 0.0012409880860712083 0 0.032403306898387968 0.001214553565258972 0 0.032449001011409094 0.0011538503442617934 0 0.032531142433536359 0.0011808132152680451 0 0.03247417234293215 0.0012409880860712083 0 0.033028705821297369 0.00010070436864303469 0 0.032634277385607438 -8.1811829167807297e-05 0 0.031417900990930996 -0.00036116056890742444 0 0.031255043401511744 -0.00038981780608796058 0 0.031300900587109208 -0.00049452253346505171 0 0.032634277385607438 -8.1811829167807297e-05 0 0.032255008143838075 -0.00045463895462356509 0 0.032634277385607438 -8.1811829167807297e-05 0 0.031625336568878996 -0.00026846598445333158 0 0.034964972321010347 3.4064715977571648e-05 0 0.034974300723761828 2.887177323181182e-05 0 0.034972436116720039 3.471774316631134e-05 0 0.034965850377321417 2.8532501115461054e-05 0 0.034971753944450054 2.4696863662943048e-05 0 0.034974300723761828 2.887177323181182e-05 0 0.034964972321010347 3.4064715977571648e-05 0 0.034965850377321417 2.8532501115461054e-05 0 0.034974300723761828 2.887177323181182e-05 0 0.034965850377321417 2.8532501115461054e-05 0 0.034971753944450054 2.4696863662943048e-05 0 0.034967381540339036 2.3600088164306816e-05 0 0.034974300723761828 2.887177323181182e-05 0 0.034985498056515553 2.3470186809958938e-05 0 0.034978353774404704 2.1296165337644713e-05 0 0.034971753944450054 2.4696863662943048e-05 0 0.034974300723761828 2.887177323181182e-05 0 0.034978353774404704 2.1296165337644713e-05 0 0.032255008143838075 -0.00045463895462356509 0 0.031643356033450538 -0.0008754846830695735 0 0.034974300723761828 2.887177323181182e-05 0 0.034972436116720039 3.471774316631134e-05 0 0.034979055093993128 3.5523357111081082e-05 0 0.031255043401511744 -0.00038981780608796058 0 0.031167835533160656 -0.00043168603674631598 0 0.031094588005290431 -0.00041893122464803763 0 0.031227994429113011 -0.00045643648910059223 0 0.031255043401511744 -0.00038981780608796058 0 0.031300900587109208 -0.00049452253346505171 0 0.031227994429113011 -0.00045643648910059223 0 0.031255043401511744 -0.00038981780608796058 0 0.031167835533160656 -0.00043168603674631598 0 0.031167835533160656 -0.00043168603674631598 0 0.031094588005290431 -0.00041893122464803763 0 0.031098749574129034 -0.00043764864621998237 0 0.030589141326521338 -0.0019403751632629431 0 0.03120247004451825 -0.0018950742705046242 0 0.030505136632799426 -0.0015613589599432942 0 0.031167835533160656 -0.00043168603674631598 0 0.031098321031548581 -0.00043679576906592793 0 0.031107701555267667 -0.00047930723305973947 0 0.036173302761025858 -0.0027023771546734769 0 0.035998548675809094 -0.0025427180482605512 0 0.036064286342332018 -0.002371557263841158 0 0.031643356033450538 -0.0008754846830695735 0 0.032679954085679655 -0.0011985537976727421 0 0.031352242928500078 -0.00082703424621346274 0 0.031356584897431927 -0.00082908089253562521 0 0.031356584897431927 -0.00082908089253562521 0 0.030932028689316445 -0.00083430485148908238 0 0.036173302761025858 -0.0027023771546734769 0 0.036181418081052782 -0.0027410451284781367 0 0.036037803934118623 -0.0027518687916273286 0 0.031643356033450538 -0.0008754846830695735 0 0.031356584897431927 -0.00082908089253562521 0 0.036173302761025858 -0.0027023771546734769 0 0.036012345585145301 -0.0027218985693987694 0 0.035965585880687372 -0.0026390225099427568 0 0.036173302761025858 -0.0027023771546734769 0 0.036037803934118623 -0.0027518687916273286 0 0.036012345585145301 -0.0027218985693987694 0 0.031356584897431927 -0.00082908089253562521 0 0.030824262653865574 -0.00097919948729070024 0 0.030824262653865574 -0.00097919948729070024 0 0.03083053402485374 -0.00098467750207015627 0 0.036173302761025858 -0.0027023771546734769 0 0.035998548675809094 -0.0025427180482605512 0 0.035965585880687372 -0.0026390225099427568 0 0.035507074388711868 -0.0028246893750246247 0 0.036037997204729118 -0.0027504747611622558 0 0.035858129247197799 -0.0026777947091527741 0 0.030220310985025266 -0.0019244607356717061 0 0.030824262653865574 -0.00097919948729070024 0 0.035507074388711868 -0.0028246893750246247 0 0.035858129247197799 -0.0026777947091527741 0 0.035713076832203296 -0.0025571019930567375 0 0.036012345585145301 -0.0027218985693987694 0 0.035858129247197799 -0.0026777947091527741 0 0.035965585880687372 -0.0026390225099427568 0 0.036037997204729118 -0.0027504747611622558 0 0.036012345585145301 -0.0027218985693987694 0 0.035858129247197799 -0.0026777947091527741 0 0.035858129247197799 -0.0026777947091527741 0 0.035908829129203068 -0.0025721541219286262 0 0.035965585880687372 -0.0026390225099427568 0 0.035998548675809094 -0.0025427180482605512 0 0.035908829129203068 -0.0025721541219286262 0 0.035965585880687372 -0.0026390225099427568 0 0.035998548675809094 -0.0025427180482605512 0 0.035928152339803163 -0.0025076066222007856 0 0.035955544276301758 -0.0024398804299501603 0 0.035998548675809094 -0.0025427180482605512 0 0.035908829129203068 -0.0025721541219286262 0 0.035928152339803163 -0.0025076066222007856 0 0.035908829129203068 -0.0025721541219286262 0 0.035928152339803163 -0.0025076066222007856 0 0.035849615580263568 -0.0024757210588565912 0 0.035908829129203068 -0.0025721541219286262 0 0.035713076832203296 -0.0025571019930567375 0 0.035849615580263568 -0.0024757210588565912 0 0.035858129247197799 -0.0026777947091527741 0 0.035908829129203068 -0.0025721541219286262 0 0.035713076832203296 -0.0025571019930567375 0 0.035905958763430633 -0.0022358853927932944 0 0.035986930834537197 -0.0023565797549446347 0 0.035952503231088097 -0.0020306908181396662 0 0.033585788920541343 -0.0014045010318138595 0 0.033510749765785774 -0.0012899827210477595 0 0.035713076832203296 -0.0025571019930567375 0 0.035702440751448357 -0.0023696042855047964 0 0.035849615580263568 -0.0024757210588565912 0 0.035702440751448357 -0.0023696042855047964 0 0.035870978924178128 -0.0023581530754999327 0 0.035849615580263568 -0.0024757210588565912 0 0.035870978924178128 -0.0023581530754999327 0 0.035849615580263568 -0.0024757210588565912 0 0.035955544276301758 -0.0024398804299501603 0 0.035928152339803163 -0.0025076066222007856 0 0.035849615580263568 -0.0024757210588565912 0 0.035955544276301758 -0.0024398804299501603 0 0.035870978924178128 -0.0023581530754999327 0 0.035955544276301758 -0.0024398804299501603 0 0.035986930834537197 -0.0023565797549446347 0 0.035870978924178128 -0.0023581530754999327 0 0.035905958763430633 -0.0022358853927932944 0 0.035986930834537197 -0.0023565797549446347 0 0.035905958763430633 -0.0022358853927932944 0 0.035808944729941429 -0.0022470291295053103 0 0.035847334672089719 -0.0020996560539206814 0 0.035870978924178128 -0.0023581530754999327 0 0.035905958763430633 -0.0022358853927932944 0 0.035808944729941429 -0.0022470291295053103 0 0.035702440751448357 -0.0023696042855047964 0 0.035870978924178128 -0.0023581530754999327 0 0.035808944729941429 -0.0022470291295053103 0 0.035659105192314293 -0.0020812694872410263 0 0.035702440751448357 -0.0023696042855047964 0 0.035808944729941429 -0.0022470291295053103 0 0.032821517682149144 -0.0010169622347742711 0 0.032821816425171429 -0.00093771630154535033 0 0.032877461617621749 -0.0010922778364347552 0 0.032759299136898137 -0.00078421258180696074 0 0.032821517682149144 -0.0010169622347742711 0 0.032821816425171429 -0.00093771630154535033 0 0.035986930834537197 -0.0023565797549446347 0 0.036064286342332018 -0.002371557263841158 0 0.035945488230227175 -0.0020017508566291002 0 0.031643356033450538 -0.0008754846830695735 0 0.032819177454523361 -0.00081678684646875144 0 0.032679954085679655 -0.0011985537976727421 0 0.033510749765785774 -0.0012899827210477595 0 0.034974300723761828 2.887177323181182e-05 0 0.034979055093993128 3.5523357111081082e-05 0 0.034985498056515553 2.3470186809958938e-05 0 0.035998548675809094 -0.0025427180482605512 0 0.035955544276301758 -0.0024398804299501603 0 0.036064286342332018 -0.002371557263841158 0 0.035955544276301758 -0.0024398804299501603 0 0.035986930834537197 -0.0023565797549446347 0 0.036064286342332018 -0.002371557263841158 0 0.032821517682149144 -0.0010169622347742711 0 0.032877461617621749 -0.0010922778364347552 0 0.032880884887344558 -0.0012498144183840177 0 0.032819177454523361 -0.00081678684646875144 0 0.033849714986513707 -0.00084071391998354105 0 0.034985498056515553 2.3470186809958938e-05 0 0.034984069456374341 1.6034869051902181e-05 0 0.034978353774404704 2.1296165337644713e-05 0 0.034985498056515553 2.3470186809958938e-05 0 0.034984069456374341 1.6034869051902181e-05 0 0.03499074951904374 1.1339040993153639e-05 0 0.035659105192314293 -0.0020812694872410263 0 0.035910069010467782 -0.0019035391111452515 0 0.035918058779475424 -0.0017325168498271606 0 0.034162507557492144 -0.0011486169275316119 0 0.033874797006558793 -0.00091359230833300915 0 0.035659105192314293 -0.0020812694872410263 0 0.035808944729941429 -0.0022470291295053103 0 0.035847334672089719 -0.0020996560539206814 0 0.035659105192314293 -0.0020812694872410263 0 0.035847334672089719 -0.0020996560539206814 0 0.035910069010467782 -0.0019035391111452515 0 0.035905958763430633 -0.0022358853927932944 0 0.035847334672089719 -0.0020996560539206814 0 0.035952503231088097 -0.0020306908181396662 0 0.035950010301822703 -0.0020291218323139322 0 0.035910069010467782 -0.0019035391111452515 0 0.035918058779475424 -0.0017325168498271606 0 0.035847334672089719 -0.0020996560539206814 0 0.035952503231088097 -0.0020306908181396662 0 0.035910069010467782 -0.0019035391111452515 0 0.033510749765785774 -0.0012899827210477595 0 0.033874797006558793 -0.00091359230833300915 0 0.033510749765785774 -0.0012899827210477595 0 0.033527112038804319 -0.0013102233703211968 0 0.035544779059174386 -0.0010039943066086686 0 0.035661681814855392 -0.0014052418771632849 0 0.035818021650602085 -0.00094725294401869122 0 0.034064497259084739 -0.0007219907702327884 0 0.0340691430298855 -0.00077162076711971323 0 0.034073600169555573 -0.00076572646475136824 0 0.032877461617621749 -0.0010922778364347552 0 0.032896028053633487 -0.0012290933315873924 0 0.032880884887344558 -0.0012498144183840177 0 0.033874797006558793 -0.00091359230833300915 0 0.033849714986513707 -0.00084071391998354105 0 0.035544779059174386 -0.0010039943066086686 0 0.035818021650602085 -0.00094725294401869122 0 0.035551286377132396 -0.00076052548075348266 0 0.034984069456374341 1.6034869051902181e-05 0 0.03499074951904374 1.1339040993153639e-05 0 0.034985902496119915 9.4489428743183435e-06 0 0.034984069456374341 1.6034869051902181e-05 0 0.034985902496119915 9.4489428743183435e-06 0 0.034979087195905659 1.5084304856928074e-05 0 0.034981987233083066 8.3575820742081925e-06 0 0.034985902496119915 9.4489428743183435e-06 0 0.034979087195905659 1.5084304856928074e-05 0 0.034981987233083066 8.3575820742081925e-06 0 0.034979087195905659 1.5084304856928074e-05 0 0.034973960836216345 1.2900285694308871e-05 0 0.034967464504005771 1.9027477809325304e-05 0 0.034973960836216345 1.2900285694308871e-05 0 0.034973083829783848 1.9492311866618361e-05 0 0.034979087195905659 1.5084304856928074e-05 0 0.034973960836216345 1.2900285694308871e-05 0 0.034973083829783848 1.9492311866618361e-05 0 0.034967464504005771 1.9027477809325304e-05 0 0.034973083829783848 1.9492311866618361e-05 0 0.034967381540339036 2.3600088164306816e-05 0 0.034971753944450054 2.4696863662943048e-05 0 0.034973083829783848 1.9492311866618361e-05 0 0.034967381540339036 2.3600088164306816e-05 0 0.034971753944450054 2.4696863662943048e-05 0 0.034973083829783848 1.9492311866618361e-05 0 0.034978353774404704 2.1296165337644713e-05 0 0.034984069456374341 1.6034869051902181e-05 0 0.034979087195905659 1.5084304856928074e-05 0 0.034978353774404704 2.1296165337644713e-05 0 0.034979087195905659 1.5084304856928074e-05 0 0.034973083829783848 1.9492311866618361e-05 0 0.034978353774404704 2.1296165337644713e-05 0 0.034998034933187067 -1.4729400140722805e-06 0 0.033926487953314724 -0.00024624018555003611 0 0.031403310866426566 -3.5984338393731818e-05 0 0.034998034933187067 -1.4729400140722805e-06 0 0.029230530562980833 1.3546190797600452e-06 0 0.031403310866426566 -3.5984338393731818e-05 0 0.033926487953314724 -0.00024624018555003611 0 0.033010461384598941 -0.0002120807799623556 0 0.031403310866426566 -3.5984338393731818e-05 0 0.03057933355340256 -0.00063181350470015781 0 0.030074796880002131 -0.00043152511063747508 0 0.034998034933187067 -1.4729400140722805e-06 0 0.033926487953314724 -0.00024624018555003611 0 0.034995499381732853 8.3396073129762031e-07 0 0.033926487953314724 -0.00024624018555003611 0 0.033890984836036663 -0.00031068010735173056 0 0.033194082158488361 -0.00073235932787026991 0 0.033926487953314724 -0.00024624018555003611 0 0.034995499381732853 8.3396073129762031e-07 0 0.033890984836036663 -0.00031068010735173056 0 0.034998678650236995 -7.3085038938478313e-07 0 0.034572834131129722 -0.00032437968214792898 0 0.034995499381732853 8.3396073129762031e-07 0 0.033890984836036663 -0.00031068010735173056 0 0.033007186902742916 -0.00033821709494491226 0 0.033890984836036663 -0.00031068010735173056 0 0.033194082158488361 -0.00073235932787026991 0 0.033007186902742916 -0.00033821709494491226 0 0.033194082158488361 -0.00073235932787026991 0 0.032417354649387255 -0.00094288412302167527 0 0.032636012311124472 -0.00087987151061639406 0 0.030739875795858781 -0.00067499447290667221 0 0.03057933355340256 -0.00063181350470015781 0 0.033926487953314724 -0.00024624018555003611 0 0.033194082158488361 -0.00073235932787026991 0 0.033010461384598941 -0.0002120807799623556 0 0.031404697221373248 -0.0011667757233152299 0 0.032417354649387255 -0.00094288412302167527 0 0.031159136645084348 -0.00058918141611208981 0 0.033194082158488361 -0.00073235932787026991 0 0.031404697221373248 -0.0011667757233152299 0 0.032417354649387255 -0.00094288412302167527 0 0.032417354649387255 -0.00094288412302167527 0 0.032249176972440868 -0.0010784699756864261 0 0.032636012311124472 -0.00087987151061639406 0 0.032417354649387255 -0.00094288412302167527 0 0.032249176972440868 -0.0010784699756864261 0 0.032257985347387733 -0.00050626143432625241 0 0.032249176972440868 -0.0010784699756864261 0 0.03223353454392882 -0.0009309313022652395 0 0.032636012311124472 -0.00087987151061639406 0 0.034403006862150663 -0.00040046138659550242 0 0.034467306086230796 -0.00028613077037357971 0 0.032249176972440868 -0.0010784699756864261 0 0.03223353454392882 -0.0009309313022652395 0 0.032334793672466673 -0.0010414967465388059 0 0.034999366645816168 -9.4397641373187813e-06 0 0.034997465774534706 -5.7870276154547734e-06 0 0.035000781321284306 -1.9317664494393027e-06 0 0.034999366645816168 -9.4397641373187813e-06 0 0.034997465774534706 -5.7870276154547734e-06 0 0.034988052173229735 -1.270844680275072e-05 0 0.033194082158488361 -0.00073235932787026991 0 0.032636012311124472 -0.00087987151061639406 0 0.033007186902742916 -0.00033821709494491226 0 0.03223353454392882 -0.0009309313022652395 0 0.032636012311124472 -0.00087987151061639406 0 0.033007186902742916 -0.00033821709494491226 0 0.034403006862150663 -0.00040046138659550242 0 0.034572834131129722 -0.00032437968214792898 0 0.035000000800084329 1.306318684117068e-10 0 0.035000781321284306 -1.9317664494393027e-06 0 0.035000000676644376 -1.0232559301910313e-09 0 0.035000000676644376 -1.0232559301910313e-09 0 0.03499884160156462 -1.6716567692885297e-06 0 0.034999994016624035 -3.8172423515849152e-10 0 0.035000781321284306 -1.9317664494393027e-06 0 0.035000000676644376 -1.0232559301910313e-09 0 0.03499884160156462 -1.6716567692885297e-06 0 0.034997465774534706 -5.7870276154547734e-06 0 0.035000781321284306 -1.9317664494393027e-06 0 0.03499884160156462 -1.6716567692885297e-06 0 0.034997465774534706 -5.7870276154547734e-06 0 0.03499884160156462 -1.6716567692885297e-06 0 0.034996540312489742 -3.1424225197181436e-06 0 0.034997706935936942 1.5222990577923867e-06 0 0.034994494150572528 5.5972001597646666e-07 0 0.03499154740075356 -3.2190893952927608e-06 0 0.034997706935936942 1.5222990577923867e-06 0 0.034999992357020872 3.1837029530818903e-09 0 0.034997253562928037 7.1886954995372795e-07 0 0.03499884160156462 -1.6716567692885297e-06 0 0.034996540312489742 -3.1424225197181436e-06 0 0.034999994016624035 -3.8172423515849152e-10 0 0.034847928913656713 -5.1135441093804546e-05 0 0.034999359187069361 -1.1919023786717117e-07 0 0.03499999544569344 -1.6703329093831647e-09 0 0.034999992357020872 3.1837029530818903e-09 0 0.034997253562928037 7.1886954995372795e-07 0 0.03499999544569344 -1.6703329093831647e-09 0 0.034996549420758943 1.6186009911961504e-07 0 0.034997253562928037 7.1886954995372795e-07 0 0.034996549420758943 1.6186009911961504e-07 0 0.034994494150572528 5.5972001597646666e-07 0 0.034991204586453023 -6.0279315196717463e-07 0 0.034996549420758943 1.6186009911961504e-07 0 0.034997253562928037 7.1886954995372795e-07 0 0.034994494150572528 5.5972001597646666e-07 0 0.034997706935936942 1.5222990577923867e-06 0 0.034997253562928037 7.1886954995372795e-07 0 0.034994494150572528 5.5972001597646666e-07 0 0.034994494150572528 5.5972001597646666e-07 0 0.034991204586453023 -6.0279315196717463e-07 0 0.03499154740075356 -3.2190893952927608e-06 0 0.034988700379478099 -1.1581221015905562e-06 0 0.034991204586453023 -6.0279315196717463e-07 0 0.03499154740075356 -3.2190893952927608e-06 0 0.034991683680119651 -6.7031776469732043e-07 0 0.034988700379478099 -1.1581221015905562e-06 0 0.034991204586453023 -6.0279315196717463e-07 0 0.034991748161844728 8.737050143261336e-07 0 0.034991683680119651 -6.7031776469732043e-07 0 0.034988700379478099 -1.1581221015905562e-06 0 0.034609784518131743 0.00016970017376108799 0 0.034625205313226166 0.00017080761878040688 0 0.034959435475392667 -1.5918507920617599e-05 0 0.034983869041210709 -1.6941180681055274e-05 0 0.034969990490615041 -3.0150771833519191e-05 0 0.034959435475392667 -1.5918507920617599e-05 0 0.034988700379478099 -1.1581221015905562e-06 0 0.034983869041210709 -1.6941180681055274e-05 0 0.034988700379478099 -1.1581221015905562e-06 0 0.034983869041210709 -1.6941180681055274e-05 0 0.03499154740075356 -3.2190893952927608e-06 0 0.034997465774534706 -5.7870276154547734e-06 0 0.034996540312489742 -3.1424225197181436e-06 0 0.034995453276872764 -7.6934320801313725e-06 0 0.034847928913656713 -5.1135441093804546e-05 0 0.034680508770707906 -0.00012131514062539958 0 0.034997706935936942 1.5222990577923867e-06 0 0.03499154740075356 -3.2190893952927608e-06 0 0.035002362038840273 -1.9732990985515121e-05 0 0.034704182230662281 -0.00010310846601070827 0 0.034680508770707906 -0.00012131514062539958 0 0.034983869041210709 -1.6941180681055274e-05 0 0.03499154740075356 -3.2190893952927608e-06 0 0.035002362038840273 -1.9732990985515121e-05 0 0.034999366645816168 -9.4397641373187813e-06 0 0.034988052173229735 -1.270844680275072e-05 0 0.034988475203979852 -2.6683797304317066e-05 0 0.034680508770707906 -0.00012131514062539958 0 0.034467306086230796 -0.00028613077037357971 0 0.034728393090389234 -0.00025369229701461323 0 0.034782716531986488 -0.0002009505663816979 0 0.03472517959945446 -0.00018709205842609947 0 0.034680508770707906 -0.00012131514062539958 0 0.034740615954611538 -9.3437070500485014e-05 0 0.034983869041210709 -1.6941180681055274e-05 0 0.034979914089910621 -4.4898413999922088e-05 0 0.034969990490615041 -3.0150771833519191e-05 0 0.034983869041210709 -1.6941180681055274e-05 0 0.035002362038840273 -1.9732990985515121e-05 0 0.034979914089910621 -4.4898413999922088e-05 0 0.034979914089910621 -4.4898413999922088e-05 0 0.034959857532221403 -4.6759859787850824e-05 0 0.034969990490615041 -3.0150771833519191e-05 0 0.034783163961386393 -0.00015894158445109387 0 0.03472517959945446 -0.00018709205842609947 0 0.0347878052418382 -0.00010027708210348454 0 0.034837168544765172 -0.00014757512915994909 0 0.034782716531986488 -0.0002009505663816979 0 0.034783163961386393 -0.00015894158445109387 0 0.034934647574845386 -7.7850253659713414e-05 0 0.034979914089910621 -4.4898413999922088e-05 0 0.034959857532221403 -4.6759859787850824e-05 0 0.034773895362771916 -7.7993648920769086e-05 0 0.034740615954611538 -9.3437070500485014e-05 0 0.034782716531986488 -0.0002009505663816979 0 0.034783163961386393 -0.00015894158445109387 0 0.03472517959945446 -0.00018709205842609947 0 0.034467306086230796 -0.00028613077037357971 0 0.034524561008992691 -0.00022639323840299369 0 0.034467306086230796 -0.00028613077037357971 0 0.034051481897540405 3.1388392349611559e-05 0 0.034724607684315303 -0.00018940451362881302 0 0.034719276433804798 -8.1281598709826111e-05 0 0.0347878052418382 -0.00010027708210348454 0 0.034837168544765172 -0.00014757512915994909 0 0.034783163961386393 -0.00015894158445109387 0 0.0347878052418382 -0.00010027708210348454 0 0.034837168544765172 -0.00014757512915994909 0 0.034836351032748396 -8.1598365816957334e-05 0 0.0347878052418382 -0.00010027708210348454 0 0.034836351032748396 -8.1598365816957334e-05 0 0.034831564911351406 -4.3646573271442424e-05 0 0.03478450997681274 -5.2577469037097025e-05 0 0.034719276433804798 -8.1281598709826111e-05 0 0.0347878052418382 -0.00010027708210348454 0 0.03478450997681274 -5.2577469037097025e-05 0 0.034836351032748396 -8.1598365816957334e-05 0 0.0347878052418382 -0.00010027708210348454 0 0.03478450997681274 -5.2577469037097025e-05 0 0.034831564911351406 -4.3646573271442424e-05 0 0.03478450997681274 -5.2577469037097025e-05 0 0.034792270699371707 -4.4976535256070719e-06 0 0.03478450997681274 -5.2577469037097025e-05 0 0.034792270699371707 -4.4976535256070719e-06 0 0.034712467486628283 2.6789889293145183e-05 0 0.033566460568063637 0.00036390393287301202 0 0.033716827756529441 0.00047761824704854944 0 0.03225440680726966 0.0010985280361258554 0 0.032106976910114979 0.0010308291460798139 0 0.032169942845864337 0.001164635885528745 0 0.033716827756529441 0.00047761824704854944 0 0.03370188222879178 0.00048293280278713445 0 0.032119664935248482 0.00097159506694044614 0 0.03211215217411785 0.0010320500309398226 0 0.032078315575108027 0.0009191535596891812 0 0.033716827756529441 0.00047761824704854944 0 0.033715356186556106 0.00047957771039551094 0 0.034719276433804798 -8.1281598709826111e-05 0 0.03478450997681274 -5.2577469037097025e-05 0 0.034712467486628283 2.6789889293145183e-05 0 0.034051481897540405 3.1388392349611559e-05 0 0.033716827756529441 0.00047761824704854944 0 0.032403643380669075 -0.00033655424756127045 0 0.031763262750381743 0.00049790357139371214 0 0.031536000206830492 -0.00029174087248839763 0 0.032403643380669075 -0.00033655424756127045 0 0.032275278863724735 0.00082580210735923266 0 0.031763262750381743 0.00049790357139371214 0 0.031763262750381743 0.00049790357139371214 0 0.031377915814852823 0.0011012016080770046 0 0.03176447388997123 0.00099588729769156887 0 0.031763262750381743 0.00049790357139371214 0 0.032078315575108027 0.0009191535596891812 0 0.03176447388997123 0.00099588729769156887 0 0.032275278863724735 0.00082580210735923266 0 0.031763262750381743 0.00049790357139371214 0 0.032078315575108027 0.0009191535596891812 0 0.031763262750381743 0.00049790357139371214 0 0.0310172090333109 0.00035387163551374196 0 0.031377915814852823 0.0011012016080770046 0 0.031763262750381743 0.00049790357139371214 0 0.031536000206830492 -0.00029174087248839763 0 0.0310172090333109 0.00035387163551374196 0 0.031536000206830492 -0.00029174087248839763 0 0.031990777155931842 -0.00082183611626588347 0 0.031087413376325469 -0.0010540617617512016 0 0.032334793672466673 -0.0010414967465388059 0 0.032403643380669075 -0.00033655424756127045 0 0.031990777155931842 -0.00082183611626588347 0 0.032403643380669075 -0.00033655424756127045 0 0.031536000206830492 -0.00029174087248839763 0 0.031990777155931842 -0.00082183611626588347 0 0.032249176972440868 -0.0010784699756864261 0 0.032334793672466673 -0.0010414967465388059 0 0.031990777155931842 -0.00082183611626588347 0 0.031042042085153019 -0.00069269809327174206 0 0.030910981423490559 -0.00062800669132257294 0 0.032249176972440868 -0.0010784699756864261 0 0.031990777155931842 -0.00082183611626588347 0 0.031087413376325469 -0.0010540617617512016 0 0.032417354649387255 -0.00094288412302167527 0 0.032257985347387733 -0.00050626143432625241 0 0.031159136645084348 -0.00058918141611208981 0 0.032257985347387733 -0.00050626143432625241 0 0.031159136645084348 -0.00058918141611208981 0 0.030436276115601017 0.00014947909752443476 0 0.030910981423490559 -0.00062800669132257294 0 0.030592018712017409 -0.00046953581829286341 0 0.031087413376325469 -0.0010540617617512016 0 0.029879718875003507 -0.0006800177382125024 0 0.030728865901540482 -0.00030074488590730339 0 0.031536000206830492 -0.00029174087248839763 0 0.031087413376325469 -0.0010540617617512016 0 0.030728865901540482 -0.00030074488590730339 0 0.031536000206830492 -0.00029174087248839763 0 0.030728865901540482 -0.00030074488590730339 0 0.0310172090333109 0.00035387163551374196 0 0.030728865901540482 -0.00030074488590730339 0 0.0310172090333109 0.00035387163551374196 0 0.030000904947171402 0.00028405997806968159 0 0.0310172090333109 0.00035387163551374196 0 0.030484724777199348 0.00094897747266780479 0 0.031377915814852823 0.0011012016080770046 0 0.0310172090333109 0.00035387163551374196 0 0.030000904947171402 0.00028405997806968159 0 0.030484724777199348 0.00094897747266780479 0 0.030000904947171402 0.00028405997806968159 0 0.029110331432079129 0.001364943014863441 0 0.030484724777199348 0.00094897747266780479 0 0.029879718875003507 -0.0006800177382125024 0 0.030728865901540482 -0.00030074488590730339 0 0.030000904947171402 0.00028405997806968159 0 0.030592018712017409 -0.00046953581829286341 0 0.030381338633679224 -0.000364902149194933 0 0.029879718875003507 -0.0006800177382125024 0 0.030000904947171402 0.00028405997806968159 0 0.028518810303089583 -8.3353449245619735e-05 0 0.030000904947171402 0.00028405997806968159 0 0.028518810303089583 -8.3353449245619735e-05 0 0.029110331432079129 0.001364943014863441 0 0.02632609731040738 3.28372046839567e-06 0 0.028518810303089583 -8.3353449245619735e-05 0 0.029110331432079129 0.001364943014863441 0 0.02632609731040738 3.28372046839567e-06 0 0.027774609903901279 -6.9469601429667534e-07 0 0.028518810303089583 -8.3353449245619735e-05 0 0.027774609903901279 -6.9469601429667534e-07 0 0.028518810303089583 -8.3353449245619735e-05 0 0.029221469218752693 -1.204157981137418e-06 0 0.030436276115601017 0.00014947909752443476 0 0.029221469218752693 -1.204157981137418e-06 0 0.030041913544649461 -0.00062845414813222488 0 0.030436276115601017 0.00014947909752443476 0 0.028518810303089583 -8.3353449245619735e-05 0 0.029221469218752693 -1.204157981137418e-06 0 0.031159136645084348 -0.00058918141611208981 0 0.030436276115601017 0.00014947909752443476 0 0.030041913544649461 -0.00062845414813222488 0 0.031404697221373248 -0.0011667757233152299 0 0.031159136645084348 -0.00058918141611208981 0 0.030041913544649461 -0.00062845414813222488 0 0.029226993447578023 -7.8852889225109078e-07 0 0.030074796880002131 -0.00043152511063747508 0 0.022550331275514812 -3.3275684240396939e-07 0 0.022222210233223121 -0.0001233268853118471 0 0.021263329287783666 -0.00027737879760491999 0 0.022222210233223121 -0.0001233268853118471 0 0.021113412016394842 -0.00033773125463822486 0 0.021263329287783666 -0.00027737879760491999 0 0.022550331275514812 -3.3275684240396939e-07 0 0.022222210233223121 -0.0001233268853118471 0 0.024436766784954239 -7.7153010689432077e-07 0 0.026318823182060337 3.1283907543104203e-06 0 0.024436766784954239 -7.7153010689432077e-07 0 0.022989424545840506 0.00079212605577321969 0 0.026321834401973832 5.5558146091471523e-07 0 0.026084222859972295 0.00013892930789257473 0 0.022222210233223121 -0.0001233268853118471 0 0.024436766784954239 -7.7153010689432077e-07 0 0.022989424545840506 0.00079212605577321969 0 0.022222210233223121 -0.0001233268853118471 0 0.022989424545840506 0.00079212605577321969 0 0.021196848129388768 0.00054991302806797326 0 0.026084222859972295 0.00013892930789257473 0 0.026059510914069221 0.00024030796433127362 0 0.029110331432079129 0.001364943014863441 0 0.030484724777199348 0.00094897747266780479 0 0.03058899822486429 0.001684743069478675 0 0.030484724777199348 0.00094897747266780479 0 0.03058899822486429 0.001684743069478675 0 0.031377915814852823 0.0011012016080770046 0 0.021196848129388768 0.00054991302806797326 0 0.021042577494870564 -7.4883017946601393e-05 0 0.020422372474947308 0.00011687305389717744 0 0.022222210233223121 -0.0001233268853118471 0 0.021196848129388768 0.00054991302806797326 0 0.021042577494870564 -7.4883017946601393e-05 0 0.022222210233223121 -0.0001233268853118471 0 0.021042577494870564 -7.4883017946601393e-05 0 0.021113412016394842 -0.00033773125463822486 0 0.021042577494870564 -7.4883017946601393e-05 0 0.021113412016394842 -0.00033773125463822486 0 0.020564014761352313 -0.00030208863835304496 0 0.021113412016394842 -0.00033773125463822486 0 0.020564014761352313 -0.00030208863835304496 0 0.020521584587007945 -0.00045800591894290066 0 0.020564014761352313 -0.00030208863835304496 0 0.02029394468004261 -0.00029453246193535636 0 0.020306670297162391 -0.00044487586519528657 0 0.02029394468004261 -0.00029453246193535636 0 0.020422372474947308 0.00011687305389717744 0 0.020200680411893528 -0.00011294926925447435 0 0.026086688850352417 0.00022390421027194946 0 0.026088248782279829 8.4585708614568882e-05 0 0.021042577494870564 -7.4883017946601393e-05 0 0.020564014761352313 -0.00030208863835304496 0 0.020422372474947308 0.00011687305389717744 0 0.020564014761352313 -0.00030208863835304496 0 0.02029394468004261 -0.00029453246193535636 0 0.020422372474947308 0.00011687305389717744 0 0.03058899822486429 0.001684743069478675 0 0.03161591395642914 0.0017214586930452711 0 0.031377915814852823 0.0011012016080770046 0 0.026059510914069221 0.00024030796433127362 0 0.026086688850352417 0.00022390421027194946 0 0.031377915814852823 0.0011012016080770046 0 0.03176447388997123 0.00099588729769156887 0 0.031934171821796684 0.0012708475342358447 0 0.032009855201342773 0.0010974277620473215 0 0.03176447388997123 0.00099588729769156887 0 0.031934171821796684 0.0012708475342358447 0 0.032078315575108027 0.0009191535596891812 0 0.032009855201342773 0.0010974277620473215 0 0.03176447388997123 0.00099588729769156887 0 0.03211215217411785 0.0010320500309398226 0 0.032078315575108027 0.0009191535596891812 0 0.032009855201342773 0.0010974277620473215 0 0.032009855201342773 0.0010974277620473215 0 0.031934171821796684 0.0012708475342358447 0 0.032057871743783634 0.0011366865097220478 0 0.03161591395642914 0.0017214586930452711 0 0.031934171821796684 0.0012708475342358447 0 0.032089436480179895 0.0014083011227961624 0 0.03161591395642914 0.0017214586930452711 0 0.031377915814852823 0.0011012016080770046 0 0.031934171821796684 0.0012708475342358447 0 0.03161591395642914 0.0017214586930452711 0 0.032089436480179895 0.0014083011227961624 0 0.032129056858192666 0.0015747978429995659 0 0.032089436480179895 0.0014083011227961624 0 0.032212002736952787 0.0013548894839113699 0 0.032129056858192666 0.0015747978429995659 0 0.032089436480179895 0.0014083011227961624 0 0.032169942845864337 0.001164635885528745 0 0.032212002736952787 0.0013548894839113699 0 0.031934171821796684 0.0012708475342358447 0 0.032169942845864337 0.001164635885528745 0 0.032057871743783634 0.0011366865097220478 0 0.031934171821796684 0.0012708475342358447 0 0.032089436480179895 0.0014083011227961624 0 0.032169942845864337 0.001164635885528745 0 0.03211215217411785 0.0010320500309398226 0 0.032169942845864337 0.001164635885528745 0 0.032057871743783634 0.0011366865097220478 0 0.032106976910114979 0.0010308291460798139 0 0.03211215217411785 0.0010320500309398226 0 0.032169942845864337 0.001164635885528745 0 0.03211215217411785 0.0010320500309398226 0 0.032009855201342773 0.0010974277620473215 0 0.032057871743783634 0.0011366865097220478 0 0.03225440680726966 0.0010985280361258554 0 0.032169942845864337 0.001164635885528745 0 0.032306376122123691 0.0012159917815053182 0 0.032169942845864337 0.001164635885528745 0 0.032212002736952787 0.0013548894839113699 0 0.032306376122123691 0.0012159917815053182 0 0.032212002736952787 0.0013548894839113699 0 0.032129056858192666 0.0015747978429995659 0 0.032306048242103605 0.001398019940184858 0 0.032212002736952787 0.0013548894839113699 0 0.032306376122123691 0.0012159917815053182 0 0.032306048242103605 0.001398019940184858 0 0.026088248782279829 8.4585708614568882e-05 0 0.02599046918018107 -0.0001943526283806311 0 0.032129056858192666 0.0015747978429995659 0 0.032306048242103605 0.001398019940184858 0 0.032305773664875179 0.0014851452954605625 0 0.02029394468004261 -0.00029453246193535636 0 0.020200680411893528 -0.00011294926925447435 0 0.020220563813983745 -0.00042837077427119926 0 0.020200680411893528 -0.00011294926925447435 0 0.020220563813983745 -0.00042837077427119926 0 0.019979778472466115 -0.00020392551077803568 0 0.020220563813983745 -0.00042837077427119926 0 0.019979778472466115 -0.00020392551077803568 0 0.019973472805099094 -0.0004592226409949371 0 0.020220563813983745 -0.00042837077427119926 0 0.020038851626851113 -0.00072134026820700663 0 0.019973472805099094 -0.0004592226409949371 0 0.02029394468004261 -0.00029453246193535636 0 0.020220563813983745 -0.00042837077427119926 0 0.020306670297162391 -0.00044487586519528657 0 0.020220563813983745 -0.00042837077427119926 0 0.02028048721558456 -0.00040774751303787214 0 0.020306670297162391 -0.00044487586519528657 0 0.02028048721558456 -0.00040774751303787214 0 0.020312260578948537 -0.00032318642377051688 0 0.020268982471261129 -0.00039524120354736495 0 0.02028048721558456 -0.00040774751303787214 0 0.020407859968566061 -0.00039612006634544842 0 0.020359989011556962 -0.00033943000087904428 0 0.020220563813983745 -0.00042837077427119926 0 0.02028048721558456 -0.00040774751303787214 0 0.020407859968566061 -0.00039612006634544842 0 0.013723926089245697 -0.0012323609965028634 0 0.012999338192476969 -0.0018306441977289888 0 0.020407859968566061 -0.00039612006634544842 0 0.020430526782510981 -0.00030077145692170698 0 0.020359989011556962 -0.00033943000087904428 0 0.020430526782510981 -0.00030077145692170698 0 0.020359989011556962 -0.00033943000087904428 0 0.020380281425121872 -0.00026593561826171393 0 0.020430526782510981 -0.00030077145692170698 0 0.020380281425121872 -0.00026593561826171393 0 0.020445974322289655 -0.00021549668896471825 0 0.020380281425121872 -0.00026593561826171393 0 0.020445974322289655 -0.00021549668896471825 0 0.020391161563098434 -0.00014956038134495301 0 0.020445974322289655 -0.00021549668896471825 0 0.020391161563098434 -0.00014956038134495301 0 0.020485926627867378 -8.9398178074263384e-05 0 0.02032819194587026 -8.3132041135605233e-05 0 0.020322786543047863 -0.00022417159095216389 0 0.020226325305917073 -0.00014917174764566776 0 0.020391161563098434 -0.00014956038134495301 0 0.02032819194587026 -8.3132041135605233e-05 0 0.020373748263344621 -1.0454563819973237e-05 0 0.020391161563098434 -0.00014956038134495301 0 0.02032819194587026 -8.3132041135605233e-05 0 0.020322786543047863 -0.00022417159095216389 0 0.020380281425121872 -0.00026593561826171393 0 0.020391161563098434 -0.00014956038134495301 0 0.020322786543047863 -0.00022417159095216389 0 0.020322786543047863 -0.00022417159095216389 0 0.020312260578948537 -0.00032318642377051688 0 0.020261672064265195 -0.00030742026712195827 0 0.020380281425121872 -0.00026593561826171393 0 0.020322786543047863 -0.00022417159095216389 0 0.020312260578948537 -0.00032318642377051688 0 0.02028048721558456 -0.00040774751303787214 0 0.020359989011556962 -0.00033943000087904428 0 0.020312260578948537 -0.00032318642377051688 0 0.020359989011556962 -0.00033943000087904428 0 0.020380281425121872 -0.00026593561826171393 0 0.020312260578948537 -0.00032318642377051688 0 0.020312260578948537 -0.00032318642377051688 0 0.020261672064265195 -0.00030742026712195827 0 0.020268982471261129 -0.00039524120354736495 0 0.020261672064265195 -0.00030742026712195827 0 0.020226325305917073 -0.00014917174764566776 0 0.020168968476444046 -0.00038669965441885874 0 0.020261672064265195 -0.00030742026712195827 0 0.020168968476444046 -0.00038669965441885874 0 0.020268982471261129 -0.00039524120354736495 0 0.020322786543047863 -0.00022417159095216389 0 0.020261672064265195 -0.00030742026712195827 0 0.020226325305917073 -0.00014917174764566776 0 0.02032819194587026 -8.3132041135605233e-05 0 0.020226325305917073 -0.00014917174764566776 0 0.02026565586175319 -1.0983824805448729e-05 0 0.020226325305917073 -0.00014917174764566776 0 0.019978459610339516 -0.00016022584576844926 0 0.02013428228434563 2.8703895674915955e-05 0 0.020226325305917073 -0.00014917174764566776 0 0.019978459610339516 -0.00016022584576844926 0 0.020168968476444046 -0.00038669965441885874 0 0.019978459610339516 -0.00016022584576844926 0 0.020168968476444046 -0.00038669965441885874 0 0.019805608036862953 -0.00038323990490008082 0 0.020168968476444046 -0.00038669965441885874 0 0.020306670297162391 -0.00044487586519528657 0 0.020183477514706005 -0.00045949337666833422 0 0.020306670297162391 -0.00044487586519528657 0 0.020521584587007945 -0.00045800591894290066 0 0.020183477514706005 -0.00045949337666833422 0 0.02028048721558456 -0.00040774751303787214 0 0.020268982471261129 -0.00039524120354736495 0 0.020306670297162391 -0.00044487586519528657 0 0.020168968476444046 -0.00038669965441885874 0 0.020268982471261129 -0.00039524120354736495 0 0.020306670297162391 -0.00044487586519528657 0 0.020564014761352313 -0.00030208863835304496 0 0.020306670297162391 -0.00044487586519528657 0 0.020521584587007945 -0.00045800591894290066 0 0.021113412016394842 -0.00033773125463822486 0 0.020521584587007945 -0.00045800591894290066 0 0.020147861858128651 -0.00045481559051602536 0 0.020521584587007945 -0.00045800591894290066 0 0.020147861858128651 -0.00045481559051602536 0 0.020183477514706005 -0.00045949337666833422 0 0.020168968476444046 -0.00038669965441885874 0 0.020183477514706005 -0.00045949337666833422 0 0.019805608036862953 -0.00038323990490008082 0 0.020147861858128651 -0.00045481559051602536 0 0.020183477514706005 -0.00045949337666833422 0 0.019805608036862953 -0.00038323990490008082 0 0.019978459610339516 -0.00016022584576844926 0 0.019805608036862953 -0.00038323990490008082 0 0.019399156013091015 2.7557811633733862e-05 0 0.019805608036862953 -0.00038323990490008082 0 0.019053580373387315 -0.00028945836643003679 0 0.019399156013091015 2.7557811633733862e-05 0 0.020147861858128651 -0.00045481559051602536 0 0.019805608036862953 -0.00038323990490008082 0 0.019053580373387315 -0.00028945836643003679 0 0.020147861858128651 -0.00045481559051602536 0 0.019053580373387315 -0.00028945836643003679 0 0.01928757485708477 -0.00029829680986479418 0 0.019053580373387315 -0.00028945836643003679 0 0.01928757485708477 -0.00029829680986479418 0 0.018039888690675347 -0.00013046461109451028 0 0.019053580373387315 -0.00028945836643003679 0 0.018039888690675347 -0.00013046461109451028 0 0.017822903533324708 6.049685169500233e-05 0 0.018039888690675347 -0.00013046461109451028 0 0.018779178799049803 -4.7946302248265868e-07 0 0.016893013793087781 1.2825653866291771e-07 0 0.01928757485708477 -0.00029829680986479418 0 0.018039888690675347 -0.00013046461109451028 0 0.018779178799049803 -4.7946302248265868e-07 0 0.01928757485708477 -0.00029829680986479418 0 0.018779178799049803 -4.7946302248265868e-07 0 0.020664641657485792 -6.3137648418469165e-07 0 0.020147861858128651 -0.00045481559051602536 0 0.01928757485708477 -0.00029829680986479418 0 0.020664641657485792 -6.3137648418469165e-07 0 0.020147861858128651 -0.00045481559051602536 0 0.020664641657485792 -6.3137648418469165e-07 0 0.021263329287783666 -0.00027737879760491999 0 0.021113412016394842 -0.00033773125463822486 0 0.020147861858128651 -0.00045481559051602536 0 0.021263329287783666 -0.00027737879760491999 0 0.022550331275514812 -3.3275684240396939e-07 0 0.020664641657485792 -6.3137648418469165e-07 0 0.021263329287783666 -0.00027737879760491999 0 0.032143614094888986 0.0015743811547799054 0 0.032248849424667603 0.0015829278170037876 0 0.032117211768175204 0.0017171652429352952 0 0.032143614094888986 0.0015743811547799054 0 0.03213020549046474 0.0015472973138075672 0 0.032109083169418969 0.0016456480930503374 0 0.02708244047270424 -0.0015860637932810888 0 0.029688330902953981 -0.0010671893827912549 0 0.02708244047270424 -0.0015860637932810888 0 0.027324461905454015 -0.0014844280952753285 0 0.032143614094888986 0.0015743811547799054 0 0.03213020549046474 0.0015472973138075672 0 0.032196363757194674 0.0015645963648150351 0 0.032116932504801729 0.0015390186835609794 0 0.032196363757194674 0.0015645963648150351 0 0.032197727222405784 0.001495386795244335 0 0.0325344715760977 0.0013808432191869467 0 0.032549037611167515 0.0013264274003909273 0 0.032496757897182482 0.0013398313604887889 0 0.032248849424667603 0.0015829278170037876 0 0.032196363757194674 0.0015645963648150351 0 0.032261211603859877 0.0015053202272129712 0 0.032143614094888986 0.0015743811547799054 0 0.032248849424667603 0.0015829278170037876 0 0.032196363757194674 0.0015645963648150351 0 0.032197727222405784 0.001495386795244335 0 0.032261211603859877 0.0015053202272129712 0 0.032273537595941433 0.0014523398898466646 0 0.032261211603859877 0.0015053202272129712 0 0.032273537595941433 0.0014523398898466646 0 0.032420497852663634 0.0014199861780727747 0 0.032248849424667603 0.0015829278170037876 0 0.032261211603859877 0.0015053202272129712 0 0.032420497852663634 0.0014199861780727747 0 0.032196363757194674 0.0015645963648150351 0 0.032197727222405784 0.001495386795244335 0 0.032261211603859877 0.0015053202272129712 0 0.032273537595941433 0.0014523398898466646 0 0.032142121100649484 0.0014100229583868056 0 0.032267564916323523 0.0013836423848519849 0 0.032197727222405784 0.001495386795244335 0 0.032273537595941433 0.0014523398898466646 0 0.032142121100649484 0.0014100229583868056 0 0.022616145833696699 -0.0046295110584904124 0 0.022663213913412347 -0.0045401033635106853 0 0.022586091766729703 -0.0045100885921994021 0 0.032116932504801729 0.0015390186835609794 0 0.032197727222405784 0.001495386795244335 0 0.032142121100649484 0.0014100229583868056 0 0.02708244047270424 -0.0015860637932810888 0 0.025252995434022658 -0.002217274144854015 0 0.02708244047270424 -0.0015860637932810888 0 0.026180743981052898 -0.0024129938623768232 0 0.022616145833696699 -0.0046295110584904124 0 0.022663213913412347 -0.0045401033635106853 0 0.02274321545155757 -0.0045879216714103102 0 0.022663213913412347 -0.0045401033635106853 0 0.02274321545155757 -0.0045879216714103102 0 0.022708775770074685 -0.0044757764242971459 0 0.02274321545155757 -0.0045879216714103102 0 0.022788198958882924 -0.004499127912881251 0 0.022708775770074685 -0.0044757764242971459 0 0.026180743981052898 -0.0024129938623768232 0 0.025622104915317055 -0.0030458525365331048 0 0.02274321545155757 -0.0045879216714103102 0 0.02287828626446034 -0.0045516023003615022 0 0.022788198958882924 -0.004499127912881251 0 0.02787262071222165 -0.0027617720947331007 0 0.027303810056410374 -0.0029655950502272474 0 0.027794391751964471 -0.0024032745005337372 0 0.025622104915317055 -0.0030458525365331048 0 0.02740208850641938 -0.0023130925427255651 0 0.024756171680892548 -0.0039394189061693879 0 0.02447703582333385 -0.0039208708410365025 0 0.024658100284404162 -0.0041908822761215431 0 0.024756171680892548 -0.0039394189061693879 0 0.024704278748530199 -0.0036413692995558942 0 0.02447703582333385 -0.0039208708410365025 0 0.028437961442726825 -0.0025583990258859707 0 0.02787262071222165 -0.0027617720947331007 0 0.027794391751964471 -0.0024032745005337372 0 0.02740208850641938 -0.0023130925427255651 0 0.029688330902953981 -0.0010671893827912549 0 0.028437961442726825 -0.0025583990258859707 0 0.027794391751964471 -0.0024032745005337372 0 0.028282153756484445 -0.0018434671111683799 0 0.02447703582333385 -0.0039208708410365025 0 0.024445001699364702 -0.0041830965043246279 0 0.024258340748297524 -0.0041867765991595932 0 0.024445001699364702 -0.0041830965043246279 0 0.024301301578182805 -0.0043717768756723167 0 0.024258340748297524 -0.0041867765991595932 0 0.030524049478997155 -0.00083940348558770022 0 0.029688330902953981 -0.0010671893827912549 0 0.02447703582333385 -0.0039208708410365025 0 0.024445001699364702 -0.0041830965043246279 0 0.024658100284404162 -0.0041908822761215431 0 0.024445001699364702 -0.0041830965043246279 0 0.024658100284404162 -0.0041908822761215431 0 0.024484599467267797 -0.0043704636761179279 0 0.02485430548895539 -0.0045262008205728191 0 0.02445480606726138 -0.0045500043315228837 0 0.024656406144506947 -0.0043922976222422697 0 0.024828362503355839 -0.0043266474202244319 0 0.024658100284404162 -0.0041908822761215431 0 0.024656406144506947 -0.0043922976222422697 0 0.024658100284404162 -0.0041908822761215431 0 0.024656406144506947 -0.0043922976222422697 0 0.024484599467267797 -0.0043704636761179279 0 0.02445480606726138 -0.0045500043315228837 0 0.024656406144506947 -0.0043922976222422697 0 0.024484599467267797 -0.0043704636761179279 0 0.030194089723391607 -0.0014465793052830288 0 0.030016609898044274 -0.0012376769485086458 0 0.02980326008574689 0.00030854580275052401 0 0.030799545718587149 -0.00080083145168230408 0 0.030799613237170231 -0.00080102027545885131 0 0.030799800043338141 -0.00079979160669517804 0 0.030524049478997155 -0.00083940348558770022 0 0.030514595942403112 -0.00080253769416590789 0 0.024445001699364702 -0.0041830965043246279 0 0.024301301578182805 -0.0043717768756723167 0 0.024484599467267797 -0.0043704636761179279 0 0.02445480606726138 -0.0045500043315228837 0 0.024301301578182805 -0.0043717768756723167 0 0.024484599467267797 -0.0043704636761179279 0 0.030524049478997155 -0.00083940348558770022 0 0.030932028689316445 -0.00083430485148908238 0 0.03120247004451825 -0.0018950742705046242 0 0.030358448104186479 -0.0008992924280402456 0 0.030505136632799426 -0.0015613589599432942 0 0.030824262653865574 -0.00097919948729070024 0 0.030524049478997155 -0.00083940348558770022 0 0.030514595942403112 -0.00080253769416590789 0 0.030932028689316445 -0.00083430485148908238 0 0.031167835533160656 -0.00043168603674631598 0 0.031107701555267667 -0.00047930723305973947 0 0.031188482655681672 -0.00050972121938736871 0 0.032618896046340488 0.0012910790261777773 0 0.032548137965814343 0.0012939111920580782 0 0.032571135099945796 0.0012353996994560526 0 0.031135341306696627 -0.00056695095088811183 0 0.031107701555267667 -0.00047930723305973947 0 0.031188482655681672 -0.00050972121938736871 0 0.031227994429113011 -0.00045643648910059223 0 0.031167835533160656 -0.00043168603674631598 0 0.031188482655681672 -0.00050972121938736871 0 0.031227994429113011 -0.00045643648910059223 0 0.031188482655681672 -0.00050972121938736871 0 0.031300900587109208 -0.00049452253346505171 0 0.031188482655681672 -0.00050972121938736871 0 0.031185165787787891 -0.00062609972079993804 0 0.031300900587109208 -0.00049452253346505171 0 0.030488660121943918 -0.00062314493251001165 0 0.031625336568878996 -0.00026846598445333158 0 0.031135341306696627 -0.00056695095088811183 0 0.031188482655681672 -0.00050972121938736871 0 0.031185165787787891 -0.00062609972079993804 0 0.030514595942403112 -0.00080253769416590789 0 0.030488660121943918 -0.00062314493251001165 0 0.030514595942403112 -0.00080253769416590789 0 0.030098100576828078 -0.00081626679948530192 0 0.030122978608058449 -0.0005520980487108291 0 0.030098100576828078 -0.00081626679948530192 0 0.032143614094888986 0.0015743811547799054 0 0.032115018781822449 0.0016524825622814578 0 0.032109083169418969 0.0016456480930503374 0 0.030016609898044274 -0.0012376769485086458 0 0.029597352657638118 7.0893004812965307e-05 0 0.02980326008574689 0.00030854580275052401 0 0.030801178069125815 -0.0001416547494293752 0 0.030488660121943918 -0.00062314493251001165 0 0.030312701265928606 -0.0012184601146657547 0 0.029784154139284078 0.00043509909542735719 0 0.029342189411530262 -7.4751021954076554e-05 0 0.032143614094888986 0.0015743811547799054 0 0.03210084782695407 0.0016979220269986201 0 0.032117211768175204 0.0017171652429352952 0 0.030098100576828078 -0.00081626679948530192 0 0.030488660121943918 -0.00062314493251001165 0 0.030098100576828078 -0.00081626679948530192 0 0.029688330902953981 -0.0010671893827912549 0 0.032548137965814343 0.0012939111920580782 0 0.032516527968435092 0.0012644061401881062 0 0.032496757897182482 0.0013398313604887889 0 0.032618896046340488 0.0012910790261777773 0 0.032549037611167515 0.0013264274003909273 0 0.032548137965814343 0.0012939111920580782 0 0.0325344715760977 0.0013808432191869467 0 0.032618896046340488 0.0012910790261777773 0 0.032549037611167515 0.0013264274003909273 0 0.032549037611167515 0.0013264274003909273 0 0.032548137965814343 0.0012939111920580782 0 0.032496757897182482 0.0013398313604887889 0 0.032531142433536359 0.0011808132152680451 0 0.032571135099945796 0.0012353996994560526 0 0.032516527968435092 0.0012644061401881062 0 0.032548137965814343 0.0012939111920580782 0 0.032571135099945796 0.0012353996994560526 0 0.032516527968435092 0.0012644061401881062 0 0.032531142433536359 0.0011808132152680451 0 0.032516527968435092 0.0012644061401881062 0 0.03247417234293215 0.0012409880860712083 0 0.032516527968435092 0.0012644061401881062 0 0.03247417234293215 0.0012409880860712083 0 0.032474356882469552 0.0013017355301528516 0 0.03247417234293215 0.0012409880860712083 0 0.032427203806711047 0.0013022807484056249 0 0.032474356882469552 0.0013017355301528516 0 0.03247417234293215 0.0012409880860712083 0 0.032427203806711047 0.0013022807484056249 0 0.032403306898387968 0.001214553565258972 0 0.032427203806711047 0.0013022807484056249 0 0.032392334687551719 0.0013941623821872196 0 0.032445335614851356 0.0013657830150704852 0 0.032427203806711047 0.0013022807484056249 0 0.032474356882469552 0.0013017355301528516 0 0.032445335614851356 0.0013657830150704852 0 0.032496757897182482 0.0013398313604887889 0 0.032474356882469552 0.0013017355301528516 0 0.032445335614851356 0.0013657830150704852 0 0.032516527968435092 0.0012644061401881062 0 0.032496757897182482 0.0013398313604887889 0 0.032474356882469552 0.0013017355301528516 0 0.032306376122123691 0.0012159917815053182 0 0.032403306898387968 0.001214553565258972 0 0.032371826960693746 0.0012999924368361907 0 0.032427203806711047 0.0013022807484056249 0 0.032403306898387968 0.001214553565258972 0 0.032371826960693746 0.0012999924368361907 0 0.032427203806711047 0.0013022807484056249 0 0.032371826960693746 0.0012999924368361907 0 0.032392334687551719 0.0013941623821872196 0 0.032371826960693746 0.0012999924368361907 0 0.032306048242103605 0.001398019940184858 0 0.032392334687551719 0.0013941623821872196 0 0.032306376122123691 0.0012159917815053182 0 0.032371826960693746 0.0012999924368361907 0 0.032306048242103605 0.001398019940184858 0 0.032306048242103605 0.001398019940184858 0 0.032392334687551719 0.0013941623821872196 0 0.032305773664875179 0.0014851452954605625 0 0.019629926353726956 -0.00035715577298779661 0 0.019979778472466115 -0.00020392551077803568 0 0.019793168522642027 -0.00041837413879509402 0 0.025690682873471746 -0.00067477686252419094 0 0.02599046918018107 -0.0001943526283806311 0 0.032392334687551719 0.0013941623821872196 0 0.032410093553654012 0.0014500950004113554 0 0.032305773664875179 0.0014851452954605625 0 0.019979778472466115 -0.00020392551077803568 0 0.019973472805099094 -0.0004592226409949371 0 0.019793168522642027 -0.00041837413879509402 0 0.032496757897182482 0.0013398313604887889 0 0.032461619657340297 0.001390593827936515 0 0.032445335614851356 0.0013657830150704852 0 0.0325344715760977 0.0013808432191869467 0 0.032496757897182482 0.0013398313604887889 0 0.032461619657340297 0.001390593827936515 0 0.032392334687551719 0.0013941623821872196 0 0.032445335614851356 0.0013657830150704852 0 0.032428987136974979 0.001412792715489072 0 0.032461619657340297 0.001390593827936515 0 0.032445335614851356 0.0013657830150704852 0 0.032428987136974979 0.001412792715489072 0 0.032410093553654012 0.0014500950004113554 0 0.032428987136974979 0.001412792715489072 0 0.032420497852663634 0.0014199861780727747 0 0.032392334687551719 0.0013941623821872196 0 0.032410093553654012 0.0014500950004113554 0 0.032428987136974979 0.001412792715489072 0 0.032461619657340297 0.001390593827936515 0 0.032428987136974979 0.001412792715489072 0 0.032420497852663634 0.0014199861780727747 0 0.030801178069125815 -0.0001416547494293752 0 0.030911297346009482 -3.7666344191421602e-06 0 0.032273537595941433 0.0014523398898466646 0 0.032420497852663634 0.0014199861780727747 0 0.032344186238367677 0.0014093871897783523 0 0.0325344715760977 0.0013808432191869467 0 0.032461619657340297 0.001390593827936515 0 0.032420497852663634 0.0014199861780727747 0 0.032420497852663634 0.0014199861780727747 0 0.032409123230108638 0.0013811815034476082 0 0.032344186238367677 0.0014093871897783523 0 0.032409123230108638 0.0013811815034476082 0 0.032344186238367677 0.0014093871897783523 0 0.032267564916323523 0.0013836423848519849 0 0.019629926353726956 -0.00035715577298779661 0 0.019554269452645229 -0.00044852290104729816 0 0.019621531183971062 -0.00044510412042293035 0 0.019554269452645229 -0.00044852290104729816 0 0.0195570092946078 -0.0004585248007779892 0 0.019621531183971062 -0.00044510412042293035 0 0.032410093553654012 0.0014500950004113554 0 0.032420497852663634 0.0014199861780727747 0 0.032409123230108638 0.0013811815034476082 0 0.021286064832835613 -0.0027040846265457986 0 0.020923383881340237 -0.0026070728377065653 0 0.025690682873471746 -0.00067477686252419094 0 0.024973622591535804 -0.001489404694052442 0 0.018277305622209236 -0.00064732538342487142 0 0.018952391103715875 -0.00085027098656818487 0 0.019621531183971062 -0.00044510412042293035 0 0.018952391103715875 -0.00085027098656818487 0 0.01937400098616612 -0.00078046819667856285 0 0.019621531183971062 -0.00044510412042293035 0 0.018952391103715875 -0.00085027098656818487 0 0.01937400098616612 -0.00078046819667856285 0 0.019417821226855647 -0.0011588233196490065 0 0.01937400098616612 -0.00078046819667856285 0 0.019417821226855647 -0.0011588233196490065 0 0.019607249336852886 -0.00062693526126195533 0 0.018952391103715875 -0.00085027098656818487 0 0.019417821226855647 -0.0011588233196490065 0 0.019099801896397397 -0.0016217438153898309 0 0.018952391103715875 -0.00085027098656818487 0 0.018480206611764659 -0.0012059689922187076 0 0.019099801896397397 -0.0016217438153898309 0 0.018480206611764659 -0.0012059689922187076 0 0.018030520405827748 -0.0010599169064364733 0 0.01777096742295111 -0.0015501299271940651 0 0.018277305622209236 -0.00064732538342487142 0 0.018030520405827748 -0.0010599169064364733 0 0.018435775778919441 -0.00094052263288157186 0 0.018952391103715875 -0.00085027098656818487 0 0.018480206611764659 -0.0012059689922187076 0 0.018435775778919441 -0.00094052263288157186 0 0.018277305622209236 -0.00064732538342487142 0 0.018952391103715875 -0.00085027098656818487 0 0.018435775778919441 -0.00094052263288157186 0 0.018480206611764659 -0.0012059689922187076 0 0.018030520405827748 -0.0010599169064364733 0 0.018435775778919441 -0.00094052263288157186 0 0.019973472805099094 -0.0004592226409949371 0 0.019821379173274492 -0.00054035591511796606 0 0.019793168522642027 -0.00041837413879509402 0 0.019973472805099094 -0.0004592226409949371 0 0.019821379173274492 -0.00054035591511796606 0 0.019910638911848969 -0.00062009320432952688 0 0.019732113066510765 -0.00053151980804782694 0 0.019793168522642027 -0.00041837413879509402 0 0.019621531183971062 -0.00044510412042293035 0 0.019732113066510765 -0.00053151980804782694 0 0.019607249336852886 -0.00062693526126195533 0 0.019758667444054408 -0.00065677872613754951 0 0.019821379173274492 -0.00054035591511796606 0 0.019732113066510765 -0.00053151980804782694 0 0.019793168522642027 -0.00041837413879509402 0 0.019821379173274492 -0.00054035591511796606 0 0.019732113066510765 -0.00053151980804782694 0 0.019758667444054408 -0.00065677872613754951 0 0.019629926353726956 -0.00035715577298779661 0 0.019793168522642027 -0.00041837413879509402 0 0.019621531183971062 -0.00044510412042293035 0 0.019732113066510765 -0.00053151980804782694 0 0.019621531183971062 -0.00044510412042293035 0 0.019607249336852886 -0.00062693526126195533 0 0.01937400098616612 -0.00078046819667856285 0 0.019621531183971062 -0.00044510412042293035 0 0.019607249336852886 -0.00062693526126195533 0 0.019607249336852886 -0.00062693526126195533 0 0.019758667444054408 -0.00065677872613754951 0 0.019760021286475537 -0.00081051258970697975 0 0.019417821226855647 -0.0011588233196490065 0 0.019607249336852886 -0.00062693526126195533 0 0.020162087019568588 -0.0015351102698255594 0 0.019417821226855647 -0.0011588233196490065 0 0.020162087019568588 -0.0015351102698255594 0 0.019099801896397397 -0.0016217438153898309 0 0.011065902910466123 -0.0036406546705069192 0 0.010583565104014052 -0.0035290893974346169 0 0.019758667444054408 -0.00065677872613754951 0 0.019810706987483689 -0.00074118820697836136 0 0.019760021286475537 -0.00081051258970697975 0 0.010692500435087548 -0.0034287270266867985 0 0.010583565104014052 -0.0035290893974346169 0 0.020038851626851113 -0.00072134026820700663 0 0.019973472805099094 -0.0004592226409949371 0 0.019910638911848969 -0.00062009320432952688 0 0.020038851626851113 -0.00072134026820700663 0 0.019810706987483689 -0.00074118820697836136 0 0.019839570399705374 -0.00098962989445404502 0 0.019824644790362198 -0.00064578110337733024 0 0.019810706987483689 -0.00074118820697836136 0 0.019910638911848969 -0.00062009320432952688 0 0.019821379173274492 -0.00054035591511796606 0 0.019824644790362198 -0.00064578110337733024 0 0.019910638911848969 -0.00062009320432952688 0 0.019821379173274492 -0.00054035591511796606 0 0.019758667444054408 -0.00065677872613754951 0 0.019824644790362198 -0.00064578110337733024 0 0.019758667444054408 -0.00065677872613754951 0 0.019824644790362198 -0.00064578110337733024 0 0.019810706987483689 -0.00074118820697836136 0 0.020038851626851113 -0.00072134026820700663 0 0.019810706987483689 -0.00074118820697836136 0 0.019910638911848969 -0.00062009320432952688 0 0.012999338192476969 -0.0018306441977289888 0 0.010606520625929278 -0.0038793848622701373 0 0.020407859968566061 -0.00039612006634544842 0 0.020430526782510981 -0.00030077145692170698 0 0.020551077538354355 -0.00027096993620695173 0 0.019810706987483689 -0.00074118820697836136 0 0.019839570399705374 -0.00098962989445404502 0 0.019743278579467678 -0.00082547107420578283 0 0.020430526782510981 -0.00030077145692170698 0 0.020445974322289655 -0.00021549668896471825 0 0.020551077538354355 -0.00027096993620695173 0 0.010606520625929278 -0.0038793848622701373 0 0.010583565104014052 -0.0035290893974346169 0 0.010583565104014052 -0.0035290893974346169 0 0.011025510385045203 -0.0045074360180916541 0 0.0023218002655046935 -0.0087780952520872032 0 0.0023544791132017306 -0.0088194459048177437 0 0.0024182268785676655 -0.008748966954098979 0 0.020162087019568588 -0.0015351102698255594 0 0.019099801896397397 -0.0016217438153898309 0 0.019360224043937321 -0.0026171749533473497 0 0.010606520625929278 -0.0038793848622701373 0 0.0079445998207752482 -0.0065444129177242493 0 0.0023218002655046935 -0.0087780952520872032 0 0.0023573234341774897 -0.0086866264582381742 0 0.0024182268785676655 -0.008748966954098979 0 0.0011255597562594927 -0.010259905538952185 0 0.0017616274147946279 -0.0093970872882180763 0 0.0011581333851781669 -0.0091378149790794887 0 0.020445974322289655 -0.00021549668896471825 0 0.020551077538354355 -0.00027096993620695173 0 0.020485926627867378 -8.9398178074263384e-05 0 0.0011255597562594927 -0.010259905538952185 0 0.0011581333851781669 -0.0091378149790794887 0 0.00054610896135157084 -0.0093369345460847901 0 0.010606520625929278 -0.0038793848622701373 0 0.010588679557951263 -0.0038904752074298134 0 0.018480206611764659 -0.0012059689922187076 0 0.018274906929378547 -0.002343331202336504 0 0.019099801896397397 -0.0016217438153898309 0 0.018480206611764659 -0.0012059689922187076 0 0.018274906929378547 -0.002343331202336504 0 0.01777096742295111 -0.0015501299271940651 0 0.018274906929378547 -0.002343331202336504 0 0.019099801896397397 -0.0016217438153898309 0 0.019360224043937321 -0.0026171749533473497 0 0.011025510385045203 -0.0045074360180916541 0 0.011743018940849411 -0.0049840167450619722 0 0.018274906929378547 -0.002343331202336504 0 0.019360224043937321 -0.0026171749533473497 0 0.018554242231022568 -0.0037020754921022986 0 0.0023573234341774897 -0.0086866264582381742 0 0.0024182268785676655 -0.008748966954098979 0 0.0025949472066342074 -0.008612390843285191 0 0.018274906929378547 -0.002343331202336504 0 0.01746597977928839 -0.0034988722150554766 0 0.018554242231022568 -0.0037020754921022986 0 0.019699298938330636 -0.0034575861239949817 0 0.016571369918599116 -0.0041345737664544371 0 0.022391947424920382 -0.0039598136661710068 0 0.022263986986460961 -0.0041349480319929095 0 0.022189593313171135 -0.003861278616946239 0 0.018274906929378547 -0.002343331202336504 0 0.017191628097585985 -0.0022138166518019054 0 0.01746597977928839 -0.0034988722150554766 0 0.022391947424920382 -0.0039598136661710068 0 0.022467142776385004 -0.0040941932070075147 0 0.022263986986460961 -0.0041349480319929095 0 0.022391947424920382 -0.0039598136661710068 0 0.022467142776385004 -0.0040941932070075147 0 0.022536786337774034 -0.0039335941153959744 0 0.022467142776385004 -0.0040941932070075147 0 0.022439568831590661 -0.0042449943187068042 0 0.022263986986460961 -0.0041349480319929095 0 0.022439568831590661 -0.0042449943187068042 0 0.022263986986460961 -0.0041349480319929095 0 0.022330829076411374 -0.0044166895083807963 0 0.022467142776385004 -0.0040941932070075147 0 0.022439568831590661 -0.0042449943187068042 0 0.022571495075170922 -0.0041882900080012411 0 0.018274906929378547 -0.002343331202336504 0 0.017191628097585985 -0.0022138166518019054 0 0.01777096742295111 -0.0015501299271940651 0 0.017191628097585985 -0.0022138166518019054 0 0.01777096742295111 -0.0015501299271940651 0 0.016911903189046104 -0.00092860767520045904 0 0.019699298938330636 -0.0034575861239949817 0 0.022847863599760751 -0.002924844525310462 0 0.021286064832835613 -0.0027040846265457986 0 0.022847863599760751 -0.002924844525310462 0 0.018030520405827748 -0.0010599169064364733 0 0.01777096742295111 -0.0015501299271940651 0 0.016911903189046104 -0.00092860767520045904 0 0.018277305622209236 -0.00064732538342487142 0 0.018030520405827748 -0.0010599169064364733 0 0.016911903189046104 -0.00092860767520045904 0 0.0195570092946078 -0.0004585248007779892 0 0.0195729913475946 -0.00047287883401809236 0 0.019572992105521419 -0.00047387916391141501 0 0.022439568831590661 -0.0042449943187068042 0 0.022472708564287899 -0.0043889105605411866 0 0.022330829076411374 -0.0044166895083807963 0 0.022439568831590661 -0.0042449943187068042 0 0.022472708564287899 -0.0043889105605411866 0 0.022571066159333093 -0.0043685781579288381 0 0.022995240499245152 -0.0030129613174099679 0 0.023304138691225967 -0.0029231453039054323 0 0.022638662555008546 -0.004353284649396277 0 0.022557942234865937 -0.0043884503456544941 0 0.022639768070654456 -0.0044465929049302367 0 0.023132647369484012 -0.0037149764483499497 0 0.02359752249528518 -0.0036199418878243394 0 0.023575683601116622 -0.0035212514196492442 0 0.022995240499245152 -0.0030129613174099679 0 0.022847863599760751 -0.002924844525310462 0 0.022847863599760751 -0.002924844525310462 0 0.023304138691225967 -0.0029231453039054323 0 0.023304138691225967 -0.0029231453039054323 0 0.025252995434022658 -0.002217274144854015 0 0.022557942234865937 -0.0043884503456544941 0 0.022639768070654456 -0.0044465929049302367 0 0.022586091766729703 -0.0045100885921994021 0 0.032166160642041967 0.0012545563844422261 0 0.032142121100649484 0.0014100229583868056 0 0.032267564916323523 0.0013836423848519849 0 0.022663213913412347 -0.0045401033635106853 0 0.022639768070654456 -0.0044465929049302367 0 0.022586091766729703 -0.0045100885921994021 0 0.032409123230108638 0.0013811815034476082 0 0.032166160642041967 0.0012545563844422261 0 0.032267564916323523 0.0013836423848519849 0 0.019554269452645229 -0.00044852290104729816 0 0.0195570092946078 -0.0004585248007779892 0 0.019572992105521419 -0.00047387916391141501 0 0.024973622591535804 -0.001489404694052442 0 0.023304138691225967 -0.0029231453039054323 0 0.032273537595941433 0.0014523398898466646 0 0.032344186238367677 0.0014093871897783523 0 0.032267564916323523 0.0013836423848519849 0 0.022763155179394014 -0.0044092877811774704 0 0.022853978614510904 -0.0044352725538243029 0 0.022788198958882924 -0.004499127912881251 0 0.02287828626446034 -0.0045516023003615022 0 0.022853978614510904 -0.0044352725538243029 0 0.022788198958882924 -0.004499127912881251 0 0.022763155179394014 -0.0044092877811774704 0 0.022788198958882924 -0.004499127912881251 0 0.022708775770074685 -0.0044757764242971459 0 0.022663213913412347 -0.0045401033635106853 0 0.022639768070654456 -0.0044465929049302367 0 0.022708775770074685 -0.0044757764242971459 0 0.022638662555008546 -0.004353284649396277 0 0.022639768070654456 -0.0044465929049302367 0 0.022689098112487024 -0.004405684442893968 0 0.022639768070654456 -0.0044465929049302367 0 0.022708775770074685 -0.0044757764242971459 0 0.022689098112487024 -0.004405684442893968 0 0.022763155179394014 -0.0044092877811774704 0 0.022708775770074685 -0.0044757764242971459 0 0.022689098112487024 -0.004405684442893968 0 0.022763155179394014 -0.0044092877811774704 0 0.022689098112487024 -0.004405684442893968 0 0.022694383432975258 -0.0043416219684540231 0 0.022995240499245152 -0.0030129613174099679 0 0.022933661793240322 -0.0030735859534807594 0 0.022638662555008546 -0.004353284649396277 0 0.022689098112487024 -0.004405684442893968 0 0.022694383432975258 -0.0043416219684540231 0 0.022933661793240322 -0.0030735859534807594 0 0.022881858111651346 -0.0031331132601896861 0 0.022763155179394014 -0.0044092877811774704 0 0.022694383432975258 -0.0043416219684540231 0 0.022825785498027926 -0.0043018311910314562 0 0.022763155179394014 -0.0044092877811774704 0 0.022853978614510904 -0.0044352725538243029 0 0.022825785498027926 -0.0043018311910314562 0 0.022571066159333093 -0.0043685781579288381 0 0.022825785498027926 -0.0043018311910314562 0 0.022725063486708563 -0.0041685464138513633 0 0.022825785498027926 -0.0043018311910314562 0 0.022725063486708563 -0.0041685464138513633 0 0.02284954847326533 -0.0041004766601304733 0 0.022725063486708563 -0.0041685464138513633 0 0.02284954847326533 -0.0041004766601304733 0 0.022662208671692982 -0.0040677061774103407 0 0.022467142776385004 -0.0040941932070075147 0 0.022571495075170922 -0.0041882900080012411 0 0.022662208671692982 -0.0040677061774103407 0 0.022571066159333093 -0.0043685781579288381 0 0.022725063486708563 -0.0041685464138513633 0 0.022571495075170922 -0.0041882900080012411 0 0.022439568831590661 -0.0042449943187068042 0 0.022571066159333093 -0.0043685781579288381 0 0.022571495075170922 -0.0041882900080012411 0 0.022725063486708563 -0.0041685464138513633 0 0.022571495075170922 -0.0041882900080012411 0 0.022662208671692982 -0.0040677061774103407 0 0.022467142776385004 -0.0040941932070075147 0 0.022662208671692982 -0.0040677061774103407 0 0.022536786337774034 -0.0039335941153959744 0 0.022662208671692982 -0.0040677061774103407 0 0.022536786337774034 -0.0039335941153959744 0 0.02274443822159784 -0.0038897880899283767 0 0.022971363659557625 -0.003925749433215212 0 0.02284954847326533 -0.0041004766601304733 0 0.02274443822159784 -0.0038897880899283767 0 0.02284954847326533 -0.0041004766601304733 0 0.022662208671692982 -0.0040677061774103407 0 0.02274443822159784 -0.0038897880899283767 0 0.022971363659557625 -0.003925749433215212 0 0.02274443822159784 -0.0038897880899283767 0 0.022875211619459133 -0.0037515770977573576 0 0.02274443822159784 -0.0038897880899283767 0 0.022698169339652165 -0.0036633857014752454 0 0.022875211619459133 -0.0037515770977573576 0 0.02274443822159784 -0.0038897880899283767 0 0.022548508229952531 -0.0037766526037949842 0 0.022698169339652165 -0.0036633857014752454 0 0.022536786337774034 -0.0039335941153959744 0 0.02274443822159784 -0.0038897880899283767 0 0.022548508229952531 -0.0037766526037949842 0 0.022536786337774034 -0.0039335941153959744 0 0.022548508229952531 -0.0037766526037949842 0 0.022410550544292914 -0.0038178708998848551 0 0.022512493527491507 -0.0036249502812934721 0 0.022678940010021416 -0.0035134779434140046 0 0.022345869494082141 -0.003493229337949935 0 0.022548508229952531 -0.0037766526037949842 0 0.022512493527491507 -0.0036249502812934721 0 0.022698169339652165 -0.0036633857014752454 0 0.022512493527491507 -0.0036249502812934721 0 0.022698169339652165 -0.0036633857014752454 0 0.022678940010021416 -0.0035134779434140046 0 0.022698169339652165 -0.0036633857014752454 0 0.022822457231988683 -0.0036212224334079479 0 0.022875211619459133 -0.0037515770977573576 0 0.022698169339652165 -0.0036633857014752454 0 0.022822457231988683 -0.0036212224334079479 0 0.022678940010021416 -0.0035134779434140046 0 0.02167133183729596 -0.0029477564197825366 0 0.020669427820180181 -0.003706686342327843 0 0.020801193441106453 -0.0018972953931861154 0 0.018605005966047562 -0.0042306607863275784 0 0.019279304171590628 -0.0041766290417266042 0 0.022822457231988683 -0.0036212224334079479 0 0.022678940010021416 -0.0035134779434140046 0 0.022922884574858037 -0.0035235423571852837 0 0.02167133183729596 -0.0029477564197825366 0 0.020669427820180181 -0.003706686342327843 0 0.022506630075085517 -0.0034312295980281032 0 0.020669427820180181 -0.003706686342327843 0 0.022506630075085517 -0.0034312295980281032 0 0.022922884574858037 -0.0035235423571852837 0 0.02167133183729596 -0.0029477564197825366 0 0.020801193441106453 -0.0018972953931861154 0 0.022970034449715897 -0.0029058133168680853 0 0.017415313334758025 -0.0054609225608165746 0 0.019601593173933226 -0.0054652761139964189 0 0.018605005966047562 -0.0042306607863275784 0 0.016650525345558928 -0.0043907272280160597 0 0.020669427820180181 -0.003706686342327843 0 0.018951588132521659 -0.0029833071039945393 0 0.018289144728207692 -0.0038305021064014215 0 0.020669427820180181 -0.003706686342327843 0 0.018951588132521659 -0.0029833071039945393 0 0.019298004930558943 -0.0021947898027847462 0 0.020669427820180181 -0.003706686342327843 0 0.019298004930558943 -0.0021947898027847462 0 0.020801193441106453 -0.0018972953931861154 0 0.017415313334758025 -0.0054609225608165746 0 0.014038951488728474 -0.0050783589602264936 0 0.020052961890339387 -0.008684791341956646 0 0.019444554095312712 -0.0084035786191177051 0 0.019970267913027751 -0.008294249106184922 0 0.019298004930558943 -0.0021947898027847462 0 0.020801193441106453 -0.0018972953931861154 0 0.018549696557983084 -0.0008555088130406301 0 0.020052961890339387 -0.008684791341956646 0 0.02065626467627539 -0.0089613301261183328 0 0.020451758330423876 -0.0085231988781333361 0 0.020052961890339387 -0.008684791341956646 0 0.020224226800210091 -0.0083673110776726779 0 0.019970267913027751 -0.008294249106184922 0 0.020052961890339387 -0.008684791341956646 0 0.020224226800210091 -0.0083673110776726779 0 0.020451758330423876 -0.0085231988781333361 0 0.020224226800210091 -0.0083673110776726779 0 0.020451758330423876 -0.0085231988781333361 0 0.020446538250109825 -0.0082817030647852272 0 0.0060571764912344611 -0.0027833972706575992 0 0.0065903683000102468 -0.0030452034951503801 0 0.0062458651117151031 -0.0032092326976963181 0 0.0060571764912344611 -0.0027833972706575992 0 0.0062458651117151031 -0.0032092326976963181 0 0.005926802695540548 -0.0032476162514525129 0 0.0060571764912344611 -0.0027833972706575992 0 0.0065903683000102468 -0.0030452034951503801 0 0.006605324367214593 -0.0024938782346337987 0 0.0065903683000102468 -0.0030452034951503801 0 0.006605324367214593 -0.0024938782346337987 0 0.0069772497646892803 -0.0027652979888913125 0 0.0065903683000102468 -0.0030452034951503801 0 0.0065042605505803118 -0.0034541127044407419 0 0.0071533771301999696 -0.0035652582795421754 0 0.0065903683000102468 -0.0030452034951503801 0 0.0065042605505803118 -0.0034541127044407419 0 0.0062458651117151031 -0.0032092326976963181 0 0.0065042605505803118 -0.0034541127044407419 0 0.0062458651117151031 -0.0032092326976963181 0 0.006165139106265591 -0.0035646199732997557 0 0.0062458651117151031 -0.0032092326976963181 0 0.0059552963102144302 -0.0034004664647019336 0 0.005926802695540548 -0.0032476162514525129 0 0.006165139106265591 -0.0035646199732997557 0 0.0059552963102144302 -0.0034004664647019336 0 0.0058900323496687149 -0.003603889247521668 0 0.0062458651117151031 -0.0032092326976963181 0 0.006165139106265591 -0.0035646199732997557 0 0.0059552963102144302 -0.0034004664647019336 0 0.013448112088151528 -0.0046739081326541542 0 0.013807074794762507 -0.0049242123678582906 0 0.0060571764912344611 -0.0027833972706575992 0 0.005926802695540548 -0.0032476162514525129 0 0.0054518222977077667 -0.003597341323785779 0 0.0059552963102144302 -0.0034004664647019336 0 0.005926802695540548 -0.0032476162514525129 0 0.0054518222977077667 -0.003597341323785779 0 0.0059552963102144302 -0.0034004664647019336 0 0.0054518222977077667 -0.003597341323785779 0 0.0058900323496687149 -0.003603889247521668 0 0.014038951488728474 -0.0050783589602264936 0 0.014217907300937522 -0.0048651727458531137 0 0.018549696557983084 -0.0008555088130406301 0 0.01853362919029743 -0.0017904730785880539 0 0.017793650952853617 -0.0018536069477942932 0 0.018531442063686236 -0.00087873329003005664 0 0.017793650952853617 -0.0018536069477942932 0 0.018295906730047027 -0.00076899289601057533 0 0.014038951488728474 -0.0050783589602264936 0 0.013807074794762507 -0.0049242123678582906 0 0.019298004930558943 -0.0021947898027847462 0 0.018549696557983084 -0.0008555088130406301 0 0.01853362919029743 -0.0017904730785880539 0 0.018492649087950584 -0.0022573910882094689 0 0.017793650952853617 -0.0018536069477942932 0 0.018000413992355122 -0.0027153619658344549 0 0.01853362919029743 -0.0017904730785880539 0 0.018492649087950584 -0.0022573910882094689 0 0.017793650952853617 -0.0018536069477942932 0 0.019298004930558943 -0.0021947898027847462 0 0.01853362919029743 -0.0017904730785880539 0 0.018492649087950584 -0.0022573910882094689 0 0.017119365131049689 -0.0023374421146969441 0 0.017793650952853617 -0.0018536069477942932 0 0.018295906730047027 -0.00076899289601057533 0 0.017119365131049689 -0.0023374421146969441 0 0.017793650952853617 -0.0018536069477942932 0 0.018000413992355122 -0.0027153619658344549 0 0.017119365131049689 -0.0023374421146969441 0 0.018000413992355122 -0.0027153619658344549 0 0.017549557958081843 -0.0030324682222528281 0 0.018000413992355122 -0.0027153619658344549 0 0.017549557958081843 -0.0030324682222528281 0 0.018289144728207692 -0.0038305021064014215 0 0.017119365131049689 -0.0023374421146969441 0 0.017549557958081843 -0.0030324682222528281 0 0.017100793224386828 -0.0033854852980277255 0 0.018951588132521659 -0.0029833071039945393 0 0.018000413992355122 -0.0027153619658344549 0 0.018289144728207692 -0.0038305021064014215 0 0.018951588132521659 -0.0029833071039945393 0 0.018492649087950584 -0.0022573910882094689 0 0.018000413992355122 -0.0027153619658344549 0 0.018951588132521659 -0.0029833071039945393 0 0.019298004930558943 -0.0021947898027847462 0 0.018492649087950584 -0.0022573910882094689 0 0.017549557958081843 -0.0030324682222528281 0 0.018289144728207692 -0.0038305021064014215 0 0.017100793224386828 -0.0033854852980277255 0 0.016650525345558928 -0.0043907272280160597 0 0.013144782935815296 -0.0046763370817144451 0 0.018289144728207692 -0.0038305021064014215 0 0.017100793224386828 -0.0033854852980277255 0 0.015920123818750645 -0.0039335375646043389 0 0.017119365131049689 -0.0023374421146969441 0 0.017100793224386828 -0.0033854852980277255 0 0.015920123818750645 -0.0039335375646043389 0 0.013448112088151528 -0.0046739081326541542 0 0.013144782935815296 -0.0046763370817144451 0 0.006605324367214593 -0.0024938782346337987 0 0.006804235534378129 -0.0019620522588658261 0 0.0069772497646892803 -0.0027652979888913125 0 0.0060571764912344611 -0.0027833972706575992 0 0.006605324367214593 -0.0024938782346337987 0 0.0066716754741525421 -0.0019676508124390449 0 0.006605324367214593 -0.0024938782346337987 0 0.0066716754741525421 -0.0019676508124390449 0 0.006804235534378129 -0.0019620522588658261 0 0.013144782935815296 -0.0046763370817144451 0 0.012602628097447237 -0.00467348370605245 0 0.010303095852091715 -0.0085934450684229703 0 0.016004132255448614 -0.0083412375141907122 0 0.01472023405191693 -0.0027729996481305188 0 0.013012320208347163 -0.0047691682371143011 0 0.016571369918599116 -0.0041345737664544371 0 0.021937284089576781 -0.0035023801228571978 0 0.021901609719193232 -0.0035478961422802189 0 0.022242381729205282 -0.0036877444467580383 0 0.013012320208347163 -0.0047691682371143011 0 0.015587855186130546 -0.0053684489091399678 0 0.022110958608971436 -0.0035767308717258145 0 0.022336330838566079 -0.003673389977201639 0 0.022189593313171135 -0.003861278616946239 0 0.012602628097447237 -0.00467348370605245 0 0.013012320208347163 -0.0047691682371143011 0 0.013144782935815296 -0.0046763370817144451 0 0.013012320208347163 -0.0047691682371143011 0 0.016381164630743371 -0.0055441473695832444 0 0.015587855186130546 -0.0053684489091399678 0 0.022512493527491507 -0.0036249502812934721 0 0.022345869494082141 -0.003493229337949935 0 0.022242381729205282 -0.0036877444467580383 0 0.022548508229952531 -0.0037766526037949842 0 0.022512493527491507 -0.0036249502812934721 0 0.022242381729205282 -0.0036877444467580383 0 0.022345869494082141 -0.003493229337949935 0 0.021937284089576781 -0.0035023801228571978 0 0.022242381729205282 -0.0036877444467580383 0 0.022548508229952531 -0.0037766526037949842 0 0.022336330838566079 -0.003673389977201639 0 0.022410550544292914 -0.0038178708998848551 0 0.022391947424920382 -0.0039598136661710068 0 0.022410550544292914 -0.0038178708998848551 0 0.022189593313171135 -0.003861278616946239 0 0.022336330838566079 -0.003673389977201639 0 0.022410550544292914 -0.0038178708998848551 0 0.022189593313171135 -0.003861278616946239 0 0.022391947424920382 -0.0039598136661710068 0 0.022536786337774034 -0.0039335941153959744 0 0.022410550544292914 -0.0038178708998848551 0 0.017743084672926276 -0.0047883311958133931 0 0.01746597977928839 -0.0034988722150554766 0 0.018554242231022568 -0.0037020754921022986 0 0.0079445998207752482 -0.0065444129177242493 0 0.0072045878241482645 -0.0072425711769505902 0 0.0023573234341774897 -0.0086866264582381742 0 0.0025949472066342074 -0.008612390843285191 0 0.0024200946507694728 -0.0084632467352890178 0 0.0025949472066342074 -0.008612390843285191 0 0.0024200946507694728 -0.0084632467352890178 0 0.0027088707993626906 -0.008206829766343576 0 0.0024200946507694728 -0.0084632467352890178 0 0.0020422548057855761 -0.0081029077061776714 0 0.0018302656790167885 -0.008380627606656867 0 0.0024200946507694728 -0.0084632467352890178 0 0.0020422548057855761 -0.0081029077061776714 0 0.0023416916966433388 -0.0080489606181552709 0 0.0020422548057855761 -0.0081029077061776714 0 0.0023416916966433388 -0.0080489606181552709 0 0.0019540049262230788 -0.0077929850303075313 0 0.0023416916966433388 -0.0080489606181552709 0 0.0027088707993626906 -0.008206829766343576 0 0.0027202538457298179 -0.0079821312764437654 0 0.0024200946507694728 -0.0084632467352890178 0 0.0023416916966433388 -0.0080489606181552709 0 0.0027088707993626906 -0.008206829766343576 0 0.0031346744135199458 -0.0080684059583930705 0 0.0025949472066342074 -0.008612390843285191 0 0.0027088707993626906 -0.008206829766343576 0 0.013012320208347163 -0.0047691682371143011 0 0.011743018940849411 -0.0049840167450619722 0 0.0027088707993626906 -0.008206829766343576 0 0.0029894069326283027 -0.0079919375756378839 0 0.0027202538457298179 -0.0079821312764437654 0 0.0031346744135199458 -0.0080684059583930705 0 0.0027088707993626906 -0.008206829766343576 0 0.0029894069326283027 -0.0079919375756378839 0 0.013012320208347163 -0.0047691682371143011 0 0.011912999325371125 -0.0047433701954780342 0 0.00075567605021787483 -0.0087610039499442082 0 0.0011581333851781669 -0.0091378149790794887 0 0.00054610896135157084 -0.0093369345460847901 0 0.00075567605021787483 -0.0087610039499442082 0 0.0011581333851781669 -0.0091378149790794887 0 0.0012907326992922267 -0.0085140875773676208 0 0.0017616274147946279 -0.0093970872882180763 0 0.0024200946507694728 -0.0084632467352890178 0 0.0016885188083614994 -0.0087790424814206715 0 0.0011581333851781669 -0.0091378149790794887 0 0.0016885188083614994 -0.0087790424814206715 0 0.0012907326992922267 -0.0085140875773676208 0 0.0017616274147946279 -0.0093970872882180763 0 0.0011581333851781669 -0.0091378149790794887 0 0.0016885188083614994 -0.0087790424814206715 0 0.0024200946507694728 -0.0084632467352890178 0 0.0016885188083614994 -0.0087790424814206715 0 0.0018302656790167885 -0.008380627606656867 0 0.0020422548057855761 -0.0081029077061776714 0 0.0016044136310288605 -0.0080542814628419834 0 0.0019540049262230788 -0.0077929850303075313 0 0.0020422548057855761 -0.0081029077061776714 0 0.0018302656790167885 -0.008380627606656867 0 0.0016044136310288605 -0.0080542814628419834 0 0.0016044136310288605 -0.0080542814628419834 0 0.0011063598187504944 -0.0081754009814806166 0 0.0012150907673076066 -0.0078536776542533233 0 0.0016044136310288605 -0.0080542814628419834 0 0.0012907326992922267 -0.0085140875773676208 0 0.0011063598187504944 -0.0081754009814806166 0 0.0018302656790167885 -0.008380627606656867 0 0.0016044136310288605 -0.0080542814628419834 0 0.0012907326992922267 -0.0085140875773676208 0 0.0016885188083614994 -0.0087790424814206715 0 0.0018302656790167885 -0.008380627606656867 0 0.0012907326992922267 -0.0085140875773676208 0 0.0012907326992922267 -0.0085140875773676208 0 0.0011063598187504944 -0.0081754009814806166 0 0.00076006646901758616 -0.0083350671047995838 0 0.0011063598187504944 -0.0081754009814806166 0 0.00076006646901758616 -0.0083350671047995838 0 0.0007171476431913434 -0.007884096454643193 0 0.00076006646901758616 -0.0083350671047995838 0 0.0007171476431913434 -0.007884096454643193 0 0.00031530746042331083 -0.0081157574688232072 0 0.00075567605021787483 -0.0087610039499442082 0 0.00076006646901758616 -0.0083350671047995838 0 0.00053985878584975771 -0.0084723740629325302 0 0.00075567605021787483 -0.0087610039499442082 0 0.0012907326992922267 -0.0085140875773676208 0 0.00076006646901758616 -0.0083350671047995838 0 0.0007171476431913434 -0.007884096454643193 0 0.00097970982808541821 -0.0074441949072951335 0 0.00048414984533072677 -0.007405824741894055 0 0.0011063598187504944 -0.0081754009814806166 0 0.0007171476431913434 -0.007884096454643193 0 0.0012150907673076066 -0.0078536776542533233 0 0.0012150907673076066 -0.0078536776542533233 0 0.00097970982808541821 -0.0074441949072951335 0 0.0015696204101273161 -0.0076223790761929264 0 0.0007171476431913434 -0.007884096454643193 0 0.0012150907673076066 -0.0078536776542533233 0 0.00097970982808541821 -0.0074441949072951335 0 0.0042675090546899748 -0.004630315666229296 0 0.0063906169028756553 -0.0047999007082766467 0 0.0015696204101273161 -0.0076223790761929264 0 0.0013927740333973934 -0.0070911026388191635 0 0.0022748284716599546 -0.0074749083418990635 0 0.00097970982808541821 -0.0074441949072951335 0 0.0015696204101273161 -0.0076223790761929264 0 0.0013927740333973934 -0.0070911026388191635 0 0.0016044136310288605 -0.0080542814628419834 0 0.0012150907673076066 -0.0078536776542533233 0 0.0015696204101273161 -0.0076223790761929264 0 0.0015696204101273161 -0.0076223790761929264 0 0.0019540049262230788 -0.0077929850303075313 0 0.0022748284716599546 -0.0074749083418990635 0 0.0016044136310288605 -0.0080542814628419834 0 0.0015696204101273161 -0.0076223790761929264 0 0.0019540049262230788 -0.0077929850303075313 0 -0.0010849628294065802 -0.0066194949101095113 0 -0.00098907047888375024 -0.0065794767883944911 0 -0.0011383636201947821 -0.0065177723379446139 0 -0.0010849628294065802 -0.0066194949101095113 0 -0.0010419128254077869 -0.0066809868321999763 0 -0.0011476466235726141 -0.0067276370082318465 0 -0.0010849628294065802 -0.0066194949101095113 0 -0.0010419128254077869 -0.0066809868321999763 0 -0.00098907047888375024 -0.0065794767883944911 0 0.00097970982808541821 -0.0074441949072951335 0 0.00048414984533072677 -0.007405824741894055 0 0.00047508172914365358 -0.0067401461095242497 0 -0.0010419128254077869 -0.0066809868321999763 0 -0.00098907047888375024 -0.0065794767883944911 0 -0.0008339293191075239 -0.0065499482730781737 0 0.0042675090546899748 -0.004630315666229296 0 0.003155234174414987 -0.0045762963507619244 0 0.00097970982808541821 -0.0074441949072951335 0 0.0013927740333973934 -0.0070911026388191635 0 0.00047508172914365358 -0.0067401461095242497 0 0.011912999325371125 -0.0047433701954780342 0 0.0063906169028756553 -0.0047999007082766467 0 0.0089175737047403024 -0.0017957153937699988 0 0.011523741554715387 -0.002970997624957868 0 0.0088020536069736109 -0.0035517327590889641 0 0.003052079102819565 -0.0079793948050126441 0 0.0027202538457298179 -0.0079821312764437654 0 0.0022329125951598798 -0.0075562248597002592 0 0.012602628097447237 -0.00467348370605245 0 0.010142851557497192 -0.0045266641158819201 0 0.0084203673078957538 -0.0018180961151651139 0 0.0089175737047403024 -0.0017957153937699988 0 0.0088020536069736109 -0.0035517327590889641 0 0.012602628097447237 -0.00467348370605245 0 0.011912999325371125 -0.0047433701954780342 0 0.011461357508800788 -0.0050165524562061845 0 0.010901013148992066 -0.0025847625247105224 0 0.015806706751877144 -0.0048239966676813691 0 0.011912999325371125 -0.0047433701954780342 0 0.011627925737661663 -0.0047783103737182924 0 0.0023416916966433388 -0.0080489606181552709 0 0.0027202538457298179 -0.0079821312764437654 0 0.0022329125951598798 -0.0075562248597002592 0 0.0023416916966433388 -0.0080489606181552709 0 0.0019540049262230788 -0.0077929850303075313 0 0.0022329125951598798 -0.0075562248597002592 0 0.0062526790843025213 -0.0049235934712088536 0 0.0063906169028756553 -0.0047999007082766467 0 -0.0010849628294065802 -0.0066194949101095113 0 -0.0011383636201947821 -0.0065177723379446139 0 -0.0011476466235726141 -0.0067276370082318465 0 0.0063906169028756553 -0.0047999007082766467 0 0.0078439342676213889 -0.0046984358170472102 0 -0.0011383636201947821 -0.0065177723379446139 0 -0.0011476466235726141 -0.0067276370082318465 0 -0.0013508080998658465 -0.0067429115749247448 0 0.011523741554715387 -0.002970997624957868 0 0.0088020536069736109 -0.0035517327590889641 0 0.00918471526135883 -0.0052854497661773327 0 0.010142851557497192 -0.0045266641158819201 0 0.0078439342676213889 -0.0046984358170472102 0 0.0065903683000102468 -0.0030452034951503801 0 0.0069772497646892803 -0.0027652979888913125 0 0.0071533771301999696 -0.0035652582795421754 0 -0.0013508080998658465 -0.0067429115749247448 0 -0.0011944620159120803 -0.0068758941221222962 0 -0.0012008165016210786 -0.007105300514832929 0 -0.0010810261730429349 -0.0076587967134264844 0 -0.00097033274588647993 -0.0072841009638434139 0 -0.0012008165016210786 -0.007105300514832929 0 0.0078439342676213889 -0.0046984358170472102 0 0.0074792881135367535 -0.0048391564503269336 0 -0.0011476466235726141 -0.0067276370082318465 0 -0.0013508080998658465 -0.0067429115749247448 0 -0.0011944620159120803 -0.0068758941221222962 0 -0.0011541114063718491 -0.0068877047073156988 0 -0.0011944620159120803 -0.0068758941221222962 0 -0.0012008165016210786 -0.007105300514832929 0 -0.0010419128254077869 -0.0066809868321999763 0 -0.0011476466235726141 -0.0067276370082318465 0 -0.0011541114063718491 -0.0068877047073156988 0 -0.0011476466235726141 -0.0067276370082318465 0 -0.0011541114063718491 -0.0068877047073156988 0 -0.0011944620159120803 -0.0068758941221222962 0 -0.0011541114063718491 -0.0068877047073156988 0 -0.0012164989158970584 -0.0069204711161557995 0 -0.0012311214599033233 -0.007015799458000618 0 -0.0011541114063718491 -0.0068877047073156988 0 -0.0012008165016210786 -0.007105300514832929 0 -0.0012311214599033233 -0.007015799458000618 0 -0.0012008165016210786 -0.007105300514832929 0 -0.0012311214599033233 -0.007015799458000618 0 -0.0009479104972438502 -0.0071325223676812575 0 -0.00097033274588647993 -0.0072841009638434139 0 -0.0012008165016210786 -0.007105300514832929 0 -0.0009479104972438502 -0.0071325223676812575 0 -0.0010419128254077869 -0.0066809868321999763 0 -0.0010118688811678633 -0.0067524910417548481 0 -0.0008339293191075239 -0.0065499482730781737 0 -0.0010118688811678633 -0.0067524910417548481 0 -0.00091400170143751257 -0.0067621861474119914 0 -0.0008339293191075239 -0.0065499482730781737 0 -0.00091400170143751257 -0.0067621861474119914 0 -0.0008339293191075239 -0.0065499482730781737 0 -0.0007652532401137966 -0.0067008262635804595 0 -0.0010419128254077869 -0.0066809868321999763 0 -0.0011541114063718491 -0.0068877047073156988 0 -0.0010118688811678633 -0.0067524910417548481 0 -0.0011541114063718491 -0.0068877047073156988 0 -0.0010118688811678633 -0.0067524910417548481 0 -0.0010798605577063683 -0.0068555542917224741 0 -0.0011541114063718491 -0.0068877047073156988 0 -0.0010798605577063683 -0.0068555542917224741 0 -0.0012164989158970584 -0.0069204711161557995 0 -0.0010118688811678633 -0.0067524910417548481 0 -0.0010798605577063683 -0.0068555542917224741 0 -0.00091400170143751257 -0.0067621861474119914 0 -0.0010798605577063683 -0.0068555542917224741 0 -0.00094536131371866631 -0.0068633469938373087 0 -0.00091400170143751257 -0.0067621861474119914 0 -0.00094536131371866631 -0.0068633469938373087 0 -0.00091400170143751257 -0.0067621861474119914 0 -0.00081673299814050756 -0.0068028907395915449 0 -0.00096188819904379917 -0.0069427157299746158 0 -0.0011283525296364582 -0.0069411041552950746 0 -0.00089643656593271456 -0.0070433483724170274 0 -0.0010798605577063683 -0.0068555542917224741 0 -0.00094536131371866631 -0.0068633469938373087 0 -0.0011283525296364582 -0.0069411041552950746 0 -0.00096188819904379917 -0.0069427157299746158 0 -0.00089643656593271456 -0.0070433483724170274 0 -0.00078755952940637579 -0.006916963714723506 0 -0.00094536131371866631 -0.0068633469938373087 0 -0.00096188819904379917 -0.0069427157299746158 0 -0.00078755952940637579 -0.006916963714723506 0 -0.00094536131371866631 -0.0068633469938373087 0 -0.00096188819904379917 -0.0069427157299746158 0 -0.0011283525296364582 -0.0069411041552950746 0 -0.0012164989158970584 -0.0069204711161557995 0 -0.0011283525296364582 -0.0069411041552950746 0 -0.0013476417591695873 -0.0069220638053854745 0 -0.0010798605577063683 -0.0068555542917224741 0 -0.0012164989158970584 -0.0069204711161557995 0 -0.0011283525296364582 -0.0069411041552950746 0 -0.0012801178717409827 -0.0069484696557598168 0 -0.0010305233452542189 -0.0070997429756993252 0 -0.0012158654857822174 -0.0071130250754505948 0 -0.0011283525296364582 -0.0069411041552950746 0 -0.0012801178717409827 -0.0069484696557598168 0 -0.0013476417591695873 -0.0069220638053854745 0 -0.0011283525296364582 -0.0069411041552950746 0 -0.0012801178717409827 -0.0069484696557598168 0 -0.0010305233452542189 -0.0070997429756993252 0 -0.0012801178717409827 -0.0069484696557598168 0 -0.0015125219756445465 -0.006868677493432427 0 -0.0012158654857822174 -0.0071130250754505948 0 -0.0011283525296364582 -0.0069411041552950746 0 -0.0010305233452542189 -0.0070997429756993252 0 -0.00089643656593271456 -0.0070433483724170274 0 -0.0010305233452542189 -0.0070997429756993252 0 -0.00089643656593271456 -0.0070433483724170274 0 -0.00075338592907463209 -0.0071532734056385418 0 -0.0010043789823035991 -0.0069979106443734135 0 -0.0012311214599033233 -0.007015799458000618 0 -0.0009479104972438502 -0.0071325223676812575 0 -0.0012036503378405228 -0.0069314982758679209 0 -0.0010043789823035991 -0.0069979106443734135 0 -0.00099955362633515044 -0.0068531560025194786 0 -0.0012036503378405228 -0.0069314982758679209 0 -0.0010043789823035991 -0.0069979106443734135 0 -0.0012311214599033233 -0.007015799458000618 0 -0.0012164989158970584 -0.0069204711161557995 0 -0.0012311214599033233 -0.007015799458000618 0 -0.0013476417591695873 -0.0069220638053854745 0 -0.0012036503378405228 -0.0069314982758679209 0 -0.0012311214599033233 -0.007015799458000618 0 -0.0013476417591695873 -0.0069220638053854745 0 -0.0012036503378405228 -0.0069314982758679209 0 -0.0013476417591695873 -0.0069220638053854745 0 -0.0013325794218362551 -0.0067775549686025782 0 -0.0013476417591695873 -0.0069220638053854745 0 -0.0015125219756445465 -0.006868677493432427 0 -0.0013325794218362551 -0.0067775549686025782 0 -0.0012801178717409827 -0.0069484696557598168 0 -0.0013476417591695873 -0.0069220638053854745 0 -0.0015125219756445465 -0.006868677493432427 0 -0.0015125219756445465 -0.006868677493432427 0 -0.0013325794218362551 -0.0067775549686025782 0 -0.0015855128491084026 -0.0065186129253185952 0 -0.0012036503378405228 -0.0069314982758679209 0 -0.0013325794218362551 -0.0067775549686025782 0 -0.00099955362633515044 -0.0068531560025194786 0 -0.0013325794218362551 -0.0067775549686025782 0 -0.0010044336421701173 -0.0065605560931829062 0 -0.0013819105510250952 -0.0063447555723747228 0 -0.0013325794218362551 -0.0067775549686025782 0 -0.00099955362633515044 -0.0068531560025194786 0 -0.0010044336421701173 -0.0065605560931829062 0 -0.0010044336421701173 -0.0065605560931829062 0 -0.00059736000430265352 -0.0067417219422233193 0 -0.00060998778629551317 -0.0063338093228398609 0 -0.00059736000430265352 -0.0067417219422233193 0 -0.00024236097645089879 -0.0065060073681810632 0 -0.00060998778629551317 -0.0063338093228398609 0 -0.00099955362633515044 -0.0068531560025194786 0 -0.0010044336421701173 -0.0065605560931829062 0 -0.00059736000430265352 -0.0067417219422233193 0 -0.00099955362633515044 -0.0068531560025194786 0 -0.00059736000430265352 -0.0067417219422233193 0 -0.00074082761317227619 -0.0070115458860397868 0 -0.0010043789823035991 -0.0069979106443734135 0 -0.00099955362633515044 -0.0068531560025194786 0 -0.00074082761317227619 -0.0070115458860397868 0 -0.00074082761317227619 -0.0070115458860397868 0 -0.00058389467249010825 -0.0071321982357046218 0 -0.00042320535140820311 -0.0069737780680827555 0 -0.00059736000430265352 -0.0067417219422233193 0 -0.00074082761317227619 -0.0070115458860397868 0 -0.00042320535140820311 -0.0069737780680827555 0 -0.00074082761317227619 -0.0070115458860397868 0 -0.00058389467249010825 -0.0071321982357046218 0 -0.0009479104972438502 -0.0071325223676812575 0 -0.0010043789823035991 -0.0069979106443734135 0 -0.00074082761317227619 -0.0070115458860397868 0 -0.0009479104972438502 -0.0071325223676812575 0 -0.00058389467249010825 -0.0071321982357046218 0 -0.00010842198043695174 -0.0071885148623314363 0 -0.00042320535140820311 -0.0069737780680827555 0 -0.00010842198043695174 -0.0071885148623314363 0 -0.00042320535140820311 -0.0069737780680827555 0 -8.9549047457858138e-05 -0.0068574871003923227 0 -0.00059736000430265352 -0.0067417219422233193 0 -0.00042320535140820311 -0.0069737780680827555 0 -8.9549047457858138e-05 -0.0068574871003923227 0 -0.00059736000430265352 -0.0067417219422233193 0 -8.9549047457858138e-05 -0.0068574871003923227 0 -0.00024236097645089879 -0.0065060073681810632 0 -8.9549047457858138e-05 -0.0068574871003923227 0 0.00018880068133591551 -0.0065312305397187001 0 -0.00024236097645089879 -0.0065060073681810632 0 -0.00010842198043695174 -0.0071885148623314363 0 -8.9549047457858138e-05 -0.0068574871003923227 0 0.00047332228040116987 -0.0067891841118735159 0 -0.00026089346352142545 -0.0097030297731647026 0 0.00053274811509017252 -0.0080658646540977055 0 0.00095879823486804013 -0.0084978576747640304 0 -8.9549047457858138e-05 -0.0068574871003923227 0 0.00047332228040116987 -0.0067891841118735159 0 0.00018880068133591551 -0.0065312305397187001 0 0.00053274811509017252 -0.0080658646540977055 0 0.00095879823486804013 -0.0084978576747640304 0 0.0022444081083222065 -0.0072614652810929865 0 0.0044744982167066617 -0.0058547522345756067 0 0.0040378231120303722 -0.0059451248289106237 0 0.0038867375644398442 -0.0062260664060115357 0 0.003661186435802133 -0.0067207501388795478 0 0.0036012626106726288 -0.0067076768007392163 0 0.0044744982167066617 -0.0058547522345756067 0 0.0040378231120303722 -0.0059451248289106237 0 0.0042329224130584009 -0.0056130851039260547 0 0.0040378231120303722 -0.0059451248289106237 0 0.0039052684633976579 -0.005630668189498418 0 0.0042329224130584009 -0.0056130851039260547 0 0.012899433167681679 -0.0059169632605595513 0 0.013230275091260988 -0.0057452348287918981 0 0.0039052684633976579 -0.005630668189498418 0 0.004383009460937129 -0.0052722959889140034 0 0.0045593427240898654 -0.0046612307185013918 0 0.020436173160476349 -0.0071208257176896238 0 0.019939991764626862 -0.0077620363525776294 0 0.020403443602274838 -0.0076031716254046271 0 0.0039052684633976579 -0.005630668189498418 0 0.0042329224130584009 -0.0056130851039260547 0 0.004383009460937129 -0.0052722959889140034 0 0.0044744982167066617 -0.0058547522345756067 0 0.0042329224130584009 -0.0056130851039260547 0 0.004383009460937129 -0.0052722959889140034 0 0.0051860423591194582 -0.0052662327477857205 0 0.0044744982167066617 -0.0058547522345756067 0 0.004383009460937129 -0.0052722959889140034 0 0.0051860423591194582 -0.0052662327477857205 0 0.004383009460937129 -0.0052722959889140034 0 0.0046655035072210062 -0.0050018116665548253 0 0.0040002920451184159 -0.0065042311258338755 0 0.003360370399557203 -0.006976234745618112 0 0.0040002920451184159 -0.0065042311258338755 0 0.003661186435802133 -0.0067207501388795478 0 0.0051860423591194582 -0.0052662327477857205 0 0.0048912791106266573 -0.0048125862902943352 0 0.0052754858369646572 -0.0046342266314657061 0 0.0051860423591194582 -0.0052662327477857205 0 0.0048912791106266573 -0.0048125862902943352 0 0.0046655035072210062 -0.0050018116665548253 0 0.0048912791106266573 -0.0048125862902943352 0 0.0046655035072210062 -0.0050018116665548253 0 0.0045593427240898654 -0.0046612307185013918 0 0.004383009460937129 -0.0052722959889140034 0 0.0046655035072210062 -0.0050018116665548253 0 0.0045593427240898654 -0.0046612307185013918 0 0.0048912791106266573 -0.0048125862902943352 0 0.0045593427240898654 -0.0046612307185013918 0 0.0048509565758659817 -0.0044878410927458069 0 0.0048912791106266573 -0.0048125862902943352 0 0.0048509565758659817 -0.0044878410927458069 0 0.0052754858369646572 -0.0046342266314657061 0 0.0048509565758659817 -0.0044878410927458069 0 0.0052119625508229885 -0.0044043333203749877 0 0.0052754858369646572 -0.0046342266314657061 0 0.019939991764626862 -0.0077620363525776294 0 0.020403443602274838 -0.0076031716254046271 0 0.020184830381678842 -0.0078810838380465979 0 0.019939991764626862 -0.0077620363525776294 0 0.020184830381678842 -0.0078810838380465979 0 0.019957909080455652 -0.0080606334343694339 0 0.020403443602274838 -0.0076031716254046271 0 0.020184830381678842 -0.0078810838380465979 0 0.020413764893105073 -0.0078798520023466642 0 0.020232014496433304 -0.0080754931995951351 0 0.020560079754543145 -0.0080619498515964051 0 0.020446538250109825 -0.0082817030647852272 0 0.020413764893105073 -0.0078798520023466642 0 0.020232014496433304 -0.0080754931995951351 0 0.020560079754543145 -0.0080619498515964051 0 0.020184830381678842 -0.0078810838380465979 0 0.020413764893105073 -0.0078798520023466642 0 0.020232014496433304 -0.0080754931995951351 0 0.020184830381678842 -0.0078810838380465979 0 0.020232014496433304 -0.0080754931995951351 0 0.019957909080455652 -0.0080606334343694339 0 0.020232014496433304 -0.0080754931995951351 0 0.019957909080455652 -0.0080606334343694339 0 0.019970267913027751 -0.008294249106184922 0 0.020232014496433304 -0.0080754931995951351 0 0.020224226800210091 -0.0083673110776726779 0 0.019970267913027751 -0.008294249106184922 0 0.020232014496433304 -0.0080754931995951351 0 0.020224226800210091 -0.0083673110776726779 0 0.020446538250109825 -0.0082817030647852272 0 0.019444554095312712 -0.0084035786191177051 0 0.019957909080455652 -0.0080606334343694339 0 0.019970267913027751 -0.008294249106184922 0 0.014038951488728474 -0.0050783589602264936 0 0.013230275091260988 -0.0057452348287918981 0 0.019444554095312712 -0.0084035786191177051 0 0.019939991764626862 -0.0077620363525776294 0 0.019957909080455652 -0.0080606334343694339 0 0.0048509565758659817 -0.0044878410927458069 0 0.0054803360474331335 -0.0036408218354205017 0 0.0053066422690971962 -0.0041740210137415894 0 0.005440961057248314 -0.0035196698698368284 0 0.0045593427240898654 -0.0046612307185013918 0 0.0048509565758659817 -0.0044878410927458069 0 0.013002356311999759 -0.005377952823362165 0 0.013807074794762507 -0.0049242123678582906 0 0.0048509565758659817 -0.0044878410927458069 0 0.0052119625508229885 -0.0044043333203749877 0 0.0053066422690971962 -0.0041740210137415894 0 0.0054803360474331335 -0.0036408218354205017 0 0.0055493739000051613 -0.0039599492539057349 0 0.0053066422690971962 -0.0041740210137415894 0 0.005440961057248314 -0.0035196698698368284 0 0.0048509565758659817 -0.0044878410927458069 0 0.0055564100007386855 -0.0035727432847725842 0 0.0054803360474331335 -0.0036408218354205017 0 0.0055493739000051613 -0.0039599492539057349 0 0.0056883962064098337 -0.003849533205056477 0 0.0054179466200903678 -0.004319861621427599 0 0.0058684297692502725 -0.004068278354376946 0 0.0052754858369646572 -0.0046342266314657061 0 0.0055493739000051613 -0.0039599492539057349 0 0.0053066422690971962 -0.0041740210137415894 0 0.0055524598654723423 -0.0041464391296402222 0 0.0053066422690971962 -0.0041740210137415894 0 0.0055524598654723423 -0.0041464391296402222 0 0.0054179466200903678 -0.004319861621427599 0 0.0052119625508229885 -0.0044043333203749877 0 0.0053066422690971962 -0.0041740210137415894 0 0.0054179466200903678 -0.004319861621427599 0 0.0055524598654723423 -0.0041464391296402222 0 0.0054179466200903678 -0.004319861621427599 0 0.0058684297692502725 -0.004068278354376946 0 0.0055524598654723423 -0.0041464391296402222 0 0.0056722851341271001 -0.0040389801946862768 0 0.0058684297692502725 -0.004068278354376946 0 0.0055493739000051613 -0.0039599492539057349 0 0.0055524598654723423 -0.0041464391296402222 0 0.0056722851341271001 -0.0040389801946862768 0 0.0056722851341271001 -0.0040389801946862768 0 0.0058684297692502725 -0.004068278354376946 0 0.0057386634406679377 -0.0039406360515876889 0 0.0054518222977077667 -0.003597341323785779 0 0.0058900323496687149 -0.003603889247521668 0 0.0059913891966109903 -0.0038527729075432289 0 0.0054803360474331335 -0.0036408218354205017 0 0.0056883962064098337 -0.003849533205056477 0 0.0059913891966109903 -0.0038527729075432289 0 0.0057386634406679377 -0.0039406360515876889 0 0.0056883962064098337 -0.003849533205056477 0 0.0059913891966109903 -0.0038527729075432289 0 0.0058684297692502725 -0.004068278354376946 0 0.0057386634406679377 -0.0039406360515876889 0 0.0059913891966109903 -0.0038527729075432289 0 0.013807074794762507 -0.0049242123678582906 0 0.013453338035682121 -0.0047924250286486229 0 0.0055493739000051613 -0.0039599492539057349 0 0.0057386634406679377 -0.0039406360515876889 0 0.0056883962064098337 -0.003849533205056477 0 0.0055493739000051613 -0.0039599492539057349 0 0.0056722851341271001 -0.0040389801946862768 0 0.0057386634406679377 -0.0039406360515876889 0 0.0071533771301999696 -0.0035652582795421754 0 0.0064014103024625053 -0.0038824332494953114 0 0.0061489238679564807 -0.0045597187707079679 0 0.006165139106265591 -0.0035646199732997557 0 0.0058900323496687149 -0.003603889247521668 0 0.0059913891966109903 -0.0038527729075432289 0 0.0065042605505803118 -0.0034541127044407419 0 0.006165139106265591 -0.0035646199732997557 0 0.0064014103024625053 -0.0038824332494953114 0 -0.0010810261730429349 -0.0076587967134264844 0 -0.00097033274588647993 -0.0072841009638434139 0 -0.00066706197112134733 -0.0073278042900087811 0 0.006165139106265591 -0.0035646199732997557 0 0.0064014103024625053 -0.0038824332494953114 0 0.0059913891966109903 -0.0038527729075432289 0 0.0078439342676213889 -0.0046984358170472102 0 0.0054439556585626336 -0.0058972021532800005 0 0.0058684297692502725 -0.004068278354376946 0 0.0059913891966109903 -0.0038527729075432289 0 0.0061019840129943673 -0.0040891832400657638 0 0.0064014103024625053 -0.0038824332494953114 0 0.0059913891966109903 -0.0038527729075432289 0 0.0061019840129943673 -0.0040891832400657638 0 0.0065042605505803118 -0.0034541127044407419 0 0.0071533771301999696 -0.0035652582795421754 0 0.0064014103024625053 -0.0038824332494953114 0 0.0064014103024625053 -0.0038824332494953114 0 0.0061019840129943673 -0.0040891832400657638 0 0.0061489238679564807 -0.0045597187707079679 0 0.0058684297692502725 -0.004068278354376946 0 0.0061019840129943673 -0.0040891832400657638 0 0.0061489238679564807 -0.0045597187707079679 0 -0.00097033274588647993 -0.0072841009638434139 0 -0.00066706197112134733 -0.0073278042900087811 0 -0.0009479104972438502 -0.0071325223676812575 0 -0.00058389467249010825 -0.0071321982357046218 0 -0.00066706197112134733 -0.0073278042900087811 0 -0.0009479104972438502 -0.0071325223676812575 0 0.0051070862758840953 -0.0055848329400890271 0 0.0058684297692502725 -0.004068278354376946 0 0.0061489238679564807 -0.0045597187707079679 0 0.0040002920451184159 -0.0065042311258338755 0 0.0054439556585626336 -0.0058972021532800005 0 -0.00058389467249010825 -0.0071321982357046218 0 -0.00010842198043695174 -0.0071885148623314363 0 -0.00066706197112134733 -0.0073278042900087811 0 0.0040002920451184159 -0.0065042311258338755 0 0.0043700704495607612 -0.0058678836148181954 0 0.0051860423591194582 -0.0052662327477857205 0 0.0058684297692502725 -0.004068278354376946 0 0.0052754858369646572 -0.0046342266314657061 0 0.0052119625508229885 -0.0044043333203749877 0 0.0054179466200903678 -0.004319861621427599 0 0.0052754858369646572 -0.0046342266314657061 0 0.015007297079587223 1.0650524588692895e-06 0 0.014414496874928939 -0.00011255490410656711 0 0.013120829214535291 -1.3228603235541768e-06 0 0.01373106293276175 -0.00019303861135708952 0 0.014414496874928939 -0.00011255490410656711 0 0.013120829214535291 -1.3228603235541768e-06 0 0.01373106293276175 -0.00019303861135708952 0 0.013587188999122977 -0.00014398191063177881 0 0.012920482511561877 -0.00047530387577538537 0 0.01373106293276175 -0.00019303861135708952 0 0.013587188999122977 -0.00014398191063177881 0 0.014414496874928939 -0.00011255490410656711 0 0.013988376577134814 0.00036082836294906798 0 0.014414496874928939 -0.00011255490410656711 0 0.015842891938780565 0.00064108754621246733 0 0.013587188999122977 -0.00014398191063177881 0 0.013988376577134814 0.00036082836294906798 0 0.014414496874928939 -0.00011255490410656711 0 0.015007297079587223 1.0650524588692895e-06 0 0.014414496874928939 -0.00011255490410656711 0 0.015842891938780565 0.00064108754621246733 0 0.015007297079587223 1.0650524588692895e-06 0 0.016797505387444497 0.00019612452809428637 0 0.016893013793087781 1.2825653866291771e-07 0 0.015007297079587223 1.0650524588692895e-06 0 0.016797505387444497 0.00019612452809428637 0 0.015842891938780565 0.00064108754621246733 0 0.018039888690675347 -0.00013046461109451028 0 0.016797505387444497 0.00019612452809428637 0 0.016893013793087781 1.2825653866291771e-07 0 0.018039888690675347 -0.00013046461109451028 0 0.016797505387444497 0.00019612452809428637 0 0.017822903533324708 6.049685169500233e-05 0 0.017822903533324708 6.049685169500233e-05 0 0.015842891938780565 0.00064108754621246733 0 0.018857682230873848 0.0009501506657303777 0 0.013988376577134814 0.00036082836294906798 0 0.015842891938780565 0.00064108754621246733 0 0.012461936586026333 0.001468001130180151 0 0.016797505387444497 0.00019612452809428637 0 0.017822903533324708 6.049685169500233e-05 0 0.015842891938780565 0.00064108754621246733 0 0.014797100742724448 -0.0012129954861602821 0 0.014575569843259716 -0.0013136530429593194 0 0.013988376577134814 0.00036082836294906798 0 0.012461936586026333 0.001468001130180151 0 0.010787323834682502 0.00054968858241997282 0 0.019053580373387315 -0.00028945836643003679 0 0.017822903533324708 6.049685169500233e-05 0 0.018767316502193473 0.0001244310960596645 0 0.018857682230873848 0.0009501506657303777 0 0.018767316502193473 0.0001244310960596645 0 0.019399156013091015 2.7557811633733862e-05 0 0.019053580373387315 -0.00028945836643003679 0 0.018767316502193473 0.0001244310960596645 0 0.019399156013091015 2.7557811633733862e-05 0 0.017822903533324708 6.049685169500233e-05 0 0.018857682230873848 0.0009501506657303777 0 0.018767316502193473 0.0001244310960596645 0 0.019399156013091015 2.7557811633733862e-05 0 0.019859115435804788 0.00057303889589119402 0 0.019926837174125914 0.00013142733182313715 0 0.019978459610339516 -0.00016022584576844926 0 0.019399156013091015 2.7557811633733862e-05 0 0.019926837174125914 0.00013142733182313715 0 0.014575569843259716 -0.0013136530429593194 0 0.01399746430072314 -0.0016681146797664142 0 0.010787323834682502 0.00054968858241997282 0 0.0087376299515615399 -0.00026302688634585427 0 0.0093646281295374691 0.0017475274641707485 0 0.012461936586026333 0.001468001130180151 0 0.010787323834682502 0.00054968858241997282 0 0.0093646281295374691 0.0017475274641707485 0 0.018857682230873848 0.0009501506657303777 0 0.019399156013091015 2.7557811633733862e-05 0 0.019859115435804788 0.00057303889589119402 0 0.01049746047973067 -0.0013123011717210147 0 0.010787323834682502 0.00054968858241997282 0 0.0087376299515615399 -0.00026302688634585427 0 0.01192843292342257 -0.00099787845259816771 0 0.011446450639707917 -0.0012760643792250951 0 0.013988376577134814 0.00036082836294906798 0 0.01049746047973067 -0.0013123011717210147 0 0.010787323834682502 0.00054968858241997282 0 0.013587188999122977 -0.00014398191063177881 0 0.013988376577134814 0.00036082836294906798 0 0.01231805734990175 -0.00013604653216048464 0 0.013587188999122977 -0.00014398191063177881 0 0.01231805734990175 -0.00013604653216048464 0 0.012920482511561877 -0.00047530387577538537 0 0.01231805734990175 -0.00013604653216048464 0 0.012242746606431576 -0.00042256561992694698 0 0.012310251863111094 -0.00043429536460728356 0 0.01231805734990175 -0.00013604653216048464 0 0.012452733635252443 -0.00046353058389919633 0 0.012310251863111094 -0.00043429536460728356 0 0.01231805734990175 -0.00013604653216048464 0 0.012920482511561877 -0.00047530387577538537 0 0.012452733635252443 -0.00046353058389919633 0 0.01049746047973067 -0.0013123011717210147 0 0.0071241852921148652 -0.0029979360312413629 0 0.0082694080728530402 -0.0012594017424864775 0 0.011446450639707917 -0.0012760643792250951 0 0.0107705987789866 -0.0017450938592138302 0 0.01231805734990175 -0.00013604653216048464 0 0.012167721120164718 -0.00038082201101673386 0 0.012242746606431576 -0.00042256561992694698 0 0.0071241852921148652 -0.0029979360312413629 0 0.0067244352782275078 -0.00046671711576934892 0 0.0082694080728530402 -0.0012594017424864775 0 0.010057032294398371 -0.0024710231048460643 0 0.010260723851667269 -0.0031067871096144232 0 0.0107705987789866 -0.0017450938592138302 0 0.01206765743375624 -0.0017906668848127873 0 0.020091575058275038 0.00048383186911285064 0 0.020144045765470252 0.00051042024610172768 0 0.02013786236915269 0.00028808058653258223 0 0.020144045765470252 0.00051042024610172768 0 0.02013786236915269 0.00028808058653258223 0 0.020284515398574426 0.00030645872949645002 0 0.0107705987789866 -0.0017450938592138302 0 0.010057032294398371 -0.0024710231048460643 0 0.02013786236915269 0.00028808058653258223 0 0.020254320190615373 0.00018854987323807613 0 0.020284515398574426 0.00030645872949645002 0 0.0067244352782275078 -0.00046671711576934892 0 0.0082694080728530402 -0.0012594017424864775 0 0.0087376299515615399 -0.00026302688634585427 0 0.0067244352782275078 -0.00046671711576934892 0 0.0087376299515615399 -0.00026302688634585427 0 0.0077636967312921879 0.00065433301265241221 0 0.01049746047973067 -0.0013123011717210147 0 0.0082694080728530402 -0.0012594017424864775 0 0.0087376299515615399 -0.00026302688634585427 0 0.0087376299515615399 -0.00026302688634585427 0 0.0077636967312921879 0.00065433301265241221 0 0.0093646281295374691 0.0017475274641707485 0 0.019859115435804788 0.00057303889589119402 0 0.020089714878277248 0.00023695712588153012 0 0.02028525895161019 0.00026059959232260565 0 0.01399746430072314 -0.0016681146797664142 0 0.013313725912798974 -0.0023472865631937586 0 0.0077636967312921879 0.00065433301265241221 0 0.0093646281295374691 0.0017475274641707485 0 0.0063292274901094866 0.0020601503828483517 0 0.019859115435804788 0.00057303889589119402 0 0.019926837174125914 0.00013142733182313715 0 0.020089714878277248 0.00023695712588153012 0 0.019926837174125914 0.00013142733182313715 0 0.020089714878277248 0.00023695712588153012 0 0.02013428228434563 2.8703895674915955e-05 0 0.019978459610339516 -0.00016022584576844926 0 0.019926837174125914 0.00013142733182313715 0 0.02013428228434563 2.8703895674915955e-05 0 0.020226325305917073 -0.00014917174764566776 0 0.02013428228434563 2.8703895674915955e-05 0 0.02026565586175319 -1.0983824805448729e-05 0 0.02013428228434563 2.8703895674915955e-05 0 0.02026565586175319 -1.0983824805448729e-05 0 0.02027548501071787 0.00012672539817734315 0 0.020089714878277248 0.00023695712588153012 0 0.02027548501071787 0.00012672539817734315 0 0.02028525895161019 0.00026059959232260565 0 0.020089714878277248 0.00023695712588153012 0 0.02013428228434563 2.8703895674915955e-05 0 0.02027548501071787 0.00012672539817734315 0 0.02026565586175319 -1.0983824805448729e-05 0 0.02027548501071787 0.00012672539817734315 0 0.020309205977958936 2.1471588889261263e-05 0 0.01206765743375624 -0.0017906668848127873 0 0.013313725912798974 -0.0023472865631937586 0 0.02027548501071787 0.00012672539817734315 0 0.020277394148747407 0.00011543599377785635 0 0.020279759480781659 0.0001018763779339469 0 0.020183937200578945 0.00010409018610737264 0 0.020254320190615373 0.00018854987323807613 0 0.020279759480781659 0.0001018763779339469 0 0.013313725912798974 -0.0023472865631937586 0 0.013524466356299808 -0.0023443966997437845 0 0.02013786236915269 0.00028808058653258223 0 0.020183937200578945 0.00010409018610737264 0 0.020254320190615373 0.00018854987323807613 0 0.0067244352782275078 -0.00046671711576934892 0 0.0077636967312921879 0.00065433301265241221 0 0.0063292274901094866 0.0020601503828483517 0 0.013336956652873901 -0.0023222495505191973 0 0.013313725912798974 -0.0023472865631937586 0 0.020254320190615373 0.00018854987323807613 0 0.020405884328607894 0.00011061388664423673 0 0.020284515398574426 0.00030645872949645002 0 0.020254320190615373 0.00018854987323807613 0 0.020279759480781659 0.0001018763779339469 0 0.020405884328607894 0.00011061388664423673 0 0.010449556368893689 -0.0035943551778923528 0 0.010260723851667269 -0.0031067871096144232 0 0.020279759480781659 0.0001018763779339469 0 0.020373748263344621 -1.0454563819973237e-05 0 0.020309205977958936 2.1471588889261263e-05 0 0.02027548501071787 0.00012672539817734315 0 0.020279759480781659 0.0001018763779339469 0 0.020309205977958936 2.1471588889261263e-05 0 0.020279759480781659 0.0001018763779339469 0 0.020373748263344621 -1.0454563819973237e-05 0 0.020405884328607894 0.00011061388664423673 0 0.02032819194587026 -8.3132041135605233e-05 0 0.02026565586175319 -1.0983824805448729e-05 0 0.020309205977958936 2.1471588889261263e-05 0 0.02032819194587026 -8.3132041135605233e-05 0 0.020373748263344621 -1.0454563819973237e-05 0 0.020309205977958936 2.1471588889261263e-05 0 0.010588679557951263 -0.0038904752074298134 0 0.010449556368893689 -0.0035943551778923528 0 0.020373748263344621 -1.0454563819973237e-05 0 0.020485926627867378 -8.9398178074263384e-05 0 0.020405884328607894 0.00011061388664423673 0 0.00054610896135157084 -0.0093369345460847901 0 0.00032470226257061261 -0.0086708031212564939 0 2.8489904911899548e-05 -0.0084266294621291715 0 0.020391161563098434 -0.00014956038134495301 0 0.020373748263344621 -1.0454563819973237e-05 0 0.020485926627867378 -8.9398178074263384e-05 0 0.00075567605021787483 -0.0087610039499442082 0 0.00054610896135157084 -0.0093369345460847901 0 0.00032470226257061261 -0.0086708031212564939 0 0.00032470226257061261 -0.0086708031212564939 0 0.00053985878584975771 -0.0084723740629325302 0 0.00031530746042331083 -0.0081157574688232072 0 0.00032470226257061261 -0.0086708031212564939 0 0.00031530746042331083 -0.0081157574688232072 0 -0.00032605615335244643 -0.0075831535261952927 0 0.00032470226257061261 -0.0086708031212564939 0 2.8489904911899548e-05 -0.0084266294621291715 0 -0.00012504960141061149 -0.007529044720310415 0 0.00075567605021787483 -0.0087610039499442082 0 0.00032470226257061261 -0.0086708031212564939 0 0.00053985878584975771 -0.0084723740629325302 0 0.0059027789061762235 -0.0045626774583838754 0 0.0062809022086482771 -0.0040906115021945534 0 0.00076006646901758616 -0.0083350671047995838 0 0.00053985878584975771 -0.0084723740629325302 0 0.00031530746042331083 -0.0081157574688232072 0 0.0007171476431913434 -0.007884096454643193 0 0.00031530746042331083 -0.0081157574688232072 0 0.00023359900475920401 -0.0076493616060236067 0 0.0007171476431913434 -0.007884096454643193 0 0.00023359900475920401 -0.0076493616060236067 0 0.00048414984533072677 -0.007405824741894055 0 0.00023359900475920401 -0.0076493616060236067 0 0.00048414984533072677 -0.007405824741894055 0 -1.434289735329379e-05 -0.0072646187889028073 0 0.00023359900475920401 -0.0076493616060236067 0 -0.00032605615335244643 -0.0075831535261952927 0 -1.434289735329379e-05 -0.0072646187889028073 0 0.00031530746042331083 -0.0081157574688232072 0 0.00023359900475920401 -0.0076493616060236067 0 -0.00032605615335244643 -0.0075831535261952927 0 2.8489904911899548e-05 -0.0084266294621291715 0 -0.00044734287953028599 -0.0074959995093165331 0 -0.00012504960141061149 -0.007529044720310415 0 0.0062809022086482771 -0.0040906115021945534 0 0.0076580712508718292 -0.0029710533552773518 0 -0.00032605615335244643 -0.0075831535261952927 0 -0.00062077187495518263 -0.0068592505451123215 0 -1.434289735329379e-05 -0.0072646187889028073 0 -0.00096376023003661858 -0.0065996983135073097 0 -0.00012504960141061149 -0.007529044720310415 0 -0.00062215248589324648 -0.0064268888414319419 0 -0.00062077187495518263 -0.0068592505451123215 0 -0.00011586268592904206 -0.0068826165703883583 0 -1.434289735329379e-05 -0.0072646187889028073 0 -0.00032605615335244643 -0.0075831535261952927 0 -0.00062077187495518263 -0.0068592505451123215 0 -0.00088723104508193779 -0.0065110438835569101 0 -0.00096376023003661858 -0.0065996983135073097 0 -0.00044734287953028599 -0.0074959995093165331 0 -0.00012504960141061149 -0.007529044720310415 0 -0.00062077187495518263 -0.0068592505451123215 0 -0.00039706380317087824 -0.0067570263022128704 0 -0.00011586268592904206 -0.0068826165703883583 0 -0.00062077187495518263 -0.0068592505451123215 0 -0.00039706380317087824 -0.0067570263022128704 0 -0.00064260959642801596 -0.0065351117347967674 0 -0.00039706380317087824 -0.0067570263022128704 0 -0.00011586268592904206 -0.0068826165703883583 0 -0.00049053496685451002 -0.0065433700755976199 0 -0.00011586268592904206 -0.0068826165703883583 0 0.00047508172914365358 -0.0067401461095242497 0 -0.00049053496685451002 -0.0065433700755976199 0 0.00048414984533072677 -0.007405824741894055 0 0.00047508172914365358 -0.0067401461095242497 0 -1.434289735329379e-05 -0.0072646187889028073 0 -0.00011586268592904206 -0.0068826165703883583 0 0.00047508172914365358 -0.0067401461095242497 0 -1.434289735329379e-05 -0.0072646187889028073 0 -0.0008339293191075239 -0.0065499482730781737 0 -0.00064818257134902709 -0.0066299331206888671 0 -0.0007652532401137966 -0.0067008262635804595 0 0.003155234174414987 -0.0045762963507619244 0 0.0028028859810134972 -0.0045629519102953391 0 -0.0008339293191075239 -0.0065499482730781737 0 -0.00064818257134902709 -0.0066299331206888671 0 -0.00049053496685451002 -0.0065433700755976199 0 -0.00064818257134902709 -0.0066299331206888671 0 -0.00052272971375359354 -0.0065763688778066884 0 -0.00065972235816529534 -0.0067740966006090654 0 -0.00064818257134902709 -0.0066299331206888671 0 -0.0007652532401137966 -0.0067008262635804595 0 -0.00065972235816529534 -0.0067740966006090654 0 -0.00064818257134902709 -0.0066299331206888671 0 -0.00049053496685451002 -0.0065433700755976199 0 -0.00052272971375359354 -0.0065763688778066884 0 -0.00045210943082672615 -0.0065404693752675472 0 -0.00052272971375359354 -0.0065763688778066884 0 -0.00048438119175480196 -0.0068322837436861159 0 -0.00039706380317087824 -0.0067570263022128704 0 -0.00049053496685451002 -0.0065433700755976199 0 -0.00064260959642801596 -0.0065351117347967674 0 -0.00049053496685451002 -0.0065433700755976199 0 -0.00064260959642801596 -0.0065351117347967674 0 -0.00052272971375359354 -0.0065763688778066884 0 0.0068388966442977876 -0.0029544285978661254 0 0.0066978113616355389 -0.0030251382737564768 0 0.0067690592550333989 -0.0030828654036270122 0 0.0068388966442977876 -0.0029544285978661254 0 -0.00062077187495518263 -0.0068592505451123215 0 -0.00088723104508193779 -0.0065110438835569101 0 -0.00068770409075907205 -0.0064091673859804944 0 0.0076580712508718292 -0.0029710533552773518 0 0.0068388966442977876 -0.0029544285978661254 0 -0.00052272971375359354 -0.0065763688778066884 0 -0.00048438119175480196 -0.0068322837436861159 0 -0.00065972235816529534 -0.0067740966006090654 0 0.0068388966442977876 -0.0029544285978661254 0 0.005658015714747569 -0.003013688876605134 0 -0.00048438119175480196 -0.0068322837436861159 0 -0.00065972235816529534 -0.0067740966006090654 0 -0.00061555948544405562 -0.0069423914356897586 0 -0.0007652532401137966 -0.0067008262635804595 0 -0.00065972235816529534 -0.0067740966006090654 0 -0.00081673299814050756 -0.0068028907395915449 0 -0.00091400170143751257 -0.0067621861474119914 0 -0.0007652532401137966 -0.0067008262635804595 0 -0.00081673299814050756 -0.0068028907395915449 0 -0.00094536131371866631 -0.0068633469938373087 0 -0.00081673299814050756 -0.0068028907395915449 0 -0.00078755952940637579 -0.006916963714723506 0 -0.00065972235816529534 -0.0067740966006090654 0 -0.00081673299814050756 -0.0068028907395915449 0 -0.00078755952940637579 -0.006916963714723506 0 -0.00065972235816529534 -0.0067740966006090654 0 -0.00078755952940637579 -0.006916963714723506 0 -0.00061555948544405562 -0.0069423914356897586 0 -0.00078755952940637579 -0.006916963714723506 0 -0.0007421586197609532 -0.0070315412352070688 0 -0.00061555948544405562 -0.0069423914356897586 0 -0.00089643656593271456 -0.0070433483724170274 0 -0.00078755952940637579 -0.006916963714723506 0 -0.0007421586197609532 -0.0070315412352070688 0 -0.00089643656593271456 -0.0070433483724170274 0 -0.0007421586197609532 -0.0070315412352070688 0 -0.00075338592907463209 -0.0071532734056385418 0 -0.0007421586197609532 -0.0070315412352070688 0 -0.00075338592907463209 -0.0071532734056385418 0 -0.00060716776074275453 -0.0070538146555343311 0 -0.00059375558222764669 -0.0071524847900515691 0 -0.00060716776074275453 -0.0070538146555343311 0 -0.00046625484561117612 -0.0070664799801495046 0 -0.00059375558222764669 -0.0071524847900515691 0 -0.00046625484561117612 -0.0070664799801495046 0 -0.00045079746812367531 -0.0071669969407230768 0 -0.00075338592907463209 -0.0071532734056385418 0 -0.00059375558222764669 -0.0071524847900515691 0 -0.00060716776074275453 -0.0070538146555343311 0 -0.0007421586197609532 -0.0070315412352070688 0 -0.00060716776074275453 -0.0070538146555343311 0 -0.00061555948544405562 -0.0069423914356897586 0 -0.00060716776074275453 -0.0070538146555343311 0 -0.00061555948544405562 -0.0069423914356897586 0 -0.00047337576401586528 -0.007074347033767075 0 0.0041425087697360714 -0.0028269081527904933 0 0.0044018615863366225 -0.0027894442031323524 0 -0.00048438119175480196 -0.0068322837436861159 0 -0.00061555948544405562 -0.0069423914356897586 0 -0.00047337576401586528 -0.007074347033767075 0 0.005658015714747569 -0.003013688876605134 0 0.0044018615863366225 -0.0027894442031323524 0 0.012533129747143209 -0.00027986820527032251 0 0.01242696732761849 -0.0002336622777474645 0 0.012430072895729311 -0.00013175800781794475 0 0.012533129747143209 -0.00027986820527032251 0 0.012430072895729311 -0.00013175800781794475 0 0.012488487307688943 -1.6824541846356937e-05 0 0.01242696732761849 -0.0002336622777474645 0 0.012369722883476457 -0.00019399173635549987 0 0.012430072895729311 -0.00013175800781794475 0 0.012369722883476457 -0.00019399173635549987 0 0.012292664298412956 -0.00032149590909132439 0 0.012369794588542567 -0.00026494204719171966 0 0.01242696732761849 -0.0002336622777474645 0 0.012369722883476457 -0.00019399173635549987 0 0.012369794588542567 -0.00026494204719171966 0 0.012369722883476457 -0.00019399173635549987 0 0.012430072895729311 -0.00013175800781794475 0 0.012314528324577105 -9.8044116153716824e-05 0 0.012430072895729311 -0.00013175800781794475 0 0.012488487307688943 -1.6824541846356937e-05 0 0.012369782923210247 -4.658140792975904e-06 0 0.012430072895729311 -0.00013175800781794475 0 0.012369782923210247 -4.658140792975904e-06 0 0.012314528324577105 -9.8044116153716824e-05 0 0.0044018615863366225 -0.0027894442031323524 0 0.0051675789859836098 -0.0021813917056215304 0 0.00031287377247083304 0.0024501276709794481 0 -0.00057914221526413079 0.0018496783211124663 0 -4.4047090332623672e-05 0.0012588899223254428 0 0.0051675789859836098 -0.0021813917056215304 0 0.0038389735529673697 -0.0026838598824571523 0 0.0042244304609799161 -0.0024207505275143696 0 0.0027932352942692386 -0.0022099533779601603 0 0.0040775085805495881 -0.0013720273677542796 0 0.0044018615863366225 -0.0027894442031323524 0 0.0038389735529673697 -0.0026838598824571523 0 0.012369782923210247 -4.658140792975904e-06 0 0.012314528324577105 -9.8044116153716824e-05 0 0.012171631191524552 -8.3639444027742231e-05 0 0.0051675789859836098 -0.0021813917056215304 0 0.0065242748353172538 -0.0011662748230609099 0 0.00031287377247083304 0.0024501276709794481 0 0.0025898091346542038 0.0021497891967399351 0 0.0015284714087965905 0.0010918426294744259 0 0.0051675789859836098 -0.0021813917056215304 0 0.0065666794116219672 -0.0014233764983509682 0 0.012822036699735332 0.00034937904308722907 0 0.012171631191524552 -8.3639444027742231e-05 0 0.012027208736690449 0.00048637907767171579 0 0.012369722883476457 -0.00019399173635549987 0 0.012314528324577105 -9.8044116153716824e-05 0 0.012292664298412956 -0.00032149590909132439 0 0.010597270005768442 -0.001495921609547888 0 0.010563400485522479 -0.001614628635053892 0 0.012314528324577105 -9.8044116153716824e-05 0 0.012263240570728678 -0.00022008294598215123 0 0.012171631191524552 -8.3639444027742231e-05 0 0.012314528324577105 -9.8044116153716824e-05 0 0.012263240570728678 -0.00022008294598215123 0 0.012348643817774473 -0.00029468298028995636 0 0.012263240570728678 -0.00022008294598215123 0 0.012276638286317238 -0.00030675631899225534 0 0.012205407199721349 -0.00037243217929379196 0 0.012296356392981335 -0.000416382201156084 0 0.012348643817774473 -0.00029468298028995636 0 0.012306567574559238 -0.00046527625388040805 0 0.012263240570728678 -0.00022008294598215123 0 0.012276638286317238 -0.00030675631899225534 0 0.012348643817774473 -0.00029468298028995636 0 0.010563400485522479 -0.001614628635053892 0 0.010460366266007392 -0.0019727324617882986 0 0.012278882615423359 -0.00036786888103268787 0 0.012263850788764755 -0.000435708750168735 0 0.012205407199721349 -0.00037243217929379196 0 0.012276638286317238 -0.00030675631899225534 0 0.012278882615423359 -0.00036786888103268787 0 0.012205407199721349 -0.00037243217929379196 0 0.012278882615423359 -0.00036786888103268787 0 0.012296356392981335 -0.000416382201156084 0 0.012263850788764755 -0.000435708750168735 0 0.012278882615423359 -0.00036786888103268787 0 0.012296356392981335 -0.000416382201156084 0 0.012348643817774473 -0.00029468298028995636 0 0.012276638286317238 -0.00030675631899225534 0 0.012278882615423359 -0.00036786888103268787 0 0.012348643817774473 -0.00029468298028995636 0 0.012369794588542567 -0.00026494204719171966 0 0.01244045139505722 -0.00032682955364265283 0 0.012435656840057518 -0.00043003941733174431 0 0.01256896188402502 -0.00057725490215762034 0 0.012533129747143209 -0.00027986820527032251 0 0.012435656840057518 -0.00043003941733174431 0 0.012292664298412956 -0.00032149590909132439 0 0.012369794588542567 -0.00026494204719171966 0 0.012511910829773489 -0.00054170620369478725 0 0.0080756405373486294 -0.002703427888922528 0 0.0079756887925185958 -0.002776074200662183 0 0.012292664298412956 -0.00032149590909132439 0 0.012511910829773489 -0.00054170620369478725 0 0.012328723270865464 -0.00066104272835075702 0 0.01242696732761849 -0.0002336622777474645 0 0.012369794588542567 -0.00026494204719171966 0 0.01244045139505722 -0.00032682955364265283 0 0.012533129747143209 -0.00027986820527032251 0 0.01242696732761849 -0.0002336622777474645 0 0.01244045139505722 -0.00032682955364265283 0 0.012533129747143209 -0.00027986820527032251 0 0.01244045139505722 -0.00032682955364265283 0 0.012435656840057518 -0.00043003941733174431 0 0.012511910829773489 -0.00054170620369478725 0 0.012328723270865464 -0.00066104272835075702 0 0.012497651712302304 -0.00074702794223404756 0 0.0076580712508718292 -0.0029710533552773518 0 0.0079756887925185958 -0.002776074200662183 0 0.012513434534522846 -0.00060561758338209635 0 0.01256896188402502 -0.00057725490215762034 0 0.012435656840057518 -0.00043003941733174431 0 0.012662554893292524 -0.00084975525904097313 0 0.012511910829773489 -0.00054170620369478725 0 0.012497651712302304 -0.00074702794223404756 0 0.010057032294398371 -0.0024710231048460643 0 0.0076580712508718292 -0.0029710533552773518 0 0.012488741130882322 -0.00093732372775672576 0 0.012662554893292524 -0.00084975525904097313 0 0.012497651712302304 -0.00074702794223404756 0 0.010057032294398371 -0.0024710231048460643 0 0.010460366266007392 -0.0019727324617882986 0 0.0107705987789866 -0.0017450938592138302 0 0.010460366266007392 -0.0019727324617882986 0 0.012488741130882322 -0.00093732372775672576 0 0.012328723270865464 -0.00066104272835075702 0 0.012497651712302304 -0.00074702794223404756 0 0.010357313265544465 -0.0042745151588693799 0 0.011387264751046856 -0.0037544544970426349 0 0.00988826833193133 -0.0013149044986361738 0 0.012167721120164718 -0.00038082201101673386 0 0.012253231606833772 -0.00043440022998032774 0 0.012242746606431576 -0.00042256561992694698 0 0.012242746606431576 -0.00042256561992694698 0 0.012263850788764755 -0.000435708750168735 0 0.012310251863111094 -0.00043429536460728356 0 0.012242746606431576 -0.00042256561992694698 0 0.012263850788764755 -0.000435708750168735 0 0.012265572919548638 -0.00043258155676159643 0 0.012296356392981335 -0.000416382201156084 0 0.012263850788764755 -0.000435708750168735 0 0.012265572919548638 -0.00043258155676159643 0 0.012253231606833772 -0.00043440022998032774 0 0.012242746606431576 -0.00042256561992694698 0 0.012265572919548638 -0.00043258155676159643 0 0.012296356392981335 -0.000416382201156084 0 0.012253231606833772 -0.00043440022998032774 0 0.012265572919548638 -0.00043258155676159643 0 0.010463711198371726 -0.0019648060171435964 0 0.010460366266007392 -0.0019727324617882986 0 0.012286146386689135 -0.00045085421343687537 0 0.012162307666062161 -0.0004482882547667366 0 0.012205407199721349 -0.00037243217929379196 0 0.012263850788764755 -0.000435708750168735 0 0.012286146386689135 -0.00045085421343687537 0 0.012310251863111094 -0.00043429536460728356 0 0.012263850788764755 -0.000435708750168735 0 0.012286146386689135 -0.00045085421343687537 0 0.012205407199721349 -0.00037243217929379196 0 0.012452733635252443 -0.00046353058389919633 0 0.012286146386689135 -0.00045085421343687537 0 0.012310251863111094 -0.00043429536460728356 0 0.012452733635252443 -0.00046353058389919633 0 0.012286146386689135 -0.00045085421343687537 0 0.012162307666062161 -0.0004482882547667366 0 0.012920482511561877 -0.00047530387577538537 0 0.012452733635252443 -0.00046353058389919633 0 0.012162307666062161 -0.0004482882547667366 0 0.012920482511561877 -0.00047530387577538537 0 0.012162307666062161 -0.0004482882547667366 0 0.011518192907490043 -0.00044652392374919416 0 0.012162307666062161 -0.0004482882547667366 0 0.012010589732028119 -0.00024491749271328948 0 0.011546541783281067 -0.00019004747928616484 0 0.012162307666062161 -0.0004482882547667366 0 0.012205407199721349 -0.00037243217929379196 0 0.012010589732028119 -0.00024491749271328948 0 0.012263240570728678 -0.00022008294598215123 0 0.012205407199721349 -0.00037243217929379196 0 0.012010589732028119 -0.00024491749271328948 0 0.012263240570728678 -0.00022008294598215123 0 0.012010589732028119 -0.00024491749271328948 0 0.012171631191524552 -8.3639444027742231e-05 0 0.012010589732028119 -0.00024491749271328948 0 0.012171631191524552 -8.3639444027742231e-05 0 0.011739887529808068 6.7469765963211437e-05 0 0.012171631191524552 -8.3639444027742231e-05 0 0.012027208736690449 0.00048637907767171579 0 0.011739887529808068 6.7469765963211437e-05 0 0.0065242748353172538 -0.0011662748230609099 0 0.0075498335449309603 -0.00048380325485618291 0 0.012027208736690449 0.00048637907767171579 0 0.011739887529808068 6.7469765963211437e-05 0 0.010912020585035558 0.00051781394103508254 0 0.011546541783281067 -0.00019004747928616484 0 0.011739887529808068 6.7469765963211437e-05 0 0.010912020585035558 0.00051781394103508254 0 0.012010589732028119 -0.00024491749271328948 0 0.011546541783281067 -0.00019004747928616484 0 0.011739887529808068 6.7469765963211437e-05 0 0.011546541783281067 -0.00019004747928616484 0 0.010910751884405963 -0.00014809388044415662 0 0.010912020585035558 0.00051781394103508254 0 0.009831912058139403 -9.6885520405845679e-07 0 0.010910751884405963 -0.00014809388044415662 0 0.010912020585035558 0.00051781394103508254 0 0.009831912058139403 -9.6885520405845679e-07 0 0.0084338108165373255 2.6062791127290793e-06 0 0.010912020585035558 0.00051781394103508254 0 0.009831912058139403 -9.6885520405845679e-07 0 0.010910751884405963 -0.00014809388044415662 0 0.011233382992965779 -5.4460605582889785e-07 0 0.011236189827869053 -5.4769524359698423e-07 0 0.011584395961913702 -0.00019123591198024308 0 0.010910751884405963 -0.00014809388044415662 0 0.011233382992965779 -5.4460605582889785e-07 0 0.011518192907490043 -0.00044652392374919416 0 0.012162307666062161 -0.0004482882547667366 0 0.011546541783281067 -0.00019004747928616484 0 0.011518192907490043 -0.00044652392374919416 0 0.011546541783281067 -0.00019004747928616484 0 0.010910751884405963 -0.00014809388044415662 0 0.011518192907490043 -0.00044652392374919416 0 0.011651659637216136 -0.00020194922179096991 0 0.011584395961913702 -0.00019123591198024308 0 0.01373106293276175 -0.00019303861135708952 0 0.012920482511561877 -0.00047530387577538537 0 0.013420159269923012 -0.00014324962828883949 0 0.011237369918598304 1.3023997318203899e-06 0 0.013420159269923012 -0.00014324962828883949 0 0.013120829214535291 -1.3228603235541768e-06 0 0.01373106293276175 -0.00019303861135708952 0 0.013420159269923012 -0.00014324962828883949 0 0.013120829214535291 -1.3228603235541768e-06 0 0.0047128704782376891 -0.00036381192583445014 0 0.0048391220858873141 -1.1627827008201782e-06 0 0.0052927274194678169 -0.00012699273488367605 0 0.0047128704782376891 -0.00036381192583445014 0 0.0044941586116918767 -0.00021388105022187586 0 0.0052927274194678169 -0.00012699273488367605 0 0.0047128704782376891 -0.00036381192583445014 0 0.0043259338051127236 -0.00040203293012610225 0 0.004439297191982476 -0.00065039405135145899 0 0.0047128704782376891 -0.00036381192583445014 0 0.0048391220858873141 -1.1627827008201782e-06 0 0.0043259338051127236 -0.00040203293012610225 0 0.0035854378415853764 -0.00049002461924485454 0 0.0044941586116918767 -0.00021388105022187586 0 0.0026826034310807349 6.7386721796114599e-06 0 0.002006405178578214 -0.0010845214543432047 0 0.0044681823823968271 -0.0012113577284309849 0 0.0043781868510639138 -0.00090594566133790351 0 0.0047128704782376891 -0.00036381192583445014 0 0.004439297191982476 -0.00065039405135145899 0 0.0043489592198013103 -0.00053072998363196849 0 0.004439297191982476 -0.00065039405135145899 0 0.0042873647177845272 -0.00071655444142721585 0 0.0043781868510639138 -0.00090594566133790351 0 0.004439297191982476 -0.00065039405135145899 0 0.0042873647177845272 -0.00071655444142721585 0 0.0043489592198013103 -0.00053072998363196849 0 0.0042873647177845272 -0.00071655444142721585 0 0.0038070586601275757 -0.00071947258849866763 0 0.0043781868510639138 -0.00090594566133790351 0 0.0042873647177845272 -0.00071655444142721585 0 0.0038070586601275757 -0.00071947258849866763 0 0.0043489592198013103 -0.00053072998363196849 0 0.0038070586601275757 -0.00071947258849866763 0 0.0035854378415853764 -0.00049002461924485454 0 0.0043489592198013103 -0.00053072998363196849 0 0.0035854378415853764 -0.00049002461924485454 0 0.0043489592198013103 -0.00053072998363196849 0 0.0044941586116918767 -0.00021388105022187586 0 0.0047128704782376891 -0.00036381192583445014 0 0.0043489592198013103 -0.00053072998363196849 0 0.0044941586116918767 -0.00021388105022187586 0 0.005775116959569785 -0.00051961389885313248 0 0.0039519507422008347 -0.00088142056404511785 0 0.0059568352825678048 -0.0009672491580914284 0 0.0041745407712876605 -0.00084199826667065653 0 0.0037887855994242839 -0.0018602783396783073 0 0.0044941586116918767 -0.00021388105022187586 0 0.0052927274194678169 -0.00012699273488367605 0 0.0051315744909987684 0.00058824075057573478 0 0.0044941586116918767 -0.00021388105022187586 0 0.0051315744909987684 0.00058824075057573478 0 0.0026826034310807349 6.7386721796114599e-06 0 0.0063526763411333575 1.5786034762819046e-08 0 0.0052927274194678169 -0.00012699273488367605 0 0.0051315744909987684 0.00058824075057573478 0 0.0048391220858873141 -1.1627827008201782e-06 0 0.0063526763411333575 1.5786034762819046e-08 0 0.0052927274194678169 -0.00012699273488367605 0 0.0078678511959595597 -2.4684429067920109e-06 0 0.0064619796527114739 0.00016785606964849259 0 0.0059568352825678048 -0.0009672491580914284 0 0.0063526763411333575 1.5786034762819046e-08 0 0.0078625831528154749 1.5067681487177249e-06 0 0.0051315744909987684 0.00058824075057573478 0 0.0078593366560646243 1.2901734582527606e-07 0 0.005775116959569785 -0.00051961389885313248 0 0.0078678511959595597 -2.4684429067920109e-06 0 0.0084262996140438053 3.5026964010812122e-06 0 0.0064619796527114739 0.00016785606964849259 0 0.0084262996140438053 3.5026964010812122e-06 0 0.0064619796527114739 0.00016785606964849259 0 0.0052480539318795023 0.0016721992116763267 0 0.0084279917229201327 -1.8593617699095171e-06 0 0.0075498335449309603 -0.00048380325485618291 0 0.0064619796527114739 0.00016785606964849259 0 0.0052480539318795023 0.0016721992116763267 0 0.0041478176882393776 0.00020999618347402303 0 0.0059568352825678048 -0.0009672491580914284 0 0.0041745407712876605 -0.00084199826667065653 0 0.0041478176882393776 0.00020999618347402303 0 0.0064619796527114739 0.00016785606964849259 0 0.0059568352825678048 -0.0009672491580914284 0 0.0041478176882393776 0.00020999618347402303 0 0.0041745407712876605 -0.00084199826667065653 0 0.0041478176882393776 0.00020999618347402303 0 0.0028913548967120558 -0.00072475531875145155 0 0.0025898091346542038 0.0021497891967399351 0 0.0052480539318795023 0.0016721992116763267 0 0.0041478176882393776 0.00020999618347402303 0 0.0025898091346542038 0.0021497891967399351 0 0.0022321026719716425 0.00028243192159442478 0 0.0015284714087965905 0.0010918426294744259 0 0.0025898091346542038 0.0021497891967399351 0 0.0041478176882393776 0.00020999618347402303 0 0.0022321026719716425 0.00028243192159442478 0 0.0041478176882393776 0.00020999618347402303 0 0.0022321026719716425 0.00028243192159442478 0 0.0028913548967120558 -0.00072475531875145155 0 0.0022321026719716425 0.00028243192159442478 0 0.001810104738143827 -0.00082904332194112698 0 0.001294053002002309 -0.00030018717909318569 0 0.0022321026719716425 0.00028243192159442478 0 0.0028913548967120558 -0.00072475531875145155 0 0.001810104738143827 -0.00082904332194112698 0 0.0028913548967120558 -0.00072475531875145155 0 0.001810104738143827 -0.00082904332194112698 0 0.0023507999374418158 -0.001543487385501333 0 0.0028913548967120558 -0.00072475531875145155 0 0.0023507999374418158 -0.001543487385501333 0 0.0037887855994242839 -0.0018602783396783073 0 0.001810104738143827 -0.00082904332194112698 0 0.0023507999374418158 -0.001543487385501333 0 0.0013425769255377264 -0.0016725476320080378 0 0.0041745407712876605 -0.00084199826667065653 0 0.0028913548967120558 -0.00072475531875145155 0 0.0037887855994242839 -0.0018602783396783073 0 0.002006405178578214 -0.0010845214543432047 0 0.0017848425037533854 -0.00123205882353887 0 0.0012661485267710946 -0.00096941440739932731 0 0.001962010301168683 0.00019908168635566484 0 0.0020949908826848837 0.00019742506749405761 0 0.0038070586601275757 -0.00071947258849866763 0 0.002006405178578214 -0.0010845214543432047 0 0.0043781868510639138 -0.00090594566133790351 0 0.0026826034310807349 6.7386721796114599e-06 0 0.002006405178578214 -0.0010845214543432047 0 0.0017848425037533854 -0.00123205882353887 0 0.0035854378415853764 -0.00049002461924485454 0 0.0026826034310807349 6.7386721796114599e-06 0 0.002006405178578214 -0.0010845214543432047 0 0.0038070586601275757 -0.00071947258849866763 0 0.0035854378415853764 -0.00049002461924485454 0 0.002006405178578214 -0.0010845214543432047 0 0.0039519507422008347 -0.00088142056404511785 0 0.0022895283182645812 -0.001159179004203902 0 0.0023507999374418158 -0.001543487385501333 0 0.0037887855994242839 -0.0018602783396783073 0 0.0019806568896706014 -0.00253822958518988 0 0.0023507999374418158 -0.001543487385501333 0 0.0019806568896706014 -0.00253822958518988 0 0.0013425769255377264 -0.0016725476320080378 0 0.00083076279173895378 -0.0023391679742580354 0 0.00026868941305462069 -0.0017367303640316416 0 0.0013425769255377264 -0.0016725476320080378 0 0.0019806568896706014 -0.00253822958518988 0 0.00083076279173895378 -0.0023391679742580354 0 0.0013425769255377264 -0.0016725476320080378 0 0.00026868941305462069 -0.0017367303640316416 0 -0.00092260393859528768 -0.0016952804799189023 0 2.9888637192581673e-05 -0.0025030509774312212 0 0.00083076279173895378 -0.0023391679742580354 0 0.00026868941305462069 -0.0017367303640316416 0 2.9888637192581673e-05 -0.0025030509774312212 0 0.00026868941305462069 -0.0017367303640316416 0 -0.00037890235450211345 -0.00094463028081594245 0 -0.00092260393859528768 -0.0016952804799189023 0 0.00026868941305462069 -0.0017367303640316416 0 -0.00037890235450211345 -0.00094463028081594245 0 0.00069495679421957221 -0.00092459536406802731 0 -0.00037890235450211345 -0.00094463028081594245 0 0.00010448940055136724 -0.00055977098120339557 0 -0.00026998333103783848 -0.00020236254951101391 0 -0.00037890235450211345 -0.00094463028081594245 0 0.00069495679421957221 -0.00092459536406802731 0 0.00010448940055136724 -0.00055977098120339557 0 0.00069495679421957221 -0.00092459536406802731 0 0.00063665750763133486 -0.00031674450754912522 0 0.00010448940055136724 -0.00055977098120339557 0 0.00026868941305462069 -0.0017367303640316416 0 0.00069495679421957221 -0.00092459536406802731 0 0.0013425769255377264 -0.0016725476320080378 0 0.001810104738143827 -0.00082904332194112698 0 0.00069495679421957221 -0.00092459536406802731 0 0.0013425769255377264 -0.0016725476320080378 0 0.001810104738143827 -0.00082904332194112698 0 0.00069495679421957221 -0.00092459536406802731 0 0.001294053002002309 -0.00030018717909318569 0 0.001294053002002309 -0.00030018717909318569 0 0.00063665750763133486 -0.00031674450754912522 0 0.0011174764802186737 0.00029653617088953264 0 0.00069495679421957221 -0.00092459536406802731 0 0.001294053002002309 -0.00030018717909318569 0 0.00063665750763133486 -0.00031674450754912522 0 0.0011174764802186737 0.00029653617088953264 0 0.00074081198364325048 0.00073442340162135683 0 0.00033874343738760527 0.00018448870840221302 0 0.00063665750763133486 -0.00031674450754912522 0 0.0011174764802186737 0.00029653617088953264 0 0.00033874343738760527 0.00018448870840221302 0 0.0022321026719716425 0.00028243192159442478 0 0.001294053002002309 -0.00030018717909318569 0 0.0011174764802186737 0.00029653617088953264 0 0.0011174764802186737 0.00029653617088953264 0 0.0015284714087965905 0.0010918426294744259 0 0.00074081198364325048 0.00073442340162135683 0 0.00031287377247083304 0.0024501276709794481 0 0.0015284714087965905 0.0010918426294744259 0 0.00052596794314895261 0.0013104971681942616 0 0.0022321026719716425 0.00028243192159442478 0 0.0011174764802186737 0.00029653617088953264 0 0.0015284714087965905 0.0010918426294744259 0 0.0015284714087965905 0.0010918426294744259 0 0.00074081198364325048 0.00073442340162135683 0 0.00052596794314895261 0.0013104971681942616 0 0.00074081198364325048 0.00073442340162135683 0 0.00052596794314895261 0.0013104971681942616 0 0.00020968603705012428 0.00080664839132788219 0 -0.00057914221526413079 0.0018496783211124663 0 -4.4047090332623672e-05 0.0012588899223254428 0 -0.00038864993663129707 0.00058423048269325107 0 0.0038389735529673697 -0.0026838598824571523 0 0.0028470512391330612 -0.0022644589506165195 0 0.00031287377247083304 0.0024501276709794481 0 0.00052596794314895261 0.0013104971681942616 0 -4.4047090332623672e-05 0.0012588899223254428 0 -4.4047090332623672e-05 0.0012588899223254428 0 0.00020968603705012428 0.00080664839132788219 0 -0.00038864993663129707 0.00058423048269325107 0 0.00052596794314895261 0.0013104971681942616 0 -4.4047090332623672e-05 0.0012588899223254428 0 0.00020968603705012428 0.00080664839132788219 0 0.00074081198364325048 0.00073442340162135683 0 0.00020968603705012428 0.00080664839132788219 0 0.00033874343738760527 0.00018448870840221302 0 0.00020968603705012428 0.00080664839132788219 0 -0.00038864993663129707 0.00058423048269325107 0 -1.4222732109203758e-05 0.00034102985313306345 0 -0.00038864993663129707 0.00058423048269325107 0 -1.4222732109203758e-05 0.00034102985313306345 0 -0.00026998333103783848 -0.00020236254951101391 0 0.0028470512391330612 -0.0022644589506165195 0 0.0028051620802139747 -0.0021671896790513771 0 -0.00040475804183747117 0.00027665263401870462 0 -0.00026998333103783848 -0.00020236254951101391 0 -0.00084914699408728173 -3.2467227323038952e-05 0 0.00020968603705012428 0.00080664839132788219 0 -1.4222732109203758e-05 0.00034102985313306345 0 0.00033874343738760527 0.00018448870840221302 0 -1.4222732109203758e-05 0.00034102985313306345 0 0.00033874343738760527 0.00018448870840221302 0 -0.00026998333103783848 -0.00020236254951101391 0 0.00033874343738760527 0.00018448870840221302 0 0.00010448940055136724 -0.00055977098120339557 0 -0.00026998333103783848 -0.00020236254951101391 0 0.00063665750763133486 -0.00031674450754912522 0 0.00033874343738760527 0.00018448870840221302 0 0.00010448940055136724 -0.00055977098120339557 0 -0.00037890235450211345 -0.00094463028081594245 0 -0.00026998333103783848 -0.00020236254951101391 0 -0.0010886527509123959 -0.00045608137878673603 0 -0.0010886527509123959 -0.00045608137878673603 0 -0.00084914699408728173 -3.2467227323038952e-05 0 -0.0015752742567261163 0.00020886503185236168 0 -0.00026998333103783848 -0.00020236254951101391 0 -0.0010886527509123959 -0.00045608137878673603 0 -0.00084914699408728173 -3.2467227323038952e-05 0 -0.00040475804183747117 0.00027665263401870462 0 -0.00084914699408728173 -3.2467227323038952e-05 0 -0.0015752742567261163 0.00020886503185236168 0 0.0038389735529673697 -0.0026838598824571523 0 0.0015131066399841793 -0.0027977254493353203 0 0.0028470512391330612 -0.0022644589506165195 0 0.0015131066399841793 -0.0027977254493353203 0 0.003352159013415575 -0.0029164600510007575 0 0.0033359546916159021 -0.0028048252776570501 0 0.0034981683532865544 -0.0028198177936315598 0 -0.00059375558222764669 -0.0071524847900515691 0 -0.00045079746812367531 -0.0071669969407230768 0 -0.00069503177889473206 -0.0073258513636211128 0 -0.00075338592907463209 -0.0071532734056385418 0 -0.00069503177889473206 -0.0073258513636211128 0 -0.0010163544031429308 -0.0072944455739667197 0 0.0015131066399841793 -0.0027977254493353203 0 0.00010168581111417394 -0.0031380881832228313 0 -0.00075338592907463209 -0.0071532734056385418 0 -0.00059375558222764669 -0.0071524847900515691 0 -0.00069503177889473206 -0.0073258513636211128 0 0.0015131066399841793 -0.0027977254493353203 0 0.00099571756971469265 -0.0027880903027044145 0 -0.0015752742567261163 0.00020886503185236168 0 -0.0017987844004608063 -0.00075994300725880457 0 -0.0023394658720000184 -0.00065115764328340969 0 -0.0010886527509123959 -0.00045608137878673603 0 -0.0015752742567261163 0.00020886503185236168 0 -0.0017987844004608063 -0.00075994300725880457 0 -0.0017987844004608063 -0.00075994300725880457 0 -0.0012473574282254529 -0.0010353461212074626 0 -0.0018285690141338496 -0.0013515253123553871 0 -0.0017987844004608063 -0.00075994300725880457 0 -0.0018285690141338496 -0.0013515253123553871 0 -0.0021831793256408103 -0.0011770110698014103 0 -0.0010886527509123959 -0.00045608137878673603 0 -0.0017987844004608063 -0.00075994300725880457 0 -0.0012473574282254529 -0.0010353461212074626 0 -0.00037890235450211345 -0.00094463028081594245 0 -0.0012473574282254529 -0.0010353461212074626 0 -0.00092260393859528768 -0.0016952804799189023 0 -0.00037890235450211345 -0.00094463028081594245 0 -0.0010886527509123959 -0.00045608137878673603 0 -0.0012473574282254529 -0.0010353461212074626 0 -0.00092260393859528768 -0.0016952804799189023 0 -0.0018285690141338496 -0.0013515253123553871 0 -0.002016231096183623 -0.0017249503469589699 0 -0.0012473574282254529 -0.0010353461212074626 0 -0.00092260393859528768 -0.0016952804799189023 0 -0.0018285690141338496 -0.0013515253123553871 0 -0.0018285690141338496 -0.0013515253123553871 0 -0.0021725201849904269 -0.0014802613417609089 0 -0.002016231096183623 -0.0017249503469589699 0 -0.0018285690141338496 -0.0013515253123553871 0 -0.0021725201849904269 -0.0014802613417609089 0 -0.0021831793256408103 -0.0011770110698014103 0 -0.0021725201849904269 -0.0014802613417609089 0 -0.0023017689282526397 -0.0012590218040386578 0 -0.0023712817002371294 -0.0012497048217106716 0 -0.0021725201849904269 -0.0014802613417609089 0 -0.002016231096183623 -0.0017249503469589699 0 -0.0023017689282526397 -0.0012590218040386578 0 -0.002016231096183623 -0.0017249503469589699 0 -0.002402322541778636 -0.0012129146893431826 0 -0.0025805650474856313 -0.0012652739444910055 0 -0.00092260393859528768 -0.0016952804799189023 0 -0.002016231096183623 -0.0017249503469589699 0 -0.00073831200424819422 -0.0027424452534134413 0 0.00012886244945630636 -0.0013332741627910432 0 0.00026629348512588507 -0.0013376752600165024 0 -0.002402322541778636 -0.0012129146893431826 0 -0.0025748246684673855 -0.001013059510075069 0 -0.0025805650474856313 -0.0012652739444910055 0 -0.002016231096183623 -0.0017249503469589699 0 -0.002402322541778636 -0.0012129146893431826 0 -0.0023017689282526397 -0.0012590218040386578 0 -0.002402322541778636 -0.0012129146893431826 0 -0.0025474367930729564 -0.0010065815580537862 0 -0.0023017689282526397 -0.0012590218040386578 0 -0.002402322541778636 -0.0012129146893431826 0 -0.0025474367930729564 -0.0010065815580537862 0 -0.0025748246684673855 -0.001013059510075069 0 -0.0025474367930729564 -0.0010065815580537862 0 -0.0023017689282526397 -0.0012590218040386578 0 -0.0025328365596926162 -0.0010384914873253631 0 -0.0023017689282526397 -0.0012590218040386578 0 -0.0025328365596926162 -0.0010384914873253631 0 -0.0023712817002371294 -0.0012497048217106716 0 -0.0025328365596926162 -0.0010384914873253631 0 -0.0027290118121007655 -0.00089261914759976356 0 -0.0025378670722092855 -0.001009415365602212 0 -0.0027347547045642111 -0.00072361358749566498 0 -0.0027290118121007655 -0.00089261914759976356 0 -0.0025378670722092855 -0.001009415365602212 0 -0.0025474367930729564 -0.0010065815580537862 0 -0.0027290118121007655 -0.00089261914759976356 0 -0.0026061082810138903 -0.00086229208231978745 0 -0.0025474367930729564 -0.0010065815580537862 0 -0.0025328365596926162 -0.0010384914873253631 0 -0.0027290118121007655 -0.00089261914759976356 0 -0.0027290118121007655 -0.00089261914759976356 0 -0.0026061082810138903 -0.00086229208231978745 0 -0.0025661473643121967 -0.00092627960233589298 0 -0.0029771235267019086 -0.00066402113242144305 0 -0.0027290118121007655 -0.00089261914759976356 0 -0.0031396438077133239 -0.00067478320888680334 0 -0.002646476086723392 -0.00067783844593190311 0 -0.0026440972596266442 -0.00066265011949051349 0 -0.0026440972596266442 -0.00066265011949051349 0 -0.0026042907770562809 -0.00062716711598373638 0 -0.0026061082810138903 -0.00086229208231978745 0 -0.0025661473643121967 -0.00092627960233589298 0 -0.0023718461682901747 -0.00067986699233746307 0 -0.0025661473643121967 -0.00092627960233589298 0 -0.0023718461682901747 -0.00067986699233746307 0 -0.0021012526409682117 -0.00074294296104718434 0 -0.0026061082810138903 -0.00086229208231978745 0 -0.0023718461682901747 -0.00067986699233746307 0 -0.0024972510837587849 -0.00070538107126518563 0 -0.0024972510837587849 -0.00070538107126518563 0 -0.00257222203974266 -0.00073024208582388281 0 -0.0022024541846929432 -0.00030799745304003226 0 -0.0024972510837587849 -0.00070538107126518563 0 -0.0026367132554052522 -0.00088669100500102856 0 -0.00257222203974266 -0.00073024208582388281 0 -0.0025474367930729564 -0.0010065815580537862 0 -0.0026061082810138903 -0.00086229208231978745 0 -0.0025748246684673855 -0.001013059510075069 0 -0.0026061082810138903 -0.00086229208231978745 0 -0.0024972510837587849 -0.00070538107126518563 0 -0.0026367132554052522 -0.00088669100500102856 0 -0.0026061082810138903 -0.00086229208231978745 0 -0.0025748246684673855 -0.001013059510075069 0 -0.0026367132554052522 -0.00088669100500102856 0 0.00026629348512588507 -0.0013376752600165024 0 0.00068230764637743622 -0.0013447372467830885 0 -0.0026367132554052522 -0.00088669100500102856 0 -0.0025805650474856313 -0.0012652739444910055 0 -0.0027036143191449358 -0.00092753456621682466 0 -0.00073831200424819422 -0.0027424452534134413 0 2.9888637192581673e-05 -0.0025030509774312212 0 0.00048563840921015468 -0.0032787663497110381 0 0.00065052099644591994 -0.0013580820877813729 0 0.00068230764637743622 -0.0013447372467830885 0 -0.0025748246684673855 -0.001013059510075069 0 -0.0026367132554052522 -0.00088669100500102856 0 -0.0025805650474856313 -0.0012652739444910055 0 -0.00092260393859528768 -0.0016952804799189023 0 -0.00073831200424819422 -0.0027424452534134413 0 2.9888637192581673e-05 -0.0025030509774312212 0 0.00068230764637743622 -0.0013447372467830885 0 0.00020929499857857064 -0.0010792658345445652 0 0.0022895283182645812 -0.001159179004203902 0 0.00068230764637743622 -0.0013447372467830885 0 0.0019806568896706014 -0.00253822958518988 0 0.00083076279173895378 -0.0023391679742580354 0 0.00048563840921015468 -0.0032787663497110381 0 0.00083076279173895378 -0.0023391679742580354 0 2.9888637192581673e-05 -0.0025030509774312212 0 0.00048563840921015468 -0.0032787663497110381 0 0.0017848425037533854 -0.00123205882353887 0 0.0026251861865675308 -0.00058712513252737696 0 0.0016816882070727172 -0.00027667455844061523 0 0.0017848425037533854 -0.00123205882353887 0 0.0012661485267710946 -0.00096941440739932731 0 0.0016816882070727172 -0.00027667455844061523 0 0.0012661485267710946 -0.00096941440739932731 0 0.00024819431430376788 -0.00056652314672551106 0 0.0016816882070727172 -0.00027667455844061523 0 0.002006405178578214 -0.0010845214543432047 0 0.0012661485267710946 -0.00096941440739932731 0 -0.00037755544130842693 -0.0012987139639745594 0 0.0012661485267710946 -0.00096941440739932731 0 0.00024819431430376788 -0.00056652314672551106 0 1.8472077314816626e-05 -0.00086507499116717196 0 0.00020929499857857064 -0.0010792658345445652 0 6.0439781742967672e-06 -0.00097852527696141263 0 0.00024819431430376788 -0.00056652314672551106 0 0.0016816882070727172 -0.00027667455844061523 0 -0.0011861120021789248 -1.3391361380374667e-05 0 -0.0022024541846929432 -0.00030799745304003226 0 -0.0019908418936012539 -0.0004655443722069748 0 -0.0011861120021789248 -1.3391361380374667e-05 0 -0.0023718461682901747 -0.00067986699233746307 0 -0.0024972510837587849 -0.00070538107126518563 0 -0.0022024541846929432 -0.00030799745304003226 0 -0.0023718461682901747 -0.00067986699233746307 0 -0.0022024541846929432 -0.00030799745304003226 0 -0.0019908418936012539 -0.0004655443722069748 0 -0.0023718461682901747 -0.00067986699233746307 0 -0.0021012526409682117 -0.00074294296104718434 0 -0.0019908418936012539 -0.0004655443722069748 0 -0.0031616681520591381 -0.00053518143061272064 0 -0.0031396438077133239 -0.00067478320888680334 0 -0.0030894192215643779 -0.00035124648777395398 0 -0.0030894192215643779 -0.00035124648777395398 0 -0.0020770328100365087 -0.0002744290149281925 0 -0.0025109167880293225 -0.00038850475855795968 0 -0.0028344520383150229 -0.00046078272953029416 0 -0.0030894192215643779 -0.00035124648777395398 0 -0.0025109167880293225 -0.00038850475855795968 0 -0.0031616681520591381 -0.00053518143061272064 0 -0.0028344520383150229 -0.00046078272953029416 0 -0.0030894192215643779 -0.00035124648777395398 0 -0.0026042907770562809 -0.00062716711598373638 0 -0.0025592554966061346 -0.00060482750569139615 0 -0.0021012526409682117 -0.00074294296104718434 0 -0.0019908418936012539 -0.0004655443722069748 0 -0.001768309989020175 -0.00027085887420680174 0 -0.0021012526409682117 -0.00074294296104718434 0 -0.001768309989020175 -0.00027085887420680174 0 -0.0020770328100365087 -0.0002744290149281925 0 -0.0020770328100365087 -0.0002744290149281925 0 -0.0022368232243258832 -0.00034704972427579157 0 -0.0014068003133268731 3.2673983182973021e-05 0 0.00091745117874995983 -0.00018623691642321447 0 0.0014279230238233075 5.3639899917944708e-05 0 -0.001768309989020175 -0.00027085887420680174 0 -0.0020770328100365087 -0.0002744290149281925 0 -0.0014068003133268731 3.2673983182973021e-05 0 -0.0020770328100365087 -0.0002744290149281925 0 -0.0025109167880293225 -0.00038850475855795968 0 -0.0022368232243258832 -0.00034704972427579157 0 -0.0026436922324448884 -0.00038694704227340847 0 -0.0025109167880293225 -0.00038850475855795968 0 -0.0022368232243258832 -0.00034704972427579157 0 -0.0028344520383150229 -0.00046078272953029416 0 -0.0026436922324448884 -0.00038694704227340847 0 -0.0025109167880293225 -0.00038850475855795968 0 -0.0028904291840347262 -0.00031845734148294128 0 -0.0026436922324448884 -0.00038694704227340847 0 -0.0022368232243258832 -0.00034704972427579157 0 0.0005755272461596294 -0.00042747568575393153 0 0.00091745117874995983 -0.00018623691642321447 0 -0.00080410444919604043 5.3595349097404976e-07 0 0.0011208364874002615 -6.2723647697299591e-05 0 0.0012622280820648512 -8.9561075229982699e-07 0 0.0012622280820648512 -8.9561075229982699e-07 0 0.001659300029267338 -0.000137163190444058 0 0.0033245056777037852 1.128052022947061e-06 0 0.0011208364874002615 -6.2723647697299591e-05 0 0.001659300029267338 -0.000137163190444058 0 0.0019512651700773057 -0.00020312440339023262 0 0.0011208364874002615 -6.2723647697299591e-05 0 0.0012622280820648512 -8.9561075229982699e-07 0 0.001659300029267338 -0.000137163190444058 0 0.001659300029267338 -0.000137163190444058 0 0.0019512651700773057 -0.00020312440339023262 0 0.0033245056777037852 1.128052022947061e-06 0 -0.0019908418936012539 -0.0004655443722069748 0 -0.001768309989020175 -0.00027085887420680174 0 -0.0011861120021789248 -1.3391361380374667e-05 0 -0.001768309989020175 -0.00027085887420680174 0 -0.0011861120021789248 -1.3391361380374667e-05 0 -0.0014068003133268731 3.2673983182973021e-05 0 0.00024819431430376788 -0.00056652314672551106 0 -0.0011861120021789248 -1.3391361380374667e-05 0 -0.0006007719758102998 -0.0005268654339903538 0 -0.0014068003133268731 3.2673983182973021e-05 0 -0.0006007719758102998 -0.0005268654339903538 0 -0.00056743675943461821 -0.0007478316143188676 0 -0.0011861120021789248 -1.3391361380374667e-05 0 -0.0014068003133268731 3.2673983182973021e-05 0 -0.0006007719758102998 -0.0005268654339903538 0 0.0012661485267710946 -0.00096941440739932731 0 1.8472077314816626e-05 -0.00086507499116717196 0 -0.00037755544130842693 -0.0012987139639745594 0 -0.0014068003133268731 3.2673983182973021e-05 0 -0.00056743675943461821 -0.0007478316143188676 0 -0.00037755544130842693 -0.0012987139639745594 0 0.0014279230238233075 5.3639899917944708e-05 0 0.0020949908826848837 0.00019742506749405761 0 0.00024819431430376788 -0.00056652314672551106 0 -0.0006007719758102998 -0.0005268654339903538 0 1.8472077314816626e-05 -0.00086507499116717196 0 -0.00056743675943461821 -0.0007478316143188676 0 1.8472077314816626e-05 -0.00086507499116717196 0 -0.00037755544130842693 -0.0012987139639745594 0 -0.0006007719758102998 -0.0005268654339903538 0 -0.00056743675943461821 -0.0007478316143188676 0 1.8472077314816626e-05 -0.00086507499116717196 0 0.0020949908826848837 0.00019742506749405761 0 0.0020980373538421297 0.00019361535694956819 0 0.0043259338051127236 -0.00040203293012610225 0 0.004439297191982476 -0.00065039405135145899 0 0.0045125300612377552 -0.00066488497482080169 0 0.004439297191982476 -0.00065039405135145899 0 0.0045125300612377552 -0.00066488497482080169 0 0.0043781868510639138 -0.00090594566133790351 0 0.0048391220858873141 -1.1627827008201782e-06 0 0.0043259338051127236 -0.00040203293012610225 0 0.0033298902504339321 2.0425243562822222e-07 0 0.0020949908826848837 0.00019742506749405761 0 0.0033249014388362806 -2.2397772036068559e-07 0 0.0019512651700773057 -0.00020312440339023262 0 0.001814752088405746 0.00091007172756639204 0 0.0033245056777037852 1.128052022947061e-06 0 0.0043259338051127236 -0.00040203293012610225 0 0.0045125300612377552 -0.00066488497482080169 0 0.0033298902504339321 2.0425243562822222e-07 0 -0.00049528021667239277 -0.0048982842144402105 0 -0.0010053672213896606 -0.0036953641763068463 0 -0.00014474864086330716 -0.0040819921785673176 0 -0.00049528021667239277 -0.0048982842144402105 0 0.00048649635970032925 -0.0049090329711964451 0 0.00010036886182621049 -0.0056105387911454824 0 -0.00049528021667239277 -0.0048982842144402105 0 -0.00014474864086330716 -0.0040819921785673176 0 0.00048649635970032925 -0.0049090329711964451 0 -0.00049528021667239277 -0.0048982842144402105 0 -0.0012292216557368504 -0.0046486442033888487 0 -0.0010053672213896606 -0.0036953641763068463 0 -0.00049528021667239277 -0.0048982842144402105 0 -0.0012292216557368504 -0.0046486442033888487 0 -0.0010829397892470917 -0.0054440021229990084 0 -0.0010053672213896606 -0.0036953641763068463 0 -0.00014474864086330716 -0.0040819921785673176 0 -0.00033532655839799613 -0.0030829995659014332 0 -0.00014474864086330716 -0.0040819921785673176 0 0.00069941967990091568 -0.0034606254917698928 0 -0.00033532655839799613 -0.0030829995659014332 0 0.00069941967990091568 -0.0034606254917698928 0 0.00056882446591075757 -0.0042387656907797956 0 0.0012783300297063511 -0.0045063141966161478 0 -0.00014474864086330716 -0.0040819921785673176 0 0.00069941967990091568 -0.0034606254917698928 0 0.00056882446591075757 -0.0042387656907797956 0 0.00069941967990091568 -0.0034606254917698928 0 0.0016282910623032661 -0.0038464083989243887 0 0.0012783300297063511 -0.0045063141966161478 0 0.0016282910623032661 -0.0038464083989243887 0 0.0019727081006190887 -0.0032945401593820201 0 0.0024197094024526722 -0.0038939148365767042 0 0.00069941967990091568 -0.0034606254917698928 0 0.0016282910623032661 -0.0038464083989243887 0 0.0013399097410010047 -0.0032202422270784931 0 0.0016282910623032661 -0.0038464083989243887 0 0.0019727081006190887 -0.0032945401593820201 0 0.0013399097410010047 -0.0032202422270784931 0 0.0016282910623032661 -0.0038464083989243887 0 0.0021907871100252706 -0.0045430457029990122 0 0.0012783300297063511 -0.0045063141966161478 0 0.0016282910623032661 -0.0038464083989243887 0 0.0021907871100252706 -0.0045430457029990122 0 0.0024197094024526722 -0.0038939148365767042 0 0.0021907871100252706 -0.0045430457029990122 0 0.0012783300297063511 -0.0045063141966161478 0 0.0021238985618897963 -0.0051990835385300688 0 0.0012783300297063511 -0.0045063141966161478 0 0.0021238985618897963 -0.0051990835385300688 0 0.0014009077746474467 -0.0053828956376092965 0 -0.00014474864086330716 -0.0040819921785673176 0 0.00056882446591075757 -0.0042387656907797956 0 0.00048649635970032925 -0.0049090329711964451 0 0.00056882446591075757 -0.0042387656907797956 0 0.0012783300297063511 -0.0045063141966161478 0 0.00048649635970032925 -0.0049090329711964451 0 0.0012783300297063511 -0.0045063141966161478 0 0.00048649635970032925 -0.0049090329711964451 0 0.0014009077746474467 -0.0053828956376092965 0 0.00048649635970032925 -0.0049090329711964451 0 0.00074509200093510197 -0.0056894732698925142 0 0.00010036886182621049 -0.0056105387911454824 0 0.00048649635970032925 -0.0049090329711964451 0 0.00074509200093510197 -0.0056894732698925142 0 0.0014009077746474467 -0.0053828956376092965 0 0.00074509200093510197 -0.0056894732698925142 0 0.0013691466614620357 -0.0063146882848461768 0 0.00047123461911378737 -0.0061755003381358019 0 0.00074509200093510197 -0.0056894732698925142 0 0.00047123461911378737 -0.0061755003381358019 0 0.00010036886182621049 -0.0056105387911454824 0 0.0021238985618897963 -0.0051990835385300688 0 0.0021076256560600697 -0.0057246280942265526 0 0.0014009077746474467 -0.0053828956376092965 0 0.00074509200093510197 -0.0056894732698925142 0 0.0014009077746474467 -0.0053828956376092965 0 0.0013691466614620357 -0.0063146882848461768 0 0.0021076256560600697 -0.0057246280942265526 0 0.0014009077746474467 -0.0053828956376092965 0 0.0013691466614620357 -0.0063146882848461768 0 0.0021076256560600697 -0.0057246280942265526 0 0.0013691466614620357 -0.0063146882848461768 0 0.0024453074626466457 -0.0062832376910173003 0 0.00053274811509017252 -0.0080658646540977055 0 0.0013691466614620357 -0.0063146882848461768 0 0.0022444081083222065 -0.0072614652810929865 0 0.0013691466614620357 -0.0063146882848461768 0 0.0022444081083222065 -0.0072614652810929865 0 0.0024453074626466457 -0.0062832376910173003 0 0.003360370399557203 -0.006976234745618112 0 0.0032264260059429472 -0.0069959439539831894 0 0.00047332228040116987 -0.0067891841118735159 0 0.0013691466614620357 -0.0063146882848461768 0 0.00061668919144789391 -0.0064625683971541005 0 0.0013691466614620357 -0.0063146882848461768 0 0.00047123461911378737 -0.0061755003381358019 0 0.00061668919144789391 -0.0064625683971541005 0 0.00047123461911378737 -0.0061755003381358019 0 0.00061668919144789391 -0.0064625683971541005 0 0.00018880068133591551 -0.0065312305397187001 0 0.00047332228040116987 -0.0067891841118735159 0 0.00061668919144789391 -0.0064625683971541005 0 0.00018880068133591551 -0.0065312305397187001 0 0.00018880068133591551 -0.0065312305397187001 0 -0.00024236097645089879 -0.0065060073681810632 0 -0.00011071493278124352 -0.0061500101762203014 0 -0.00024236097645089879 -0.0065060073681810632 0 -0.00011071493278124352 -0.0061500101762203014 0 -0.00060998778629551317 -0.0063338093228398609 0 -0.00011071493278124352 -0.0061500101762203014 0 -0.0005527080268987345 -0.0057597819497677005 0 -0.00060998778629551317 -0.0063338093228398609 0 0.00047123461911378737 -0.0061755003381358019 0 0.00018880068133591551 -0.0065312305397187001 0 -0.00011071493278124352 -0.0061500101762203014 0 0.00047123461911378737 -0.0061755003381358019 0 -0.00011071493278124352 -0.0061500101762203014 0 0.00010036886182621049 -0.0056105387911454824 0 -0.00049528021667239277 -0.0048982842144402105 0 0.00010036886182621049 -0.0056105387911454824 0 -0.0005527080268987345 -0.0057597819497677005 0 -0.00011071493278124352 -0.0061500101762203014 0 0.00010036886182621049 -0.0056105387911454824 0 -0.0005527080268987345 -0.0057597819497677005 0 -0.00049528021667239277 -0.0048982842144402105 0 -0.0010829397892470917 -0.0054440021229990084 0 -0.0005527080268987345 -0.0057597819497677005 0 -0.0010829397892470917 -0.0054440021229990084 0 -0.0005527080268987345 -0.0057597819497677005 0 -0.0010073307975917744 -0.0060696873223475565 0 -0.0005527080268987345 -0.0057597819497677005 0 -0.0010073307975917744 -0.0060696873223475565 0 -0.00060998778629551317 -0.0063338093228398609 0 -0.0010044336421701173 -0.0065605560931829062 0 -0.0010073307975917744 -0.0060696873223475565 0 -0.00060998778629551317 -0.0063338093228398609 0 -0.0010044336421701173 -0.0065605560931829062 0 -0.0010073307975917744 -0.0060696873223475565 0 -0.0013819105510250952 -0.0063447555723747228 0 -0.0010073307975917744 -0.0060696873223475565 0 -0.0013819105510250952 -0.0063447555723747228 0 -0.001381063602747142 -0.0058256861590854896 0 -0.0013819105510250952 -0.0063447555723747228 0 -0.0018027148332388158 -0.005887223062145109 0 -0.001381063602747142 -0.0058256861590854896 0 -0.0013819105510250952 -0.0063447555723747228 0 -0.0016707446624624988 -0.0062513640664795525 0 -0.0018027148332388158 -0.005887223062145109 0 -0.0013819105510250952 -0.0063447555723747228 0 -0.0015855128491084026 -0.0065186129253185952 0 -0.0016707446624624988 -0.0062513640664795525 0 -0.0013325794218362551 -0.0067775549686025782 0 -0.0013819105510250952 -0.0063447555723747228 0 -0.0015855128491084026 -0.0065186129253185952 0 -0.0015125219756445465 -0.006868677493432427 0 -0.0015855128491084026 -0.0065186129253185952 0 -0.0020310697880333351 -0.0062342668405561035 0 -0.0015855128491084026 -0.0065186129253185952 0 -0.0020310697880333351 -0.0062342668405561035 0 -0.0019409578733683096 -0.0062396376280384035 0 -0.0015855128491084026 -0.0065186129253185952 0 -0.0016707446624624988 -0.0062513640664795525 0 -0.0019409578733683096 -0.0062396376280384035 0 -0.00032465252556127905 -0.0036808852980693917 0 -0.0003064441496738174 -0.0034463855117406149 0 -0.0015125219756445465 -0.006868677493432427 0 -0.0014825107122054954 -0.0072493754082273718 0 -0.0012158654857822174 -0.0071130250754505948 0 -0.0003064441496738174 -0.0034463855117406149 0 -0.00030971643764151534 -0.0034477469637445427 0 -0.0016707446624624988 -0.0062513640664795525 0 -0.0019409578733683096 -0.0062396376280384035 0 -0.0018027148332388158 -0.005887223062145109 0 -0.002087176896713467 -0.0062249601415599555 0 -0.0019409578733683096 -0.0062396376280384035 0 -0.0018027148332388158 -0.005887223062145109 0 -0.0003064441496738174 -0.0034463855117406149 0 -0.00087574383626785727 -0.0028932978392656721 0 -0.002087176896713467 -0.0062249601415599555 0 -0.0018027148332388158 -0.005887223062145109 0 -0.0025326317774440037 -0.0049717868470664731 0 -0.0018027148332388158 -0.005887223062145109 0 -0.0017196193093715799 -0.0052055743757738427 0 -0.0025326317774440037 -0.0049717868470664731 0 -0.0027404124898155586 -0.0003986704675072624 0 -0.0025357818693505234 -0.00061009299021382035 0 -0.0027232286746710342 -0.00080084666209229312 0 -0.0012292216557368504 -0.0046486442033888487 0 -0.0010829397892470917 -0.0054440021229990084 0 -0.0017196193093715799 -0.0052055743757738427 0 -0.0010829397892470917 -0.0054440021229990084 0 -0.0010073307975917744 -0.0060696873223475565 0 -0.001381063602747142 -0.0058256861590854896 0 -0.0010829397892470917 -0.0054440021229990084 0 -0.0017196193093715799 -0.0052055743757738427 0 -0.001381063602747142 -0.0058256861590854896 0 -0.0018027148332388158 -0.005887223062145109 0 -0.0017196193093715799 -0.0052055743757738427 0 -0.001381063602747142 -0.0058256861590854896 0 -0.0010305233452542189 -0.0070997429756993252 0 -0.00075338592907463209 -0.0071532734056385418 0 -0.0010163544031429308 -0.0072944455739667197 0 -0.0014825107122054954 -0.0072493754082273718 0 -0.0010163544031429308 -0.0072944455739667197 0 -0.0012158654857822174 -0.0071130250754505948 0 -0.0003064441496738174 -0.0034463855117406149 0 0.00010168581111417394 -0.0031380881832228313 0 -0.0027404124898155586 -0.0003986704675072624 0 -0.0023612543832277019 -0.00043904083941604104 0 -0.0025357818693505234 -0.00061009299021382035 0 -0.0010305233452542189 -0.0070997429756993252 0 -0.0010163544031429308 -0.0072944455739667197 0 -0.0012158654857822174 -0.0071130250754505948 0 -0.0020368151542499986 -0.00046933102698314523 0 -0.0023612543832277019 -0.00043904083941604104 0 -0.0023394658720000184 -0.00065115764328340969 0 -0.0023612543832277019 -0.00043904083941604104 0 -0.0025357818693505234 -0.00061009299021382035 0 -0.0023394658720000184 -0.00065115764328340969 0 -0.0017987844004608063 -0.00075994300725880457 0 -0.0023394658720000184 -0.00065115764328340969 0 -0.0021831793256408103 -0.0011770110698014103 0 -0.0023394658720000184 -0.00065115764328340969 0 -0.0024688136897162457 -0.00099391697250127121 0 -0.0021831793256408103 -0.0011770110698014103 0 -0.0025357818693505234 -0.00061009299021382035 0 -0.0023394658720000184 -0.00065115764328340969 0 -0.0024688136897162457 -0.00099391697250127121 0 -0.0024688136897162457 -0.00099391697250127121 0 -0.0027232286746710342 -0.00080084666209229312 0 -0.0025976537540992866 -0.0011993808674280477 0 -0.0025357818693505234 -0.00061009299021382035 0 -0.0024688136897162457 -0.00099391697250127121 0 -0.0027232286746710342 -0.00080084666209229312 0 -0.0024688136897162457 -0.00099391697250127121 0 -0.0025976537540992866 -0.0011993808674280477 0 -0.0023652204829789215 -0.0013567128051378329 0 -0.0024688136897162457 -0.00099391697250127121 0 -0.0021831793256408103 -0.0011770110698014103 0 -0.0023652204829789215 -0.0013567128051378329 0 -0.0021725201849904269 -0.0014802613417609089 0 -0.0021831793256408103 -0.0011770110698014103 0 -0.0023652204829789215 -0.0013567128051378329 0 -0.0012292216557368504 -0.0046486442033888487 0 -0.0017196193093715799 -0.0052055743757738427 0 -0.0018711808091824223 -0.0041460230773692304 0 -0.0025326317774440037 -0.0049717868470664731 0 -0.0027769286808682842 -0.0035720684112847162 0 -0.0018711808091824223 -0.0041460230773692304 0 -0.00087574383626785727 -0.0028932978392656721 0 -0.0012419521653033417 -0.0024661619042181233 0 -0.0017196193093715799 -0.0052055743757738427 0 -0.0025326317774440037 -0.0049717868470664731 0 -0.0018711808091824223 -0.0041460230773692304 0 -0.0027769286808682842 -0.0035720684112847162 0 -0.0018711808091824223 -0.0041460230773692304 0 -0.0019236337964022765 -0.0026986042374617055 0 -0.0010053672213896606 -0.0036953641763068463 0 -0.0018711808091824223 -0.0041460230773692304 0 -0.0019236337964022765 -0.0026986042374617055 0 -0.0012292216557368504 -0.0046486442033888487 0 -0.0010053672213896606 -0.0036953641763068463 0 -0.0018711808091824223 -0.0041460230773692304 0 -0.0012419521653033417 -0.0024661619042181233 0 -0.0014404733374619309 -0.0021628912307633027 0 -0.0027769286808682842 -0.0035720684112847162 0 -0.0019236337964022765 -0.0026986042374617055 0 -0.0027742499143169827 -0.0022011330267402885 0 -0.0019236337964022765 -0.0026986042374617055 0 -0.002202623131920173 -0.0016896601530777058 0 -0.0027742499143169827 -0.0022011330267402885 0 -0.002202623131920173 -0.0016896601530777058 0 -0.0027742499143169827 -0.0022011330267402885 0 -0.0024382930827398417 -0.0011432986911589554 0 -0.0014404733374619309 -0.0021628912307633027 0 -0.0015014577751906297 -0.0020378393471973829 0 -0.0019236337964022765 -0.0026986042374617055 0 -0.002202623131920173 -0.0016896601530777058 0 -0.0017005989518098685 -0.0017461694557271196 0 -0.0019236337964022765 -0.0026986042374617055 0 -0.0017005989518098685 -0.0017461694557271196 0 -0.0011288350999933713 -0.0024183462087607869 0 -0.0021725201849904269 -0.0014802613417609089 0 -0.0023652204829789215 -0.0013567128051378329 0 -0.0023712817002371294 -0.0012497048217106716 0 -0.0025976537540992866 -0.0011993808674280477 0 -0.0024220331312775358 -0.0013104176458750456 0 -0.0023652204829789215 -0.0013567128051378329 0 -0.0024220331312775358 -0.0013104176458750456 0 -0.0024241040349494945 -0.0012302368311550825 0 -0.0024382930827398417 -0.0011432986911589554 0 -0.0024220331312775358 -0.0013104176458750456 0 -0.0023652204829789215 -0.0013567128051378329 0 -0.0024241040349494945 -0.0012302368311550825 0 -0.0023652204829789215 -0.0013567128051378329 0 -0.0024241040349494945 -0.0012302368311550825 0 -0.0023712817002371294 -0.0012497048217106716 0 -0.0025328365596926162 -0.0010384914873253631 0 -0.0023712817002371294 -0.0012497048217106716 0 -0.0025378670722092855 -0.001009415365602212 0 -0.0024241040349494945 -0.0012302368311550825 0 -0.0023712817002371294 -0.0012497048217106716 0 -0.0025378670722092855 -0.001009415365602212 0 -0.0024241040349494945 -0.0012302368311550825 0 -0.0025378670722092855 -0.001009415365602212 0 -0.0024382930827398417 -0.0011432986911589554 0 -0.0025944163186274738 -0.0007246854330058074 0 -0.0025378670722092855 -0.001009415365602212 0 -0.0024382930827398417 -0.0011432986911589554 0 -0.0021858011735020246 -0.00067246747574893921 0 -0.0025944163186274738 -0.0007246854330058074 0 -0.0024382930827398417 -0.0011432986911589554 0 -0.0025944163186274738 -0.0007246854330058074 0 -0.0027347547045642111 -0.00072361358749566498 0 -0.0025378670722092855 -0.001009415365602212 0 -0.0017005989518098685 -0.0017461694557271196 0 -0.0019833895481550282 -0.0011111330845883479 0 -0.0012570203333274201 -0.001344587211222797 0 -0.002202623131920173 -0.0016896601530777058 0 -0.0017005989518098685 -0.0017461694557271196 0 -0.0019833895481550282 -0.0011111330845883479 0 -0.0019833895481550282 -0.0011111330845883479 0 -0.0015615183718008059 -0.0007182632054297404 0 -0.0012570203333274201 -0.001344587211222797 0 -0.002202623131920173 -0.0016896601530777058 0 -0.0019833895481550282 -0.0011111330845883479 0 -0.0024382930827398417 -0.0011432986911589554 0 -0.0021858011735020246 -0.00067246747574893921 0 -0.0019833895481550282 -0.0011111330845883479 0 -0.0024382930827398417 -0.0011432986911589554 0 -0.0021858011735020246 -0.00067246747574893921 0 -0.0019833895481550282 -0.0011111330845883479 0 -0.0015615183718008059 -0.0007182632054297404 0 -0.0015415210421531249 -0.00042827534829181584 0 -0.0015615183718008059 -0.0007182632054297404 0 -0.001305689288915538 -0.0004179838774469342 0 -0.0015615183718008059 -0.0007182632054297404 0 -0.001305689288915538 -0.0004179838774469342 0 -0.0010064929460408853 -0.00072565892392265595 0 -0.001305689288915538 -0.0004179838774469342 0 -0.00095407466980330881 -0.00022041530313464367 0 -0.0010064929460408853 -0.00072565892392265595 0 -0.0012505776291367213 -0.00025955212610764405 0 -0.001305689288915538 -0.0004179838774469342 0 -0.00095407466980330881 -0.00022041530313464367 0 -0.00095407466980330881 -0.00022041530313464367 0 -0.0010064929460408853 -0.00072565892392265595 0 -0.00052826755897958703 -0.00057052638499574602 0 -0.0010064929460408853 -0.00072565892392265595 0 -0.00058945669630469958 -0.0012508602432466419 0 -0.0012570203333274201 -0.001344587211222797 0 -0.0010064929460408853 -0.00072565892392265595 0 -0.00058945669630469958 -0.0012508602432466419 0 -0.00052826755897958703 -0.00057052638499574602 0 -0.0015615183718008059 -0.0007182632054297404 0 -0.0010064929460408853 -0.00072565892392265595 0 -0.0012570203333274201 -0.001344587211222797 0 -0.0017005989518098685 -0.0017461694557271196 0 -0.0012570203333274201 -0.001344587211222797 0 -0.0011288350999933713 -0.0024183462087607869 0 -0.0012570203333274201 -0.001344587211222797 0 -0.0005208733149476703 -0.0020674986496136373 0 -0.0011288350999933713 -0.0024183462087607869 0 -0.00058945669630469958 -0.0012508602432466419 0 -0.0012570203333274201 -0.001344587211222797 0 -0.0005208733149476703 -0.0020674986496136373 0 -0.00058945669630469958 -0.0012508602432466419 0 -0.0005208733149476703 -0.0020674986496136373 0 -4.9803692868840397e-05 -0.001769897198669024 0 -0.0005208733149476703 -0.0020674986496136373 0 0.00021327307852911286 -0.002619200738916529 0 -4.9803692868840397e-05 -0.001769897198669024 0 -0.0005208733149476703 -0.0020674986496136373 0 -0.00033532655839799613 -0.0030829995659014332 0 0.00021327307852911286 -0.002619200738916529 0 -0.0005208733149476703 -0.0020674986496136373 0 -0.00033532655839799613 -0.0030829995659014332 0 -0.0011288350999933713 -0.0024183462087607869 0 -0.0010053672213896606 -0.0036953641763068463 0 -0.00033532655839799613 -0.0030829995659014332 0 -0.0011288350999933713 -0.0024183462087607869 0 -0.0010053672213896606 -0.0036953641763068463 0 -0.0019236337964022765 -0.0026986042374617055 0 -0.0011288350999933713 -0.0024183462087607869 0 0.0015672331621689375 -0.0027371602763435164 0 0.0011896956712239971 -0.0021198852913307574 0 0.0018749679211634783 -0.0021774358904005282 0 0.0015672331621689375 -0.0027371602763435164 0 0.00090815529827918608 -0.0027197737025333769 0 0.0011896956712239971 -0.0021198852913307574 0 0.0015672331621689375 -0.0027371602763435164 0 0.0018749679211634783 -0.0021774358904005282 0 0.0023171888573179727 -0.0026854120392721726 0 0.0015672331621689375 -0.0027371602763435164 0 0.0019727081006190887 -0.0032945401593820201 0 0.0023171888573179727 -0.0026854120392721726 0 0.0015672331621689375 -0.0027371602763435164 0 0.0013399097410010047 -0.0032202422270784931 0 0.00090815529827918608 -0.0027197737025333769 0 0.0015672331621689375 -0.0027371602763435164 0 0.0019727081006190887 -0.0032945401593820201 0 0.0013399097410010047 -0.0032202422270784931 0 0.00069941967990091568 -0.0034606254917698928 0 0.0013399097410010047 -0.0032202422270784931 0 0.00090815529827918608 -0.0027197737025333769 0 0.00069941967990091568 -0.0034606254917698928 0 -0.00033532655839799613 -0.0030829995659014332 0 0.00021327307852911286 -0.002619200738916529 0 0.00069941967990091568 -0.0034606254917698928 0 0.00021327307852911286 -0.002619200738916529 0 0.00090815529827918608 -0.0027197737025333769 0 0.00090815529827918608 -0.0027197737025333769 0 0.00051418697656413872 -0.0021360119083646137 0 0.0011896956712239971 -0.0021198852913307574 0 0.00021327307852911286 -0.002619200738916529 0 0.00090815529827918608 -0.0027197737025333769 0 0.00051418697656413872 -0.0021360119083646137 0 0.00051418697656413872 -0.0021360119083646137 0 0.00088524957846269653 -0.0012841012038375353 0 0.0011896956712239971 -0.0021198852913307574 0 0.00021327307852911286 -0.002619200738916529 0 0.00051418697656413872 -0.0021360119083646137 0 -4.9803692868840397e-05 -0.001769897198669024 0 0.00051418697656413872 -0.0021360119083646137 0 -4.9803692868840397e-05 -0.001769897198669024 0 8.9287152485859484e-05 -0.001195236055820124 0 -0.00058945669630469958 -0.0012508602432466419 0 -4.9803692868840397e-05 -0.001769897198669024 0 8.9287152485859484e-05 -0.001195236055820124 0 0.00051418697656413872 -0.0021360119083646137 0 0.00088524957846269653 -0.0012841012038375353 0 8.9287152485859484e-05 -0.001195236055820124 0 0.0014591967235502001 -0.001620147143583522 0 0.00088524957846269653 -0.0012841012038375353 0 0.0011896956712239971 -0.0021198852913307574 0 0.0014591967235502001 -0.001620147143583522 0 0.00088524957846269653 -0.0012841012038375353 0 0.001991126927082192 -0.0010816326469519847 0 0.0014591967235502001 -0.001620147143583522 0 0.0011896956712239971 -0.0021198852913307574 0 0.0018749679211634783 -0.0021774358904005282 0 0.0018749679211634783 -0.0021774358904005282 0 0.001991126927082192 -0.0010816326469519847 0 0.0026336151873314214 -0.0019356426562410901 0 0.0014591967235502001 -0.001620147143583522 0 0.0018749679211634783 -0.0021774358904005282 0 0.001991126927082192 -0.0010816326469519847 0 0.00088524957846269653 -0.0012841012038375353 0 0.0010833739998259838 -0.00044888557244900036 0 0.00015912909896841578 -0.00052033724030368304 0 0.00088524957846269653 -0.0012841012038375353 0 0.001991126927082192 -0.0010816326469519847 0 0.0010833739998259838 -0.00044888557244900036 0 0.001991126927082192 -0.0010816326469519847 0 0.0010833739998259838 -0.00044888557244900036 0 0.0019112385602329195 0.0001305558403341262 0 -0.00058945669630469958 -0.0012508602432466419 0 8.9287152485859484e-05 -0.001195236055820124 0 -0.00052826755897958703 -0.00057052638499574602 0 0.00088524957846269653 -0.0012841012038375353 0 8.9287152485859484e-05 -0.001195236055820124 0 0.00015912909896841578 -0.00052033724030368304 0 0.00015912909896841578 -0.00052033724030368304 0 -0.00052826755897958703 -0.00057052638499574602 0 -0.00049948877383649659 7.1191529970669241e-05 0 8.9287152485859484e-05 -0.001195236055820124 0 0.00015912909896841578 -0.00052033724030368304 0 -0.00052826755897958703 -0.00057052638499574602 0 0.00043825043338037125 0.0028744385302337415 0 -0.00049948877383649659 7.1191529970669241e-05 0 0.00075497143011837549 0.00092267682886878317 0 -0.00095407466980330881 -0.00022041530313464367 0 -0.00052826755897958703 -0.00057052638499574602 0 -0.00049948877383649659 7.1191529970669241e-05 0 0.00015912909896841578 -0.00052033724030368304 0 -0.00049948877383649659 7.1191529970669241e-05 0 0.00075497143011837549 0.00092267682886878317 0 -0.0011734600669408594 -8.7232526570675648e-05 0 -0.00095407466980330881 -0.00022041530313464367 0 -0.00049948877383649659 7.1191529970669241e-05 0 0.0019112385602329195 0.0001305558403341262 0 0.00075497143011837549 0.00092267682886878317 0 0.0020327570365815213 0.0011738609296956092 0 0.0010833739998259838 -0.00044888557244900036 0 0.00015912909896841578 -0.00052033724030368304 0 0.00075497143011837549 0.00092267682886878317 0 0.0010833739998259838 -0.00044888557244900036 0 0.0019112385602329195 0.0001305558403341262 0 0.00075497143011837549 0.00092267682886878317 0 0.0015918648459763635 0.0017993264549048186 0 0.00075497143011837549 0.00092267682886878317 0 0.0020327570365815213 0.0011738609296956092 0 0.0015918648459763635 0.0017993264549048186 0 0.0022296153912709808 0.0020762304050543994 0 0.0020327570365815213 0.0011738609296956092 0 0.0020327570365815213 0.0011738609296956092 0 0.0027692874853798084 0.0015533519092609837 0 0.0029356579408217603 0.00069713477530774809 0 0.0022296153912709808 0.0020762304050543994 0 0.0020327570365815213 0.0011738609296956092 0 0.0027692874853798084 0.0015533519092609837 0 0.0019112385602329195 0.0001305558403341262 0 0.0020327570365815213 0.0011738609296956092 0 0.0029356579408217603 0.00069713477530774809 0 0.0029356579408217603 0.00069713477530774809 0 0.0042617807342386045 0.00092217591878802441 0 0.0035021553050194072 -6.2034363004684115e-05 0 0.0027692874853798084 0.0015533519092609837 0 0.0029356579408217603 0.00069713477530774809 0 0.0036628259008005689 0.0017253420068223501 0 0.0049907858642273557 0.0020790557107754314 0 0.0042617807342386045 0.00092217591878802441 0 0.0059819312184529365 0.0011034504760372937 0 0.0049907858642273557 0.0020790557107754314 0 0.0036628259008005689 0.0017253420068223501 0 0.0042617807342386045 0.00092217591878802441 0 0.0042617807342386045 0.00092217591878802441 0 0.0047802270508173848 -5.4933905750612564e-05 0 0.0059819312184529365 0.0011034504760372937 0 0.0029356579408217603 0.00069713477530774809 0 0.0036628259008005689 0.0017253420068223501 0 0.0042617807342386045 0.00092217591878802441 0 0.0042617807342386045 0.00092217591878802441 0 0.0047802270508173848 -5.4933905750612564e-05 0 0.0035021553050194072 -6.2034363004684115e-05 0 0.0047802270508173848 -5.4933905750612564e-05 0 0.0040023215730491789 -0.00072153065639120036 0 0.0045747717271316223 -0.0013446172067048811 0 0.0047802270508173848 -5.4933905750612564e-05 0 0.0040023215730491789 -0.00072153065639120036 0 0.0035021553050194072 -6.2034363004684115e-05 0 0.0040023215730491789 -0.00072153065639120036 0 0.0035021553050194072 -6.2034363004684115e-05 0 0.0029986987218552411 -0.0010900509532039899 0 0.0026373632267920185 -0.00029708410250596956 0 0.0035021553050194072 -6.2034363004684115e-05 0 0.0029986987218552411 -0.0010900509532039899 0 0.001991126927082192 -0.0010816326469519847 0 0.0026373632267920185 -0.00029708410250596956 0 0.0029986987218552411 -0.0010900509532039899 0 0.001991126927082192 -0.0010816326469519847 0 0.0019112385602329195 0.0001305558403341262 0 0.0026373632267920185 -0.00029708410250596956 0 0.0019112385602329195 0.0001305558403341262 0 0.0029356579408217603 0.00069713477530774809 0 0.0026373632267920185 -0.00029708410250596956 0 0.0029356579408217603 0.00069713477530774809 0 0.0026373632267920185 -0.00029708410250596956 0 0.0035021553050194072 -6.2034363004684115e-05 0 0.0077468176830871914 0.0025464580970878431 0 0.0076255905851470634 0.0011934823780412002 0 0.0059819312184529365 0.0011034504760372937 0 0.0076255905851470634 0.0011934823780412002 0 0.0059819312184529365 0.0011034504760372937 0 0.0068003240615241 0.00035509573912735501 0 0.0047802270508173848 -5.4933905750612564e-05 0 0.0059819312184529365 0.0011034504760372937 0 0.0060441268182908486 -0.00058424589868477596 0 0.0059819312184529365 0.0011034504760372937 0 0.0060441268182908486 -0.00058424589868477596 0 0.0068003240615241 0.00035509573912735501 0 0.0047802270508173848 -5.4933905750612564e-05 0 0.0060441268182908486 -0.00058424589868477596 0 0.0045747717271316223 -0.0013446172067048811 0 0.0060441268182908486 -0.00058424589868477596 0 0.0068003240615241 0.00035509573912735501 0 0.0075808178383279384 -0.0002819140335346485 0 0.0076255905851470634 0.0011934823780412002 0 0.0068003240615241 0.00035509573912735501 0 0.0075808178383279384 -0.0002819140335346485 0 0.0076255905851470634 0.0011934823780412002 0 0.0075808178383279384 -0.0002819140335346485 0 0.0088008263160170835 0.00077395594977107938 0 0.0075808178383279384 -0.0002819140335346485 0 0.0071164393844892352 -0.0017532402136358734 0 0.0090849625127003807 -0.00083690571140656645 0 0.0060441268182908486 -0.00058424589868477596 0 0.0075808178383279384 -0.0002819140335346485 0 0.0071164393844892352 -0.0017532402136358734 0 0.0071164393844892352 -0.0017532402136358734 0 0.0054074225231852202 -0.0018158394670972633 0 0.005866719728008893 -0.0028813589686553396 0 0.0060441268182908486 -0.00058424589868477596 0 0.0071164393844892352 -0.0017532402136358734 0 0.0054074225231852202 -0.0018158394670972633 0 0.0060441268182908486 -0.00058424589868477596 0 0.0054074225231852202 -0.0018158394670972633 0 0.0045747717271316223 -0.0013446172067048811 0 0.0054074225231852202 -0.0018158394670972633 0 0.005866719728008893 -0.0028813589686553396 0 0.0048443463091067552 -0.0026757944245085386 0 0.0049887098291958431 -0.0034021473537276712 0 0.005866719728008893 -0.0028813589686553396 0 0.0048443463091067552 -0.0026757944245085386 0 0.0049887098291958431 -0.0034021473537276712 0 0.005866719728008893 -0.0028813589686553396 0 0.0061455568852195868 -0.003854715356460561 0 0.005866719728008893 -0.0028813589686553396 0 0.0070463951007523704 -0.002950730488574711 0 0.0061455568852195868 -0.003854715356460561 0 0.0071164393844892352 -0.0017532402136358734 0 0.0070463951007523704 -0.002950730488574711 0 0.0088225087942737316 -0.0025874835537276135 0 0.0071164393844892352 -0.0017532402136358734 0 0.005866719728008893 -0.0028813589686553396 0 0.0070463951007523704 -0.002950730488574711 0 0.0034446248230622792 -0.0017343177149527491 0 0.0026336151873314214 -0.0019356426562410901 0 0.0031626700359825245 -0.0026447982602189257 0 0.0034446248230622792 -0.0017343177149527491 0 0.0040224324764585109 -0.0021333076426543326 0 0.0031626700359825245 -0.0026447982602189257 0 0.001991126927082192 -0.0010816326469519847 0 0.0026336151873314214 -0.0019356426562410901 0 0.0029986987218552411 -0.0010900509532039899 0 0.0034446248230622792 -0.0017343177149527491 0 0.0026336151873314214 -0.0019356426562410901 0 0.0029986987218552411 -0.0010900509532039899 0 0.0040023215730491789 -0.00072153065639120036 0 0.0034446248230622792 -0.0017343177149527491 0 0.0029986987218552411 -0.0010900509532039899 0 0.0040023215730491789 -0.00072153065639120036 0 0.0034446248230622792 -0.0017343177149527491 0 0.0045747717271316223 -0.0013446172067048811 0 0.0054074225231852202 -0.0018158394670972633 0 0.0045747717271316223 -0.0013446172067048811 0 0.0040224324764585109 -0.0021333076426543326 0 0.0034446248230622792 -0.0017343177149527491 0 0.0045747717271316223 -0.0013446172067048811 0 0.0040224324764585109 -0.0021333076426543326 0 0.0040224324764585109 -0.0021333076426543326 0 0.0039678388020851479 -0.0031219434680548504 0 0.0031626700359825245 -0.0026447982602189257 0 0.0040224324764585109 -0.0021333076426543326 0 0.0048443463091067552 -0.0026757944245085386 0 0.0039678388020851479 -0.0031219434680548504 0 0.0054074225231852202 -0.0018158394670972633 0 0.0040224324764585109 -0.0021333076426543326 0 0.0048443463091067552 -0.0026757944245085386 0 0.0049887098291958431 -0.0034021473537276712 0 0.0039678388020851479 -0.0031219434680548504 0 0.0043548182443741527 -0.0036474865798551532 0 0.0049887098291958431 -0.0034021473537276712 0 0.0048443463091067552 -0.0026757944245085386 0 0.0039678388020851479 -0.0031219434680548504 0 0.0039678388020851479 -0.0031219434680548504 0 0.0033307422215512676 -0.0033664080251747182 0 0.0031626700359825245 -0.0026447982602189257 0 0.0033307422215512676 -0.0033664080251747182 0 0.0031626700359825245 -0.0026447982602189257 0 0.0026988610441381535 -0.0032908395274380796 0 0.0018749679211634783 -0.0021774358904005282 0 0.0026336151873314214 -0.0019356426562410901 0 0.0023171888573179727 -0.0026854120392721726 0 0.0026336151873314214 -0.0019356426562410901 0 0.0031626700359825245 -0.0026447982602189257 0 0.0023171888573179727 -0.0026854120392721726 0 0.0019727081006190887 -0.0032945401593820201 0 0.0023171888573179727 -0.0026854120392721726 0 0.0026988610441381535 -0.0032908395274380796 0 0.0031626700359825245 -0.0026447982602189257 0 0.0023171888573179727 -0.0026854120392721726 0 0.0026988610441381535 -0.0032908395274380796 0 0.0019727081006190887 -0.0032945401593820201 0 0.0026988610441381535 -0.0032908395274380796 0 0.0024197094024526722 -0.0038939148365767042 0 0.0026988610441381535 -0.0032908395274380796 0 0.0024197094024526722 -0.0038939148365767042 0 0.0031395585468100627 -0.003912602051152559 0 0.0033307422215512676 -0.0033664080251747182 0 0.0026988610441381535 -0.0032908395274380796 0 0.0031395585468100627 -0.003912602051152559 0 0.0033307422215512676 -0.0033664080251747182 0 0.0031395585468100627 -0.003912602051152559 0 0.003787368316829309 -0.0037400240384426937 0 0.0031395585468100627 -0.003912602051152559 0 0.002909982140430002 -0.0044530021242177829 0 0.0037211754437981451 -0.0044392479571534827 0 0.0021907871100252706 -0.0045430457029990122 0 0.0024197094024526722 -0.0038939148365767042 0 0.002909982140430002 -0.0044530021242177829 0 0.0024197094024526722 -0.0038939148365767042 0 0.0031395585468100627 -0.003912602051152559 0 0.002909982140430002 -0.0044530021242177829 0 0.0021907871100252706 -0.0045430457029990122 0 0.0021238985618897963 -0.0051990835385300688 0 0.0027682189245833047 -0.0049804700519976075 0 0.0021907871100252706 -0.0045430457029990122 0 0.002909982140430002 -0.0044530021242177829 0 0.0027682189245833047 -0.0049804700519976075 0 0.002909982140430002 -0.0044530021242177829 0 0.0027682189245833047 -0.0049804700519976075 0 0.0033567485101080748 -0.0048737535467593893 0 0.002909982140430002 -0.0044530021242177829 0 0.0033567485101080748 -0.0048737535467593893 0 0.0037211754437981451 -0.0044392479571534827 0 0.0027682189245833047 -0.0049804700519976075 0 0.0032640094314823971 -0.0052995826771704592 0 0.0027621546445586484 -0.0054893701952253285 0 0.0027682189245833047 -0.0049804700519976075 0 0.0033567485101080748 -0.0048737535467593893 0 0.0032640094314823971 -0.0052995826771704592 0 0.0033567485101080748 -0.0048737535467593893 0 0.0032640094314823971 -0.0052995826771704592 0 0.0037510434040833852 -0.0053901910754644809 0 0.0032640094314823971 -0.0052995826771704592 0 0.0037510434040833852 -0.0053901910754644809 0 0.0032912552918902176 -0.0057248572586675543 0 0.0032640094314823971 -0.0052995826771704592 0 0.0027621546445586484 -0.0054893701952253285 0 0.0032912552918902176 -0.0057248572586675543 0 0.0021238985618897963 -0.0051990835385300688 0 0.0027682189245833047 -0.0049804700519976075 0 0.0027621546445586484 -0.0054893701952253285 0 0.0043302486315037955 -0.0052043908959538369 0 0.0043717643072789455 -0.0055831811417975767 0 0.0037510434040833852 -0.0053901910754644809 0 0.0043302486315037955 -0.0052043908959538369 0 0.0043717643072789455 -0.0055831811417975767 0 0.0048420108023528021 -0.0052834566549951516 0 0.0043717643072789455 -0.0055831811417975767 0 0.0048420108023528021 -0.0052834566549951516 0 0.0048281708536394713 -0.0056009089775400618 0 0.0043717643072789455 -0.0055831811417975767 0 0.0048281708536394713 -0.0056009089775400618 0 0.0045979263779902775 -0.0058779993434223635 0 0.0043717643072789455 -0.0055831811417975767 0 0.0037510434040833852 -0.0053901910754644809 0 0.003711477082176509 -0.0060338367762835703 0 0.0043302486315037955 -0.0052043908959538369 0 0.0037510434040833852 -0.0053901910754644809 0 0.0040244309778616595 -0.0049187372692594952 0 0.0033567485101080748 -0.0048737535467593893 0 0.0040244309778616595 -0.0049187372692594952 0 0.0037211754437981451 -0.0044392479571534827 0 0.0033567485101080748 -0.0048737535467593893 0 0.0037510434040833852 -0.0053901910754644809 0 0.0040244309778616595 -0.0049187372692594952 0 0.0040244309778616595 -0.0049187372692594952 0 0.0042847868450691462 -0.0045576341673374023 0 0.0037211754437981451 -0.0044392479571534827 0 0.0040244309778616595 -0.0049187372692594952 0 0.0046905590752429841 -0.0048382216015782891 0 0.0042847868450691462 -0.0045576341673374023 0 0.0043302486315037955 -0.0052043908959538369 0 0.0040244309778616595 -0.0049187372692594952 0 0.0046905590752429841 -0.0048382216015782891 0 0.0043302486315037955 -0.0052043908959538369 0 0.0046905590752429841 -0.0048382216015782891 0 0.0048420108023528021 -0.0052834566549951516 0 0.0046905590752429841 -0.0048382216015782891 0 0.0042847868450691462 -0.0045576341673374023 0 0.0049444757773942404 -0.0042699286390086716 0 0.0042590749180873629 -0.0041321520535318361 0 0.0043548182443741527 -0.0036474865798551532 0 0.0049444757773942404 -0.0042699286390086716 0 0.0042847868450691462 -0.0045576341673374023 0 0.0042590749180873629 -0.0041321520535318361 0 0.0049444757773942404 -0.0042699286390086716 0 0.0031395585468100627 -0.003912602051152559 0 0.0037211754437981451 -0.0044392479571534827 0 0.003787368316829309 -0.0037400240384426937 0 0.0042590749180873629 -0.0041321520535318361 0 0.0037211754437981451 -0.0044392479571534827 0 0.003787368316829309 -0.0037400240384426937 0 0.0042847868450691462 -0.0045576341673374023 0 0.0042590749180873629 -0.0041321520535318361 0 0.0037211754437981451 -0.0044392479571534827 0 0.0039678388020851479 -0.0031219434680548504 0 0.0033307422215512676 -0.0033664080251747182 0 0.003787368316829309 -0.0037400240384426937 0 0.0039678388020851479 -0.0031219434680548504 0 0.003787368316829309 -0.0037400240384426937 0 0.0043548182443741527 -0.0036474865798551532 0 0.0042590749180873629 -0.0041321520535318361 0 0.003787368316829309 -0.0037400240384426937 0 0.0043548182443741527 -0.0036474865798551532 0 0.0049887098291958431 -0.0034021473537276712 0 0.0043548182443741527 -0.0036474865798551532 0 0.0049444757773942404 -0.0042699286390086716 0 0.0049887098291958431 -0.0034021473537276712 0 0.0061455568852195868 -0.003854715356460561 0 0.0049444757773942404 -0.0042699286390086716 0 0.0061455568852195868 -0.003854715356460561 0 0.0049444757773942404 -0.0042699286390086716 0 0.0057370850685561723 -0.0047269061406672794 0 0.0061455568852195868 -0.003854715356460561 0 0.0069942205124941086 -0.0049742384345132671 0 0.0057370850685561723 -0.0047269061406672794 0 0.0070463951007523704 -0.002950730488574711 0 0.0061455568852195868 -0.003854715356460561 0 0.007545692109779365 -0.0037405847379171943 0 0.0061455568852195868 -0.003854715356460561 0 0.007545692109779365 -0.0037405847379171943 0 0.0069942205124941086 -0.0049742384345132671 0 0.0069942205124941086 -0.0049742384345132671 0 0.0070563227795842768 -0.0061702183213826253 0 0.0089095128423963658 -0.0060249245390849122 0 0.0069942205124941086 -0.0049742384345132671 0 0.0056052280047037325 -0.0054697188759246264 0 0.0070563227795842768 -0.0061702183213826253 0 0.0056052280047037325 -0.0054697188759246264 0 0.0050912480469949084 -0.0062264792473023323 0 0.0070563227795842768 -0.0061702183213826253 0 0.0046905590752429841 -0.0048382216015782891 0 0.0049444757773942404 -0.0042699286390086716 0 0.0051914989141092893 -0.0050003892942007732 0 0.0051914989141092893 -0.0050003892942007732 0 0.0057370850685561723 -0.0047269061406672794 0 0.0056052280047037325 -0.0054697188759246264 0 0.0049444757773942404 -0.0042699286390086716 0 0.0051914989141092893 -0.0050003892942007732 0 0.0057370850685561723 -0.0047269061406672794 0 0.0046905590752429841 -0.0048382216015782891 0 0.0051914989141092893 -0.0050003892942007732 0 0.0048420108023528021 -0.0052834566549951516 0 0.0069942205124941086 -0.0049742384345132671 0 0.0057370850685561723 -0.0047269061406672794 0 0.0056052280047037325 -0.0054697188759246264 0 0.0051914989141092893 -0.0050003892942007732 0 0.0056052280047037325 -0.0054697188759246264 0 0.0048420108023528021 -0.0052834566549951516 0 0.0056052280047037325 -0.0054697188759246264 0 0.0048420108023528021 -0.0052834566549951516 0 0.0048281708536394713 -0.0056009089775400618 0 0.0056052280047037325 -0.0054697188759246264 0 0.0048281708536394713 -0.0056009089775400618 0 0.0051378796931082936 -0.0057615827673624352 0 0.0056052280047037325 -0.0054697188759246264 0 0.0051378796931082936 -0.0057615827673624352 0 0.0050912480469949084 -0.0062264792473023323 0 0.0048281708536394713 -0.0056009089775400618 0 0.0049948897364643649 -0.0059451557577760838 0 0.0045979263779902775 -0.0058779993434223635 0 0.0048281708536394713 -0.0056009089775400618 0 0.0051378796931082936 -0.0057615827673624352 0 0.0049948897364643649 -0.0059451557577760838 0 0.0049948897364643649 -0.0059451557577760838 0 0.0050912480469949084 -0.0062264792473023323 0 0.0045979263779902775 -0.0058779993434223635 0 0.0051378796931082936 -0.0057615827673624352 0 0.0049948897364643649 -0.0059451557577760838 0 0.0050912480469949084 -0.0062264792473023323 0 0.013345298659098484 -0.0049988033829083843 0 0.01425001185439715 -0.0056061299665923917 0 0.021431398562493705 -0.0058486339508406378 0 0.021759359496078486 -0.0060935449013075635 0 0.02202968372543429 -0.0058007073261599779 0 0.021431398562493705 -0.0058486339508406378 0 0.021514536691519322 -0.0061711171103594302 0 0.021318542073649294 -0.0063275485276725633 0 0.021431398562493705 -0.0058486339508406378 0 0.021759359496078486 -0.0060935449013075635 0 0.021514536691519322 -0.0061711171103594302 0 0.02202968372543429 -0.0058007073261599779 0 0.022116473383194044 -0.0062994948473115812 0 0.022463283355730879 -0.0061809428967480881 0 0.021759359496078486 -0.0060935449013075635 0 0.02202968372543429 -0.0058007073261599779 0 0.022116473383194044 -0.0062994948473115812 0 0.022116473383194044 -0.0062994948473115812 0 0.022010577462944374 -0.0065804064803923947 0 0.021649296735904509 -0.00641943204175968 0 0.021759359496078486 -0.0060935449013075635 0 0.022116473383194044 -0.0062994948473115812 0 0.021649296735904509 -0.00641943204175968 0 0.022116473383194044 -0.0062994948473115812 0 0.022010577462944374 -0.0065804064803923947 0 0.022432876626503895 -0.0065599039794389784 0 0.021514536691519322 -0.0061711171103594302 0 0.021649296735904509 -0.00641943204175968 0 0.021318542073649294 -0.0063275485276725633 0 0.021759359496078486 -0.0060935449013075635 0 0.021514536691519322 -0.0061711171103594302 0 0.021649296735904509 -0.00641943204175968 0 0.021649296735904509 -0.00641943204175968 0 0.021318542073649294 -0.0063275485276725633 0 0.0212653681853039 -0.0067279587690323881 0 0.021318542073649294 -0.0063275485276725633 0 0.020937962681039896 -0.0064798538339074499 0 0.0212653681853039 -0.0067279587690323881 0 0.021431398562493705 -0.0058486339508406378 0 0.021318542073649294 -0.0063275485276725633 0 0.020937962681039896 -0.0064798538339074499 0 0.0038867375644398442 -0.0062260664060115357 0 0.0035443111565912652 -0.0062612020767314654 0 0.00352849763302922 -0.0062052615836480397 0 0.0040378231120303722 -0.0059451248289106237 0 0.0038867375644398442 -0.0062260664060115357 0 0.0035443111565912652 -0.0062612020767314654 0 0.0022444081083222065 -0.0072614652810929865 0 0.00352849763302922 -0.0062052615836480397 0 0.0024453074626466457 -0.0062832376910173003 0 0.0036012626106726288 -0.0067076768007392163 0 0.0036252503333284681 -0.0066589043183835021 0 0.0021076256560600697 -0.0057246280942265526 0 0.0024453074626466457 -0.0062832376910173003 0 0.0028781251641437811 -0.0059004713192832847 0 0.00352849763302922 -0.0062052615836480397 0 0.0024453074626466457 -0.0062832376910173003 0 0.0028781251641437811 -0.0059004713192832847 0 0.0021076256560600697 -0.0057246280942265526 0 0.0028781251641437811 -0.0059004713192832847 0 0.0027621546445586484 -0.0054893701952253285 0 0.0021238985618897963 -0.0051990835385300688 0 0.0021076256560600697 -0.0057246280942265526 0 0.0027621546445586484 -0.0054893701952253285 0 0.00352849763302922 -0.0062052615836480397 0 0.0028781251641437811 -0.0059004713192832847 0 0.0032912552918902176 -0.0057248572586675543 0 0.0028781251641437811 -0.0059004713192832847 0 0.0027621546445586484 -0.0054893701952253285 0 0.0032912552918902176 -0.0057248572586675543 0 0.00352849763302922 -0.0062052615836480397 0 0.0032912552918902176 -0.0057248572586675543 0 0.003711477082176509 -0.0060338367762835703 0 0.0037510434040833852 -0.0053901910754644809 0 0.0032912552918902176 -0.0057248572586675543 0 0.003711477082176509 -0.0060338367762835703 0 0.013345298659098484 -0.0049988033829083843 0 0.012934771015764067 -0.0056878167715447283 0 0.003954267362004403 -0.0060557825239081244 0 0.0035443111565912652 -0.0062612020767314654 0 0.00352849763302922 -0.0062052615836480397 0 0.003954267362004403 -0.0060557825239081244 0 0.00352849763302922 -0.0062052615836480397 0 0.003711477082176509 -0.0060338367762835703 0 0.0043717643072789455 -0.0055831811417975767 0 0.003711477082176509 -0.0060338367762835703 0 0.0045979263779902775 -0.0058779993434223635 0 0.0050912480469949084 -0.0062264792473023323 0 0.003711477082176509 -0.0060338367762835703 0 0.0045979263779902775 -0.0058779993434223635 0 0.013345298659098484 -0.0049988033829083843 0 0.01267294198315321 -0.0050643518884688002 0 0.020304338257719649 -0.0075840893150315057 0 0.021310704699556475 -0.007979538465840973 0 0.019633897666785381 -0.0085018430525175374 0 0.020304338257719649 -0.0075840893150315057 0 0.021310704699556475 -0.007979538465840973 0 0.021022891118916795 -0.0070050965277068146 0 0.021310704699556475 -0.007979538465840973 0 0.019633897666785381 -0.0085018430525175374 0 0.02113334458806488 -0.0093028315245461349 0 0.019633897666785381 -0.0085018430525175374 0 0.018666876984308096 -0.0084953997417448832 0 0.018057053452659809 -0.0095190932451923345 0 0.018666876984308096 -0.0084953997417448832 0 0.017923305424531497 -0.0085611526011276258 0 0.018057053452659809 -0.0095190932451923345 0 0.017923305424531497 -0.0085611526011276258 0 0.019053799754003002 -0.0073725448130512036 0 0.017655128390195195 -0.0071986058099730681 0 0.018666876984308096 -0.0084953997417448832 0 0.017923305424531497 -0.0085611526011276258 0 0.019053799754003002 -0.0073725448130512036 0 0.019633897666785381 -0.0085018430525175374 0 0.018666876984308096 -0.0084953997417448832 0 0.019053799754003002 -0.0073725448130512036 0 0.020304338257719649 -0.0075840893150315057 0 0.019633897666785381 -0.0085018430525175374 0 0.019053799754003002 -0.0073725448130512036 0 0.019053799754003002 -0.0073725448130512036 0 0.02045740704274741 -0.0066662658413741962 0 0.019618976640902709 -0.0055802916338291058 0 0.019053799754003002 -0.0073725448130512036 0 0.018418281639520095 -0.0062336486593174457 0 0.019618976640902709 -0.0055802916338291058 0 0.019053799754003002 -0.0073725448130512036 0 0.018418281639520095 -0.0062336486593174457 0 0.017655128390195195 -0.0071986058099730681 0 0.020997285471609502 -0.0059774665742748723 0 0.02045740704274741 -0.0066662658413741962 0 0.019618976640902709 -0.0055802916338291058 0 0.020997285471609502 -0.0059774665742748723 0 0.02045740704274741 -0.0066662658413741962 0 0.021213680928019393 -0.0063739367734993264 0 0.020304338257719649 -0.0075840893150315057 0 0.02045740704274741 -0.0066662658413741962 0 0.021022891118916795 -0.0070050965277068146 0 0.020304338257719649 -0.0075840893150315057 0 0.019053799754003002 -0.0073725448130512036 0 0.02045740704274741 -0.0066662658413741962 0 0.021310704699556475 -0.007979538465840973 0 0.021022891118916795 -0.0070050965277068146 0 0.021627320302137217 -0.0064693914181747367 0 0.02045740704274741 -0.0066662658413741962 0 0.021022891118916795 -0.0070050965277068146 0 0.021213680928019393 -0.0063739367734993264 0 0.021022891118916795 -0.0070050965277068146 0 0.021627320302137217 -0.0064693914181747367 0 0.021213680928019393 -0.0063739367734993264 0 0.021627320302137217 -0.0064693914181747367 0 0.021213680928019393 -0.0063739367734993264 0 0.021615648234598051 -0.0057888801434097638 0 0.020997285471609502 -0.0059774665742748723 0 0.021213680928019393 -0.0063739367734993264 0 0.021615648234598051 -0.0057888801434097638 0 0.020997285471609502 -0.0059774665742748723 0 0.021615648234598051 -0.0057888801434097638 0 0.021334117210830769 -0.0052525333150138616 0 0.021536377243839996 -0.0062387648796938169 0 0.021666837065221049 -0.0059769919222900612 0 0.021917606637950983 -0.0058477836630829467 0 0.022148482169835948 -0.0060062244043453819 0 0.022141080777160829 -0.0053084916067404984 0 0.021310704699556475 -0.007979538465840973 0 0.022702919402829248 -0.0064647269678911688 0 0.022696923254794707 -0.0066463747543069676 0 0.021310704699556475 -0.007979538465840973 0 0.022148482169835948 -0.0060062244043453819 0 0.022904506748871029 -0.0055734154804756167 0 0.021310704699556475 -0.007979538465840973 0 0.021627320302137217 -0.0064693914181747367 0 0.022148482169835948 -0.0060062244043453819 0 0.021627320302137217 -0.0064693914181747367 0 0.021917606637950983 -0.0058477836630829467 0 0.022148482169835948 -0.0060062244043453819 0 0.021627320302137217 -0.0064693914181747367 0 0.021615648234598051 -0.0057888801434097638 0 0.021917606637950983 -0.0058477836630829467 0 0.022148482169835948 -0.0060062244043453819 0 0.022904506748871029 -0.0055734154804756167 0 0.022497511946991844 -0.0054386494698552825 0 0.022116473383194044 -0.0062994948473115812 0 0.022432876626503895 -0.0065599039794389784 0 0.022451773538215435 -0.0064156680420205349 0 0.022696923254794707 -0.0066463747543069676 0 0.022432876626503895 -0.0065599039794389784 0 0.022451773538215435 -0.0064156680420205349 0 0.022702919402829248 -0.0064647269678911688 0 0.022696923254794707 -0.0066463747543069676 0 0.022432876626503895 -0.0065599039794389784 0 0.022696923254794707 -0.0066463747543069676 0 0.022451773538215435 -0.0064156680420205349 0 0.022463283355730879 -0.0061809428967480881 0 0.022116473383194044 -0.0062994948473115812 0 0.022451773538215435 -0.0064156680420205349 0 0.022463283355730879 -0.0061809428967480881 0 0.02202968372543429 -0.0058007073261599779 0 0.022463283355730879 -0.0061809428967480881 0 0.02267351891974391 -0.0057239779206212493 0 0.015604379522385014 -0.0064739111630450607 0 0.015035028951229976 -0.0061874941631597158 0 0.01425001185439715 -0.0056061299665923917 0 0.015035028951229976 -0.0061874941631597158 0 0.022696923254794707 -0.0066463747543069676 0 0.022463283355730879 -0.0061809428967480881 0 0.02267351891974391 -0.0057239779206212493 0 0.021310704699556475 -0.007979538465840973 0 0.023040447784514053 -0.0089102974014424099 0 0.02113334458806488 -0.0093028315245461349 0 0.021310704699556475 -0.007979538465840973 0 0.022696923254794707 -0.0066463747543069676 0 0.023040447784514053 -0.0089102974014424099 0 0.013012974763355467 -0.0084814644908707253 0 0.010229512887203 -0.011171721877102006 0 0.014010306815601843 -0.010818368409152512 0 0.013012974763355467 -0.0084814644908707253 0 0.010229512887203 -0.011171721877102006 0 0.0099407420346014803 -0.0075459120425338368 0 0.015035028951229976 -0.0061874941631597158 0 0.015736473888683173 -0.0065972005142652685 0 0.0069942205124941086 -0.0049742384345132671 0 0.0089095128423963658 -0.0060249245390849122 0 0.0087911509909837978 -0.0042585481040010673 0 0.015035028951229976 -0.0061874941631597158 0 0.013999314031341661 -0.0052746129131109893 0 0.007545692109779365 -0.0037405847379171943 0 0.0087911509909837978 -0.0042585481040010673 0 0.0088225087942737316 -0.0025874835537276135 0 0.007545692109779365 -0.0037405847379171943 0 0.0069942205124941086 -0.0049742384345132671 0 0.0087911509909837978 -0.0042585481040010673 0 0.013012974763355467 -0.0084814644908707253 0 0.0099407420346014803 -0.0075459120425338368 0 0.011705885786442763 -0.0061357483429657876 0 0.0099407420346014803 -0.0075459120425338368 0 0.011705885786442763 -0.0061357483429657876 0 0.0095665480430140778 -0.0041241064679112148 0 0.013012974763355467 -0.0084814644908707253 0 0.011705885786442763 -0.0061357483429657876 0 0.013617988575553339 -0.0063644478660903545 0 0.013617988575553339 -0.0063644478660903545 0 0.015647981251142768 -0.0070811975395589531 0 0.01497495967536182 -0.0080088620775471304 0 0.013617988575553339 -0.0063644478660903545 0 0.015647981251142768 -0.0070811975395589531 0 0.014289078383313657 -0.0051067796421097583 0 0.015647981251142768 -0.0070811975395589531 0 0.01497495967536182 -0.0080088620775471304 0 0.016487234296834949 -0.0087348213270379491 0 0.013012974763355467 -0.0084814644908707253 0 0.013617988575553339 -0.0063644478660903545 0 0.01497495967536182 -0.0080088620775471304 0 0.019633897666785381 -0.0085018430525175374 0 0.02113334458806488 -0.0093028315245461349 0 0.018057053452659809 -0.0095190932451923345 0 0.013012974763355467 -0.0084814644908707253 0 0.015375952717201246 -0.0092794612174087448 0 0.014010306815601843 -0.010818368409152512 0 0.015736473888683173 -0.0065972005142652685 0 0.015970955047347076 -0.0067220408240812402 0 0.013012974763355467 -0.0084814644908707253 0 0.01497495967536182 -0.0080088620775471304 0 0.015375952717201246 -0.0092794612174087448 0 0.015375952717201246 -0.0092794612174087448 0 0.014010306815601843 -0.010818368409152512 0 0.018057053452659809 -0.0095190932451923345 0 0.01497495967536182 -0.0080088620775471304 0 0.015375952717201246 -0.0092794612174087448 0 0.016487234296834949 -0.0087348213270379491 0 0.017923305424531497 -0.0085611526011276258 0 0.018057053452659809 -0.0095190932451923345 0 0.018135881492955398 -0.0094247869034798544 0 0.015375952717201246 -0.0092794612174087448 0 0.018057053452659809 -0.0095190932451923345 0 0.016487234296834949 -0.0087348213270379491 0 0.018057053452659809 -0.0095190932451923345 0 0.016487234296834949 -0.0087348213270379491 0 0.018135881492955398 -0.0094247869034798544 0 -0.0014213528344839083 0.0047180674971443355 0 -0.001696397019401827 0.0061697953191585265 0 -0.0023348411570216858 0.0068777369121134045 0 0.009178889262916148 -0.00015931260537796986 0 0.0075573614839961742 0.0014165853241197147 0 0.015647981251142768 -0.0070811975395589531 0 0.018135881492955398 -0.0094247869034798544 0 0.015969824448081208 -0.0051367438352107019 0 -0.0014213528344839083 0.0047180674971443355 0 -0.0013187648710644389 0.0059203126965600992 0 -0.001696397019401827 0.0061697953191585265 0 0.015647981251142768 -0.0070811975395589531 0 0.016487234296834949 -0.0087348213270379491 0 0.018135881492955398 -0.0094247869034798544 0 -0.0013187648710644389 0.0059203126965600992 0 -0.001696397019401827 0.0061697953191585265 0 -0.0017162037109701522 0.0071547817401675044 0 -0.0017162037109701522 0.0071547817401675044 0 -0.0023348411570216858 0.0068777369121134045 0 -0.0027699742298705858 0.009083127429674806 0 -0.0024743951320706178 0.0078372673697578062 0 -0.0020757614409087606 0.0084446754696997119 0 -0.0012029138688871936 0.0078004478239346985 0 -0.001696397019401827 0.0061697953191585265 0 -0.0017162037109701522 0.0071547817401675044 0 -0.0023348411570216858 0.0068777369121134045 0 0.015647981251142768 -0.0070811975395589531 0 0.015969824448081208 -0.0051367438352107019 0 0.014289078383313657 -0.0051067796421097583 0 0.013617988575553339 -0.0063644478660903545 0 0.014289078383313657 -0.0051067796421097583 0 0.012446753929146697 -0.0042261387098722278 0 0.013864234530705849 -0.0033718965624488064 0 0.012446753929146697 -0.0042261387098722278 0 0.012596208866716398 -0.0027790372554369431 0 0.014289078383313657 -0.0051067796421097583 0 0.013864234530705849 -0.0033718965624488064 0 0.012446753929146697 -0.0042261387098722278 0 0.015969824448081208 -0.0051367438352107019 0 0.014289078383313657 -0.0051067796421097583 0 0.013864234530705849 -0.0033718965624488064 0 0.015969824448081208 -0.0051367438352107019 0 0.013864234530705849 -0.0033718965624488064 0 0.013074329304027278 -0.0013115095579332874 0 -0.0023348411570216858 0.0068777369121134045 0 -0.0027699742298705858 0.009083127429674806 0 -0.0029132058749213982 0.0091832991828632929 0 -0.0024743951320706178 0.0078372673697578062 0 -0.0027699742298705858 0.009083127429674806 0 -0.0025366745204870407 0.0088542953046855093 0 -0.0015080008438480461 0.0068251816618083491 0 -0.0018106746761123512 0.0071857018818092125 0 0.0075573614839961742 0.0014165853241197147 0 0.0059284415369724791 0.0033071153579956763 0 0.013864234530705849 -0.0033718965624488064 0 0.012958263912722416 -0.0023268883758279838 0 0.013074329304027278 -0.0013115095579332874 0 0.013864234530705849 -0.0033718965624488064 0 0.012958263912722416 -0.0023268883758279838 0 0.012596208866716398 -0.0027790372554369431 0 0.012958263912722416 -0.0023268883758279838 0 0.013074329304027278 -0.0013115095579332874 0 0.012320748522635231 -0.0018584040932156547 0 -0.0027699742298705858 0.009083127429674806 0 -0.002622686938409796 0.0091849463966913181 0 -0.002746399214857143 0.0092532368319125455 0 -0.0027699742298705858 0.009083127429674806 0 -0.0029132058749213982 0.0091832991828632929 0 -0.002746399214857143 0.0092532368319125455 0 -0.0027699742298705858 0.009083127429674806 0 -0.002622686938409796 0.0091849463966913181 0 -0.0025366745204870407 0.0088542953046855093 0 -0.002622686938409796 0.0091849463966913181 0 -0.0025366745204870407 0.0088542953046855093 0 -0.0024391013587640549 0.0092453181346413889 0 -0.0024743951320706178 0.0078372673697578062 0 -0.0025366745204870407 0.0088542953046855093 0 -0.0023770367948202659 0.0087690543730979675 0 -0.0025366745204870407 0.0088542953046855093 0 -0.0023770367948202659 0.0087690543730979675 0 -0.0024391013587640549 0.0092453181346413889 0 -0.0020906034267600148 0.0092949609682614984 0 -0.0023770367948202659 0.0087690543730979675 0 -0.0024391013587640549 0.0092453181346413889 0 -0.0020906034267600148 0.0092949609682614984 0 -0.0020757614409087606 0.0084446754696997119 0 -0.0023770367948202659 0.0087690543730979675 0 -0.0024743951320706178 0.0078372673697578062 0 -0.0020757614409087606 0.0084446754696997119 0 -0.0023770367948202659 0.0087690543730979675 0 0.013999314031341661 -0.0052746129131109893 0 0.013377278014565425 -0.0042483733284763119 0 0.0070463951007523704 -0.002950730488574711 0 0.007545692109779365 -0.0037405847379171943 0 0.0088225087942737316 -0.0025874835537276135 0 0.011705885786442763 -0.0061357483429657876 0 0.0095665480430140778 -0.0041241064679112148 0 0.012446753929146697 -0.0042261387098722278 0 0.0095665480430140778 -0.0041241064679112148 0 0.012446753929146697 -0.0042261387098722278 0 0.011053993032151285 -0.0024041144182801177 0 0.011705885786442763 -0.0061357483429657876 0 0.013617988575553339 -0.0063644478660903545 0 0.012446753929146697 -0.0042261387098722278 0 0.012596208866716398 -0.0027790372554369431 0 0.012320748522635231 -0.0018584040932156547 0 0.011053993032151285 -0.0024041144182801177 0 0.012446753929146697 -0.0042261387098722278 0 0.012596208866716398 -0.0027790372554369431 0 0.011053993032151285 -0.0024041144182801177 0 0.012958263912722416 -0.0023268883758279838 0 0.012596208866716398 -0.0027790372554369431 0 0.012320748522635231 -0.0018584040932156547 0 0.013074329304027278 -0.0013115095579332874 0 0.012186805711805391 -0.0013213390315649927 0 0.011423187978535032 -0.0005379741237922979 0 0.012320748522635231 -0.0018584040932156547 0 0.01160739616095645 -0.0014237001175323321 0 0.011053993032151285 -0.0024041144182801177 0 0.013074329304027278 -0.0013115095579332874 0 0.012320748522635231 -0.0018584040932156547 0 0.012186805711805391 -0.0013213390315649927 0 0.012320748522635231 -0.0018584040932156547 0 0.012186805711805391 -0.0013213390315649927 0 0.01160739616095645 -0.0014237001175323321 0 0.012186805711805391 -0.0013213390315649927 0 0.01160739616095645 -0.0014237001175323321 0 0.011423187978535032 -0.0005379741237922979 0 0.010486977304930676 -0.0010642896504537488 0 0.011053993032151285 -0.0024041144182801177 0 0.0090849625127003807 -0.00083690571140656645 0 0.01160739616095645 -0.0014237001175323321 0 0.010486977304930676 -0.0010642896504537488 0 0.011053993032151285 -0.0024041144182801177 0 0.0095665480430140778 -0.0041241064679112148 0 0.011053993032151285 -0.0024041144182801177 0 0.0090849625127003807 -0.00083690571140656645 0 0.0071164393844892352 -0.0017532402136358734 0 0.0088225087942737316 -0.0025874835537276135 0 0.0090849625127003807 -0.00083690571140656645 0 0.013377278014565425 -0.0042483733284763119 0 0.013164591365424395 -0.0037457848349697546 0 0.0075808178383279384 -0.0002819140335346485 0 0.0088008263160170835 0.00077395594977107938 0 0.0090849625127003807 -0.00083690571140656645 0 0.010486977304930676 -0.0010642896504537488 0 0.0090849625127003807 -0.00083690571140656645 0 0.0097359882976683979 0.00019969715202149233 0 0.0088008263160170835 0.00077395594977107938 0 0.0097359882976683979 0.00019969715202149233 0 0.01017126546723821 0.0012439041010309175 0 0.0088008263160170835 0.00077395594977107938 0 0.0090849625127003807 -0.00083690571140656645 0 0.0097359882976683979 0.00019969715202149233 0 -0.0029132058749213982 0.0091832991828632929 0 -0.0026775505040071866 0.0096146014392995416 0 -0.0027191307761757215 0.0093917902465392982 0 0.013074329304027278 -0.0013115095579332874 0 0.011423187978535032 -0.0005379741237922979 0 0.010472767058895594 0.0016502700143829815 0 0.010569635666759886 0.00043297504202790074 0 0.011423187978535032 -0.0005379741237922979 0 0.010472767058895594 0.0016502700143829815 0 0.0059284415369724791 0.0033071153579956763 0 0.0044162773790181672 0.0051374700423233539 0 0.0097359882976683979 0.00019969715202149233 0 0.010569635666759886 0.00043297504202790074 0 0.01017126546723821 0.0012439041010309175 0 0.0097359882976683979 0.00019969715202149233 0 0.010569635666759886 0.00043297504202790074 0 0.010626999020639802 -0.00029772958380874575 0 0.010486977304930676 -0.0010642896504537488 0 0.0097359882976683979 0.00019969715202149233 0 0.010626999020639802 -0.00029772958380874575 0 0.010569635666759886 0.00043297504202790074 0 0.010626999020639802 -0.00029772958380874575 0 0.011423187978535032 -0.0005379741237922979 0 0.01160739616095645 -0.0014237001175323321 0 0.010486977304930676 -0.0010642896504537488 0 0.011423187978535032 -0.0005379741237922979 0 0.010486977304930676 -0.0010642896504537488 0 0.010626999020639802 -0.00029772958380874575 0 0.011423187978535032 -0.0005379741237922979 0 -0.0026775505040071866 0.0096146014392995416 0 -0.0026088536692844473 0.0095062964626299352 0 -0.0027191307761757215 0.0093917902465392982 0 -0.0026775505040071866 0.0096146014392995416 0 -0.0026088536692844473 0.0095062964626299352 0 -0.0024586369351953423 0.0096186378718790249 0 0.010569635666759886 0.00043297504202790074 0 0.010472767058895594 0.0016502700143829815 0 0.01017126546723821 0.0012439041010309175 0 0.010341962222974978 0.0014638969699561925 0 0.01017126546723821 0.0012439041010309175 0 0.0092492359774714473 0.001982964275654522 0 0.0044162773790181672 0.0051374700423233539 0 0.0044268869372739751 0.0051357220010310629 0 0.0041393418290279526 0.0049522232696031458 0 0.0044162773790181672 0.0051374700423233539 0 0.0091319983647114768 0.0030442304785560175 0 0.010341962222974978 0.0014638969699561925 0 0.0092492359774714473 0.001982964275654522 0 0.0088008263160170835 0.00077395594977107938 0 0.01017126546723821 0.0012439041010309175 0 0.0092492359774714473 0.001982964275654522 0 0.0077468176830871914 0.0025464580970878431 0 0.0076255905851470634 0.0011934823780412002 0 0.0092492359774714473 0.001982964275654522 0 0.0076255905851470634 0.0011934823780412002 0 0.0088008263160170835 0.00077395594977107938 0 0.0092492359774714473 0.001982964275654522 0 -0.0024103756787414647 0.0094602394035578248 0 -0.0022220649875207632 0.0095662009104690044 0 -0.0023976849811417188 0.0095918697393677001 0 -0.0020906034267600148 0.0092949609682614984 0 -0.0022220649875207632 0.0095662009104690044 0 -0.0024391013587640549 0.0092453181346413889 0 -0.0024103756787414647 0.0094602394035578248 0 -0.0022220649875207632 0.0095662009104690044 0 -0.0024391013587640549 0.0092453181346413889 0 -0.002622686938409796 0.0091849463966913181 0 -0.0024391013587640549 0.0092453181346413889 0 -0.0025913162964551978 0.0093867404460690577 0 -0.0024103756787414647 0.0094602394035578248 0 -0.0024391013587640549 0.0092453181346413889 0 -0.0025913162964551978 0.0093867404460690577 0 -0.002622686938409796 0.0091849463966913181 0 -0.0025913162964551978 0.0093867404460690577 0 -0.002746399214857143 0.0092532368319125455 0 -0.0029132058749213982 0.0091832991828632929 0 -0.002746399214857143 0.0092532368319125455 0 -0.0027191307761757215 0.0093917902465392982 0 -0.0025913162964551978 0.0093867404460690577 0 -0.002746399214857143 0.0092532368319125455 0 -0.0027191307761757215 0.0093917902465392982 0 -0.0025913162964551978 0.0093867404460690577 0 -0.0026088536692844473 0.0095062964626299352 0 -0.0023976849811417188 0.0095918697393677001 0 -0.0025913162964551978 0.0093867404460690577 0 -0.0026088536692844473 0.0095062964626299352 0 -0.0027191307761757215 0.0093917902465392982 0 -0.0024103756787414647 0.0094602394035578248 0 -0.0025913162964551978 0.0093867404460690577 0 -0.0023976849811417188 0.0095918697393677001 0 -0.002151127182259334 0.0097166080940627557 0 -0.0023976849811417188 0.0095918697393677001 0 -0.0024586369351953423 0.0096186378718790249 0 -0.002151127182259334 0.0097166080940627557 0 -0.0026775505040071866 0.0096146014392995416 0 -0.0024586369351953423 0.0096186378718790249 0 -0.002151127182259334 0.0097166080940627557 0 -0.0023976849811417188 0.0095918697393677001 0 -0.0021535392964674585 0.0096978249761370781 0 -0.0026088536692844473 0.0095062964626299352 0 -0.0023976849811417188 0.0095918697393677001 0 -0.0024586369351953423 0.0096186378718790249 0 -0.0022220649875207632 0.0095662009104690044 0 -0.0023976849811417188 0.0095918697393677001 0 -0.0021535392964674585 0.0096978249761370781 0 -0.0022220649875207632 0.0095662009104690044 0 -0.0021535392964674585 0.0096978249761370781 0 -0.0021961817872297711 0.009843932976874083 0 -0.0022220649875207632 0.0095662009104690044 0 -0.0021961817872297711 0.009843932976874083 0 -0.0022005409364991573 0.0096218855817937227 0 -0.0020906034267600148 0.0092949609682614984 0 -0.0022220649875207632 0.0095662009104690044 0 -0.0022005409364991573 0.0096218855817937227 0 -0.0022005409364991573 0.0096218855817937227 0 -0.0020677042711171306 0.010054021919282825 0 -0.0017557284033100635 0.0097022683745631982 0 -0.002279181188189898 0.0099786077545071395 0 -0.0021961817872297711 0.009843932976874083 0 -0.0020677042711171306 0.010054021919282825 0 -0.0021961817872297711 0.009843932976874083 0 -0.0022005409364991573 0.0096218855817937227 0 -0.0020677042711171306 0.010054021919282825 0 -0.0020677042711171306 0.010054021919282825 0 -0.0020065723324069603 0.010205700246612782 0 -0.0011309267048657996 0.010749887766730882 0 -0.002279181188189898 0.0099786077545071395 0 -0.0020677042711171306 0.010054021919282825 0 -0.0020065723324069603 0.010205700246612782 0 -0.0020065723324069603 0.010205700246612782 0 -0.0022041558187298172 0.010223595425925606 0 -0.0011309267048657996 0.010749887766730882 0 -0.0022961399996242427 0.010058552044464783 0 -0.0020065723324069603 0.010205700246612782 0 -0.0022041558187298172 0.010223595425925606 0 0.00064877335218039244 0.010550898602579906 0 0.00057479960646925077 0.010516180303917867 0 0.00022228971044914843 0.013812446373650984 0 -0.0011309267048657996 0.010749887766730882 0 0.0012098082055052042 0.011655932798803455 0 -0.0011309267048657996 0.010749887766730882 0 0.0012098082055052042 0.011655932798803455 0 0.00091434162957880103 0.0094843441879726258 0 -0.0011309267048657996 0.010749887766730882 0 -0.0017557284033100635 0.0097022683745631982 0 0.00091434162957880103 0.0094843441879726258 0 -0.0020677042711171306 0.010054021919282825 0 -0.0011309267048657996 0.010749887766730882 0 -0.0017557284033100635 0.0097022683745631982 0 -0.0017557284033100635 0.0097022683745631982 0 -0.00074887076764064333 0.0078555285708563367 0 -0.0022668936104755749 0.0091825585753559386 0 0.0015529154702749696 0.0077806103972403971 0 0.0004225714621910162 0.0081875097284912161 0 -0.0017557284033100635 0.0097022683745631982 0 -0.00074887076764064333 0.0078555285708563367 0 0.00091434162957880103 0.0094843441879726258 0 0.0028132550612964078 0.0077324447922699595 0 0.0050714178526076225 0.0068175334653457209 0 0.0035553140460211304 0.0056479033408770992 0 0.0028132550612964078 0.0077324447922699595 0 0.00038517550322731119 0.0086424296301181053 0 0.0014448293749066664 0.0059666839558882171 0 -5.7538616962198768e-05 0.0070240757872309829 0 -0.0012029138688871936 0.0078004478239346985 0 0.00038517550322731119 0.0086424296301181053 0 -5.7538616962198768e-05 0.0070240757872309829 0 0.00038517550322731119 0.0086424296301181053 0 0.0014448293749066664 0.0059666839558882171 0 -0.0024743951320706178 0.0078372673697578062 0 -0.0012029138688871936 0.0078004478239346985 0 -0.0008668064631152468 0.0056594086962333994 0 -5.7538616962198768e-05 0.0070240757872309829 0 -0.0012029138688871936 0.0078004478239346985 0 -0.0008668064631152468 0.0056594086962333994 0 -0.0020906034267600148 0.0092949609682614984 0 -0.0020757614409087606 0.0084446754696997119 0 -0.0012029138688871936 0.0078004478239346985 0 -0.0020906034267600148 0.0092949609682614984 0 -0.0012029138688871936 0.0078004478239346985 0 0.00038517550322731119 0.0086424296301181053 0 -0.0020906034267600148 0.0092949609682614984 0 -0.0022005409364991573 0.0096218855817937227 0 -0.0022668936104755749 0.0091825585753559386 0 -6.1041396961020208e-05 0.0083601987668697961 0 0.0004225714621910162 0.0081875097284912161 0 -0.0022005409364991573 0.0096218855817937227 0 -0.0017557284033100635 0.0097022683745631982 0 -0.0022668936104755749 0.0091825585753559386 0 0.010581609157788887 0.010018377527741209 0 0.0085156736433336863 0.012773175195771362 0 0.008350919352045641 0.0089725083181012091 0 0.008196027441895409 0.014338720327494427 0 0.0096603537724818701 0.014072466600408057 0 0.0085156736433336863 0.012773175195771362 0 0.0085156736433336863 0.012773175195771362 0 0.006137946166687152 0.011232798136142291 0 0.0051672518392812403 0.014416237754879336 0 0.0033321907362629175 0.01058313133088502 0 0.002510720337387984 0.01065659461983255 0 0.008196027441895409 0.014338720327494427 0 0.0085156736433336863 0.012773175195771362 0 0.0059702579985211925 0.014045999816412125 0 0.0085156736433336863 0.012773175195771362 0 0.006137946166687152 0.011232798136142291 0 0.008350919352045641 0.0089725083181012091 0 0.006137946166687152 0.011232798136142291 0 0.0034764641800159308 0.011408252902501071 0 0.0050162080782315977 0.0088956936554787525 0 0.006137946166687152 0.011232798136142291 0 0.0034764641800159308 0.011408252902501071 0 0.0051672518392812403 0.014416237754879336 0 0.0034764641800159308 0.011408252902501071 0 0.0051672518392812403 0.014416237754879336 0 0.002362227838835643 0.013496601803514086 0 0.0015140352000108236 0.016192645894496177 0 0.00022228971044914843 0.013812446373650984 0 0.002362227838835643 0.013496601803514086 0 0.00022228971044914843 0.013812446373650984 0 0.002362227838835643 0.013496601803514086 0 0.0012098082055052042 0.011655932798803455 0 0.0034764641800159308 0.011408252902501071 0 0.0012098082055052042 0.011655932798803455 0 0.00091434162957880103 0.0094843441879726258 0 0.0034764641800159308 0.011408252902501071 0 0.002362227838835643 0.013496601803514086 0 0.0012098082055052042 0.011655932798803455 0 0.00091434162957880103 0.0094843441879726258 0 0.0027733500048545204 0.0065672985669408615 0 0.0050162080782315977 0.0088956936554787525 0 0.0015529154702749696 0.0077806103972403971 0 0.0028050708690693406 0.0073495139085043015 0 -0.00074887076764064333 0.0078555285708563367 0 0.00091434162957880103 0.0094843441879726258 0 0.0027733500048545204 0.0065672985669408615 0 0.0028050708690693406 0.0073495139085043015 0 0.0034556157728295677 0.0071388727643336303 0 0.0027733500048545204 0.0065672985669408615 0 0.0050162080782315977 0.0088956936554787525 0 0.0070188593618295912 0.0060415850305268566 0 0.0034764641800159308 0.011408252902501071 0 0.00091434162957880103 0.0094843441879726258 0 0.0050162080782315977 0.0088956936554787525 0 0.006137946166687152 0.011232798136142291 0 0.0050162080782315977 0.0088956936554787525 0 0.008350919352045641 0.0089725083181012091 0 0.0050162080782315977 0.0088956936554787525 0 0.008350919352045641 0.0089725083181012091 0 0.0070188593618295912 0.0060415850305268566 0 0.010954035249026713 0.0079250238122873067 0 0.008350919352045641 0.0089725083181012091 0 0.0096780096382082237 0.0062136343543154112 0 0.008350919352045641 0.0089725083181012091 0 0.0096780096382082237 0.0062136343543154112 0 0.0070188593618295912 0.0060415850305268566 0 0.0089101223167795916 0.0042183170712721228 0 0.0070188593618295912 0.0060415850305268566 0 0.007097184633122337 0.0032050177205430264 0 0.010669567986358265 0.0046056274718814854 0 0.0089101223167795916 0.0042183170712721228 0 0.0096780096382082237 0.0062136343543154112 0 0.010669567986358265 0.0046056274718814854 0 0.010376395898186057 0.0031232901386970113 0 0.0089101223167795916 0.0042183170712721228 0 0.0089101223167795916 0.0042183170712721228 0 0.0096780096382082237 0.0062136343543154112 0 0.0070188593618295912 0.0060415850305268566 0 0.0070188593618295912 0.0060415850305268566 0 0.0056687697807724967 0.0048385627137032166 0 0.007097184633122337 0.0032050177205430264 0 0.0056687697807724967 0.0048385627137032166 0 0.00550776840724809 0.0031123717116465152 0 0.007097184633122337 0.0032050177205430264 0 0.0050714178526076225 0.0068175334653457209 0 0.0070188593618295912 0.0060415850305268566 0 0.0056687697807724967 0.0048385627137032166 0 0.0050714178526076225 0.0068175334653457209 0 0.0056687697807724967 0.0048385627137032166 0 0.0035553140460211304 0.0056479033408770992 0 0.0056687697807724967 0.0048385627137032166 0 0.0041824751926354846 0.0037978550170240676 0 0.0035553140460211304 0.0056479033408770992 0 0.0056687697807724967 0.0048385627137032166 0 0.0041824751926354846 0.0037978550170240676 0 0.00550776840724809 0.0031123717116465152 0 0.0041824751926354846 0.0037978550170240676 0 0.0044180763276728662 0.0021485746754760148 0 0.00550776840724809 0.0031123717116465152 0 0.0044180763276728662 0.0021485746754760148 0 0.0033099686396939332 0.0014149386611182497 0 0.0045327042962731313 0.00046368760601337068 0 0.0044180763276728662 0.0021485746754760148 0 0.0062084669200415457 0.0015095243987102386 0 0.0045327042962731313 0.00046368760601337068 0 0.0062084669200415457 0.0015095243987102386 0 0.0058896346526887446 0.00012476532795055952 0 0.0045327042962731313 0.00046368760601337068 0 0.0062084669200415457 0.0015095243987102386 0 0.0077528080645692995 8.7006078570724728e-05 0 0.0058896346526887446 0.00012476532795055952 0 0.0044180763276728662 0.0021485746754760148 0 0.0062084669200415457 0.0015095243987102386 0 0.00550776840724809 0.0031123717116465152 0 0.0062084669200415457 0.0015095243987102386 0 0.00550776840724809 0.0031123717116465152 0 0.007097184633122337 0.0032050177205430264 0 0.0062084669200415457 0.0015095243987102386 0 0.007097184633122337 0.0032050177205430264 0 0.0088028235308494924 0.0018652700424378549 0 0.0089101223167795916 0.0042183170712721228 0 0.007097184633122337 0.0032050177205430264 0 0.0088028235308494924 0.0018652700424378549 0 0.0062084669200415457 0.0015095243987102386 0 0.0088028235308494924 0.0018652700424378549 0 0.0077528080645692995 8.7006078570724728e-05 0 0.010812396177733784 0.0013707773509379917 0 0.010233543557438902 -0.00048037765358714972 0 0.0088028235308494924 0.0018652700424378549 0 0.010376395898186057 0.0031232901386970113 0 0.0089101223167795916 0.0042183170712721228 0 0.0088028235308494924 0.0018652700424378549 0 0.010812396177733784 0.0013707773509379917 0 0.010376395898186057 0.0031232901386970113 0 0.0088028235308494924 0.0018652700424378549 0 0.0010324906963263744 0.0036900203059983547 0 -0.00028977376299024028 0.0040882574261016319 0 -0.00037075045129978968 0.0053873160541102151 0 0.0010324906963263744 0.0036900203059983547 0 -0.0008668064631152468 0.0056594086962333994 0 0.0014448293749066664 0.0059666839558882171 0 -0.00054241569019121774 0.0057267864350002686 0 -0.00089827361850017772 0.006124534977757938 0 -0.0014213528344839083 0.0047180674971443355 0 -0.00028977376299024028 0.0040882574261016319 0 -0.00046798004826931314 0.0036490063438690524 0 -0.0014213528344839083 0.0047180674971443355 0 -0.00077066033172076723 0.0048741235675483071 0 -0.0010093111615299857 0.0052982451839979914 0 -0.0014213528344839083 0.0047180674971443355 0 -0.00028977376299024028 0.0040882574261016319 0 -0.00077066033172076723 0.0048741235675483071 0 -0.00028977376299024028 0.0040882574261016319 0 -0.00077066033172076723 0.0048741235675483071 0 -0.00037075045129978968 0.0053873160541102151 0 -0.0013187648710644389 0.0059203126965600992 0 -0.0017162037109701522 0.0071547817401675044 0 -0.00037075045129978968 0.0053873160541102151 0 -0.0015080008438480461 0.0068251816618083491 0 -0.00089827361850017772 0.006124534977757938 0 -0.0013187648710644389 0.0059203126965600992 0 -0.00037075045129978968 0.0053873160541102151 0 -0.0010093111615299857 0.0052982451839979914 0 -0.00077066033172076723 0.0048741235675483071 0 -0.00037075045129978968 0.0053873160541102151 0 -0.0010093111615299857 0.0052982451839979914 0 -0.0014213528344839083 0.0047180674971443355 0 -0.0013187648710644389 0.0059203126965600992 0 -0.0010093111615299857 0.0052982451839979914 0 -5.7538616962198768e-05 0.0070240757872309829 0 -0.0008668064631152468 0.0056594086962333994 0 0.0014448293749066664 0.0059666839558882171 0 0.0028132550612964078 0.0077324447922699595 0 0.0014448293749066664 0.0059666839558882171 0 0.0035553140460211304 0.0056479033408770992 0 0.0014448293749066664 0.0059666839558882171 0 0.0035553140460211304 0.0056479033408770992 0 0.0024935808136065034 0.0040158806270066535 0 0.0041824751926354846 0.0037978550170240676 0 0.0035553140460211304 0.0056479033408770992 0 0.0024935808136065034 0.0040158806270066535 0 0.0010324906963263744 0.0036900203059983547 0 0.0014448293749066664 0.0059666839558882171 0 0.0024935808136065034 0.0040158806270066535 0 0.0010324906963263744 0.0036900203059983547 0 0.0024935808136065034 0.0040158806270066535 0 0.0014807325705531737 0.0026238593343660289 0 0.0024935808136065034 0.0040158806270066535 0 0.0014807325705531737 0.0026238593343660289 0 0.0029863880037631699 0.0025233267041319778 0 0.0014807325705531737 0.0026238593343660289 0 0.0029863880037631699 0.0025233267041319778 0 0.0022694930755065693 0.0016218688595014208 0 0.0041824751926354846 0.0037978550170240676 0 0.0024935808136065034 0.0040158806270066535 0 0.0029863880037631699 0.0025233267041319778 0 0.0041824751926354846 0.0037978550170240676 0 0.0044180763276728662 0.0021485746754760148 0 0.0029863880037631699 0.0025233267041319778 0 0.0033099686396939332 0.0014149386611182497 0 0.0024205171013458693 0.00044954926734044919 0 0.0045327042962731313 0.00046368760601337068 0 0.0044180763276728662 0.0021485746754760148 0 0.0029863880037631699 0.0025233267041319778 0 0.0033099686396939332 0.0014149386611182497 0 0.0029863880037631699 0.0025233267041319778 0 0.0033099686396939332 0.0014149386611182497 0 0.0022694930755065693 0.0016218688595014208 0 0.0033099686396939332 0.0014149386611182497 0 0.0022694930755065693 0.0016218688595014208 0 0.0024205171013458693 0.00044954926734044919 0 0.0014807325705531737 0.0026238593343660289 0 0.0022694930755065693 0.0016218688595014208 0 0.0012385675681874601 0.0013475909089172881 0 0.0091353154571550983 -0.00034253883706526561 0 0.011284984970736189 -0.0015232136164965691 0 0.0022694930755065693 0.0016218688595014208 0 0.0012385675681874601 0.0013475909089172881 0 0.0024205171013458693 0.00044954926734044919 0 0.016669589371511091 -0.0080054208469282438 0 0.016426859895373978 -0.0062286701001126529 0 0.014841320033211992 -0.0050305431885623881 0 0.010759176357994938 -0.0010873590957075825 0 0.012787522171818116 -0.0018384719125698694 0 0.0014807325705531737 0.0026238593343660289 0 0.0012385675681874601 0.0013475909089172881 0 0.00014060575520274978 0.0022020524518284934 0 0.00014060575520274978 0.0022020524518284934 0 -0.00045179181775849368 0.0026080787860417545 0 0.00089284885559810746 0.00016413591953121445 0 0.0015249923255014545 0.0012638413442633658 0 0.00014060575520274978 0.0022020524518284934 0 0.00089284885559810746 0.00016413591953121445 0 0.0091353154571550983 -0.00034253883706526561 0 0.0084077861089101331 6.0806729373862617e-05 0 0.0010324906963263744 0.0036900203059983547 0 -0.00028977376299024028 0.0040882574261016319 0 0.00031545718265753357 0.0031784490650461159 0 0.0014807325705531737 0.0026238593343660289 0 0.00014060575520274978 0.0022020524518284934 0 0.00031545718265753357 0.0031784490650461159 0 0.00014060575520274978 0.0022020524518284934 0 0.00031545718265753357 0.0031784490650461159 0 -0.00045179181775849368 0.0026080787860417545 0 -0.00028977376299024028 0.0040882574261016319 0 0.00031545718265753357 0.0031784490650461159 0 -0.00046798004826931314 0.0036490063438690524 0 0.0010324906963263744 0.0036900203059983547 0 0.0014807325705531737 0.0026238593343660289 0 0.00031545718265753357 0.0031784490650461159 0 0.009178889262916148 -0.00015931260537796986 0 0.010759176357994938 -0.0010873590957075825 0 0.017923305424531497 -0.0085611526011276258 0 0.018135881492955398 -0.0094247869034798544 0 0.016669589371511091 -0.0080054208469282438 0 -0.0014213528344839083 0.0047180674971443355 0 -0.00046798004826931314 0.0036490063438690524 0 -0.00045179181775849368 0.0026080787860417545 0 0.00031545718265753357 0.0031784490650461159 0 -0.00046798004826931314 0.0036490063438690524 0 -0.00045179181775849368 0.0026080787860417545 0 0.017923305424531497 -0.0085611526011276258 0 0.016669589371511091 -0.0080054208469282438 0 0.017655128390195195 -0.0071986058099730681 0 0.016669589371511091 -0.0080054208469282438 0 0.017655128390195195 -0.0071986058099730681 0 0.016426859895373978 -0.0062286701001126529 0 0.018418281639520095 -0.0062336486593174457 0 0.017669241267152386 -0.0061011893990100255 0 0.018181884502570911 -0.0047263388905406916 0 0.016426859895373978 -0.0062286701001126529 0 0.017669241267152386 -0.0061011893990100255 0 0.018181884502570911 -0.0047263388905406916 0 0.018418281639520095 -0.0062336486593174457 0 0.017655128390195195 -0.0071986058099730681 0 0.017669241267152386 -0.0061011893990100255 0 0.017655128390195195 -0.0071986058099730681 0 0.016426859895373978 -0.0062286701001126529 0 0.017669241267152386 -0.0061011893990100255 0 0.016426859895373978 -0.0062286701001126529 0 0.014841320033211992 -0.0050305431885623881 0 0.018181884502570911 -0.0047263388905406916 0 0.012787522171818116 -0.0018384719125698694 0 0.016364849920949481 -0.0021783307579547589 0 0.022205799957323968 -0.0043307398127113497 0 0.02226528156155004 -0.004239115890725266 0 0.022142658788101316 -0.0043145140058228693 0 0.022162924414290963 -0.0043861274998939302 0 0.022205799957323968 -0.0043307398127113497 0 0.022142658788101316 -0.0043145140058228693 0 0.022205799957323968 -0.0043307398127113497 0 0.022187303982824653 -0.0043376551116424637 0 0.022186655500659871 -0.0043057678157898734 0 0.022162924414290963 -0.0043861274998939302 0 0.022187303982824653 -0.0043376551116424637 0 0.022199216358000512 -0.0043518366018424444 0 0.022162924414290963 -0.0043861274998939302 0 0.022205799957323968 -0.0043307398127113497 0 0.022187303982824653 -0.0043376551116424637 0 0.022205799957323968 -0.0043307398127113497 0 0.022478895349249763 -0.0043142347899992068 0 0.022205419786127497 -0.0043237160019168426 0 0.023396790176071384 -0.0042917044618992683 0 0.02343734829012081 -0.0042702589280539313 0 0.022205799957323968 -0.0043307398127113497 0 0.02226528156155004 -0.004239115890725266 0 0.022478895349249763 -0.0043142347899992068 0 0.02226528156155004 -0.004239115890725266 0 0.0222715706474991 -0.0040766006843347309 0 0.022142658788101316 -0.0043145140058228693 0 0.02226528156155004 -0.004239115890725266 0 0.0222715706474991 -0.0040766006843347309 0 0.022478895349249763 -0.0043142347899992068 0 0.021962551624985123 -0.0030875627144858215 0 0.02312126295164391 -0.0030070231875549643 0 0.02325766453720516 -0.0038531420229139194 0 0.0015249923255014545 0.0012638413442633658 0 0.00089284885559810746 0.00016413591953121445 0 0.0029417755709259504 0.0002951348792535433 0 0.012787522171818116 -0.0018384719125698694 0 0.011284984970736189 -0.0015232136164965691 0 0.011284984970736189 -0.0015232136164965691 0 0.0098917526153499778 -0.0014946464044979907 0 0.0021683881394843237 0.00028241834546044388 0 0.0045327042962731313 0.00046368760601337068 0 0.0045505557215576638 -0.0013942257540055774 0 0.02312126295164391 -0.0030070231875549643 0 0.02325766453720516 -0.0038531420229139194 0 0.024450042035656455 -0.0040626056075003065 0 0.011284984970736189 -0.0015232136164965691 0 0.013841171476181189 -0.00234553240217101 0 0.02325766453720516 -0.0038531420229139194 0 0.023877652303407351 -0.0045628842506090306 0 0.024450042035656455 -0.0040626056075003065 0 0.02325766453720516 -0.0038531420229139194 0 0.022787465067301699 -0.004518187433448723 0 0.023877652303407351 -0.0045628842506090306 0 0.012787522171818116 -0.0018384719125698694 0 0.014191275430886259 -0.0031723594160118118 0 0.0222715706474991 -0.0040766006843347309 0 0.022478895349249763 -0.0043142347899992068 0 0.022787465067301699 -0.004518187433448723 0 0.022478895349249763 -0.0043142347899992068 0 0.022787465067301699 -0.004518187433448723 0 0.022301670341478685 -0.0048430349598291922 0 0.021962551624985123 -0.0030875627144858215 0 0.02325766453720516 -0.0038531420229139194 0 0.022787465067301699 -0.004518187433448723 0 0.022787465067301699 -0.004518187433448723 0 0.022661518852290431 -0.00510678149898053 0 0.022301670341478685 -0.0048430349598291922 0 0.022787465067301699 -0.004518187433448723 0 0.022661518852290431 -0.00510678149898053 0 0.023280170191997376 -0.004952416400623768 0 0.022661518852290431 -0.00510678149898053 0 0.023280170191997376 -0.004952416400623768 0 0.022884663328721581 -0.0055423374227788593 0 0.022787465067301699 -0.004518187433448723 0 0.023877652303407351 -0.0045628842506090306 0 0.023280170191997376 -0.004952416400623768 0 0.023280170191997376 -0.004952416400623768 0 0.023815587307000782 -0.0053422030912667088 0 0.022884663328721581 -0.0055423374227788593 0 0.023877652303407351 -0.0045628842506090306 0 0.023280170191997376 -0.004952416400623768 0 0.023815587307000782 -0.0053422030912667088 0 0.023877652303407351 -0.0045628842506090306 0 0.023815587307000782 -0.0053422030912667088 0 0.02458773143035661 -0.0048460735558483606 0 0.023791733335430904 -0.0041360295730570968 0 0.023635617513725084 -0.0041640738989538279 0 0.024938172541413724 -0.0048481376205697247 0 0.024943559513579551 -0.0046644409216714585 0 0.025263137254305096 -0.0046844728363892004 0 0.024943559513579551 -0.0046644409216714585 0 0.025263137254305096 -0.0046844728363892004 0 0.025076268530696239 -0.0045082868166652825 0 0.023791733335430904 -0.0041360295730570968 0 0.023859690176250926 -0.0040522502699799406 0 0.024938172541413724 -0.0048481376205697247 0 0.024943559513579551 -0.0046644409216714585 0 0.024721344666675475 -0.0047840490009991576 0 0.023725973283938832 -0.0041718280037521928 0 0.02373131058190121 -0.0041495143342193397 0 0.023657002807064207 -0.0041678732266697271 0 0.023635617513725084 -0.0041640738989538279 0 0.023587680620860075 -0.0041259901843819944 0 0.022661518852290431 -0.00510678149898053 0 0.022884663328721581 -0.0055423374227788593 0 0.022065826017816904 -0.0057267133666579102 0 0.023805638744028287 -0.0041315091903328131 0 0.023725973283938832 -0.0041718280037521928 0 0.02373131058190121 -0.0041495143342193397 0 0.023859690176250926 -0.0040522502699799406 0 0.023777502427316063 -0.0039840888918632016 0 0.023725973283938832 -0.0041718280037521928 0 0.023657002807064207 -0.0041678732266697271 0 0.023646293361841458 -0.0042124918684022603 0 0.022090067212202021 -0.00413064657069358 0 0.022202350982753877 -0.0041331090031893379 0 0.022167460118959894 -0.0042358866307593661 0 0.023587680620860075 -0.0041259901843819944 0 0.023777502427316063 -0.0039840888918632016 0 0.022090067212202021 -0.00413064657069358 0 0.022264168112340513 -0.0039114853959069809 0 0.022202350982753877 -0.0041331090031893379 0 0.023160268112518291 -0.0036122159896171662 0 0.02309777537252037 -0.0036245702673224469 0 0.02315299899346249 -0.0036411490685438574 0 0.023587680620860075 -0.0041259901843819944 0 0.023317307440416598 -0.0041151057421570042 0 0.022264168112340513 -0.0039114853959069809 0 0.022202350982753877 -0.0041331090031893379 0 0.02236623683327648 -0.0041195432059997301 0 0.022202350982753877 -0.0041331090031893379 0 0.022214474630232101 -0.0042581908551694043 0 0.022167460118959894 -0.0042358866307593661 0 0.022214474630232101 -0.0042581908551694043 0 0.022186655500659871 -0.0043057678157898734 0 0.022167460118959894 -0.0042358866307593661 0 0.022202350982753877 -0.0041331090031893379 0 0.022214474630232101 -0.0042581908551694043 0 0.02236623683327648 -0.0041195432059997301 0 0.022187303982824653 -0.0043376551116424637 0 0.022214474630232101 -0.0042581908551694043 0 0.022199216358000512 -0.0043518366018424444 0 0.022187303982824653 -0.0043376551116424637 0 0.022214474630232101 -0.0042581908551694043 0 0.022186655500659871 -0.0043057678157898734 0 0.023587680620860075 -0.0041259901843819944 0 0.02343734829012081 -0.0042702589280539313 0 0.022661518852290431 -0.00510678149898053 0 0.022065826017816904 -0.0057267133666579102 0 0.022301670341478685 -0.0048430349598291922 0 0.022205799957323968 -0.0043307398127113497 0 0.022186655500659871 -0.0043057678157898734 0 0.022205419786127497 -0.0043237160019168426 0 0.022186655500659871 -0.0043057678157898734 0 0.022205419786127497 -0.0043237160019168426 0 0.022167460118959894 -0.0042358866307593661 0 0.022090067212202021 -0.00413064657069358 0 0.022205419786127497 -0.0043237160019168426 0 0.022167460118959894 -0.0042358866307593661 0 0.010233543557438902 -0.00048037765358714972 0 0.010057788041892054 -0.0025073542128154149 0 0.0083075680292306418 -0.0018956853199188031 0 0.010233543557438902 -0.00048037765358714972 0 0.0077528080645692995 8.7006078570724728e-05 0 0.0083075680292306418 -0.0018956853199188031 0 0.010233543557438902 -0.00048037765358714972 0 0.0088028235308494924 0.0018652700424378549 0 0.0077528080645692995 8.7006078570724728e-05 0 0.0077528080645692995 8.7006078570724728e-05 0 0.0083075680292306418 -0.0018956853199188031 0 0.0064251217453555548 -0.0012307064303963328 0 0.0083075680292306418 -0.0018956853199188031 0 0.0064251217453555548 -0.0012307064303963328 0 0.0069264007871094584 -0.0031093090153456572 0 0.0064251217453555548 -0.0012307064303963328 0 0.0045505557215576638 -0.0013942257540055774 0 0.0069264007871094584 -0.0031093090153456572 0 0.024450042035656455 -0.0040626056075003065 0 0.02455279117067315 -0.004511392550757852 0 0.024866122304791197 -0.0047879766082579529 0 0.013841171476181189 -0.00234553240217101 0 0.016026831500310052 -0.0029205530807562157 0 0.0064251217453555548 -0.0012307064303963328 0 0.0058896346526887446 0.00012476532795055952 0 0.0045505557215576638 -0.0013942257540055774 0 0.0077528080645692995 8.7006078570724728e-05 0 0.0064251217453555548 -0.0012307064303963328 0 0.0058896346526887446 0.00012476532795055952 0 0.0058896346526887446 0.00012476532795055952 0 0.0045327042962731313 0.00046368760601337068 0 0.0045505557215576638 -0.0013942257540055774 0 0.023877652303407351 -0.0045628842506090306 0 0.024450042035656455 -0.0040626056075003065 0 0.02455279117067315 -0.004511392550757852 0 0.023877652303407351 -0.0045628842506090306 0 0.02455279117067315 -0.004511392550757852 0 0.02458773143035661 -0.0048460735558483606 0 0.02455279117067315 -0.004511392550757852 0 0.02458773143035661 -0.0048460735558483606 0 0.02468488406412064 -0.0047690843835013529 0 0.02458773143035661 -0.0048460735558483606 0 0.024721344666675475 -0.0047840490009991576 0 0.02468488406412064 -0.0047690843835013529 0 0.023791733335430904 -0.0041360295730570968 0 0.023824414442737633 -0.0041420010895648705 0 0.024938172541413724 -0.0048481376205697247 0 0.02458773143035661 -0.0048460735558483606 0 0.024721344666675475 -0.0047840490009991576 0 0.024721344666675475 -0.0047840490009991576 0 0.024706130874863567 -0.00468738408807439 0 0.02468488406412064 -0.0047690843835013529 0 0.024943559513579551 -0.0046644409216714585 0 0.024721344666675475 -0.0047840490009991576 0 0.024706130874863567 -0.00468738408807439 0 0.024943559513579551 -0.0046644409216714585 0 0.024706130874863567 -0.00468738408807439 0 0.024848166137772108 -0.0045502172468503748 0 0.026461012017742463 -0.0034292038895984882 0 0.026558695412162967 -0.0031809246594113748 0 0.024706130874863567 -0.00468738408807439 0 0.02468488406412064 -0.0047690843835013529 0 0.024529859878716819 -0.0046229733276311078 0 0.02455279117067315 -0.004511392550757852 0 0.024866122304791197 -0.0047879766082579529 0 0.02468488406412064 -0.0047690843835013529 0 0.024866122304791197 -0.0047879766082579529 0 0.02468488406412064 -0.0047690843835013529 0 0.024854848853116524 -0.0048504768348810344 0 0.016026831500310052 -0.0029205530807562157 0 0.018089144396797385 -0.003227452589913647 0 0.0083075680292306418 -0.0018956853199188031 0 0.0069264007871094584 -0.0031093090153456572 0 0.0093590031603082453 -0.0048037910145194498 0 0.024866122304791197 -0.0047879766082579529 0 0.024834040233755916 -0.0048392456785596605 0 0.024854848853116524 -0.0048504768348810344 0 0.011051035940535071 -0.0036262560688535323 0 0.010057788041892054 -0.0025073542128154149 0 0.0093590031603082453 -0.0048037910145194498 0 0.010057788041892054 -0.0025073542128154149 0 0.0083075680292306418 -0.0018956853199188031 0 0.0093590031603082453 -0.0048037910145194498 0 0.02480521412142779 -0.0047609632681209118 0 0.024833127260595004 -0.0047715011792374929 0 0.024828054799215619 -0.0047320529943723376 0 0.024833127260595004 -0.0047715011792374929 0 0.024842432364106683 -0.004746069479969325 0 0.024828054799215619 -0.0047320529943723376 0 0.02480521412142779 -0.0047609632681209118 0 0.024833127260595004 -0.0047715011792374929 0 0.02482534924149896 -0.0048072416008701083 0 0.024790745308790392 -0.0048000295461550369 0 0.02480521412142779 -0.0047609632681209118 0 0.02482534924149896 -0.0048072416008701083 0 0.024790745308790392 -0.0048000295461550369 0 0.024834040233755916 -0.0048392456785596605 0 0.02482534924149896 -0.0048072416008701083 0 0.024834040233755916 -0.0048392456785596605 0 0.02482534924149896 -0.0048072416008701083 0 0.024854848853116524 -0.0048504768348810344 0 0.024833127260595004 -0.0047715011792374929 0 0.02482534924149896 -0.0048072416008701083 0 0.024854848853116524 -0.0048504768348810344 0 0.026839259303904229 -0.0023173782163918187 0 0.026558695412162967 -0.0031809246594113748 0 0.024833127260595004 -0.0047715011792374929 0 0.024861612372654784 -0.004759883929019125 0 0.024854848853116524 -0.0048504768348810344 0 0.024276161129569859 -0.0041135878303036385 0 0.024439862967676397 -0.0042396452714437045 0 0.024529859878716819 -0.0046229733276311078 0 0.024833127260595004 -0.0047715011792374929 0 0.024861612372654784 -0.004759883929019125 0 0.024842432364106683 -0.004746069479969325 0 0.024276161129569859 -0.0041135878303036385 0 0.024342120612963314 -0.0040989715578386068 0 0.024372059245317605 -0.0041444109557928783 0 0.024276161129569859 -0.0041135878303036385 0 0.024342120612963314 -0.0040989715578386068 0 0.024383751425207444 -0.0040049808887550374 0 0.024342120612963314 -0.0040989715578386068 0 0.024420660472504265 -0.0041136738259368527 0 0.024383751425207444 -0.0040049808887550374 0 0.024342120612963314 -0.0040989715578386068 0 0.024420660472504265 -0.0041136738259368527 0 0.024372059245317605 -0.0041444109557928783 0 0.024276161129569859 -0.0041135878303036385 0 0.024372059245317605 -0.0041444109557928783 0 0.024439862967676397 -0.0042396452714437045 0 0.024420660472504265 -0.0041136738259368527 0 0.024372059245317605 -0.0041444109557928783 0 0.024439862967676397 -0.0042396452714437045 0 0.024507946860992794 -0.0041599839370533107 0 0.024509684798318103 -0.0040471487843406441 0 0.024691865924908272 -0.0040767185245050219 0 0.024420660472504265 -0.0041136738259368527 0 0.024507946860992794 -0.0041599839370533107 0 0.024439862967676397 -0.0042396452714437045 0 0.024420660472504265 -0.0041136738259368527 0 0.024507946860992794 -0.0041599839370533107 0 0.024509684798318103 -0.0040471487843406441 0 0.024420660472504265 -0.0041136738259368527 0 0.024509684798318103 -0.0040471487843406441 0 0.024383751425207444 -0.0040049808887550374 0 0.024691865924908272 -0.0040767185245050219 0 0.024618157767234503 -0.0042415222139883932 0 0.024805956726135923 -0.004246478364410884 0 0.024507946860992794 -0.0041599839370533107 0 0.024691865924908272 -0.0040767185245050219 0 0.024618157767234503 -0.0042415222139883932 0 0.024618157767234503 -0.0042415222139883932 0 0.024666460520704259 -0.0044843501049776939 0 0.024805956726135923 -0.004246478364410884 0 0.024507946860992794 -0.0041599839370533107 0 0.024618157767234503 -0.0042415222139883932 0 0.024439862967676397 -0.0042396452714437045 0 0.024618157767234503 -0.0042415222139883932 0 0.024439862967676397 -0.0042396452714437045 0 0.024666460520704259 -0.0044843501049776939 0 0.024706130874863567 -0.00468738408807439 0 0.024529859878716819 -0.0046229733276311078 0 0.024666460520704259 -0.0044843501049776939 0 0.024439862967676397 -0.0042396452714437045 0 0.024529859878716819 -0.0046229733276311078 0 0.024666460520704259 -0.0044843501049776939 0 0.024666460520704259 -0.0044843501049776939 0 0.024866807824552785 -0.0043940865386661379 0 0.024805956726135923 -0.004246478364410884 0 0.024666460520704259 -0.0044843501049776939 0 0.024848166137772108 -0.0045502172468503748 0 0.024866807824552785 -0.0043940865386661379 0 0.024706130874863567 -0.00468738408807439 0 0.024666460520704259 -0.0044843501049776939 0 0.024848166137772108 -0.0045502172468503748 0 0.024848166137772108 -0.0045502172468503748 0 0.024866807824552785 -0.0043940865386661379 0 0.025076268530696239 -0.0045082868166652825 0 0.025352329788326834 -0.0037833785518539267 0 0.025423503346577187 -0.0036530531130295925 0 0.024866807824552785 -0.0043940865386661379 0 0.024993752537297478 -0.0040976292311230575 0 0.025355937593645732 -0.0038735844442178355 0 0.024866807824552785 -0.0043940865386661379 0 0.024805956726135923 -0.004246478364410884 0 0.024993752537297478 -0.0040976292311230575 0 0.024691865924908272 -0.0040767185245050219 0 0.024805956726135923 -0.004246478364410884 0 0.024993752537297478 -0.0040976292311230575 0 0.024993752537297478 -0.0040976292311230575 0 0.025271670331101656 -0.003645060423520217 0 0.025355937593645732 -0.0038735844442178355 0 0.024993752537297478 -0.0040976292311230575 0 0.024825147288875801 -0.0038522303492072819 0 0.025109222267522928 -0.0036118026449326853 0 0.025744476763404529 -0.0032522199441192725 0 0.025808811618502701 -0.0030778754488237393 0 0.024691865924908272 -0.0040767185245050219 0 0.024993752537297478 -0.0040976292311230575 0 0.024825147288875801 -0.0038522303492072819 0 0.024825147288875801 -0.0038522303492072819 0 0.025109222267522928 -0.0036118026449326853 0 0.02475857204482252 -0.0036079232907199276 0 0.025226619160625796 -0.0031160961677264738 0 0.025109222267522928 -0.0036118026449326853 0 0.024913927334406904 -0.0033381815474285946 0 0.025109222267522928 -0.0036118026449326853 0 0.024913927334406904 -0.0033381815474285946 0 0.02475857204482252 -0.0036079232907199276 0 0.024913927334406904 -0.0033381815474285946 0 0.02475857204482252 -0.0036079232907199276 0 0.024524410045807101 -0.0033742589868665544 0 0.02475857204482252 -0.0036079232907199276 0 0.024524410045807101 -0.0033742589868665544 0 0.024467012782462601 -0.0036959659236407137 0 0.024467012782462601 -0.0036959659236407137 0 0.024577523931023977 -0.0038705870481663099 0 0.02434098621684708 -0.0038790821591816638 0 0.024825147288875801 -0.0038522303492072819 0 0.02475857204482252 -0.0036079232907199276 0 0.024577523931023977 -0.0038705870481663099 0 0.02475857204482252 -0.0036079232907199276 0 0.024467012782462601 -0.0036959659236407137 0 0.024577523931023977 -0.0038705870481663099 0 0.024509684798318103 -0.0040471487843406441 0 0.024691865924908272 -0.0040767185245050219 0 0.024577523931023977 -0.0038705870481663099 0 0.024691865924908272 -0.0040767185245050219 0 0.024825147288875801 -0.0038522303492072819 0 0.024577523931023977 -0.0038705870481663099 0 0.024509684798318103 -0.0040471487843406441 0 0.024577523931023977 -0.0038705870481663099 0 0.024383751425207444 -0.0040049808887550374 0 0.024577523931023977 -0.0038705870481663099 0 0.02434098621684708 -0.0038790821591816638 0 0.024383751425207444 -0.0040049808887550374 0 0.026696177209008461 -0.0020084306032490942 0 0.026810618093267399 -0.0023300353299269341 0 0.026877145901883878 -0.0022691496451330848 0 0.026839259303904229 -0.0023173782163918187 0 0.026939536460400648 -0.0018529335431927516 0 0.024276161129569859 -0.0041135878303036385 0 0.02434098621684708 -0.0038790821591816638 0 0.024135000453035741 -0.003744829442066402 0 0.024276161129569859 -0.0041135878303036385 0 0.02434098621684708 -0.0038790821591816638 0 0.024383751425207444 -0.0040049808887550374 0 0.026839259303904229 -0.0023173782163918187 0 0.02690519910630873 -0.0019758060466696071 0 0.024861612372654784 -0.004759883929019125 0 0.024842432364106683 -0.004746069479969325 0 0.024843423404477701 -0.0047187207711186941 0 0.026939536460400648 -0.0018529335431927516 0 0.02690519910630873 -0.0019758060466696071 0 0.024467012782462601 -0.0036959659236407137 0 0.02434098621684708 -0.0038790821591816638 0 0.024135000453035741 -0.003744829442066402 0 0.029670746457629318 0.0020890925963328666 0 0.029300441408059541 0.0031711994259019699 0 0.029157590459902082 0.0024131154854252117 0 0.028516460167684908 0.0024767159793646258 0 0.029300441408059541 0.0031711994259019699 0 0.029157590459902082 0.0024131154854252117 0 0.024524410045807101 -0.0033742589868665544 0 0.024467012782462601 -0.0036959659236407137 0 0.024135000453035741 -0.003744829442066402 0 0.026817221941449074 -0.0016126454598456832 0 0.026939536460400648 -0.0018529335431927516 0 0.029670746457629318 0.0020890925963328666 0 0.029367956167772092 0.0029449853318981663 0 0.029817220823409044 0.0025863866182337255 0 0.026934315418536792 -0.0011287899171563646 0 0.026939536460400648 -0.0018529335431927516 0 0.026881545886940746 -0.0012042135454207467 0 0.02690519910630873 -0.0019758060466696071 0 0.030176904530235426 0.0020993371320619622 0 0.029921766141046798 0.0021126594775804316 0 0.029817220823409044 0.0025863866182337255 0 0.026823985489399294 -0.00042454712939813516 0 0.026881545886940746 -0.0012042135454207467 0 0.024788154211618584 -0.0047039093231371412 0 0.024821957549239264 -0.0046631872753980282 0 0.024821578171369377 -0.0046974765247314752 0 0.024788154211618584 -0.0047039093231371412 0 0.024821578171369377 -0.0046974765247314752 0 0.024828054799215619 -0.0047320529943723376 0 0.024788154211618584 -0.0047039093231371412 0 0.02480521412142779 -0.0047609632681209118 0 0.024828054799215619 -0.0047320529943723376 0 0.024821578171369377 -0.0046974765247314752 0 0.024852659291058371 -0.0047101446602241847 0 0.024828054799215619 -0.0047320529943723376 0 0.029367956167772092 0.0029449853318981663 0 0.029817220823409044 0.0025863866182337255 0 0.029487012220859869 0.0030534591861417033 0 0.024821957549239264 -0.0046631872753980282 0 0.024821578171369377 -0.0046974765247314752 0 0.024852659291058371 -0.0047101446602241847 0 0.024842432364106683 -0.004746069479969325 0 0.024843423404477701 -0.0047187207711186941 0 0.024828054799215619 -0.0047320529943723376 0 0.02690519910630873 -0.0019758060466696071 0 0.02684360871607697 -0.0020378071110864846 0 0.025405720632933119 -0.0043651022895663102 0 0.025545137233185106 -0.004262923972947719 0 0.025434245503769388 -0.0041473507467608773 0 0.024309799690192684 -0.0038017843199903566 0 0.023777502427316063 -0.0039840888918632016 0 0.025405720632933119 -0.0043651022895663102 0 0.025253760817422408 -0.0043322407516870227 0 0.025434245503769388 -0.0041473507467608773 0 0.025405720632933119 -0.0043651022895663102 0 0.025545137233185106 -0.004262923972947719 0 0.025477525859414582 -0.0045651632535938834 0 0.02322336817404197 -0.0035959679665102831 0 0.023250987001283772 -0.0036050708541793901 0 0.023248261778041037 -0.0036002925771803705 0 0.02322336817404197 -0.0035959679665102831 0 0.023250987001283772 -0.0036050708541793901 0 0.023292923088550466 -0.0035722548426386802 0 0.02309777537252037 -0.0036245702673224469 0 0.023077353481394912 -0.0036753207301140189 0 0.02315299899346249 -0.0036411490685438574 0 0.02322336817404197 -0.0035959679665102831 0 0.023248261778041037 -0.0036002925771803705 0 0.023232980669892218 -0.0036094419160854051 0 0.023638358556114035 -0.0039847582535646273 0 0.023777502427316063 -0.0039840888918632016 0 0.025405720632933119 -0.0043651022895663102 0 0.025477525859414582 -0.0045651632535938834 0 0.025306160019733633 -0.0045045478451854791 0 0.025263137254305096 -0.0046844728363892004 0 0.025477525859414582 -0.0045651632535938834 0 0.025306160019733633 -0.0045045478451854791 0 0.025306160019733633 -0.0045045478451854791 0 0.025076268530696239 -0.0045082868166652825 0 0.025253760817422408 -0.0043322407516870227 0 0.025263137254305096 -0.0046844728363892004 0 0.025306160019733633 -0.0045045478451854791 0 0.025076268530696239 -0.0045082868166652825 0 0.024866807824552785 -0.0043940865386661379 0 0.025076268530696239 -0.0045082868166652825 0 0.025259157309902889 -0.0041310652641895259 0 0.024943559513579551 -0.0046644409216714585 0 0.024848166137772108 -0.0045502172468503748 0 0.025076268530696239 -0.0045082868166652825 0 0.025029634902668949 -0.0037950881172786151 0 0.025044868377777387 -0.0037375394265146268 0 0.024866807824552785 -0.0043940865386661379 0 0.025259157309902889 -0.0041310652641895259 0 0.025206237630103323 -0.0037310867171271855 0 0.025076268530696239 -0.0045082868166652825 0 0.025259157309902889 -0.0041310652641895259 0 0.025667269829967809 -0.0041426836658358893 0 0.025405720632933119 -0.0043651022895663102 0 0.025306160019733633 -0.0045045478451854791 0 0.025253760817422408 -0.0043322407516870227 0 0.025259157309902889 -0.0041310652641895259 0 0.025667269829967809 -0.0041426836658358893 0 0.02553688511739171 -0.0038340988855248121 0 0.025044868377777387 -0.0037375394265146268 0 0.025018182294531184 -0.0036272079526982362 0 0.02553688511739171 -0.0038340988855248121 0 0.025702160404456192 -0.003536410490811057 0 0.026124810361682248 -0.0036918021991307485 0 0.025667269829967809 -0.0041426836658358893 0 0.02553688511739171 -0.0038340988855248121 0 0.026124810361682248 -0.0036918021991307485 0 0.02553688511739171 -0.0038340988855248121 0 0.025206237630103323 -0.0037310867171271855 0 0.025702160404456192 -0.003536410490811057 0 0.025259157309902889 -0.0041310652641895259 0 0.02553688511739171 -0.0038340988855248121 0 0.025206237630103323 -0.0037310867171271855 0 0.025761227366282766 -0.0033217542910254617 0 0.025493890453607251 -0.0031890531938188059 0 0.025271670331101656 -0.003645060423520217 0 0.025548212422889162 -0.0034285165011557067 0 0.025423503346577187 -0.0036530531130295925 0 0.025660929970904613 -0.0031287655015748632 0 0.025206237630103323 -0.0037310867171271855 0 0.025702160404456192 -0.003536410490811057 0 0.025761227366282766 -0.0033217542910254617 0 0.025271670331101656 -0.003645060423520217 0 0.025355937593645732 -0.0038735844442178355 0 0.025984485746085213 -0.0026191012468188704 0 0.025808811618502701 -0.0030778754488237393 0 0.025660929970904613 -0.0031287655015748632 0 0.025702160404456192 -0.003536410490811057 0 0.025828956275186051 -0.0032667083206895054 0 0.025702160404456192 -0.003536410490811057 0 0.026040423875427456 -0.0033347408443312305 0 0.026124810361682248 -0.0036918021991307485 0 0.025702160404456192 -0.003536410490811057 0 0.025828956275186051 -0.0032667083206895054 0 0.026040423875427456 -0.0033347408443312305 0 0.025939104162228496 -0.0031343146327426023 0 0.025828956275186051 -0.0032667083206895054 0 0.026040423875427456 -0.0033347408443312305 0 0.025018182294531184 -0.0036272079526982362 0 0.024840873565302939 -0.0035576846859408152 0 0.026040423875427456 -0.0033347408443312305 0 0.026124810361682248 -0.0036918021991307485 0 0.026432484396080862 -0.003295156355271341 0 0.026122868311653506 -0.0030449466700308678 0 0.026040423875427456 -0.0033347408443312305 0 0.026432484396080862 -0.003295156355271341 0 0.025545137233185106 -0.004262923972947719 0 0.025434245503769388 -0.0041473507467608773 0 0.025613586898641721 -0.0039634748817276143 0 0.02322336817404197 -0.0035959679665102831 0 0.023257160074830474 -0.0034331248951917108 0 0.023292923088550466 -0.0035722548426386802 0 0.024309799690192684 -0.0038017843199903566 0 0.024840873565302939 -0.0035576846859408152 0 0.023257160074830474 -0.0034331248951917108 0 0.023445631856111957 -0.0034887766717535572 0 0.023636849911315535 -0.0033675093505330135 0 0.023445631856111957 -0.0034887766717535572 0 0.023636849911315535 -0.0033675093505330135 0 0.023536387395834284 -0.0034342915745635069 0 0.023741124903043462 -0.003287174142505238 0 0.023636849911315535 -0.0033675093505330135 0 0.023536387395834284 -0.0034342915745635069 0 0.023445631856111957 -0.0034887766717535572 0 0.023337687262043622 -0.0035580458715558684 0 0.023536387395834284 -0.0034342915745635069 0 0.023257160074830474 -0.0034331248951917108 0 0.023445631856111957 -0.0034887766717535572 0 0.023292923088550466 -0.0035722548426386802 0 0.023445631856111957 -0.0034887766717535572 0 0.023337687262043622 -0.0035580458715558684 0 0.023292923088550466 -0.0035722548426386802 0 0.023638358556114035 -0.0039847582535646273 0 0.02359596346795147 -0.0039834822291022164 0 0.023337687262043622 -0.0035580458715558684 0 0.023292923088550466 -0.0035722548426386802 0 0.023180451358938384 -0.0036253319156394413 0 0.023250987001283772 -0.0036050708541793901 0 0.023248261778041037 -0.0036002925771803705 0 0.023180451358938384 -0.0036253319156394413 0 0.023250987001283772 -0.0036050708541793901 0 0.023292923088550466 -0.0035722548426386802 0 0.023180451358938384 -0.0036253319156394413 0 0.023337687262043622 -0.0035580458715558684 0 0.023180451358938384 -0.0036253319156394413 0 0.023200968801971977 -0.0036252662693630998 0 0.023180451358938384 -0.0036253319156394413 0 0.023200968801971977 -0.0036252662693630998 0 0.022926881815272335 -0.0036983868145770175 0 0.023200968801971977 -0.0036252662693630998 0 0.022926881815272335 -0.0036983868145770175 0 0.023143988903594204 -0.0037074386750426875 0 0.02309777537252037 -0.0036245702673224469 0 0.022926881815272335 -0.0036983868145770175 0 0.023069014543897922 -0.0036806839854930337 0 0.023077353481394912 -0.0036753207301140189 0 0.023180451358938384 -0.0036253319156394413 0 0.023069014543897922 -0.0036806839854930337 0 0.023180451358938384 -0.0036253319156394413 0 0.022926881815272335 -0.0036983868145770175 0 0.023069014543897922 -0.0036806839854930337 0 0.023317307440416598 -0.0041151057421570042 0 0.023253105058957193 -0.0041051518803250139 0 0.02309777537252037 -0.0036245702673224469 0 0.023077353481394912 -0.0036753207301140189 0 0.023069014543897922 -0.0036806839854930337 0 0.023290853180123246 -0.0036837433477517594 0 0.023143988903594204 -0.0037074386750426875 0 0.023182943994870062 -0.0038370187533491281 0 0.023290853180123246 -0.0036837433477517594 0 0.023143988903594204 -0.0037074386750426875 0 0.023425109075889586 -0.0035785379968015377 0 0.023200968801971977 -0.0036252662693630998 0 0.023143988903594204 -0.0037074386750426875 0 0.023425109075889586 -0.0035785379968015377 0 0.023337687262043622 -0.0035580458715558684 0 0.023200968801971977 -0.0036252662693630998 0 0.023425109075889586 -0.0035785379968015377 0 0.023290853180123246 -0.0036837433477517594 0 0.023425109075889586 -0.0035785379968015377 0 0.023359262427982665 -0.0036304292400033498 0 0.023807735896145998 -0.003846544221549919 0 0.0238398453572473 -0.0038538157180207674 0 0.023425109075889586 -0.0035785379968015377 0 0.023426876540811381 -0.0037465329542348759 0 0.023359262427982665 -0.0036304292400033498 0 0.023425109075889586 -0.0035785379968015377 0 0.023536387395834284 -0.0034342915745635069 0 0.023664700018828821 -0.0033419792969700572 0 0.023337687262043622 -0.0035580458715558684 0 0.023425109075889586 -0.0035785379968015377 0 0.023536387395834284 -0.0034342915745635069 0 0.023741124903043462 -0.003287174142505238 0 0.023536387395834284 -0.0034342915745635069 0 0.023664700018828821 -0.0033419792969700572 0 0.023937549315641599 -0.0038725709597062265 0 0.0238398453572473 -0.0038538157180207674 0 0.023370565092278219 -0.0039548434815541772 0 0.023426876540811381 -0.0037465329542348759 0 0.023284423895344485 -0.0037858190553717191 0 0.023284423895344485 -0.0037858190553717191 0 0.023345891744303373 -0.0036745794424192591 0 0.023295365653090837 -0.0036196251455802553 0 0.023426876540811381 -0.0037465329542348759 0 0.023345891744303373 -0.0036745794424192591 0 0.023359262427982665 -0.0036304292400033498 0 0.023426876540811381 -0.0037465329542348759 0 0.023284423895344485 -0.0037858190553717191 0 0.023345891744303373 -0.0036745794424192591 0 0.022971363659557625 -0.003925749433215212 0 0.023086037985436739 -0.0037481449078714149 0 0.022875211619459133 -0.0037515770977573576 0 0.023178337592890581 -0.0039698648240079478 0 0.023284423895344485 -0.0037858190553717191 0 0.023131505956038603 -0.0038557447510938515 0 0.022971363659557625 -0.003925749433215212 0 0.023131505956038603 -0.0038557447510938515 0 0.023086037985436739 -0.0037481449078714149 0 0.023284423895344485 -0.0037858190553717191 0 0.023131505956038603 -0.0038557447510938515 0 0.023086037985436739 -0.0037481449078714149 0 0.023284423895344485 -0.0037858190553717191 0 0.023086037985436739 -0.0037481449078714149 0 0.023295365653090837 -0.0036196251455802553 0 0.023086037985436739 -0.0037481449078714149 0 0.023042545608682723 -0.0036069187422584667 0 0.023295365653090837 -0.0036196251455802553 0 0.023086037985436739 -0.0037481449078714149 0 0.022957276406076508 -0.0036586463201778259 0 0.022875211619459133 -0.0037515770977573576 0 0.023042545608682723 -0.0036069187422584667 0 0.022957276406076508 -0.0036586463201778259 0 0.022922884574858037 -0.0035235423571852837 0 0.023086037985436739 -0.0037481449078714149 0 0.023042545608682723 -0.0036069187422584667 0 0.022957276406076508 -0.0036586463201778259 0 0.022822457231988683 -0.0036212224334079479 0 0.022957276406076508 -0.0036586463201778259 0 0.022922884574858037 -0.0035235423571852837 0 0.022822457231988683 -0.0036212224334079479 0 0.022957276406076508 -0.0036586463201778259 0 0.022875211619459133 -0.0037515770977573576 0 0.02167133183729596 -0.0029477564197825366 0 0.022970034449715897 -0.0029058133168680853 0 0.022506630075085517 -0.0034312295980281032 0 0.019601593173933226 -0.0054652761139964189 0 0.019644671419082996 -0.0054217635718542606 0 0.022932634116493371 -0.003309359210190778 0 0.022506630075085517 -0.0034312295980281032 0 0.022922884574858037 -0.0035235423571852837 0 0.023042545608682723 -0.0036069187422584667 0 0.022932634116493371 -0.003309359210190778 0 0.022922884574858037 -0.0035235423571852837 0 0.023295365653090837 -0.0036196251455802553 0 0.023371219444790887 -0.0036751953198110193 0 0.023376192393842334 -0.0036863817876413513 0 0.019601593173933226 -0.0054652761139964189 0 0.020040063478979672 -0.0055034012076178584 0 0.023042545608682723 -0.0036069187422584667 0 0.022932634116493371 -0.003309359210190778 0 0.023295365653090837 -0.0036196251455802553 0 0.023414360938882991 -0.0036566590486069831 0 0.023295365653090837 -0.0036196251455802553 0 0.023371219444790887 -0.0036751953198110193 0 0.019601593173933226 -0.0054652761139964189 0 0.020677121660330401 -0.0054307684009566688 0 0.023414360938882991 -0.0036566590486069831 0 0.023371219444790887 -0.0036751953198110193 0 0.023411153567674165 -0.0037264451685874818 0 0.023371219444790887 -0.0036751953198110193 0 0.023376192393842334 -0.0036863817876413513 0 0.023411153567674165 -0.0037264451685874818 0 0.02065626467627539 -0.0089613301261183328 0 0.020451758330423876 -0.0085231988781333361 0 0.020732949303881254 -0.008358858778811127 0 0.02065626467627539 -0.0089613301261183328 0 0.020732949303881254 -0.008358858778811127 0 0.0211682851490461 -0.0083737691605601274 0 0.020451758330423876 -0.0085231988781333361 0 0.020446538250109825 -0.0082817030647852272 0 0.020732949303881254 -0.008358858778811127 0 0.023359262427982665 -0.0036304292400033498 0 0.023354339779496795 -0.0036547943862299294 0 0.02335817769212677 -0.0037008643152767222 0 0.023345891744303373 -0.0036745794424192591 0 0.023359262427982665 -0.0036304292400033498 0 0.023354339779496795 -0.0036547943862299294 0 0.023345891744303373 -0.0036745794424192591 0 0.023295365653090837 -0.0036196251455802553 0 0.023354339779496795 -0.0036547943862299294 0 0.023295365653090837 -0.0036196251455802553 0 0.023354339779496795 -0.0036547943862299294 0 0.023376192393842334 -0.0036863817876413513 0 0.023376192393842334 -0.0036863817876413513 0 0.02335817769212677 -0.0037008643152767222 0 0.023417009184251946 -0.0037678280164938883 0 0.023354339779496795 -0.0036547943862299294 0 0.023376192393842334 -0.0036863817876413513 0 0.02335817769212677 -0.0037008643152767222 0 0.023376192393842334 -0.0036863817876413513 0 0.023417009184251946 -0.0037678280164938883 0 0.023411153567674165 -0.0037264451685874818 0 0.023290853180123246 -0.0036837433477517594 0 0.02335817769212677 -0.0037008643152767222 0 0.023318445745438482 -0.0037866653487781733 0 0.023290853180123246 -0.0036837433477517594 0 0.023359262427982665 -0.0036304292400033498 0 0.02335817769212677 -0.0037008643152767222 0 0.02335817769212677 -0.0037008643152767222 0 0.023318445745438482 -0.0037866653487781733 0 0.023417009184251946 -0.0037678280164938883 0 0.023318445745438482 -0.0037866653487781733 0 0.023417009184251946 -0.0037678280164938883 0 0.023316139300050529 -0.0040208191163691133 0 0.023047928549804426 -0.0041080062655236343 0 0.022959999397930302 -0.0041882361907112703 0 0.023417009184251946 -0.0037678280164938883 0 0.02347038540748312 -0.0039074239464978637 0 0.023411153567674165 -0.0037264451685874818 0 0.021326887579068001 -0.0055031234008201847 0 0.020677121660330401 -0.0054307684009566688 0 0.021688442056227115 -0.0077897871169172088 0 0.0211682851490461 -0.0083737691605601274 0 0.021247145663828314 -0.007874003285026682 0 0.021688442056227115 -0.0077897871169172088 0 0.021383935527152915 -0.007513515227253644 0 0.021689578658969123 -0.0073007740264083229 0 0.021688442056227115 -0.0077897871169172088 0 0.021383935527152915 -0.007513515227253644 0 0.021247145663828314 -0.007874003285026682 0 0.023417009184251946 -0.0037678280164938883 0 0.02347038540748312 -0.0039074239464978637 0 0.023268690737161434 -0.0039449984005915251 0 0.02347038540748312 -0.0039074239464978637 0 0.023268690737161434 -0.0039449984005915251 0 0.023353597619112099 -0.0044223829596376175 0 0.020560079754543145 -0.0080619498515964051 0 0.020446538250109825 -0.0082817030647852272 0 0.020732949303881254 -0.008358858778811127 0 0.020560079754543145 -0.0080619498515964051 0 0.020936501511010452 -0.0080165626372042369 0 0.020688491729900085 -0.0077773513352923712 0 0.020560079754543145 -0.0080619498515964051 0 0.020732949303881254 -0.008358858778811127 0 0.020936501511010452 -0.0080165626372042369 0 0.020936501511010452 -0.0080165626372042369 0 0.0211682851490461 -0.0083737691605601274 0 0.021247145663828314 -0.007874003285026682 0 0.020732949303881254 -0.008358858778811127 0 0.020936501511010452 -0.0080165626372042369 0 0.0211682851490461 -0.0083737691605601274 0 0.021383935527152915 -0.007513515227253644 0 0.021059035757700979 -0.0076736961189243797 0 0.021109564426277028 -0.0073494013182229785 0 0.021383935527152915 -0.007513515227253644 0 0.021247145663828314 -0.007874003285026682 0 0.021059035757700979 -0.0076736961189243797 0 0.020936501511010452 -0.0080165626372042369 0 0.021059035757700979 -0.0076736961189243797 0 0.020688491729900085 -0.0077773513352923712 0 0.020936501511010452 -0.0080165626372042369 0 0.021247145663828314 -0.007874003285026682 0 0.021059035757700979 -0.0076736961189243797 0 0.021059035757700979 -0.0076736961189243797 0 0.020688491729900085 -0.0077773513352923712 0 0.02077847917603556 -0.0074022297480919493 0 0.020403443602274838 -0.0076031716254046271 0 0.020688491729900085 -0.0077773513352923712 0 0.02077847917603556 -0.0074022297480919493 0 0.020413764893105073 -0.0078798520023466642 0 0.020560079754543145 -0.0080619498515964051 0 0.020688491729900085 -0.0077773513352923712 0 0.020403443602274838 -0.0076031716254046271 0 0.020413764893105073 -0.0078798520023466642 0 0.020688491729900085 -0.0077773513352923712 0 0.020436173160476349 -0.0071208257176896238 0 0.020403443602274838 -0.0076031716254046271 0 0.02077847917603556 -0.0074022297480919493 0 0.020436173160476349 -0.0071208257176896238 0 0.02077847917603556 -0.0074022297480919493 0 0.020977938916043621 -0.0070362787528392883 0 0.02077847917603556 -0.0074022297480919493 0 0.021109564426277028 -0.0073494013182229785 0 0.020977938916043621 -0.0070362787528392883 0 0.021059035757700979 -0.0076736961189243797 0 0.02077847917603556 -0.0074022297480919493 0 0.021109564426277028 -0.0073494013182229785 0 0.021383935527152915 -0.007513515227253644 0 0.021109564426277028 -0.0073494013182229785 0 0.021349399433033284 -0.0071211264194380522 0 0.021109564426277028 -0.0073494013182229785 0 0.020977938916043621 -0.0070362787528392883 0 0.021349399433033284 -0.0071211264194380522 0 0.020937962681039896 -0.0064798538339074499 0 0.0212653681853039 -0.0067279587690323881 0 0.020977938916043621 -0.0070362787528392883 0 0.0212653681853039 -0.0067279587690323881 0 0.020977938916043621 -0.0070362787528392883 0 0.021349399433033284 -0.0071211264194380522 0 0.012899433167681679 -0.0059169632605595513 0 0.012934771015764067 -0.0056878167715447283 0 0.020436173160476349 -0.0071208257176896238 0 0.020937962681039896 -0.0064798538339074499 0 0.020977938916043621 -0.0070362787528392883 0 0.0040378231120303722 -0.0059451248289106237 0 0.0039052684633976579 -0.005630668189498418 0 0.0035443111565912652 -0.0062612020767314654 0 0.021326887579068001 -0.0055031234008201847 0 0.021645657475892859 -0.0056800545877435278 0 0.021688442056227115 -0.0077897871169172088 0 0.022224649133339082 -0.0071978347847692593 0 0.021689578658969123 -0.0073007740264083229 0 0.022224649133339082 -0.0071978347847692593 0 0.021689578658969123 -0.0073007740264083229 0 0.021786951412089764 -0.0068844311734214819 0 0.021383935527152915 -0.007513515227253644 0 0.021689578658969123 -0.0073007740264083229 0 0.021349399433033284 -0.0071211264194380522 0 0.021689578658969123 -0.0073007740264083229 0 0.021349399433033284 -0.0071211264194380522 0 0.021786951412089764 -0.0068844311734214819 0 0.021649296735904509 -0.00641943204175968 0 0.0212653681853039 -0.0067279587690323881 0 0.021786951412089764 -0.0068844311734214819 0 0.0212653681853039 -0.0067279587690323881 0 0.021349399433033284 -0.0071211264194380522 0 0.021786951412089764 -0.0068844311734214819 0 0.022224649133339082 -0.0071978347847692593 0 0.021786951412089764 -0.0068844311734214819 0 0.022252606216737133 -0.006770619608557093 0 0.022010577462944374 -0.0065804064803923947 0 0.021649296735904509 -0.00641943204175968 0 0.021786951412089764 -0.0068844311734214819 0 0.022010577462944374 -0.0065804064803923947 0 0.021786951412089764 -0.0068844311734214819 0 0.022252606216737133 -0.006770619608557093 0 0.022010577462944374 -0.0065804064803923947 0 0.022432876626503895 -0.0065599039794389784 0 0.022252606216737133 -0.006770619608557093 0 0.021666837065221049 -0.0059769919222900612 0 0.021645657475892859 -0.0056800545877435278 0 0.022702919402829248 -0.0064647269678911688 0 0.022432876626503895 -0.0065599039794389784 0 0.022252606216737133 -0.006770619608557093 0 0.022702919402829248 -0.0064647269678911688 0 0.022224649133339082 -0.0071978347847692593 0 0.022252606216737133 -0.006770619608557093 0 0.022904506748871029 -0.0055734154804756167 0 0.023353597619112099 -0.0044223829596376175 0 0.022663894454716445 -0.0049616762662676095 0 0.023353597619112099 -0.0044223829596376175 0 0.022667798528385526 -0.0043965705835254543 0 0.022663894454716445 -0.0049616762662676095 0 0.022959999397930302 -0.0041882361907112703 0 0.022744178901538854 -0.004376508864963065 0 0.023268690737161434 -0.0039449984005915251 0 0.023353597619112099 -0.0044223829596376175 0 0.022667798528385526 -0.0043965705835254543 0 0.023022799521766231 -0.0043776355608589118 0 0.021745290889346892 -0.0048766071710376951 0 0.022324859916836765 -0.0043941003128417843 0 0.023022799521766231 -0.0043776355608589118 0 0.022324859916836765 -0.0043941003128417843 0 0.022705915675332696 -0.0041220445018182389 0 0.023022799521766231 -0.0043776355608589118 0 0.021745290889346892 -0.0048766071710376951 0 0.021334117210830769 -0.0052525333150138616 0 0.022744178901538854 -0.004376508864963065 0 0.022570269333703683 -0.0045228886159803996 0 0.022667798528385526 -0.0043965705835254543 0 0.022663894454716445 -0.0049616762662676095 0 0.022141080777160829 -0.0053084916067404984 0 0.022667798528385526 -0.0043965705835254543 0 0.022141080777160829 -0.0053084916067404984 0 0.021334117210830769 -0.0052525333150138616 0 0.022663894454716445 -0.0049616762662676095 0 0.022497511946991844 -0.0054386494698552825 0 0.022141080777160829 -0.0053084916067404984 0 0.022904506748871029 -0.0055734154804756167 0 0.022663894454716445 -0.0049616762662676095 0 0.022497511946991844 -0.0054386494698552825 0 0.022148482169835948 -0.0060062244043453819 0 0.022497511946991844 -0.0054386494698552825 0 0.022141080777160829 -0.0053084916067404984 0 0.021615648234598051 -0.0057888801434097638 0 0.021917606637950983 -0.0058477836630829467 0 0.022141080777160829 -0.0053084916067404984 0 0.021745290889346892 -0.0048766071710376951 0 0.021334117210830769 -0.0052525333150138616 0 0.019618976640902709 -0.0055802916338291058 0 0.021615648234598051 -0.0057888801434097638 0 0.022141080777160829 -0.0053084916067404984 0 0.021334117210830769 -0.0052525333150138616 0 0.020997285471609502 -0.0059774665742748723 0 0.021334117210830769 -0.0052525333150138616 0 0.019618976640902709 -0.0055802916338291058 0 0.017526325916292867 -0.0022962833626097531 0 0.016364849920949481 -0.0021783307579547589 0 0.021745290889346892 -0.0048766071710376951 0 0.022142658788101316 -0.0043145140058228693 0 0.022068170119147964 -0.0045151496169025685 0 0.021745290889346892 -0.0048766071710376951 0 0.018181884502570911 -0.0047263388905406916 0 0.019618976640902709 -0.0055802916338291058 0 0.018418281639520095 -0.0062336486593174457 0 0.018181884502570911 -0.0047263388905406916 0 0.019618976640902709 -0.0055802916338291058 0 0.022068170119147964 -0.0045151496169025685 0 0.022199216358000512 -0.0043518366018424444 0 0.022394081959496642 -0.0042297722848214838 0 0.022162924414290963 -0.0043861274998939302 0 0.022142658788101316 -0.0043145140058228693 0 0.022068170119147964 -0.0045151496169025685 0 0.022162924414290963 -0.0043861274998939302 0 0.022068170119147964 -0.0045151496169025685 0 0.022199216358000512 -0.0043518366018424444 0 0.021745290889346892 -0.0048766071710376951 0 0.022068170119147964 -0.0045151496169025685 0 0.022324859916836765 -0.0043941003128417843 0 0.022068170119147964 -0.0045151496169025685 0 0.022324859916836765 -0.0043941003128417843 0 0.022394081959496642 -0.0042297722848214838 0 0.022394081959496642 -0.0042297722848214838 0 0.02236623683327648 -0.0041195432059997301 0 0.022741921497740517 -0.0039561391781500685 0 0.022324859916836765 -0.0043941003128417843 0 0.022394081959496642 -0.0042297722848214838 0 0.022705915675332696 -0.0041220445018182389 0 0.022394081959496642 -0.0042297722848214838 0 0.022741921497740517 -0.0039561391781500685 0 0.022705915675332696 -0.0041220445018182389 0 0.022214474630232101 -0.0042581908551694043 0 0.022199216358000512 -0.0043518366018424444 0 0.022287180147865026 -0.0042387501357395267 0 0.022199216358000512 -0.0043518366018424444 0 0.022394081959496642 -0.0042297722848214838 0 0.022287180147865026 -0.0042387501357395267 0 0.022394081959496642 -0.0042297722848214838 0 0.022287180147865026 -0.0042387501357395267 0 0.02236623683327648 -0.0041195432059997301 0 0.022214474630232101 -0.0042581908551694043 0 0.022287180147865026 -0.0042387501357395267 0 0.02236623683327648 -0.0041195432059997301 0 0.022264168112340513 -0.0039114853959069809 0 0.022926881815272335 -0.0036983868145770175 0 0.02236623683327648 -0.0041195432059997301 0 0.022926881815272335 -0.0036983868145770175 0 0.02236623683327648 -0.0041195432059997301 0 0.022741921497740517 -0.0039561391781500685 0 0.022926881815272335 -0.0036983868145770175 0 0.023143988903594204 -0.0037074386750426875 0 0.022741921497740517 -0.0039561391781500685 0 0.023143988903594204 -0.0037074386750426875 0 0.022959888509985246 -0.0039222583512105325 0 0.023182943994870062 -0.0038370187533491281 0 0.023143988903594204 -0.0037074386750426875 0 0.022741921497740517 -0.0039561391781500685 0 0.022959888509985246 -0.0039222583512105325 0 0.022959888509985246 -0.0039222583512105325 0 0.023182943994870062 -0.0038370187533491281 0 0.023051651947832222 -0.0040329420480426032 0 0.023318445745438482 -0.0037866653487781733 0 0.023316139300050529 -0.0040208191163691133 0 0.023182943994870062 -0.0038370187533491281 0 0.023290853180123246 -0.0036837433477517594 0 0.023318445745438482 -0.0037866653487781733 0 0.023182943994870062 -0.0038370187533491281 0 0.023316139300050529 -0.0040208191163691133 0 0.023022799521766231 -0.0043776355608589118 0 0.023051651947832222 -0.0040329420480426032 0 0.023316139300050529 -0.0040208191163691133 0 0.023182943994870062 -0.0038370187533491281 0 0.023051651947832222 -0.0040329420480426032 0 0.023022799521766231 -0.0043776355608589118 0 0.022705915675332696 -0.0041220445018182389 0 0.023051651947832222 -0.0040329420480426032 0 0.022959888509985246 -0.0039222583512105325 0 0.022705915675332696 -0.0041220445018182389 0 0.023051651947832222 -0.0040329420480426032 0 0.022741921497740517 -0.0039561391781500685 0 0.022959888509985246 -0.0039222583512105325 0 0.022705915675332696 -0.0041220445018182389 0 
</DataArray>
</PointData>
<CellData Scalars="region_id,cross_section_updated," Vectors="" Tensors="stress,">
<DataArray type="Float64" Name="region_id" format="ascii">
5 5 5 5 5 6 5 5 5 5 5 5 5 6 5 5 5 5 6 5 5 6 5 5 5 5 6 5 5 5 5 6 5 5 5 5 5 5 5 5 5 5 5 5 5 6 5 5 6 5 5 5 5 5 6 5 5 5 5 5 5 5 6 5 5 5 5 6 5 5 5 5 5 5 5 5 5 6 5 5 6 5 5 6 5 5 5 5 6 5 5 5 5 5 5 5 6 6 6 5 5 6 5 5 5 5 5 6 5 5 5 5 5 5 5 5 5 5 5 5 5 6 5 5 5 6 5 5 5 5 5 5 6 5 5 5 5 5 5 5 5 5 5 5 5 5 5 5 5 5 5 5 5 5 5 5 5 5 6 5 5 5 6 5 5 6 5 5 5 5 5 5 5 5 5 5 5 6 5 5 5 5 5 5 5 5 6 5 5 5 5 5 5 5 5 6 5 5 5 5 5 5 5 5 5 6 5 5 5 5 5 5 5 5 5 5 5 5 5 5 5 5 5 5 5 5 5 5 5 6 5 5 5 6 5 6 5 6 5 5 6 5 5 5 6 5 6 5 6 5 6 6 5 6 5 5 6 5 6 5 5 5 6 5 6 6 5 5 6 5 5 5 6 5 6 6 6 5 6 5 5 5 6 5 6 6 6 5 5 6 6 5 5 5 5 6 5 6 5 5 6 5 5 5 6 5 6 6 6 5 5 5 6 5 6 6 6 6 5 5 5 6 6 5 5 6 6 6 5 6 5 5 5 5 6 5 5 5 5 5 5 5 6 5 5 5 5 5 5 6 6 5 5 5 6 5 5 5 6 5 6 5 6 6 5 5 5 5 6 5 5 6 5 5 5 5 6 5 6 5 5 5 5 5 6 6 5 5 5 5 5 5 5 5 6 5 5 5 6 5 5 6 5 6 5 5 5 5 5 5 5 5 5 5 5 6 5 6 5 6 5 5 5 6 5 6 5 6 5 5 5 5 5 5 6 5 6 5 5 5 6 5 5 5 6 5 6 6 5 5 5 5 6 5 5 5 5 6 6 5 5 6 5 6 5 6 6 5 5 5 6 5 5 5 5 6 5 5 5 5 5 5 5 5 5 5 5 6 5 5 5 5 6 5 5 5 6 5 6 6 6 5 5 5 6 6 5 6 5 5 6 5 5 5 5 6 5 5 5 5 5 5 5 5 5 5 5 6 6 5 5 6 5 5 5 6 5 5 5 5 5 5 6 5 5 5 6 5 5 5 6 5 5 5 5 5 5 5 5 5 5 5 6 5 5 5 6 5 5 5 5 5 5 5 6 5 5 5 5 5 6 5 5 5 5 5 5 5 5 5 5 5 5 5 5 5 5 5 5 5 6 5 5 5 5 6 5 5 6 5 5 5 5 5 5 5 6 5 5 5 5 5 5 5 5 6 5 6 5 5 6 5 5 5 6 5 5 6 5 5 5 6 5 6 5 5 6 5 6 5 5 5 5 5 5 5 5 5 5 5 5 5 5 5 5 5 5 5 5 5 5 6 5 6 5 6 5 5 5 5 5 5 5 5 5 5 5 5 5 5 5 6 5 5 5 5 5 5 5 5 5 6 5 5 5 5 5 5 5 5 5 5 5 5 5 5 5 5 5 5 5 5 5 5 5 5 5 5 5 5 5 6 5 5 6 5 5 5 6 6 5 6 5 5 5 5 5 6 5 5 5 5 5 6 5 5 5 5 5 5 5 5 5 5 5 5 5 5 5 5 5 5 5 5 5 5 5 5 5 5 5 5 5 5 5 5 5 5 5 5 5 5 5 5 5 5 5 5 5 5 5 5 5 6 5 5 5 5 5 5 5 5 5 5 5 5 5 5 5 6 5 5 5 5 6 5 5 5 5 5 5 5 5 5 5 5 5 5 5 5 5 5 5 5 5 5 5 5 5 5 5 5 6 5 5 6 5 6 6 6 6 5 5 6 5 5 5 5 5 5 5 5 5 5 5 5 5 5 5 5 5 6 5 5 6 5 6 5 5 5 5 6 5 6 5 5 5 5 6 5 5 5 6 5 5 5 5 5 6 5 6 5 5 6 6 5 6 5 5 5 5 5 5 5 5 5 5 5 6 5 5 5 6 5 5 5 6 5 5 6 6 6 5 5 5 5 5 5 5 5 5 5 5 6 5 5 5 5 5 5 5 5 6 6 6 5 5 5 5 5 5 5 5 6 6 5 5 5 6 5 5 6 5 5 5 5 5 5 5 5 5 5 5 6 5 5 5 5 5 5 5 5 6 5 5 5 5 5 5 5 5 5 5 6 5 6 6 6 5 5 5 5 5 5 5 6 6 5 6 5 5 5 5 5 6 5 6 6 5 5 5 6 5 6 5 5 5 5 6 5 5 5 5 5 5 5 5 5 5 5 5 5 5 5 5 5 6 5 5 5 6 5 5 5 5 5 6 5 5 5 5 5 5 6 5 6 5 5 5 5 5 5 5 5 6 5 5 5 6 5 5 5 5 5 5 5 5 5 5 5 5 5 5 5 5 5 5 5 5 5 5 5 5 5 6 6 6 5 5 5 5 6 5 5 5 5 6 5 5 5 5 5 5 5 6 5 5 5 5 5 5 5 5 6 5 5 5 5 5 5 5 5 5 5 5 5 6 5 5 5 5 5 5 6 5 5 5 5 5 5 5 5 6 5 5 5 6 5 5 5 5 5 5 5 5 5 5 5 5 6 5 5 5 5 5 5 5 5 5 5 5 5 5 5 5 5 5 5 5 5 5 5 5 5 5 5 5 5 5 5 5 5 5 5 5 5 5 5 5 5 5 5 5 5 5 5 5 6 5 5 5 5 5 5 5 5 5 5 5 5 5 5 5 5 5 5 5 5 5 5 5 5 6 5 5 5 5 5 5 5 5 5 5 6 5 5 6 5 5 5 5 5 5 5 5 5 6 5 6 5 5 5 5 6 5 5 6 5 6 5 5 5 5 5 6 5 5 5 5 5 5 5 5 6 5 5 5 5 5 5 5 5 5 5 5 5 5 5 6 5 6 6 5 5 5 5 5 6 5 5 5 5 5 5 5 5 5 5 5 5 5 5 5 6 5 5 5 5 5 5 5 5 5 5 5 5 5 5 5 5 6 5 5 5 5 5 6 6 5 5 6 5 5 5 5 5 5 5 5 5 5 6 5 5 5 5 5 5 5 5 5 6 5 6 5 5 5 5 5 6 5 5 5 5 6 5 5 5 6 5 5 5 6 5 5 6 5 5 5 5 5 5 5 5 5 5 5 5 5 5 5 5 6 5 5 5 5 5 5 5 6 5 5 5 5 5 5 5 5 5 5 5 5 5 5 5 5 5 5 5 5 5 5 5 5 5 5 5 6 5 5 5 5 6 5 5 5 6 5 5 5 5 5 5 5 5 5 6 5 6 5 5 5 5 5 5 5 5 5 5 5 5 5 5 5 5 5 5 6 6 5 5 5 6 5 5 6 5 5 6 5 5 5 6 5 5 6 5 5 5 5 5 5 5 5 5 5 5 5 5 5 5 5 5 5 5 5 6 5 6 5 5 5 5 5 5 5 5 5 5 5 6 5 6 5 5 5 6 5 5 5 5 5 6 5 5 5 5 5 5 6 5 5 5 5 5 5 5 5 5 5 5 6 5 5 5 5 5 5 5 5 6 5 5 5 6 5 5 6 5 5 5 5 5 6 5 5 5 5 5 5 5 5 5 6 5 5 6 5 6 5 6 6 6 5 6 5 5 5 5 5 5 6 5 5 5 5 5 5 6 5 5 5 5 5 5 5 6 5 5 5 5 6 5 5 5 5 5 6 5 6 5 5 5 5 5 5 5 5 5 5 6 5 5 5 5 5 5 5 6 5 5 5 5 5 5 5 6 5 6 5 5 5 5 5 5 5 5 6 5 5 5 6 6 5 5 5 5 5 6 6 5 6 5 5 6 5 5 6 5 5 5 5 5 5 5 5 6 5 5 5 5 5 6 5 5 5 5 6 5 5 6 5 5 5 5 5 5 5 5 5 5 5 5 5 5 5 5 5 5 5 5 5 5 5 5 5 5 5 5 5 5 5 5 5 5 5 5 5 5 5 5 5 6 5 5 6 5 5 5 5 5 6 5 5 5 5 6 5 5 5 5 5 5 5 5 5 5 5 5 5 5 5 5 5 5 5 5 5 5 5 5 6 5 5 5 6 5 5 5 5 5 5 6 5 5 5 5 5 5 5 5 5 5 5 6 5 6 6 5 5 6 5 5 5 5 5 5 5 5 5 5 5 6 5 5 6 5 5 5 5 5 5 5 5 5 5 5 5 5 5 5 6 5 5 5 5 5 5 5 6 5 6 5 5 5 5 6 5 6 5 5 5 5 5 5 5 5 5 6 5 5 5 5 5 5 5 5 5 5 5 5 5 5 5 5 5 6 5 5 5 5 5 5 5 5 5 5 5 5 5 5 5 5 5 5 5 5 5 5 5 5 5 6 6 5 5 5 5 5 5 5 5 5 5 5 6 5 5 5 5 6 5 5 5 5 6 5 5 5 5 5 5 5 5 6 5 5 5 5 5 5 5 5 5 6 5 5 5 5 5 5 5 5 5 5 5 5 5 5 5 5 5 5 5 5 6 5 5 5 5 5 5 5 5 5 5 5 5 5 5 6 5 6 5 5 5 5 5 5 5 5 6 5 5 6 5 5 5 5 5 5 5 5 5 5 5 5 5 5 5 5 5 5 5 5 5 5 5 5 5 5 5 5 5 5 5 5 5 5 5 5 6 5 5 6 5 5 5 5 6 5 6 5 5 6 5 6 5 5 5 5 5 6 5 5 5 5 5 5 5 5 5 5 5 5 6 5 5 5 6 5 5 5 5 5 5 5 5 5 6 5 5 5 5 6 6 5 5 5 5 5 5 5 5 6 5 5 5 5 5 6 5 5 5 6 5 5 5 6 5 5 5 5 6 5 5 5 5 5 5 5 5 5 5 5 5 5 5 6 5 5 5 5 5 5 6 5 6 6 5 6 5 6 5 5 5 5 6 5 5 5 5 6 5 5 5 5 5 5 5 5 5 6 5 5 5 5 5 5 5 5 5 5 5 5 5 5 6 5 5 5 6 5 5 5 6 5 6 5 5 5 5 5 5 5 5 5 5 5 5 5 5 5 5 6 5 5 5 5 5 5 6 5 5 5 5 5 5 5 5 5 5 5 5 5 5 5 5 5 5 6 5 5 5 5 5 5 5 5 5 5 5 5 5 5 5 5 5 5 5 5 5 5 5 5 5 5 5 5 5 5 5 5 5 5 6 5 5 5 5 6 5 5 5 5 5 5 5 6 5 5 5 5 5 5 5 5 5 6 5 5 6 5 5 5 5 5 6 5 5 5 6 5 5 6 5 5 5 5 5 5 5 5 5 5 5 5 5 5 5 5 5 5 5 5 6 5 5 5 5 5 5 5 5 5 5 6 6 5 6 5 5 5 5 5 6 5 5 5 5 6 5 5 5 5 5 6 5 6 5 5 6 5 5 5 5 5 5 5 5 6 5 5 5 5 5 5 6 5 5 5 5 5 5 6 5 5 5 5 6 5 5 6 5 6 5 5 6 5 5 5 5 5 5 6 5 5 5 5 6 5 5 5 5 5 5 5 5 6 6 5 5 5 5 5 5 5 5 6 5 5 5 5 5 5 6 5 5 5 5 5 5 5 6 5 5 5 6 5 5 5 5 5 5 5 5 5 5 5 5 6 5 5 5 5 6 5 5 6 5 5 5 5 6 5 5 5 6 6 5 5 5 6 5 5 5 6 5 5 5 5 5 5 5 5 5 6 5 5 5 6 5 5 5 5 5 5 5 5 5 5 5 5 6 5 6 5 5 6 5 5 6 5 5 5 5 5 5 5 6 5 5 5 5 5 6 5 6 5 5 5 6 6 5 6 6 5 6 5 5 5 5 5 5 6 5 6 5 5 5 5 5 5 5 5 5 5 5 5 5 6 5 5 6 5 6 5 5 6 5 5 5 6 6 5 5 6 5 5 5 5 5 5 5 5 5 5 5 5 5 5 5 5 5 5 5 5 5 5 5 6 6 5 6 5 6 5 5 6 6 5 5 6 5 5 6 5 5 6 5 6 5 5 5 5 6 5 5 5 5 6 5 6 6 5 6 5 5 6 6 5 5 5 6 5 5 5 5 6 6 5 5 5 5 5 6 5 5 5 5 5 5 5 5 5 5 5 6 5 6 5 6 5 5 6 5 6 5 5 5 5 5 5 5 5 6 5 5 6 5 5 5 5 6 5 5 5 5 5 5 5 5 5 5 5 5 6 5 5 5 5 5 5 5 5 5 5 5 6 5 5 5 5 5 5 6 5 6 5 5 6 5 5 5 5 5 5 5 5 5 5 5 5 5 5 5 5 5 6 6 5 5 5 6 5 5 6 5 5 5 5 5 5 5 5 5 5 5 5 5 5 5 5 5 5 5 5 5 5 5 5 5 6 6 5 5 5 5 5 5 5 5 5 5 5 6 5 5 5 5 5 5 5 5 5 5 5 5 5 5 5 5 5 5 5 5 5 5 5 5 5 5 5 5 5 5 5 5 5 6 5 5 5 5 5 6 5 5 6 5 5 6 6 5 5 5 5 5 5 5 5 5 5 5 5 5 6 5 5 6 5 5 5 5 5 5 6 5 5 6 5 5 5 5 5 5 5 5 5 5 5 5 5 6 5 5 5 5 5 5 5 6 5 5 5 5 5 5 5 5 5 5 5 5 6 5 5 6 5 5 5 5 5 5 5 5 5 5 5 5 5 5 5 5 5 5 5 5 6 5 5 6 5 6 5 5 5 6 5 5 6 5 6 5 5 5 6 5 5 5 5 6 5 5 5 5 5 5 5 6 5 5 5 6 5 5 5 5 5 5 5 5 5 5 5 5 6 5 5 5 5 5 5 5 5 6 5 5 5 5 5 5 5 5 5 5 5 6 5 5 5 5 5 5 5 5 5 5 5 5 5 5 5 5 5 5 5 6 6 5 5 5 6 5 5 5 5 5 5 5 5 5 5 5 5 6 5 5 5 5 5 5 5 5 5 6 5 5 5 5 5 5 5 5 5 5 5 5 5 5 5 5 6 5 6 5 5 5 5 5 6 5 5 5 5 6 5 5 5 6 5 5 5 6 5 5 5 5 5 5 5 5 5 6 5 5 5 6 5 5 6 5 5 5 5 5 5 6 5 5 5 5 5 5 5 5 6 5 5 5 6 5 5 5 5 5 5 5 5 5 5 5 5 5 5 5 5 5 5 5 5 5 5 5 5 5 5 5 6 5 5 5 5 5 5 5 6 5 5 5 5 5 5 5 5 5 5 5 5 5 5 5 5 5 5 5 5 5 5 5 5 5 6 5 6 5 5 5 5 5 5 6 5 5 5 6 5 5 6 5 5 5 5 5 5 5 5 5 5 5 5 6 5 5 5 5 5 6 5 5 5 5 5 5 5 5 5 5 5 5 5 6 5 5 5 6 5 5 5 5 5 5 5 5 5 5 5 5 6 6 5 5 5 5 6 5 5 5 5 5 5 5 5 5 6 6 5 5 5 5 5 6 5 5 5 5 5 6 5 5 5 5 5 6 5 6 5 5 5 5 6 5 6 5 6 6 5 5 5 5 5 5 5 6 6 5 5 5 5 5 5 6 6 6 5 6 6 5 5 5 6 5 5 5 5 5 6 6 6 5 6 5 5 5 6 5 6 6 5 5 5 5 5 5 5 6 6 5 5 6 6 6 5 5 5 5 5 5 5 5 5 5 5 5 5 5 5 5 5 5 5 5 5 5 5 5 5 5 5 5 5 5 5 5 5 5 5 5 5 5 5 5 6 5 5 5 5 5 5 5 5 5 5 6 5 5 5 5 5 5 6 5 5 6 5 5 5 5 5 5 5 5 5 5 5 5 5 6 5 6 5 5 5 5 6 5 5 5 6 5 5 6 5 5 5 6 5 5 6 5 5 5 5 5 6 5 5 5 5 5 5 5 6 5 5 5 5 5 5 5 6 5 5 6 5 5 5 5 6 5 6 5 5 5 5 5 6 5 5 5 5 6 5 5 5 5 5 5 6 6 5 5 5 5 5 6 5 5 6 5 5 5 5 5 5 5 5 5 5 6 5 5 5 5 5 5 5 5 5 5 5 5 5 5 5 5 5 5 6 5 5 5 5 5 5 6 5 5 5 5 5 5 5 6 6 5 5 5 5 6 5 5 5 5 5 5 5 6 5 5 6 5 6 6 6 5 5 5 5 5 5 6 5 5 5 5 5 6 5 5 5 5 6 5 5 5 6 5 5 5 6 5 5 5 5 5 5 5 5 5 5 5 5 5 5 5 5 5 5 5 5 5 5 5 5 5 6 5 5 5 5 5 5 5 6 5 6 5 5 5 5 5 5 6 5 5 6 5 5 5 6 5 5 6 5 5 5 5 5 6 5 5 5 6 6 5 5 5 5 5 5 5 5 5 5 5 5 6 5 5 5 5 5 5 5 5 5 6 5 5 5 5 5 6 6 5 5 5 5 5 5 5 5 5 6 5 5 5 5 5 5 5 5 6 5 5 5 5 5 5 5 5 5 5 5 5 5 5 5 5 5 5 6 5 5 5 5 6 5 6 5 6 5 5 5 5 5 5 5 5 5 5 5 5 5 5 5 5 5 6 5 5 5 5 5 6 5 5 5 6 6 5 5 5 5 5 6 5 5 5 5 6 5 5 5 5 5 5 5 5 6 5 5 5 5 5 5 5 6 5 5 5 5 5 5 5 5 5 6 5 5 5 5 5 5 5 5 5 5 5 5 5 5 5 5 5 5 6 5 5 5 5 5 5 5 5 5 5 5 5 5 6 5 5 5 5 5 5 6 5 5 6 5 5 6 5 5 5 5 5 5 5 5 5 5 5 5 5 5 5 5 5 5 5 5 5 5 5 5 5 5 6 5 6 5 6 6 5 5 5 6 5 5 5 5 5 5 5 5 5 6 6 5 6 5 5 5 5 5 5 5 5 5 5 5 5 5 5 6 5 6 6 5 6 5 5 5 5 5 5 5 5 5 6 6 5 5 5 5 5 5 5 5 5 5 5 5 5 5 5 5 5 5 5 5 5 5 6 5 5 5 5 5 6 5 5 5 5 5 6 5 5 5 6 5 5 5 5 5 5 5 5 5 6 5 5 5 5 6 5 5 5 5 5 5 6 5 5 5 5 5 5 5 6 5 5 5 5 6 5 5 5 5 5 5 5 5 5 5 6 5 5 5 5 6 5 5 5 6 5 5 5 5 5 6 5 5 5 5 5 5 5 5 5 5 5 5 5 5 6 6 5 5 6 5 5 5 5 5 5 5 6 5 5 5 5 5 5 6 5 5 5 5 5 5 5 5 5 5 5 5 5 5 5 5 5 5 5 5 5 5 5 6 5 5 5 5 5 5 5 5 6 5 5 5 5 6 5 5 5 5 5 6 5 6 5 6 5 5 5 5 5 5 5 6 5 5 5 6 5 5 5 5 5 6 5 5 5 5 5 6 5 6 5 5 6 5 6 5 5 5 5 5 6 5 5 5 6 5 5 5 5 5 5 5 5 5 5 6 5 5 5 5 5 5 5 5 5 5 5 5 5 5 5 5 5 5 5 5 5 5 6 5 5 5 5 5 5 5 5 5 5 5 5 5 5 5 5 5 5 6 5 5 5 6 5 5 5 5 5 5 6 5 5 5 6 6 5 6 5 6 6 5 6 5 5 6 5 5 6 6 5 5 5 5 5 5 5 5 6 5 6 5 5 5 5 5 5 5 5 5 5 5 5 5 5 5 5 5 5 5 5 5 5 6 5 5 5 5 5 5 5 5 6 5 5 6 5 5 6 6 5 5 6 5 5 5 5 5 5 5 5 5 5 5 5 5 5 5 5 5 5 5 5 5 5 5 5 5 5 5 5 5 5 5 5 5 5 5 5 5 5 5 6 5 6 5 5 5 5 5 5 5 5 5 5 5 5 5 5 5 5 5 5 5 5 5 5 5 5 5 5 5 5 5 5 5 5 5 5 5 5 5 5 5 5 6 5 5 6 5 5 5 5 5 6 5 6 5 5 6 5 5 5 5 5 5 6 5 5 5 5 5 5 5 5 5 5 5 6 5 5 6 6 5 6 5 5 6 5 5 5 5 6 5 5 5 5 5 5 5 5 5 6 5 6 5 5 5 5 5 5 5 6 5 6 5 5 5 5 5 5 5 5 5 6 5 6 5 5 5 5 5 5 5 5 5 5 6 5 5 5 6 5 5 6 5 5 6 5 5 5 5 6 5 5 5 6 5 5 5 5 5 5 5 5 5 5 5 5 5 5 6 5 5 5 5 5 5 6 5 6 5 6 5 5 5 6 5 5 5 5 5 5 5 5 6 5 5 5 5 5 6 5 5 6 5 5 5 5 5 5 5 5 5 6 5 5 5 6 5 5 5 5 5 5 6 5 5 5 5 5 5 5 5 5 5 5 5 5 5 5 5 5 5 5 5 5 5 5 5 5 5 5 5 5 5 5 6 5 5 5 5 5 6 5 5 6 6 5 5 5 5 6 5 5 5 5 5 6 5 5 5 5 5 5 5 5 5 5 5 5 5 5 5 5 6 5 5 5 5 5 5 5 5 6 6 5 5 5 5 5 5 6 5 5 5 5 6 5 5 5 5 5 5 5 5 5 5 5 5 5 5 5 5 5 5 5 5 5 5 5 5 6 5 5 6 5 5 5 5 5 5 5 5 5 5 5 5 5 5 5 5 5 5 5 5 5 5 5 5 5 5 5 6 5 6 5 5 5 5 5 6 5 5 5 5 5 5 5 5 5 5 5 5 5 5 5 5 5 5 5 5 6 6 5 6 5 5 5 5 5 5 5 5 5 5 5 5 5 5 5 5 6 5 5 5 6 5 5 5 5 5 5 5 5 5 5 5 5 5 6 5 5 5 5 5 5 5 5 5 5 5 5 5 5 5 5 5 5 5 5 5 5 6 5 5 5 5 5 5 5 5 5 5 5 5 5 6 5 6 5 5 6 6 5 5 5 5 5 5 5 5 5 5 5 5 5 5 5 5 5 5 5 5 6 5 5 6 5 5 5 6 5 5 5 5 5 5 6 5 5 5 6 5 5 5 5 5 5 5 5 6 5 5 6 5 5 6 5 6 5 5 5 5 6 6 5 5 6 6 5 5 6 5 5 5 5 6 5 5 6 6 5 6 5 5 5 5 5 5 5 5 5 5 5 5 5 5 5 5 5 5 5 5 6 5 5 5 5 6 5 5 5 5 6 6 5 5 5 5 5 5 5 5 5 5 5 5 6 5 5 5 6 5 5 5 5 5 5 5 6 5 5 5 6 5 5 6 6 5 5 5 6 5 5 5 6 5 5 5 5 5 5 5 5 5 5 5 5 5 5 5 5 5 5 6 5 5 5 5 5 5 5 5 5 5 5 5 5 5 5 5 5 5 6 6 5 5 5 5 5 6 6 5 6 5 5 5 5 5 5 5 5 5 6 5 5 5 6 5 5 5 5 5 5 5 5 5 5 5 5 5 5 6 5 5 5 5 5 5 5 6 5 5 6 5 5 5 5 5 5 6 5 5 5 5 6 5 5 5 5 5 5 6 5 5 5 5 5 5 5 5 6 6 5 5 5 6 6 5 5 5 5 5 6 5 5 5 5 5 5 6 5 5 5 5 6 5 5 5 5 5 6 5 5 5 5 6 5 5 5 5 5 5 5 5 5 5 5 5 5 5 5 5 5 5 5 5 5 5 5 5 5 6 5 5 5 5 6 5 6 5 6 5 5 6 5 5 6 5 5 6 5 5 5 5 5 5 6 5 5 6 5 6 6 6 5 5 6 5 6 6 5 5 5 6 5 6 5 5 5 5 5 5 6 5 5 5 6 5 5 5 5 5 5 5 6 5 5 5 6 5 6 6 5 5 5 5 5 5 5 6 5 5 5 5 5 5 5 5 6 6 5 5 5 5 6 5 5 6 5 5 5 6 5 5 5 6 6 5 5 5 5 6 5 5 5 5 5 6 6 5 5 5 5 5 5 5 5 5 5 5 5 5 5 5 5 5 5 5 5 5 5 5 5 5 5 5 5 5 5 5 6 5 5 5 6 5 5 5 5 5 5 5 5 5 5 5 5 5 5 5 6 5 6 6 5 5 6 5 5 5 5 5 5 5 5 5 5 5 5 5 5 5 5 5 5 5 5 5 5 5 6 5 5 6 6 5 5 5 5 5 5 5 6 5 5 5 6 5 5 5 5 6 6 5 5 5 5 5 5 5 6 5 5 5 5 6 5 5 5 5 6 5 5 5 5 5 5 5 5 5 5 5 5 5 5 5 5 5 5 5 6 5 5 5 5 5 5 5 5 5 5 5 5 5 5 5 5 6 5 5 5 6 5 5 5 5 5 5 5 5 5 6 5 5 5 5 5 5 5 5 5 5 5 5 5 5 5 5 5 5 5 5 5 6 5 5 5 5 5 5 5 5 5 5 5 5 5 5 5 5 5 6 5 5 5 5 5 6 5 5 5 5 5 5 5 5 5 5 5 5 5 5 5 5 5 5 5 5 5 5 5 5 5 5 5 6 5 5 6 5 5 5 6 5 5 5 5 5 5 5 5 5 5 5 5 5 5 5 6 5 6 5 5 5 5 5 5 5 5 5 6 5 5 5 5 5 5 5 5 5 6 6 5 5 5 5 5 5 5 5 5 5 5 5 5 5 5 5 5 5 5 5 5 5 5 5 5 5 5 5 5 5 5 5 5 5 5 5 5 5 5 5 5 5 5 5 5 5 5 5 5 5 5 5 5 5 5 5 5 5 5 5 5 5 5 5 5 5 5 5 5 5 5 6 5 5 5 5 5 5 6 5 5 5 5 5 5 5 5 5 6 5 6 5 5 5 5 5 5 5 5 5 5 5 5 5 5 5 5 5 5 5 5 5 5 5 5 5 5 5 5 5 5 5 5 5 5 6 5 5 5 6 6 5 5 5 5 5 5 5 5 5 5 5 5 5 5 5 5 5 5 5 5 5 5 6 6 5 5 5 5 5 5 5 5 6 5 5 5 5 5 5 6 5 5 5 5 5 6 5 5 5 5 6 5 5 5 6 5 5 5 6 5 5 6 5 5 5 5 5 5 5 5 5 5 5 5 5 6 5 5 5 5 5 5 5 5 6 5 5 5 5 5 5 5 5 5 5 5 6 5 5 5 6 5 5 5 5 6 5 5 5 5 5 5 5 5 6 5 6 5 5 6 5 5 5 5 5 6 5 5 5 5 5 5 5 5 5 5 5 5 6 5 5 5 5 5 5 5 5 5 6 5 5 5 5 5 5 6 5 5 5 5 5 5 5 6 5 5 5 5 5 6 5 5 5 5 5 5 5 5 5 5 5 5 5 5 5 5 5 5 5 5 5 5 5 5 5 5 5 5 5 5 5 5 5 5 5 5 5 5 5 5 5 5 5 5 5 5 5 6 5 6 5 5 5 5 5 5 5 5 5 5 5 5 5 5 6 5 5 5 5 5 5 5 5 5 5 5 5 5 5 5 6 5 5 6 5 6 5 5 5 5 5 6 5 5 5 5 5 5 5 5 5 5 5 5 5 5 5 5 5 5 5 5 6 5 5 5 5 5 5 5 5 5 5 5 6 5 6 5 5 6 5 6 5 5 5 5 5 5 5 6 5 6 5 5 5 5 6 5 5 5 5 6 6 5 5 6 5 5 5 5 5 5 5 5 5 5 5 5 5 5 5 5 6 5 5 5 5 5 5 5 5 5 5 5 5 5 5 6 5 6 5 5 5 5 5 5 5 6 5 6 5 5 5 5 5 5 5 5 5 6 6 5 5 5 6 5 5 5 5 6 5 6 5 5 6 5 6 6 6 5 5 6 5 5 5 6 6 6 5 5 5 5 5 5 5 5 5 5 5 6 5 5 5 5 5 5 6 5 5 5 6 5 5 5 5 5 5 5 5 6 5 5 5 6 5 5 5 5 5 5 5 5 5 5 5 5 5 5 5 5 5 5 5 5 5 5 5 5 5 5 5 5 5 5 5 5 5 5 5 5 5 5 5 5 5 5 5 5 5 5 5 5 5 5 5 5 5 5 5 5 5 5 5 5 6 5 5 5 5 5 6 5 5 5 5 6 5 5 5 6 5 5 5 5 5 5 5 5 5 5 5 5 5 5 5 5 5 5 5 5 5 5 5 5 5 5 5 5 5 5 5 5 5 5 5 5 5 5 5 5 6 5 5 6 5 5 5 5 5 5 5 6 5 5 5 5 5 5 5 5 5 5 5 6 5 5 6 5 6 5 5 5 6 5 5 5 5 5 5 5 5 6 5 5 5 5 6 5 5 5 5 6 5 6 5 5 5 5 5 5 5 5 5 5 5 5 6 5 6 5 5 5 5 5 5 5 5 5 5 5 5 5 6 5 5 5 5 5 5 5 5 5 6 5 5 5 6 5 5 5 5 5 5 5 5 5 5 5 5 5 5 5 5 5 5 5 5 5 5 5 5 5 5 5 5 5 5 5 5 5 5 5 6 5 5 6 5 5 5 5 6 5 5 5 5 5 5 5 5 5 5 5 5 5 5 5 6 5 5 5 5 5 5 5 5 5 6 5 6 5 5 5 5 5 5 5 6 5 5 5 5 5 5 5 5 5 5 5 5 5 5 6 5 5 5 5 5 5 5 5 5 5 5 6 5 5 5 5 5 5 5 5 5 5 5 5 5 5 5 5 5 5 5 5 5 5 5 6 5 6 5 5 5 5 5 5 6 5 6 5 5 5 6 5 5 5 6 5 5 5 6 5 5 6 5 5 5 5 5 5 5 6 5 5 5 5 5 5 5 6 5 5 5 5 5 5 5 5 5 5 5 5 5 6 5 5 5 5 5 5 5 5 6 5 5 5 5 5 5 5 5 5 5 5 5 5 5 5 5 5 5 5 5 6 5 5 5 5 5 5 5 5 5 5 5 5 5 5 5 5 5 5 5 5 5 5 5 5 5 5 5 5 5 5 5 5 5 5 5 5 5 5 5 5 5 5 5 5 5 5 5 5 5 5 6 5 6 5 5 5 6 5 5 6 6 5 6 5 5 5 5 5 5 5 5 5 5 5 5 5 5 5 5 5 5 5 5 5 5 5 5 5 5 5 5 5 5 5 5 5 5 5 6 5 5 5 5 6 5 5 6 5 5 5 6 5 5 5 5 6 5 6 6 5 5 5 5 6 5 5 5 6 5 5 5 6 5 5 5 5 5 5 6 5 5 5 5 5 5 5 5 5 5 5 5 5 5 5 5 5 5 5 5 6 5 5 5 5 5 5 5 5 5 5 5 5 5 5 5 5 5 5 6 5 5 6 5 5 6 5 5 5 5 5 5 5 5 5 5 5 6 5 5 5 5 6 5 5 5 5 6 5 5 5 6 5 5 5 5 5 5 5 5 5 5 5 5 5 5 5 5 5 5 5 5 5 5 5 5 5 6 5 5 5 5 5 5 5 5 6 5 5 5 6 5 5 5 5 5 5 5 5 5 5 5 5 5 5 5 5 5 5 5 5 5 5 5 5 6 5 5 5 6 5 5 5 5 5 5 5 5 6 5 5 6 5 5 5 5 6 5 5 5 5 5 5 5 6 5 6 5 5 6 5 5 6 6 5 5 5 5 5 5 5 5 5 5 5 5 5 5 5 5 5 5 5 5 5 6 5 5 5 5 6 5 5 5 5 5 5 5 5 5 5 5 5 5 6 5 5 6 5 5 5 5 5 5 5 5 5 5 5 5 5 5 5 5 5 5 5 5 5 5 5 5 5 5 5 5 5 5 5 5 5 5 5 5 5 5 5 5 5 5 5 5 5 5 5 5 5 5 5 5 5 5 5 5 5 5 5 5 5 5 5 5 5 5 5 5 5 5 5 5 5 5 5 5 5 5 5 5 5 5 5 5 5 5 5 5 5 5 5 5 5 5 5 5 5 5 5 5 5 5 5 5 5 5 5 5 5 5 5 5 5 5 5 5 5 5 5 5 5 5 5 5 5 5 5 5 6 5 5 5 5 5 5 5 6 5 5 5 5 5 5 5 5 5 6 5 6 5 5 5 6 5 5 6 5 5 5 5 5 5 5 5 5 5 5 5 5 5 5 5 5 5 5 5 5 5 5 5 5 5 5 5 5 5 5 5 5 5 5 5 5 6 5 5 6 6 5 5 6 5 5 6 5 5 5 6 5 5 5 5 5 5 5 5 5 6 5 5 5 5 5 5 6 5 5 5 5 5 5 5 5 5 5 5 5 5 5 5 5 5 5 5 5 5 5 5 5 5 5 5 5 5 5 5 6 5 5 5 5 5 5 5 5 5 5 5 5 5 5 5 5 5 5 5 5 5 5 5 5 5 5 5 5 5 5 5 5 5 5 5 5 5 5 5 5 5 5 5 5 5 5 6 5 6 5 5 5 5 6 5 5 5 5 6 5 5 5 5 6 5 5 5 5 5 5 5 5 6 5 5 6 5 6 5 5 5 5 6 5 5 6 6 5 5 5 5 5 5 6 5 5 5 5 5 5 5 5 5 5 6 6 5 5 5 5 5 6 5 5 6 5 5 5 5 6 5 5 6 5 5 5 5 5 5 5 5 5 5 5 5 5 5 5 5 5 5 5 5 5 5 5 5 5 5 5 5 5 6 5 6 5 5 5 5 5 5 5 5 5 5 5 5 5 6 5 5 5 5 6 6 5 5 5 5 5 5 5 5 5 5 5 5 5 5 5 5 5 5 5 5 5 5 5 5 5 5 5 5 5 5 5 5 5 5 5 5 5 5 5 5 5 5 6 5 5 5 6 5 5 5 5 5 5 5 5 5 5 5 5 5 5 5 5 5 5 5 5 6 5 5 6 5 5 5 5 5 5 5 5 5 6 5 5 5 5 5 6 5 5 5 5 5 6 5 6 5 5 5 5 5 5 5 5 5 5 5 5 5 6 5 5 5 6 6 5 5 5 5 5 5 5 5 6 5 5 6 5 5 6 6 5 5 5 5 5 6 5 5 5 5 5 5 5 6 5 5 6 6 5 5 5 5 5 5 6 6 5 5 5 6 5 5 5 5 5 5 5 6 5 5 5 5 5 5 5 5 5 5 5 5 5 5 5 5 5 5 5 5 5 5 5 5 5 5 6 5 5 5 5 5 5 5 6 5 5 5 5 5 5 5 5 5 5 5 6 5 5 5 5 5 5 5 5 6 5 5 5 5 5 5 5 5 5 5 5 5 5 5 5 5 6 5 5 5 6 5 5 5 5 5 6 5 5 5 5 5 5 5 5 5 5 5 5 5 5 6 5 5 5 5 6 5 5 6 5 5 5 5 5 6 5 5 5 5 5 5 5 5 5 5 5 5 5 5 6 5 6 5 5 5 6 5 6 5 6 5 5 5 5 5 5 6 6 5 5 5 5 5 5 6 5 6 5 5 5 5 5 5 5 5 5 5 5 5 5 5 5 5 5 6 5 5 5 6 6 5 5 5 5 5 6 5 5 6 6 5 5 5 5 5 5 5 5 5 5 5 5 5 5 5 5 5 5 5 5 5 5 5 5 5 5 5 5 5 5 5 5 5 5 5 5 5 5 5 5 5 5 5 5 6 5 5 6 6 6 5 5 5 5 5 5 6 5 5 5 5 5 5 5 5 5 6 5 5 5 6 5 5 5 5 5 5 5 5 5 5 5 5 5 5 5 5 5 5 5 5 6 5 5 5 5 6 5 5 5 5 5 5 5 5 5 5 5 5 5 5 5 5 5 5 5 5 5 5 5 5 5 5 5 5 5 5 5 5 5 5 6 5 6 5 5 5 5 5 5 5 5 6 5 5 5 6 5 6 5 5 5 5 5 5 5 5 6 5 5 5 5 6 5 5 5 5 6 5 5 5 5 5 5 5 6 5 5 5 5 6 5 5 5 5 5 5 5 5 5 5 5 5 5 5 5 5 5 5 5 5 5 5 5 5 5 5 5 5 5 5 5 5 5 5 5 5 5 5 5 5 5 5 5 5 5 5 6 5 5 5 5 6 6 5 5 6 6 5 5 5 5 5 5 5 5 5 5 5 5 5 5 5 5 5 5 5 6 5 5 5 6 6 5 5 5 5 5 5 5 5 5 5 5 5 5 5 5 5 5 5 5 5 5 5 5 5 5 5 5 6 5 5 5 5 5 5 5 6 5 5 5 5 5 5 5 5 5 5 5 5 5 5 5 6 5 5 5 5 5 5 5 5 6 5 6 6 5 5 5 5 5 5 5 5 5 5 5 5 6 5 5 5 5 5 5 5 5 5 5 5 5 5 5 5 5 5 5 6 5 5 5 6 5 5 5 5 5 5 5 5 6 5 5 5 5 5 5 5 5 5 5 5 5 5 5 5 6 5 5 5 6 5 5 5 5 5 5 5 5 5 5 5 5 5 5 5 5 5 5 5 5 5 5 5 5 5 5 5 5 5 5 5 5 5 6 5 6 5 5 5 5 5 5 5 5 6 5 5 5 5 5 5 5 5 5 6 5 5 6 5 5 5 5 5 6 5 5 5 5 6 5 5 5 5 6 5 5 5 6 5 6 5 5 6 5 5 5 5 5 5 5 5 5 5 5 5 5 5 6 5 5 6 5 6 5 5 5 6 5 5 6 5 5 5 5 6 5 6 5 5 5 5 5 5 6 5 6 5 5 5 5 5 6 5 5 5 5 6 5 5 5 5 5 5 6 5 5 5 5 5 5 5 5 5 5 5 5 5 5 5 5 5 5 5 5 5 5 5 5 5 5 5 5 5 5 5 5 5 6 6 5 5 5 5 5 5 5 5 5 5 6 5 5 6 6 5 6 5 5 5 5 5 5 5 6 5 5 5 5 5 5 5 5 5 5 5 5 6 5 5 5 5 6 5 5 5 5 5 5 5 5 5 5 5 5 6 5 5 5 5 5 5 5 5 5 5 5 5 5 5 5 5 5 6 5 5 5 5 5 6 5 5 5 6 5 5 5 5 5 5 6 5 6 5 5 5 6 5 5 5 5 5 5 5 5 5 6 5 5 6 5 5 5 5 5 5 5 6 5 5 5 5 5 5 5 5 5 5 5 5 5 6 5 5 6 5 5 5 5 5 5 6 5 5 5 5 5 5 6 5 5 5 5 5 5 5 6 5 5 5 5 5 5 5 5 5 5 5 5 5 5 5 5 5 5 5 5 5 5 6 5 5 5 5 5 5 5 5 5 5 6 5 5 5 5 6 6 5 5 5 5 6 5 5 5 5 5 5 5 5 5 6 5 5 5 5 5 5 5 5 5 5 5 6 5 5 5 6 5 5 5 6 5 5 5 5 5 5 5 5 5 5 5 5 6 5 5 5 5 5 6 5 5 6 5 5 5 5 5 5 5 5 5 5 5 5 5 5 6 5 5 5 5 5 5 5 6 5 5 5 6 5 5 5 5 5 6 5 5 5 5 5 5 5 5 5 6 5 5 5 5 5 5 5 5 6 5 5 5 5 5 6 5 5 5 5 5 5 5 6 5 5 5 5 5 5 5 5 5 5 5 5 5 5 5 5 5 5 5 5 5 5 5 5 5 5 5 5 5 5 5 5 5 5 5 5 5 5 5 5 5 5 5 5 5 5 5 5 6 5 5 5 5 5 5 5 6 5 5 5 5 5 5 5 5 5 5 5 5 5 5 5 5 5 5 5 5 5 5 6 6 5 5 6 6 5 5 5 5 5 5 5 6 5 5 5 5 5 5 5 5 5 5 5 5 5 5 6 5 5 5 5 5 5 5 5 6 5 5 6 5 5 5 6 5 5 5 5 5 5 5 5 5 5 5 5 5 5 5 5 5 5 5 5 5 5 5 5 5 5 5 5 6 5 5 5 5 5 5 5 5 6 5 5 5 5 5 5 6 6 5 5 5 5 6 5 5 6 5 5 6 5 5 5 5 5 5 6 5 5 5 5 5 5 5 5 6 5 5 5 5 5 5 5 5 5 5 5 6 5 5 6 5 5 5 5 5 5 5 6 5 5 5 6 5 6 5 6 5 5 5 5 5 5 5 5 5 5 5 5 5 5 5 5 5 6 5 6 5 5 5 5 5 5 5 5 5 5 6 5 5 5 5 5 5 5 6 5 5 5 6 5 6 6 5 5 6 5 5 5 5 6 5 5 5 6 5 5 5 6 5 6 6 5 5 5 5 5 5 6 5 5 5 5 5 5 5 5 6 6 6 5 6 5 5 6 6 5 5 6 5 5 5 5 5 5 5 5 5 5 5 6 5 5 5 5 5 5 5 5 5 5 5 5 5 6 6 5 5 5 5 6 5 5 5 6 5 5 5 5 5 6 6 5 5 5 6 5 5 5 5 5 5 5 5 5 5 5 5 5 5 5 6 5 5 5 6 5 5 5 6 5 5 5 5 5 5 6 5 5 5 5 5 6 5 5 5 5 5 5 5 5 6 5 5 5 5 5 5 5 5 5 6 5 5 5 5 6 5 6 5 5 6 5 6 5 5 5 5 5 5 6 5 6 6 5 5 5 5 5 5 5 5 6 5 6 5 6 5 6 5 5 5 5 5 5 5 5 5 5 5 6 5 5 5 6 5 5 5 5 5 5 5 5 6 5 5 5 5 5 5 5 5 5 6 5 5 5 5 6 5 5 6 5 5 5 5 5 5 5 5 5 6 5 5 5 6 5 5 5 5 5 5 5 5 5 5 5 5 5 5 5 5 5 5 5 6 5 5 5 5 5 5 5 5 5 5 6 5 5 5 5 5 5 5 5 5 5 5 5 5 5 5 5 5 5 5 5 5 5 5 5 5 5 5 5 5 5 5 5 5 5 5 5 5 5 5 5 5 5 5 5 5 6 6 5 5 5 5 5 5 5 5 5 5 5 5 5 6 6 5 5 5 6 5 5 6 5 5 5 6 5 5 5 6 5 5 5 5 5 5 5 5 6 5 5 6 5 6 6 5 5 5 5 5 5 6 5 6 6 6 5 5 6 5 5 6 6 5 5 5 5 5 5 5 5 5 5 5 5 5 5 5 5 5 5 5 5 5 6 5 5 5 5 5 5 5 5 5 6 5 5 5 5 5 5 5 6 6 5 5 5 5 5 5 5 5 5 5 5 5 5 5 5 5 5 5 5 5 5 5 5 6 5 6 5 5 5 5 5 5 5 6 5 5 5 6 6 5 5 6 5 5 5 5 6 5 5 5 6 5 5 5 6 5 5 5 5 5 5 5 5 5 6 6 5 5 5 5 5 6 5 5 6 6 6 5 5 5 5 5 6 5 5 5 5 5 5 5 5 5 6 5 6 5 5 5 5 5 5 5 5 5 5 5 5 5 5 5 5 5 5 5 5 5 5 5 5 6 5 5 5 5 6 6 5 5 5 6 5 5 5 5 5 5 5 5 5 5 5 5 5 5 5 5 6 5 5 5 6 5 5 6 5 5 5 5 5 5 5 5 5 5 5 5 5 6 5 5 6 5 5 5 6 5 6 5 6 5 6 6 6 5 5 5 5 5 5 5 5 6 5 5 5 5 5 5 5 5 6 5 5 6 5 5 5 5 5 5 5 5 5 5 5 5 5 5 5 5 5 5 5 5 5 6 5 5 5 5 5 5 5 5 5 5 6 5 6 5 5 6 5 6 5 6 5 5 6 5 6 5 5 6 5 5 5 6 5 5 5 5 5 5 5 5 5 5 5 5 5 5 5 5 5 5 5 5 5 5 5 5 5 5 5 5 5 5 5 5 5 5 5 5 5 5 5 5 5 5 5 5 5 5 5 5 5 5 5 5 5 5 5 5 5 5 5 5 5 6 5 5 6 5 5 5 5 5 5 6 6 5 5 5 5 5 5 5 5 5 5 5 5 5 5 5 5 5 5 6 5 5 5 6 5 5 5 5 5 5 5 5 5 5 5 5 5 5 5 5 6 5 5 5 5 5 5 5 6 5 5 5 5 5 5 5 5 6 5 6 5 5 5 5 5 5 5 5 5 5 5 5 5 5 5 5 6 5 5 5 5 5 5 5 6 5 5 5 5 6 5 5 5 5 5 5 5 6 5 5 6 6 5 5 6 5 5 5 5 5 5 6 5 5 5 5 5 5 5 5 5 6 5 5 6 5 5 6 5 5 6 5 5 5 5 5 6 5 5 5 5 5 5 5 5 6 5 5 5 5 5 5 5 6 5 5 5 5 5 5 5 5 5 5 5 5 6 5 5 5 5 5 5 5 6 6 5 6 5 6 5 5 5 5 5 5 5 5 5 5 5 5 5 5 5 6 5 6 5 5 5 5 5 5 5 5 6 5 6 5 6 5 6 5 6 5 5 6 5 5 5 5 5 6 5 5 5 5 5 5 5 5 6 5 5 5 5 5 6 5 5 6 5 6 6 5 5 5 5 5 5 5 5 6 5 5 5 5 5 5 5 5 5 5 5 5 5 6 5 5 5 5 5 5 5 6 5 5 5 6 5 5 5 5 5 5 5 5 5 5 5 5 5 5 5 5 5 6 5 5 5 5 5 5 5 6 5 5 6 5 5 5 5 5 5 5 5 5 5 5 5 5 5 5 6 5 5 5 5 6 5 5 5 5 5 5 5 5 5 5 5 5 5 5 5 5 5 5 5 5 5 5 5 5 5 6 5 5 5 5 5 5 6 5 5 5 5 5 5 5 5 5 6 6 5 5 5 6 5 6 5 5 5 5 5 5 5 5 5 5 5 5 5 5 5 6 5 5 5 5 5 5 5 5 5 5 5 5 6 6 5 5 5 5 5 5 5 5 6 5 5 6 5 5 6 6 5 5 5 5 5 5 5 6 5 5 5 5 5 5 5 5 5 6 5 5 5 6 5 5 5 5 5 6 5 5 5 5 5 5 5 5 5 5 5 5 6 5 5 5 6 5 5 5 6 5 5 5 5 5 5 5 5 5 5 5 5 5 5 5 5 5 5 5 5 5 5 5 5 5 5 5 5 5 5 5 5 6 5 5 5 5 5 5 5 5 5 5 5 5 5 5 5 5 5 5 5 5 5 5 5 5 6 5 6 5 5 6 5 5 5 5 5 5 5 5 5 6 5 5 5 5 5 5 5 5 5 5 5 5 5 5 6 5 5 5 5 6 5 5 5 6 5 5 5 5 5 5 5 5 5 5 5 5 5 5 5 5 5 5 5 5 5 5 5 5 5 5 5 5 5 5 5 5 5 5 5 5 5 5 5 5 5 5 5 5 5 5 5 5 5 5 5 5 5 5 5 5 5 5 5 5 5 5 5 5 5 5 5 5 5 5 5 5 5 5 5 5 5 5 5 5 5 5 5 5 5 5 5 5 5 5 5 5 5 5 5 5 5 5 5 5 5 5 5 5 5 5 5 5 5 5 5 5 5 5 5 5 5 5 5 5 5 5 5 5 5 5 5 5 5 5 5 5 5 5 5 5 5 5 5 5 5 5 5 5 5 5 5 5 5 5 5 5 5 5 5 5 5 5 5 5 5 5 5 5 5 5 5 5 5 5 5 5 5 5 5 5 5 5 5 5 5 5 5 5 5 5 5 5 5 6 5 5 5 5 5 5 5 5 5 5 5 5 5 5 5 5 6 5 5 5 5 5 5 5 5 6 5 5 5 5 6 5 5 5 5 5 5 5 5 5 5 5 5 5 5 5 5 5 5 5 5 5 5 6 5 5 5 5 5 5 5 5 5 5 5 5 5 6 6 5 5 5 5 5 6 5 6 5 5 5 5 5 5 5 5 5 5 5 6 5 5 5 5 5 5 5 6 5 5 5 5 5 5 5 5 5 5 5 5 5 5 5 6 6 5 5 5 5 5 5 5 5 5 5 5 5 6 5 5 5 5 5 5 5 5 5 5 5 5 5 5 5 5 6 5 5 5 5 5 5 5 6 5 5 5 5 5 5 5 5 5 5 6 6 5 5 5 5 5 5 5 5 5 5 5 5 5 5 5 5 5 5 5 5 5 5 5 5 5 5 5 5 5 5 6 5 5 5 5 5 6 5 5 5 5 5 5 5 5 5 5 6 5 5 5 5 6 5 5 5 5 5 5 5 5 5 5 6 5 6 5 5 5 5 5 5 5 5 5 5 5 5 5 5 5 5 5 5 5 5 5 5 5 5 5 5 5 5 5 5 5 6 5 5 5 5 5 6 5 5 5 5 5 5 5 5 5 5 5 5 5 5 5 5 5 5 6 5 5 6 5 5 5 6 5 5 5 5 5 6 5 5 5 5 5 5 5 5 5 5 6 5 5 5 5 5 5 6 5 5 5 5 5 6 6 5 5 6 5 5 6 5 5 5 5 5 5 5 5 5 5 6 5 5 6 5 5 6 5 5 6 5 5 6 5 5 6 5 5 5 5 5 5 6 5 5 5 5 5 5 5 5 5 5 5 6 5 5 5 5 5 5 5 6 5 5 5 5 6 5 5 5 6 5 5 5 5 5 5 5 5 5 5 5 6 5 5 5 5 5 5 5 5 5 5 5 5 5 5 5 5 5 5 5 5 5 5 5 5 6 5 5 5 5 5 6 5 5 5 5 5 5 5 5 5 5 5 5 5 5 6 5 5 6 5 6 5 5 5 5 6 5 6 6 5 6 5 5 5 5 5 5 5 6 5 6 5 5 5 5 5 5 6 5 5 5 5 5 5 6 5 5 5 5 6 5 5 5 5 5 6 5 5 6 5 5 5 5 6 5 5 5 5 6 5 5 5 5 5 5 6 5 5 5 5 5 5 5 5 5 6 5 5 5 5 5 5 6 5 5 5 5 6 5 5 5 5 5 5 5 5 5 5 5 5 5 5 5 5 6 5 5 5 6 5 5 6 5 5 5 5 5 5 5 5 5 5 5 5 5 5 5 5 6 5 6 5 5 5 5 5 5 5 5 5 5 5 5 5 5 5 5 5 5 5 5 5 5 5 5 5 5 6 5 5 6 5 5 5 5 5 5 5 5 5 5 6 5 5 5 5 6 5 5 5 5 6 5 5 5 5 5 5 5 5 5 6 5 5 5 5 5 5 5 5 5 5 5 5 5 5 5 5 5 5 5 5 5 5 5 5 5 5 5 5 
</DataArray>
<DataArray type="Float64" Name="stress" NumberOfComponents="9" format="ascii">
1162494600.2723503 -120051656.1926195 0 -120051656.1926195 -190213.23822378804 0 0 0 0 1966994223.5160637 -231019134.51804736 0 -231019134.51804736 -75636865.099808052 0 0 0 0 2202052144.5800247 -352379158.29872763 0 -352379158.29872763 -186585345.43611559 0 0 0 0 1868015857.5928688 -431564896.96925437 0 -431564896.96925437 51985035.714567602 0 0 0 0 1508418935.0997162 -620885024.13745296 0 -620885024.13745296 47700958.673797369 0 0 0 0 677950.97618032619 18519.286739684176 0 18519.286739684176 22352.995710046576 0 0 0 0 24424268.776473999 94824177.708811104 0 94824177.708811104 163003225.89418322 0 0 0 0 487968229.71038818 157984909.40803725 0 157984909.40803725 68604289.639919803 0 0 0 0 1310484691.317852 -101238834.04900566 0 -101238834.04900566 -19378482.118275106 0 0 0 0 996941299.11744881 -557578331.89242601 0 -557578331.89242601 296312391.54113472 0 0 0 0 105679249.96917725 -54116063.001590282 0 -54116063.001590282 180925916.0428628 0 0 0 0 499743864.01931 -333255795.30684042 0 -333255795.30684042 106370688.9171423 0 0 0 0 1404621.5690689087 -329713.03972044052 0 -329713.03972044052 -705.00880540341541 0 0 0 0 1804345.1322852783 705336.17499914765 0 705336.17499914765 260170.65156329577 0 0 0 0 1615339.6350822449 -745918.24621638143 0 -745918.24621638143 -1005717.9895802552 0 0 0 0 761419.19891357422 -1166800.9948417053 0 -1166800.9948417053 -1407.4218996109739 0 0 0 0 1484503.7331771851 -461584.92759403255 0 -461584.92759403255 -400396.10848699114 0 0 0 0 2088241.4016342163 -94517.030347923632 0 -94517.030347923632 -495456.55440090236 0 0 0 0 2018577.8339615948 758796.95880346373 0 758796.95880346373 165786.05873304614 0 0 0 0 1633659.3797836304 -428402.96233701974 0 -428402.96233701974 -396196.94972823397 0 0 0 0 1528730.2293014526 -220880.5182956059 0 -220880.5182956059 -674675.9378472243 0 0 0 0 1441572.9571933635 -344249.02909657592 0 -344249.02909657592 -287216.2064496816 0 0 0 0 -6241789.9920043945 7726762.9812821448 0 7726762.9812821448 -6844908.2739189863 0 0 0 0 -14033520.979347229 8447160.1144595742 0 8447160.1144595742 4116823.7742307186 0 0 0 0 -6362768.9491271973 1439190.6461892128 0 1439190.6461892128 -1687587.0510065556 0 0 0 0 2249079.7763748169 5497442.0359542221 0 5497442.0359542221 17735457.709124625 0 0 0 0 2664152.9589709435 853205.04662411194 0 853205.04662411194 678128.39802066633 0 0 0 0 -25841627.804397583 14122059.483401388 0 14122059.483401388 15319385.254405141 0 0 0 0 2781861.4482269287 -2939220.8361450434 0 -2939220.8361450434 865136.87999463081 0 0 0 0 -8298775.5917243958 -2456867.7270674109 0 -2456867.7270674109 8378687.6915276051 0 0 0 0 -1659963.9230804443 -9749840.3468686938 0 -9749840.3468686938 -16414979.11586602 0 0 0 0 1580718.1151112914 134001.93306994811 0 134001.93306994811 64893.705799177296 0 0 0 0 121968810.28944397 -85892995.210202411 0 -85892995.210202411 62135219.807565987 0 0 0 0 -70598846.892349243 -33617933.728965729 0 -33617933.728965729 95898064.657186344 0 0 0 0 -30511967.966949463 15749821.193213195 0 15749821.193213195 25029871.066430092 0 0 0 0 64664788.485466003 -67117878.672376841 0 -67117878.672376841 22076121.796536267 0 0 0 0 -3638161.690194726 -10637979.598017951 0 -10637979.598017951 110418616.30533944 0 0 0 0 1237830.9499874115 123654689.80653575 0 123654689.80653575 118758083.71655838 0 0 0 0 -47604232.122253418 97622403.39205724 0 97622403.39205724 16011490.902938507 0 0 0 0 -57990433.836364746 20114416.292744517 0 20114416.292744517 30310324.459236145 0 0 0 0 -3525095.4040676951 16110725.600999895 0 16110725.600999895 9948573.9375198483 0 0 0 0 -83933622.198059082 22263925.671297908 0 22263925.671297908 79460814.164442927 0 0 0 0 -75788542.456466675 -5960219.9744865596 0 -5960219.9744865596 4836721.2241618037 0 0 0 0 -96567891.785411835 55139212.444388866 0 55139212.444388866 12332892.382326245 0 0 0 0 -2766123.9953613281 32421266.627228856 0 32421266.627228856 -54781819.261442393 0 0 0 0 294649.31168078491 111672.56897148676 0 111672.56897148676 4733.0015558907598 0 0 0 0 -89069872.751617432 98218118.736175895 0 98218118.736175895 -79145835.118448332 0 0 0 0 17300983.121067047 -6178439.4901816044 0 -6178439.4901816044 -21251192.501915336 0 0 0 0 300007.25257003121 50336.312654400244 0 50336.312654400244 -83354.165776161535 0 0 0 0 -200104424.0438385 63828246.891162187 0 63828246.891162187 1921872.3266808391 0 0 0 0 -57619460.1067276 5550138.0827337131 0 5550138.0827337131 -73636189.714954019 0 0 0 0 -193147086.36254883 60497383.42891413 0 60497383.42891413 -24259040.261927992 0 0 0 0 -47348858.434753418 94292689.561615974 0 94292689.561615974 -70150369.146942601 0 0 0 0 -24494456.71043396 30893914.067703336 0 30893914.067703336 6375385.4753101766 0 0 0 0 364358.88130989019 1609248.943338111 0 1609248.943338111 727425.95043270628 0 0 0 0 -19011619.412643433 29521045.364378154 0 29521045.364378154 -4977500.1650275588 0 0 0 0 34685176.938598633 45353483.626724824 0 45353483.626724824 -24251712.252123415 0 0 0 0 37691878.539113045 18440389.776396029 0 18440389.776396029 -135068422.49890262 0 0 0 0 -35236781.409833908 76941681.642109632 0 76941681.642109632 -37791772.283233821 0 0 0 0 -4044935.8825073242 95316412.339481816 0 95316412.339481816 -27114006.148840845 0 0 0 0 25194975.333229065 17612980.273076035 0 17612980.273076035 -2446837.3217718303 0 0 0 0 -1091367.7937088013 -8377564.3017200232 0 -8377564.3017200232 1371664.8122525215 0 0 0 0 2684071.6164875049 733273.21564345621 0 733273.21564345621 1165608.1698745885 0 0 0 0 15857563.83581543 3677216.8172048926 0 3677216.8172048926 2989411.8116049692 0 0 0 0 18549515.155536652 4799213.3721825406 0 4799213.3721825406 -6376765.6814959049 0 0 0 0 -2874591.2467041016 12568672.709513064 0 12568672.709513064 -4177389.439370852 0 0 0 0 1281967.7919464111 -956769.05103170872 0 -956769.05103170872 3818649.4845030904 0 0 0 0 2248051.9056341089 -1101939.4535797723 0 -1101939.4535797723 -720291.45263388811 0 0 0 0 6372808.3932037354 -1729551.2434908748 0 -1729551.2434908748 -7958686.7769499347 0 0 0 0 -2512254.7608108521 4672218.5507685393 0 4672218.5507685393 -791495.65540856123 0 0 0 0 11334060.276878357 7297987.9559226707 0 7297987.9559226707 3017538.9672895074 0 0 0 0 17885706.823036194 6488756.2985112965 0 6488756.2985112965 1801538.7542603612 0 0 0 0 19105693.855701447 -1813571.178997159 0 -1813571.178997159 3253611.4442767501 0 0 0 0 20954335.990440369 3801027.5817140937 0 3801027.5817140937 781553.22163677216 0 0 0 0 15038629.272594452 -8853974.7331310958 0 -8853974.7331310958 -2145625.9619398117 0 0 0 0 22062951.494548798 1542298.2958197594 0 1542298.2958197594 -2600846.7705259323 0 0 0 0 1950405.5939788818 4382210.6925256252 0 4382210.6925256252 8937742.1140894294 0 0 0 0 3128603.6805339027 -815192.45949201565 0 -815192.45949201565 -813394.11766226497 0 0 0 0 519271.84712219238 -263639.73411810398 0 -263639.73411810398 252576.51562047005 0 0 0 0 638541.64872360229 -67612.030622839928 0 -67612.030622839928 108091.54986858368 0 0 0 0 578558.73782355711 -295880.11890231376 0 -295880.11890231376 2059519.6692996004 0 0 0 0 8738521.8935241699 316166.17887336016 0 316166.17887336016 -7304472.7526417971 0 0 0 0 6018560.8737354279 610401.9000666514 0 610401.9000666514 -2050814.0995979309 0 0 0 0 3771885.1319345795 -1999939.2608810186 0 -1999939.2608810186 112543.93452146847 0 0 0 0 4852822.3303833008 -8748667.3645857573 0 -8748667.3645857573 -413360.0257114172 0 0 0 0 748933.38471221924 -201318.85536956787 0 -201318.85536956787 104196.25723171234 0 0 0 0 -2293567.6249656677 21312618.064390957 0 21312618.064390957 -6559784.2882459164 0 0 0 0 13368503.790397644 2383640.7273530662 0 2383640.7273530662 -9746922.2277855277 0 0 0 0 1171340.2634279341 1749726.3047427339 0 1749726.3047427339 619099.91411274439 0 0 0 0 2816177.1298751831 804711.92957481742 0 804711.92957481742 1248354.0047021508 0 0 0 0 7951909.8971405029 6522683.5759593844 0 6522683.5759593844 -15157438.905520916 0 0 0 0 9582678.4209823608 1000718.0674426556 0 1000718.0674426556 -1376079.7870398164 0 0 0 0 11755900.234535217 -19090026.600984275 0 -19090026.600984275 -23661513.616804697 0 0 0 0 11698990.145744324 -16417883.847313553 0 -16417883.847313553 9863173.1412813663 0 0 0 0 1020927235.1179581 -689300549.23505998 0 -689300549.23505998 410730624.41733158 0 0 0 0 8228832.069770813 2858035.6171739399 0 2858035.6171739399 -12933653.967479467 0 0 0 0 4045750.7514617145 875862.16905016312 0 875862.16905016312 -380748.60777587118 0 0 0 0 66300.972708696499 -18436.537698816508 0 -18436.537698816508 -6950.1537319783238 0 0 0 0 2897.857568484731 -1516309.7886157949 0 -1516309.7886157949 -1376291.1256582735 0 0 0 0 13668037.778869629 -8640633.1304551363 0 -8640633.1304551363 -7612944.7976748943 0 0 0 0 9518776.1085357666 301349.22267508507 0 301349.22267508507 -2691098.0027020872 0 0 0 0 161413.45310474187 -1470368.8942080978 0 -1470368.8942080978 -788077.44459542469 0 0 0 0 5561074.2661895752 -6520273.399012953 0 -6520273.399012953 -2298981.79541412 0 0 0 0 1108478.7996749878 -11186998.138633393 0 -11186998.138633393 199130.25894606113 0 0 0 0 3974217.2324523926 -33021037.923468273 0 -33021037.923468273 87787944.932641923 0 0 0 0 1222964.7327346802 -7606378.3933681138 0 -7606378.3933681138 11935802.916257329 0 0 0 0 6290783.8163223267 -11162819.595805883 0 -11162819.595805883 -7436691.6555309296 0 0 0 0 2036827.3482484315 -98095.819388786796 0 -98095.819388786796 -473413.58474374551 0 0 0 0 643127014.22120667 750428855.29197824 0 750428855.29197824 818631223.98147321 0 0 0 0 2201619872.2280693 -1658155660.6656742 0 -1658155660.6656742 1104020291.485924 0 0 0 0 1045324834.4330654 -692102257.87241292 0 -692102257.87241292 297037446.994982 0 0 0 0 1459482040.1351395 -960670848.07934082 0 -960670848.07934082 258569704.44580421 0 0 0 0 2206313256.4842777 -851935972.13811302 0 -851935972.13811302 -95313525.262144402 0 0 0 0 1019834940.1554756 -493883713.24575508 0 -493883713.24575508 99801647.367220059 0 0 0 0 1104575590.2694016 -766859925.63920832 0 -766859925.63920832 177290268.80129629 0 0 0 0 1188709733.5098734 -324270925.60001045 0 -324270925.60001045 -24415092.624640469 0 0 0 0 326933717.02496338 -83882769.668227404 0 -83882769.668227404 -22825367.686788674 0 0 0 0 100888197.67006969 -189928389.107829 0 -189928389.107829 -37719262.341480792 0 0 0 0 134943760.54494476 170099701.31251177 0 170099701.31251177 -59282673.926254153 0 0 0 0 -27713230.708251953 88970028.245408058 0 88970028.245408058 -234877837.51311302 0 0 0 0 379500040.73022461 51829755.630295277 0 51829755.630295277 -322146967.5847193 0 0 0 0 495950.74665886164 -568652.58307161741 0 -568652.58307161741 -397839.75112669007 0 0 0 0 129618739.34802246 -327981821.88397801 0 -327981821.88397801 203658999.77296525 0 0 0 0 255936136.7510376 -122223660.78644371 0 -122223660.78644371 -8074059.8131928444 0 0 0 0 961445962.0154953 -577094648.10485661 0 -577094648.10485661 -16874860.258481145 0 0 0 0 1546469.2684525498 1151045.4840862658 0 1151045.4840862658 -436095.80306758871 0 0 0 0 -165800504.32023144 -96799491.306643948 0 -96799491.306643948 230025943.33469677 0 0 0 0 -7306480.5057678223 18895839.931500256 0 18895839.931500256 -11542248.406796865 0 0 0 0 9019112.660472393 11349042.187404074 0 11349042.187404074 -9379842.8285560906 0 0 0 0 8806712.8698501587 14165362.357458651 0 14165362.357458651 -38397560.327596962 0 0 0 0 7604427.8793640137 45583558.191240363 0 45583558.191240363 -5874764.848458901 0 0 0 0 -13017075.665435791 19979518.115780249 0 19979518.115780249 -10091492.75482446 0 0 0 0 507625.71786705311 309581.84070149623 0 309581.84070149623 -86608.146630395582 0 0 0 0 -94045346.78162384 33770737.603636526 0 33770737.603636526 28056373.798565924 0 0 0 0 81686076.978524208 143008235.41032696 0 143008235.41032696 172892524.85065335 0 0 0 0 142236998.67979145 70747990.111484349 0 70747990.111484349 10508162.777242422 0 0 0 0 168653169.88157368 242297179.65119714 0 242297179.65119714 64362584.68287725 0 0 0 0 66385012.21232605 29810337.703617375 0 29810337.703617375 122589.42153425836 0 0 0 0 -13132354.880462646 77553336.33112298 0 77553336.33112298 20689964.197900854 0 0 0 0 28360513.226387024 21912269.745352838 0 21912269.745352838 309232.15437828004 0 0 0 0 49827732.955757141 17187329.374045216 0 17187329.374045216 12042472.161150426 0 0 0 0 28990416.777030945 32032787.893898077 0 32032787.893898077 31502955.972491387 0 0 0 0 71522375.513072968 9909622.5574768558 0 9909622.5574768558 -15492.574478170485 0 0 0 0 69081955.628074646 17195359.217382595 0 17195359.217382595 34566107.959666692 0 0 0 0 94559379.623672485 -22156585.49511274 0 -22156585.49511274 34300575.976857767 0 0 0 0 148744521.36914825 -15058430.43180006 0 -15058430.43180006 6885309.210440442 0 0 0 0 56926845.457839966 35828922.804785967 0 35828922.804785967 59219861.899183616 0 0 0 0 46373482.209327698 1352962.3516200818 0 1352962.3516200818 6166405.9406753853 0 0 0 0 44796742.330509186 -20158449.612522259 0 -20158449.612522259 -48249387.178671956 0 0 0 0 33525918.262527466 3309115.0841957927 0 3309115.0841957927 -29952362.666508794 0 0 0 0 72078125.823097229 2488490.2194937021 0 2488490.2194937021 -32939444.21023491 0 0 0 0 28955193.238697052 22050953.791041672 0 22050953.791041672 -21934561.311972022 0 0 0 0 39830626.622344971 39643620.880612493 0 39643620.880612493 4906281.5944444463 0 0 0 0 19969503.321517944 29273452.703667283 0 29273452.703667283 -26185574.509721369 0 0 0 0 20693988.764036536 -9587888.1198572274 0 -9587888.1198572274 -42694941.121069372 0 0 0 0 18603320.244644165 -1147138.4810949862 0 -1147138.4810949862 -51384008.142181486 0 0 0 0 17998687.38961792 -5700220.274941355 0 -5700220.274941355 -25589084.311054349 0 0 0 0 -816145.07733154297 -21827395.793224752 0 -21827395.793224752 -36732269.163771361 0 0 0 0 372072.10140028596 186736.15354876406 0 186736.15354876406 90239.217661200193 0 0 0 0 5149006.7626113892 13313465.163724408 0 13313465.163724408 -125031.41117075458 0 0 0 0 -27070381.325553894 -57530290.05363892 0 -57530290.05363892 -36608642.203616917 0 0 0 0 -4745181.3882980347 11933032.697820991 0 11933032.697820991 -7258562.9958475828 0 0 0 0 1152161.3071604632 517805.15996669419 0 517805.15996669419 -163614.0365262056 0 0 0 0 -1726095.9139595032 6257406.1994060874 0 6257406.1994060874 -5516008.2926476002 0 0 0 0 4117014.2561645508 19431130.518633664 0 19431130.518633664 -11723358.586648226 0 0 0 0 852243.96449123323 459170.01979489438 0 459170.01979489438 -508600.50455053605 0 0 0 0 -45080953.129951477 -34892026.015294984 0 -34892026.015294984 -2292443.9940326214 0 0 0 0 2696828.434928894 5732222.31696105 0 5732222.31696105 -13484891.957309246 0 0 0 0 1063705.9990692139 10396656.349417478 0 10396656.349417478 -17809172.149210453 0 0 0 0 22963284.937194824 -5052109.6394575834 0 -5052109.6394575834 -21576462.385572433 0 0 0 0 15593099.270050049 8879876.6701989174 0 8879876.6701989174 -42729763.350127697 0 0 0 0 44543256.413909912 -65435319.564703271 0 -65435319.564703271 -72810450.944123179 0 0 0 0 -31898319.475940704 -65938230.07866177 0 -65938230.07866177 -42459218.951804101 0 0 0 0 14481252.621063232 -34378780.49469094 0 -34378780.49469094 -40550490.277736604 0 0 0 0 28289967.803039551 -50017121.071493179 0 -50017121.071493179 -48789965.02654919 0 0 0 0 82057675.255264282 -2976550.8313967511 0 -2976550.8313967511 -47343329.067851923 0 0 0 0 -3795147.2854309082 -41644434.563035123 0 -41644434.563035123 167438795.26723081 0 0 0 0 135127.58397038653 -89049.701460484415 0 -89049.701460484415 -46555.428689607666 0 0 0 0 32003704.008239746 20679166.475214459 0 20679166.475214459 -5299720.8648702856 0 0 0 0 -19824556.139312744 133065631.74238324 0 133065631.74238324 33176321.715757981 0 0 0 0 9849149.8184967041 -1958181.2652044003 0 -1958181.2652044003 13661.821282426563 0 0 0 0 42266515.504859924 5509459.3797557428 0 5509459.3797557428 -1132394.5165134375 0 0 0 0 70465315.256404877 23175158.516686775 0 23175158.516686775 -11572489.00683202 0 0 0 0 -8380327.1450042725 4721800.4071659297 0 4721800.4071659297 3631482.8877423331 0 0 0 0 -8479682.9335480034 -8826434.1184567884 0 -8826434.1184567884 -1945440.15026554 0 0 0 0 3003164.071434021 887627.37785515073 0 887627.37785515073 1259636.0700893421 0 0 0 0 515075.15155488998 -221845.94308311073 0 -221845.94308311073 -136715.14155502323 0 0 0 0 1291246.7286682129 -2134588.2226180597 0 -2134588.2226180597 -11357456.815911381 0 0 0 0 -7238096.4618225098 -57605584.376163736 0 -57605584.376163736 64762063.800203726 0 0 0 0 31830824.811004639 -113958545.52127579 0 -113958545.52127579 -199055094.24409205 0 0 0 0 23454451.786834717 -82791067.526209101 0 -82791067.526209101 -18661429.749404036 0 0 0 0 814210.02532577515 -1138343.9560594519 0 -1138343.9560594519 -1906784.2353699084 0 0 0 0 -1870539.2779884338 -3065639.5691168695 0 -3065639.5691168695 -1925.2832469980885 0 0 0 0 291014.56320953369 -2265624.0908929044 0 -2265624.0908929044 -2174903.6577943913 0 0 0 0 1190037.1679534912 -1006681.2455236332 0 -1006681.2455236332 -2233886.2877599052 0 0 0 0 989503.31350190192 -279040.71693106811 0 -279040.71693106811 -208668.31433150882 0 0 0 0 -5287690.8087291718 -20406567.262836874 0 -20406567.262836874 10828169.053416252 0 0 0 0 54709182.883773804 6130028.8213298321 0 6130028.8213298321 -15911237.999815047 0 0 0 0 47393470.890014648 -9033981.4914969206 0 -9033981.4914969206 1187546.9984400272 0 0 0 0 7767877.4964447021 -13372468.856980205 0 -13372468.856980205 -3853945.9948647022 0 0 0 0 7954037.6437988281 -13651792.300626993 0 -13651792.300626993 -6527137.3563702106 0 0 0 0 14532905.224761963 -12288664.422459006 0 -12288664.422459006 -6467638.5693501234 0 0 0 0 4040857.0122680664 -4446876.5206305981 0 -4446876.5206305981 -12328207.781166792 0 0 0 0 52117552.808868408 26872080.930703878 0 26872080.930703878 13225917.914576769 0 0 0 0 5791933.6269073486 -9776196.6149266958 0 -9776196.6149266958 -4438104.5076739192 0 0 0 0 317945.42958319746 160249.06697758753 0 160249.06697758753 3951.8620251232642 0 0 0 0 14929642.618896484 10014609.539512992 0 10014609.539512992 15460786.278937817 0 0 0 0 6001812.3014221191 -406958.82081830502 0 -406958.82081830502 -4202491.9516077042 0 0 0 0 17725832.978286743 665974.59379768372 0 665974.59379768372 1742904.7730731964 0 0 0 0 10598990.170837402 15425183.07387495 0 15425183.07387495 -3630710.2814893723 0 0 0 0 7872499.4377746582 11739411.536525726 0 11739411.536525726 834217.60511255264 0 0 0 0 14210581.86946106 13719047.761645555 0 13719047.761645555 -649453.49361467361 0 0 0 0 22377437.947715759 7748309.3800573349 0 7748309.3800573349 -4587425.1744885445 0 0 0 0 14351202.431152344 -2156206.7955207825 0 -2156206.7955207825 -2854258.9806323051 0 0 0 0 8702162.8142814636 -13241506.22253266 0 -13241506.22253266 4622103.3182330132 0 0 0 0 37644393.489303589 3860465.4036626816 0 3860465.4036626816 -1300855.7090090513 0 0 0 0 7326493.0433273315 1406550.8676791191 0 1406550.8676791191 -2062974.0302386284 0 0 0 0 8384860.9963531494 -210646.22967481613 0 -210646.22967481613 -4393883.5778229237 0 0 0 0 9183507.4868545532 3983837.9696474075 0 3983837.9696474075 -699137.1714425087 0 0 0 0 4990352.540435791 5861169.3017954826 0 5861169.3017954826 837937.03015756607 0 0 0 0 14169563.098709106 5741272.9253466129 0 5741272.9253466129 -3646909.0880947113 0 0 0 0 9902317.3442077637 5133116.5873553753 0 5133116.5873553753 -710841.52595043182 0 0 0 0 10693548.914825439 3831155.8443880081 0 3831155.8443880081 1292967.8887739182 0 0 0 0 9862231.2570800781 4495357.8755819798 0 4495357.8755819798 -3271413.7589102983 0 0 0 0 6823056.0517921448 1177683.3447030783 0 1177683.3447030783 -2461041.9196376801 0 0 0 0 6481999.9653396606 728659.90975737572 0 728659.90975737572 -2130324.9571743011 0 0 0 0 7616497.5176391602 4299383.3148803711 0 4299383.3148803711 3907245.9502038956 0 0 0 0 14460415.208831787 5069326.0339508057 0 5069326.0339508057 -740000.14741134644 0 0 0 0 12225177.806304932 524635.45087110996 0 524635.45087110996 -403742.58655929565 0 0 0 0 -125384.37542851642 331343.53185331658 0 331343.53185331658 126988.45333272408 0 0 0 0 6025415.2063980103 -112090.31111168861 0 -112090.31111168861 -564981.89357280731 0 0 0 0 2320362.7641296387 6105897.6817594767 0 6105897.6817594767 3314543.179444313 0 0 0 0 2405348.0301589966 -2990351.990660429 0 -2990351.990660429 -2094164.9643241167 0 0 0 0 3031634.8077988606 674175.53475025855 0 674175.53475025855 1629894.4209899404 0 0 0 0 4109307.4689483643 943549.88402628899 0 943549.88402628899 -335883.20756673813 0 0 0 0 21300.560487896204 198260.08391303028 0 198260.08391303028 161757.59367570523 0 0 0 0 9872010.0307922363 10665298.594378829 0 10665298.594378829 11478974.062890399 0 0 0 0 2766360.6071456391 1292449.5438766684 0 1292449.5438766684 1035536.8069547015 0 0 0 0 4542103.1068954468 3443605.6585001349 0 3443605.6585001349 2760186.1707251072 0 0 0 0 5047062.2196350098 3305460.8964419365 0 3305460.8964419365 2771353.8505090922 0 0 0 0 3477102.262853384 -1354045.1372863816 0 -1354045.1372863816 399617.43786572793 0 0 0 0 5400727.5226211548 2406883.9629808664 0 2406883.9629808664 -676682.12766540051 0 0 0 0 1701965.3338890076 367805.48599874973 0 367805.48599874973 -294466.92294239998 0 0 0 0 1047269.4582901001 245238.35862874985 0 245238.35862874985 243326.66863250732 0 0 0 0 3106253.0841671843 -303985.35803497769 0 -303985.35803497769 201824.2251488436 0 0 0 0 -170168.15460205078 430199.09584999084 0 430199.09584999084 -335249.83808517456 0 0 0 0 382596.78602719307 326369.6107795164 0 326369.6107795164 2314105.5191942984 0 0 0 0 111157.91186523438 -60580.541851043701 0 -60580.541851043701 -21932.54888010025 0 0 0 0 532834.83963264152 -239932.74484562519 0 -239932.74484562519 2060340.048707569 0 0 0 0 2056824.5695800781 52124.590938568115 0 52124.590938568115 -136301.56011199951 0 0 0 0 2840796.9018687867 1400177.2888723472 0 1400177.2888723472 1443403.8328316733 0 0 0 0 2947024.307917241 793973.2487037949 0 793973.2487037949 363771.67242887127 0 0 0 0 1801026.7267341614 431502.15631580353 0 431502.15631580353 -257520.55846166611 0 0 0 0 610628.46565274522 500786.89709658932 0 500786.89709658932 1434504.2664012278 0 0 0 0 862280.41218185425 266766.89003121853 0 266766.89003121853 348360.58924674988 0 0 0 0 934065.57472229004 342181.7519030571 0 342181.7519030571 387082.52606348693 0 0 0 0 1627121.3416666389 3121.5998986394843 0 3121.5998986394843 2354896.456197862 0 0 0 0 952608.1628036499 259919.54991137981 0 259919.54991137981 345985.59510993958 0 0 0 0 793729.13110351562 -493912.49611436436 0 -493912.49611436436 1418494.4914856188 0 0 0 0 844173.19729614258 59576.169601917267 0 59576.169601917267 74471.438482284546 0 0 0 0 197042.51098632812 -81984.001824378967 0 -81984.001824378967 767798.89860287309 0 0 0 0 437287.47268676758 94777.522456407547 0 94777.522456407547 349893.36317920685 0 0 0 0 2418805.5741727706 1495313.880862534 0 1495313.880862534 1375368.4968940797 0 0 0 0 605327.78484344482 -86717.01814866066 0 -86717.01814866066 176856.27831077576 0 0 0 0 2601643.2684074175 1058959.5659868885 0 1058959.5659868885 680770.78573505324 0 0 0 0 455743.16682393476 -870.41587012365926 0 -870.41587012365926 940930.63093735999 0 0 0 0 621971.99660491943 44079.411029577255 0 44079.411029577255 225908.74459028244 0 0 0 0 737028.62762451172 -21825.157762527466 0 -21825.157762527466 -23337.761313438416 0 0 0 0 550596.31026992947 -198152.97592626628 0 -198152.97592626628 394836.17055729579 0 0 0 0 765145.27286529541 59879.154559373856 0 59879.154559373856 20776.269710540771 0 0 0 0 390757.17881774902 15892.249874591827 0 15892.249874591827 140702.17491912842 0 0 0 0 548363.54772949219 181335.1133275032 0 181335.1133275032 90424.253850385547 0 0 0 0 2198989.7142552901 669636.84002234228 0 669636.84002234228 319522.05548823043 0 0 0 0 560426.21326446533 -86642.037766933441 0 -86642.037766933441 47597.410629749298 0 0 0 0 2438375.6224964177 813724.54987075366 0 813724.54987075366 479595.11939425091 0 0 0 0 1692509.2330417112 1154409.0158636402 0 1154409.0158636402 487574.75685776095 0 0 0 0 1711184.6686754981 592620.35378277302 0 592620.35378277302 80036.645370295038 0 0 0 0 173374.82247924805 211958.33972835541 0 211958.33972835541 -8158.7337913513184 0 0 0 0 208015.49694428965 215925.05569578451 0 215925.05569578451 638865.44523608219 0 0 0 0 10372531.449462891 4571557.5338270664 0 4571557.5338270664 5139327.7739285231 0 0 0 0 466707.49339485168 163351.28813564777 0 163351.28813564777 7017.0518078804016 0 0 0 0 579708.6328125 -23630.803891897202 0 -23630.803891897202 29899.488683223724 0 0 0 0 476558.56869936548 120776.05169888027 0 120776.05169888027 4016.7146028031129 0 0 0 0 3852739.4741821289 2316657.3319511414 0 2316657.3319511414 959177.38422393799 0 0 0 0 2268006.9104797421 1368130.752558589 0 1368130.752558589 395362.18329932843 0 0 0 0 2497690.9492084347 278607.63890573382 0 278607.63890573382 64711.913148258143 0 0 0 0 1155867.8932815772 560763.5060311798 0 560763.5060311798 266107.23605311604 0 0 0 0 8673265.6061477661 1233623.9789944291 0 1233623.9789944291 -1487946.1886944771 0 0 0 0 7338976.2655181885 5380771.3948789686 0 5380771.3948789686 2551622.7289271355 0 0 0 0 2747702.0030877218 1009335.3274532051 0 1009335.3274532051 -57829.670095226902 0 0 0 0 2939998.325008601 1063725.585368061 0 1063725.585368061 -146823.88385894388 0 0 0 0 6103788.7638702393 -4707948.394734323 0 -4707948.394734323 -24828592.860005498 0 0 0 0 656683.80598449707 457861.48660087585 0 457861.48660087585 -141798.45509529114 0 0 0 0 3113425.325340271 289250.40918529034 0 289250.40918529034 954692.34830969572 0 0 0 0 537137.60168457031 18259164.911367387 0 18259164.911367387 -26067570.489278018 0 0 0 0 3276097.3750838488 930087.38281491725 0 930087.38281491725 152975.68224190501 0 0 0 0 855923.55685424805 1042018.7631485462 0 1042018.7631485462 6702.0663075447083 0 0 0 0 440535.17008712562 351475.21546717174 0 351475.21546717174 -89842.654790166125 0 0 0 0 5110586.7007551193 -5059227.379056666 0 -5059227.379056666 -15109746.989838868 0 0 0 0 788668.64514923096 1004912.9110255241 0 1004912.9110255241 140746.91898012161 0 0 0 0 1882998.4210312841 557007.82485147752 0 557007.82485147752 180210.83126456803 0 0 0 0 662162.29636764526 1053247.7636299133 0 1053247.7636299133 312452.72846794128 0 0 0 0 927108.44275665283 832345.36181783676 0 832345.36181783676 445894.619140625 0 0 0 0 720364.22342681885 556529.35149765015 0 556529.35149765015 -15411.310693264008 0 0 0 0 1064180.2747377418 816573.29583156202 0 816573.29583156202 419499.46125774295 0 0 0 0 622980.54161834717 158202.46718835831 0 158202.46718835831 85411.220935106277 0 0 0 0 2121397.7012214391 1101311.0693194354 0 1101311.0693194354 580925.2702197968 0 0 0 0 1318929.5830344278 862775.67668240797 0 862775.67668240797 578076.17827960162 0 0 0 0 2000085.9000238627 1034143.5933264839 0 1034143.5933264839 361388.83129577409 0 0 0 0 562014.84101867676 272123.29319906235 0 272123.29319906235 -85141.072158575058 0 0 0 0 498862.41537475586 -179668.85062170029 0 -179668.85062170029 95870.665581703186 0 0 0 0 1100304.0142211914 688857.73674583435 0 688857.73674583435 21383.838736593723 0 0 0 0 192958.984551128 311088.91675683646 0 311088.91675683646 1101162.3470824901 0 0 0 0 336773.82431030273 434647.76541423798 0 434647.76541423798 125065.20781326294 0 0 0 0 1834987.2584471907 919633.60236065462 0 919633.60236065462 751695.46502093249 0 0 0 0 2031230.182569846 500588.53630766645 0 500588.53630766645 788326.96756537491 0 0 0 0 233395.13597479463 77942.819297546986 0 77942.819297546986 3352728.4448412848 0 0 0 0 941635.4012601506 -351952.72181448853 0 -351952.72181448853 745953.00818344648 0 0 0 0 675651.72581481934 690901.12350082397 0 690901.12350082397 336042.27830982208 0 0 0 0 -304731.15242004395 508965.06185531616 0 508965.06185531616 878161.11837673187 0 0 0 0 1783336.8928833008 2090549.9454393387 0 2090549.9454393387 -217996.06362915039 0 0 0 0 3307483.6844984633 1936021.4015425723 0 1936021.4015425723 -249979.77007880248 0 0 0 0 -47204.419476439245 34841.719302205369 0 34841.719302205369 44430.282350395573 0 0 0 0 65833.433288574219 -179512.76086997986 0 -179512.76086997986 1109068.7764129639 0 0 0 0 -499452.19246673584 592912.25574016571 0 592912.25574016571 457456.12942504883 0 0 0 0 981194.06047232822 1368534.6245292109 0 1368534.6245292109 973642.86103030713 0 0 0 0 1600930.2942842599 476435.02686307766 0 476435.02686307766 638819.41320994939 0 0 0 0 93828.892788220197 -205341.40587266372 0 -205341.40587266372 3492845.0993733169 0 0 0 0 -307101.02505493164 1265397.0862979889 0 1265397.0862979889 1881769.6705722809 0 0 0 0 2179.3903560526669 770876.7445929189 0 770876.7445929189 3325768.6117196898 0 0 0 0 -224124.25804138184 1304542.1316957474 0 1304542.1316957474 1900201.6870355606 0 0 0 0 1814240.9749526978 2045964.3238759041 0 2045964.3238759041 -1568.3173637390137 0 0 0 0 546384.51377868652 1404295.5353727341 0 1404295.5353727341 1411466.3837280273 0 0 0 0 3667507.054069519 3139652.0088187456 0 3139652.0088187456 466023.78446960449 0 0 0 0 -37263.507491287775 87049.508924061432 0 87049.508924061432 87941.414769394789 0 0 0 0 -2594543.0018844604 849594.96450519562 0 849594.96450519562 1934570.7777938843 0 0 0 0 -1620580.9221954346 2019046.4481163025 0 2019046.4481163025 1878799.1254873276 0 0 0 0 -1155894.2928466797 1301094.4749355316 0 1301094.4749355316 2424926.5823364258 0 0 0 0 -258620.38447570801 1233972.7396354675 0 1233972.7396354675 2616993.982624054 0 0 0 0 -365909.0625 1555915.519826889 0 1555915.519826889 1769740.725402832 0 0 0 0 384968.02801513672 2658711.1045684814 0 2658711.1045684814 542954.90857982635 0 0 0 0 -760807.80223846436 2078136.443022728 0 2078136.443022728 3953071.1952285767 0 0 0 0 595965.34610598534 1391008.2266995376 0 1391008.2266995376 1931719.4825070126 0 0 0 0 -72800.297714233398 1217681.7815990448 0 1217681.7815990448 368.17203807830811 0 0 0 0 -601211.20864105225 2006580.9292802811 0 2006580.9292802811 1963437.7143287659 0 0 0 0 -910590.05371856689 1770858.5205154419 0 1770858.5205154419 1787354.7716655731 0 0 0 0 211875.40522766113 1088348.3067626953 0 1088348.3067626953 1534671.074139595 0 0 0 0 -204005.60626220703 1507404.8127651215 0 1507404.8127651215 372462.70897483826 0 0 0 0 1700845.4135742188 243455.41511917114 0 243455.41511917114 -986681.09175109863 0 0 0 0 3241356.2794623841 1361166.2867827844 0 1361166.2867827844 -128754.8086905526 0 0 0 0 -2951.7941561620682 -100.68954170681536 0 -100.68954170681536 3457.4370824067155 0 0 0 0 773192.95457458496 1290683.7914562225 0 1290683.7914562225 -34783.499922275543 0 0 0 0 1294079.7371406555 2574768.4352414608 0 2574768.4352414608 10105.038940429688 0 0 0 0 1289123.6657729149 337228.60594907403 0 337228.60594907403 -1527598.7695512772 0 0 0 0 617443.03059336543 1406953.2163731582 0 1406953.2163731582 1928712.447244019 0 0 0 0 991315.49926757812 1509907.9733009338 0 1509907.9733009338 18806.079192757607 0 0 0 0 1701794.5659332275 4530456.494682312 0 4530456.494682312 2552634.8928604126 0 0 0 0 2720845.1146697998 1275444.1237792969 0 1275444.1237792969 -1569628.5180625916 0 0 0 0 -30555.175217353739 269322.3792869132 0 269322.3792869132 102659.43382047629 0 0 0 0 -199401.75141906738 1248591.3557312489 0 1248591.3557312489 2005134.6534347534 0 0 0 0 -8903.622777402401 801966.62572723662 0 801966.62572723662 1681410.3195808914 0 0 0 0 -6714156.0263824463 -7295104.7995529175 0 -7295104.7995529175 -1362406.7787075043 0 0 0 0 -2486737.9208648857 843490.33476870693 0 843490.33476870693 1706375.4493825301 0 0 0 0 2293090.3635394452 3675851.0843099225 0 3675851.0843099225 554600.69101509964 0 0 0 0 -36638618.161468506 -3598565.7020282745 0 -3598565.7020282745 15923708.373003006 0 0 0 0 -67472753.486442566 5128632.7668685913 0 5128632.7668685913 16673043.191417694 0 0 0 0 -11847692.086936951 22505609.79158783 0 22505609.79158783 -9824833.1297512054 0 0 0 0 -14905771.286071777 -50778092.529953003 0 -50778092.529953003 -67210265.348491669 0 0 0 0 9456.7575349211693 1025569.4151743697 0 1025569.4151743697 694168.89208762755 0 0 0 0 -13999419.891395569 71078643.520179749 0 71078643.520179749 -81726153.500368118 0 0 0 0 12063020.966003418 14971681.171960831 0 14971681.171960831 -31731599.600131035 0 0 0 0 3579386.8983540097 2937549.6951095173 0 2937549.6951095173 -145547.61984399008 0 0 0 0 1296946.9382400513 1390954.2060248852 0 1390954.2060248852 -103286.96810913086 0 0 0 0 1236343.8629455566 1421377.3949222565 0 1421377.3949222565 -101730.09381842613 0 0 0 0 -132076326.71496964 -16566953.487496257 0 -16566953.487496257 -2740330.8120096922 0 0 0 0 -157965005.45230293 -68566038.758595228 0 -68566038.758595228 48267171.652832031 0 0 0 0 313450.69029154163 241850.79093089979 0 241850.79093089979 45965.874452498276 0 0 0 0 -332506383.61047363 -42426098.18802166 0 -42426098.18802166 21708215.307422638 0 0 0 0 -157395.26939082891 -37174.314567421563 0 -37174.314567421563 58007.821408798685 0 0 0 0 1061405.1631011963 1197689.761551857 0 1197689.761551857 5479.9953577518463 0 0 0 0 714061.95536804199 1282825.3576521873 0 1282825.3576521873 20466.140419483185 0 0 0 0 713353.59917354584 1258085.8826650381 0 1258085.8826650381 -2180.8490648269653 0 0 0 0 1066243.6015319824 1223533.2592309713 0 1223533.2592309713 -328457.6054649353 0 0 0 0 1418296.2533416748 1315900.4827923775 0 1315900.4827923775 -615855.53438997269 0 0 0 0 3261932.8038987787 3381158.4406584818 0 3381158.4406584818 -229371.60056278785 0 0 0 0 3214224.9671374485 1768085.9758479486 0 1768085.9758479486 503348.5064088052 0 0 0 0 1550154.4652862549 1467559.2197289467 0 1467559.2197289467 -445608.66260719299 0 0 0 0 -154610706.77597809 41966502.310127258 0 41966502.310127258 64010443.247886658 0 0 0 0 -725195465.14909363 -153446615.998703 0 -153446615.998703 295764930.26119232 0 0 0 0 -245764723.35870361 -46062503.708627701 0 -46062503.708627701 195974095.76979256 0 0 0 0 -507399084.52364349 -35216574.141553879 0 -35216574.141553879 234814605.53564453 0 0 0 0 -165141612.48329163 -133204399.8169136 0 -133204399.8169136 83369149.720603943 0 0 0 0 -668030318.75869751 124903560.98016739 0 124903560.98016739 206671084.59181976 0 0 0 0 3311504.2815856934 -4121009.1649742126 0 -4121009.1649742126 9149374.3120536804 0 0 0 0 -115061.51929378416 566471.88343915157 0 566471.88343915157 154710.69700726774 0 0 0 0 -342200016.67584229 72828278.072914124 0 72828278.072914124 358228245.57398987 0 0 0 0 2919473.006034255 41177176.55971577 0 41177176.55971577 11693002.156040192 0 0 0 0 -23569386.258598328 -26820443.720133781 0 -26820443.720133781 -109819153.89216375 0 0 0 0 -645129.494745153 895970.42449493706 0 895970.42449493706 647171.64309050236 0 0 0 0 -15540312.633319855 -39007417.297986507 0 -39007417.297986507 -92353287.408891678 0 0 0 0 -51122958.823451996 -15141267.599505424 0 -15141267.599505424 49538361.373357773 0 0 0 0 -15359.360762981698 -1076917.8299991544 0 -1076917.8299991544 3219842.9745878391 0 0 0 0 -51448353.227493286 -48055643.916297913 0 -48055643.916297913 -30500172.676236153 0 0 0 0 -6259.4900471307337 8267.0657790699042 0 8267.0657790699042 59785.56037703529 0 0 0 0 -320302345.95927429 -133021871.83201027 0 -133021871.83201027 -195346630.43058777 0 0 0 0 -574920964.54447937 -276590209.57902336 0 -276590209.57902336 73508508.780067444 0 0 0 0 -540955755.80945969 -148738122.86508369 0 -148738122.86508369 245370796.15680695 0 0 0 0 -231270531.81674194 38232316.439620972 0 38232316.439620972 44555946.12478447 0 0 0 0 -183936659.62254333 -51057334.888816833 0 -51057334.888816833 188434345.1211586 0 0 0 0 -276697015.56478882 179070237.19880104 0 179070237.19880104 -21749768.613199234 0 0 0 0 -119819225.13822556 256234373.6922636 0 256234373.6922636 160844255.51846313 0 0 0 0 -231105052.46367645 111363748.48457623 0 111363748.48457623 39973374.591560364 0 0 0 0 -95709831.26222229 147638288.95883942 0 147638288.95883942 -237221378.32092857 0 0 0 0 -89794901.995361328 237156555.16199017 0 237156555.16199017 -134546155.29285049 0 0 0 0 -212870668.50502014 194414601.71868896 0 194414601.71868896 58780898.359670162 0 0 0 0 -680254.96702257544 936188.29105374869 0 936188.29105374869 3468093.7625480508 0 0 0 0 -270892.17092895508 1640089.3706150055 0 1640089.3706150055 -278470.06710839272 0 0 0 0 -248661.5938647557 2248571.354021769 0 2248571.354021769 845897.16744180163 0 0 0 0 12148614.069549561 -9833523.765007019 0 -9833523.765007019 -46547338.073390961 0 0 0 0 -134681.42137521505 2578403.5659250151 0 2578403.5659250151 1471137.1766322246 0 0 0 0 -244184229.29772758 98687314.764828682 0 98687314.764828682 -78021115.817501068 0 0 0 0 -337009611.35209274 107431226.23721218 0 107431226.23721218 31928902.197727203 0 0 0 0 5351725.178314209 18561137.949175835 0 18561137.949175835 77045.471794128418 0 0 0 0 -539332.75640111556 2493965.1861982103 0 2493965.1861982103 508831.62503522728 0 0 0 0 -617333.27432250977 78440.635514259338 0 78440.635514259338 1576521.9663896561 0 0 0 0 -10227.038026475348 -70850.800125459209 0 -70850.800125459209 72821.571460368112 0 0 0 0 -1073471.1786575317 1163124.2221879959 0 1163124.2221879959 1314851.9857211113 0 0 0 0 103765.15362994466 1265075.1759771854 0 1265075.1759771854 1403330.2240797267 0 0 0 0 -1053980.4680175781 605180.63076210022 0 605180.63076210022 1595866.5908924341 0 0 0 0 -731167.03227233887 1013183.9020285606 0 1013183.9020285606 619554.34699630737 0 0 0 0 -825658.10807037354 784149.52064847946 0 784149.52064847946 1077746.7823375165 0 0 0 0 402793.36270141602 436849.17171096802 0 436849.17171096802 840812.82375606894 0 0 0 0 717602.06030273438 433361.59289932251 0 433361.59289932251 703333.70253658295 0 0 0 0 174217.52773284912 307005.19642019272 0 307005.19642019272 887486.01541900635 0 0 0 0 1800853.1173883502 318649.86401858553 0 318649.86401858553 739634.39645378292 0 0 0 0 435419.96292877197 114487.13691091537 0 114487.13691091537 625837.6759853363 0 0 0 0 1818407.4627098348 620947.67270606942 0 620947.67270606942 1452524.3631957481 0 0 0 0 -2433089.6857757568 -2302373.0261540413 0 -2302373.0261540413 4147132.783662796 0 0 0 0 -1833782.579782486 993847.53139001131 0 993847.53139001131 1634136.9558124542 0 0 0 0 695965.10820770264 1107549.5864329338 0 1107549.5864329338 654542.11480562389 0 0 0 0 1844196.2875497399 245673.71606853791 0 245673.71606853791 600301.57265619701 0 0 0 0 -792144.57604980469 179774.07985591888 0 179774.07985591888 1023183.2376699448 0 0 0 0 -1097113.0345916748 1295394.7499322891 0 1295394.7499322891 1784003.151196003 0 0 0 0 834587.91445541382 964572.31853103638 0 964572.31853103638 -503902.6540145874 0 0 0 0 2763133.1882383372 254498.59470787644 0 254498.59470787644 850805.70058425725 0 0 0 0 -51069.174324035645 490946.82643270493 0 490946.82643270493 406291.34524154663 0 0 0 0 572990.17029447667 1025951.6746078487 0 1025951.6746078487 1194977.0965414802 0 0 0 0 -547471.81842574105 -259478.87046599318 0 -259478.87046599318 2807896.2513289507 0 0 0 0 1194161.763961792 -707727.72160339355 0 -707727.72160339355 65909.248671531677 0 0 0 0 129422.32862091064 -1627197.4696130753 0 -1627197.4696130753 1578902.8142929077 0 0 0 0 -1078404.4570617676 -1776803.0890402794 0 -1776803.0890402794 1448720.8960437775 0 0 0 0 947046.20582580566 -3655289.8236885071 0 -3655289.8236885071 10504291.791851044 0 0 0 0 -712763.7562624272 -247243.38518837653 0 -247243.38518837653 4026635.3256322853 0 0 0 0 685320.39831542969 -5040354.5595245361 0 -5040354.5595245361 12374390.197908401 0 0 0 0 428221.54669189453 -5499854.7969360352 0 -5499854.7969360352 7540433.2345504761 0 0 0 0 -480425.88512611389 -1402784.0969834328 0 -1402784.0969834328 7387760.6979904175 0 0 0 0 4561922.1013336182 -2140409.447435379 0 -2140409.447435379 382882.65913295746 0 0 0 0 -365851.18925576098 -1370210.870067534 0 -1370210.870067534 1596241.4938569423 0 0 0 0 404288.87464912236 -2945898.8058525454 0 -2945898.8058525454 2691264.1990604675 0 0 0 0 -879757.62719726562 -821751.67371749878 0 -821751.67371749878 586365.85667800903 0 0 0 0 -2840069.5400390625 -823345.19708156586 0 -823345.19708156586 2054397.7888374329 0 0 0 0 406621.92319893837 -2383497.4042245178 0 -2383497.4042245178 3178047.6481652437 0 0 0 0 -83241.210601806641 -237931.96054077148 0 -237931.96054077148 -608318.62736129761 0 0 0 0 2173846.1091041025 -65912.82283298485 0 -65912.82283298485 301307.79876059387 0 0 0 0 3094005.1686401367 -2996807.0728774071 0 -2996807.0728774071 972367.85948944092 0 0 0 0 3488333.9823964555 -2840229.0154698472 0 -2840229.0154698472 1920684.8406426739 0 0 0 0 3326133.5247589946 -3178034.9111179872 0 -3178034.9111179872 1842844.6730086259 0 0 0 0 4303166.909526825 -3145479.3523199558 0 -3145479.3523199558 -70261.443362236023 0 0 0 0 4803905.743938446 -4966705.3723734021 0 -4966705.3723734021 4503407.110455513 0 0 0 0 214261.11567878723 2500943.7073158026 0 2500943.7073158026 3557821.9263114929 0 0 0 0 -297739.97092661075 112260.41115837544 0 112260.41115837544 429641.04732391378 0 0 0 0 6708707.0024719238 -350157.2004942894 0 -350157.2004942894 -214870.75074613094 0 0 0 0 -1131738.1052494049 741797.01007723808 0 741797.01007723808 6167791.734585762 0 0 0 0 -2210085.8392238617 -1486810.0754051208 0 -1486810.0754051208 6482125.4805765152 0 0 0 0 10410597.12815094 -1398520.902844429 0 -1398520.902844429 30735.163326263428 0 0 0 0 2174090.2029117569 469058.56985864975 0 469058.56985864975 1266696.0239900383 0 0 0 0 1291504.9899711609 -1222008.82015872 0 -1222008.82015872 95749.771474838257 0 0 0 0 5076998.5663604736 -1977745.1265649796 0 -1977745.1265649796 -30296.552248001099 0 0 0 0 5259150.8646240234 -164990.64470863342 0 -164990.64470863342 -723650.80456671119 0 0 0 0 2465570.1799602509 578408.45853579044 0 578408.45853579044 -275293.06790542603 0 0 0 0 7369024.4437103271 1988149.4840049744 0 1988149.4840049744 -754624.70810222626 0 0 0 0 4301128.3607940674 1536233.2243013382 0 1536233.2243013382 -552988.40581393242 0 0 0 0 4101712.9767608643 1967914.0809631348 0 1967914.0809631348 5522921.3628692627 0 0 0 0 3480433.9328765869 -114166.69830369949 0 -114166.69830369949 2305151.3308744431 0 0 0 0 3554106.050195694 -65867.48127412796 0 -65867.48127412796 -1037238.5589733124 0 0 0 0 2628270.1622619629 -1082326.7669005394 0 -1082326.7669005394 1945334.7067232132 0 0 0 0 3468229.1387481689 -163748.27112007141 0 -163748.27112007141 83116.59561252594 0 0 0 0 222688.33665217459 71184.25381283462 0 71184.25381283462 -7169.8343415255658 0 0 0 0 3870821.3959960938 -1259292.9109125137 0 -1259292.9109125137 -1657323.3148846626 0 0 0 0 2209562.0332946777 -2613932.5860872269 0 -2613932.5860872269 -2031648.7405309975 0 0 0 0 3858076.6728057861 -1085175.4418315887 0 -1085175.4418315887 -1083113.5061168671 0 0 0 0 3119844.0024051666 2784993.906722784 0 2784993.906722784 1203619.9514160156 0 0 0 0 1822899.8559690118 -11589.783398944419 0 -11589.783398944419 1780583.8772319693 0 0 0 0 -41945.117797851562 408069.70241165161 0 408069.70241165161 -353951.69294929504 0 0 0 0 1347753.2564086914 -738727.45558547974 0 -738727.45558547974 325371.51518249512 0 0 0 0 4574800.3627119064 3473223.8174439073 0 3473223.8174439073 369190.13448143005 0 0 0 0 2478416.5266292607 251197.57387603726 0 251197.57387603726 698916.97709574644 0 0 0 0 2789410.7702941895 -643873.95601463318 0 -643873.95601463318 -1729846.481678009 0 0 0 0 2527469.6774646752 -620763.87543487176 0 -620763.87543487176 69951.011574476026 0 0 0 0 4954727.0939880162 -140288.43644813634 0 -140288.43644813634 -399785.81319589436 0 0 0 0 52917.896176861599 36023.322184137069 0 36023.322184137069 -19673.684644424357 0 0 0 0 1733479.6189422607 -2852104.292194128 0 -2852104.292194128 -1923838.8076946735 0 0 0 0 3525575.1504631042 -1308125.4234862328 0 -1308125.4234862328 -638448.95531129837 0 0 0 0 4227600.6797733307 -2057556.0681548715 0 -2057556.0681548715 -1217790.2374544144 0 0 0 0 3326360.2433779053 -3491884.0605886006 0 -3491884.0605886006 806693.36465845874 0 0 0 0 8068453.3308813293 -1194418.6704306379 0 -1194418.6704306379 726806.94749757042 0 0 0 0 2330152.651227951 -1877682.9100334644 0 -1877682.9100334644 -139544.96765327454 0 0 0 0 7062890.9026938146 -1496385.9178819368 0 -1496385.9178819368 1398858.2107514427 0 0 0 0 -1109548.5564689636 -11923226.47598052 0 -11923226.47598052 3796582.5188627243 0 0 0 0 4440073.3330497742 -2765458.0991728306 0 -2765458.0991728306 909721.59892117977 0 0 0 0 1315881.8444123231 -4003659.1694587208 0 -4003659.1694587208 -189753.98159422772 0 0 0 0 1324430.1771659851 -11956597.762884617 0 -11956597.762884617 3239784.8399038315 0 0 0 0 7986534.3458499908 -28750041.562389135 0 -28750041.562389135 -12355580.063181639 0 0 0 0 6241923.4896202087 -17228800.051018476 0 -17228800.051018476 -36751898.59088999 0 0 0 0 -4870651.4662046432 -24584038.951846957 0 -24584038.951846957 -8127277.6158821583 0 0 0 0 5155474.5647100369 -2932970.4827965847 0 -2932970.4827965847 915435.94389552902 0 0 0 0 4023625.6037530899 -32027637.378488183 0 -32027637.378488183 -4796096.9963281155 0 0 0 0 10791791.043637276 -18218844.870909572 0 -18218844.870909572 -5903516.7870125771 0 0 0 0 -19793534.286224365 -16723548.070719272 0 -16723548.070719272 21520921.697818995 0 0 0 0 -5408718.5559177399 -71805046.081780016 0 -71805046.081780016 41705867.02916193 0 0 0 0 -76144343.230895996 -73841679.83616209 0 -73841679.83616209 49047625.525876522 0 0 0 0 33727433.508422852 -21432810.575031996 0 -21432810.575031996 36941365.32668899 0 0 0 0 -90301772.467346191 -10481315.997391164 0 -10481315.997391164 45426035.696572661 0 0 0 0 -42274773.772188187 31449394.035427004 0 31449394.035427004 -6729415.1476404667 0 0 0 0 -27745806.189632416 -16505308.583931565 0 -16505308.583931565 24264292.739587069 0 0 0 0 2752447.3485546112 -3774530.3977353573 0 -3774530.3977353573 -233050.07059574127 0 0 0 0 -20655702.396354675 -9343151.3624043465 0 -9343151.3624043465 3393974.5197755098 0 0 0 0 4190125.5518813292 -2913730.4797724783 0 -2913730.4797724783 1319087.8927415221 0 0 0 0 4008945.0861273129 -2474204.502097107 0 -2474204.502097107 967854.42356732907 0 0 0 0 -14932488.149532318 4914993.5490427613 0 4914993.5490427613 6327333.0835171938 0 0 0 0 779158.70478057861 -1881535.8852293491 0 -1881535.8852293491 388057.49485206604 0 0 0 0 -2871349.306072928 -769852.70618506521 0 -769852.70618506521 2290115.821154674 0 0 0 0 -2439303.9808616638 -1849288.2858810425 0 -1849288.2858810425 2202317.0837554932 0 0 0 0 805116.86246490479 -2115213.5647553205 0 -2115213.5647553205 597686.5641412735 0 0 0 0 -5407770.5163040161 -2000466.2171115875 0 -2000466.2171115875 2204750.1589269638 0 0 0 0 196965.28507878631 -72043.42837370839 0 -72043.42837370839 3677.9914212410804 0 0 0 0 1431869.3137469292 -2678976.4792277813 0 -2678976.4792277813 1061278.5761508942 0 0 0 0 1560440.3638086319 -3571219.9790180027 0 -3571219.9790180027 359580.29121589661 0 0 0 0 2062755.8953399658 -2674072.3228173256 0 -2674072.3228173256 1007321.1230831146 0 0 0 0 1472051.0014877319 -3847769.7268004417 0 -3847769.7268004417 562529.44769716263 0 0 0 0 2451219.5748119354 -2761191.97629565 0 -2761191.97629565 463398.98331832886 0 0 0 0 2698587.7487611771 -1794424.4190559387 0 -1794424.4190559387 1150950.0358982086 0 0 0 0 3089176.6388075147 -2772082.4787963126 0 -2772082.4787963126 3004886.3890872579 0 0 0 0 3529075.9332923889 -2245146.5984444618 0 -2245146.5984444618 525468.32467556 0 0 0 0 -16215876.957717896 12916353.881562233 0 12916353.881562233 6228245.8646354675 0 0 0 0 -14747299.04302597 12412597.074234009 0 12412597.074234009 2446044.3305358887 0 0 0 0 -3679365.4098935984 1855089.1299464535 0 1855089.1299464535 60243.799364922103 0 0 0 0 -14801435.323051453 11173327.871816635 0 11173327.871816635 7772992.0567932129 0 0 0 0 -2974643.5663757324 126545.82127761841 0 126545.82127761841 1134821.123339653 0 0 0 0 16476043.793991089 2071833.9610424042 0 2071833.9610424042 -3698843.5638828278 0 0 0 0 -96339.14181001205 -612772.98919287324 0 -612772.98919287324 2951215.4546707897 0 0 0 0 11251467.115585327 -15752029.830345154 0 -15752029.830345154 -20017658.276184082 0 0 0 0 -14043067.657318115 10076452.641918182 0 10076452.641918182 10117637.902404785 0 0 0 0 -10559093.117126465 7336373.7112884521 0 7336373.7112884521 11007647.160423279 0 0 0 0 -7224633.0853271484 6893155.1955337524 0 6893155.1955337524 5553817.3413009644 0 0 0 0 -3896336.6879882812 1059524.0468406677 0 1059524.0468406677 12684373.114318848 0 0 0 0 3946507.358581543 7210293.9640655518 0 7210293.9640655518 4270410.9281272888 0 0 0 0 -11348362.715942383 4146250.3679771423 0 4146250.3679771423 11282115.348087311 0 0 0 0 12459029.872055054 -636589.84027290344 0 -636589.84027290344 4357972.0324077606 0 0 0 0 -16998326.4790802 7202638.1651439667 0 7202638.1651439667 12739545.029680252 0 0 0 0 -18145415.892150879 -6872243.692653656 0 -6872243.692653656 3234864.9826011658 0 0 0 0 -42923552.232075691 4032426.5639426708 0 4032426.5639426708 14795560.429340363 0 0 0 0 3594512.0811926224 -3710226.1594288601 0 -3710226.1594288601 2308870.6783821499 0 0 0 0 -11090222.061937332 3660071.7228336334 0 3660071.7228336334 -2863631.594581604 0 0 0 0 2993178.6271133423 -1987022.4457373619 0 -1987022.4457373619 -359891.21822452545 0 0 0 0 -17825889.002464294 -640983.91271781921 0 -640983.91271781921 -4558655.8132762909 0 0 0 0 4782061.6346320417 -4058108.6988163665 0 -4058108.6988163665 1466291.9010396455 0 0 0 0 -37791649.47996521 -11921540.750426769 0 -11921540.750426769 14671904.796098232 0 0 0 0 -5196089.787361145 3858639.6138262749 0 3858639.6138262749 17118334.694036484 0 0 0 0 -23304282.257789612 -13879243.409828186 0 -13879243.409828186 34994171.714271069 0 0 0 0 -17973053.816261292 -877149.13048458099 0 -877149.13048458099 21066760.039011002 0 0 0 0 -1076822.9646663666 4923194.6201510429 0 4923194.6201510429 3120505.1584358215 0 0 0 0 -1812583.6257858276 -687214.00202894211 0 -687214.00202894211 20586383.702912807 0 0 0 0 -4000515.4314308167 11614781.165204763 0 11614781.165204763 28536223.842477798 0 0 0 0 96102.192820839584 -18320.091269748285 0 -18320.091269748285 -133660.67404882703 0 0 0 0 13994390.831655502 32550130.708716631 0 32550130.708716631 81205483.359207153 0 0 0 0 -15561551.725013733 -195453804.05341911 0 -195453804.05341911 2087948.6071512699 0 0 0 0 37567659.374015808 -24768641.144845486 0 -24768641.144845486 -40434354.981685638 0 0 0 0 -172947946.55813599 -88473434.27158165 0 -88473434.27158165 28084143.778137207 0 0 0 0 14909144.10013485 23083317.225662708 0 23083317.225662708 11568124.796724319 0 0 0 0 -718639.55300825089 178458.71840062737 0 178458.71840062737 520718.79286139086 0 0 0 0 -141208145.36951065 -17633038.113165855 0 -17633038.113165855 27827752.81936264 0 0 0 0 -132412271.81139374 -29741407.792917252 0 -29741407.792917252 -3200905.0119819641 0 0 0 0 -217809233.51782227 15075054.490200043 0 15075054.490200043 13903143.193706512 0 0 0 0 -130163937.02398682 21889396.389259338 0 21889396.389259338 9215810.887638092 0 0 0 0 -107180240.95669556 23266429.295986176 0 23266429.295986176 5311836.5861663818 0 0 0 0 -206175046.44683838 72169372.012598038 0 72169372.012598038 23407192.217758179 0 0 0 0 -22880682.201660156 -21947621.597362518 0 -21947621.597362518 -2674856.943113327 0 0 0 0 -93150648.477790833 -2571485.1572685242 0 -2571485.1572685242 1213905.4053344727 0 0 0 0 -16436920.162879944 -2956188.0642738342 0 -2956188.0642738342 8232767.9416275024 0 0 0 0 -25748995.072525024 -16497565.16053009 0 -16497565.16053009 -2668950.3256087303 0 0 0 0 -44660338.89315033 30146852.397492409 0 30146852.397492409 -1725685.0112609863 0 0 0 0 -113880101.24891663 56690869.424179077 0 56690869.424179077 21724294.469177246 0 0 0 0 -312399747.93838501 97144102.666179657 0 97144102.666179657 -31806072.137947083 0 0 0 0 -77458502.261543274 -33916157.577140808 0 -33916157.577140808 -24298121.55768013 0 0 0 0 -335132260.34546852 115518847.18423522 0 115518847.18423522 -42605996.307003021 0 0 0 0 -273128779.13986206 42949644.244873047 0 42949644.244873047 47931528.206199646 0 0 0 0 -235743984.44490242 -219307579.1833173 0 -219307579.1833173 -213340026.22603607 0 0 0 0 -16028852.366645813 -10009894.28830272 0 -10009894.28830272 11109687.572014987 0 0 0 0 4785384.3475341797 56423273.783211559 0 56423273.783211559 -54353575.28777042 0 0 0 0 5887947.8644530773 1127839.7483314574 0 1127839.7483314574 1292835.3001586702 0 0 0 0 -9434045.3322963715 12622983.807620004 0 12622983.807620004 -6318403.3936786652 0 0 0 0 8560341.5108108521 -182560794.17758155 0 -182560794.17758155 143142745.32855749 0 0 0 0 -137038194.26745605 124068530.93083894 0 124068530.93083894 229767999.09158707 0 0 0 0 -176369286.44507599 85099994.952366829 0 85099994.952366829 199116630.49072766 0 0 0 0 4084710.1166042052 1134226.4987724109 0 1134226.4987724109 1566917.6867938093 0 0 0 0 -14138681.825071335 229535074.02423358 0 229535074.02423358 70360522.768069267 0 0 0 0 96856015.585449219 -244094582.11949483 0 -244094582.11949483 204154891.17003891 0 0 0 0 1536880.6152118817 397326.23634383129 0 397326.23634383129 1506132.8282443697 0 0 0 0 2200799910.6515274 -634134919.0865593 0 -634134919.0865593 -121007835.06601289 0 0 0 0 1388673835.5365181 -961150465.09252405 0 -961150465.09252405 602173810.15977037 0 0 0 0 1428113527.4124212 -290635014.66344124 0 -290635014.66344124 -268012837.80756569 0 0 0 0 43538499.875282288 -36461719.048120737 0 -36461719.048120737 -1682940.7156805992 0 0 0 0 699203363.08716965 -49505344.524202511 0 -49505344.524202511 26010050.601972103 0 0 0 0 1377466473.8037729 -589133254.18412685 0 -589133254.18412685 38955733.342538714 0 0 0 0 -66930328.034996033 73146694.372462124 0 73146694.372462124 167909431.10381058 0 0 0 0 335941.0539317308 -107404.76006437745 0 -107404.76006437745 -85406.361511940049 0 0 0 0 1296550311.7633286 -55000941.942092359 0 -55000941.942092359 -166661310.0153307 0 0 0 0 1357573522.3748779 267348200.47742814 0 267348200.47742814 -410242689.59208328 0 0 0 0 2206081876.9967842 -151189230.64793327 0 -151189230.64793327 -468013536.88993078 0 0 0 0 2200464237.1171174 829100744.25536132 0 829100744.25536132 -394233329.98847735 0 0 0 0 1479679727.8202286 299298934.82015526 0 299298934.82015526 -403122850.66679436 0 0 0 0 240897977.55916595 69508536.628642723 0 69508536.628642723 54189458.529042959 0 0 0 0 248262075.25721359 59806177.616908297 0 59806177.616908297 16286958.834663633 0 0 0 0 1001898908.9458961 832378490.99266446 0 832378490.99266446 307972053.71295422 0 0 0 0 -145852.31508875079 -318612.30888358928 0 -318612.30888358928 50852.830239234288 0 0 0 0 8547272.1829147339 -9123614.0703739822 0 -9123614.0703739822 7305602.2907962799 0 0 0 0 881293.590178065 -554578.07446985133 0 -554578.07446985133 -320503.87484582869 0 0 0 0 7464882.9635372162 -476144.75198867917 0 -476144.75198867917 8187788.3748207092 0 0 0 0 -2140582.1929550171 -2604132.5372537374 0 -2604132.5372537374 7054856.5345914364 0 0 0 0 4646066.8749648631 -674613.75620855589 0 -674613.75620855589 -32005.639278837196 0 0 0 0 2931559.6039619446 801236.06571859121 0 801236.06571859121 3445225.7894399166 0 0 0 0 -334413.38822174072 1144804.227132082 0 1144804.227132082 5547702.9214148112 0 0 0 0 1877587.8979873657 665193.14175659418 0 665193.14175659418 2541037.3812025785 0 0 0 0 4093651.7158480678 786519.90529207326 0 786519.90529207326 529558.95691210497 0 0 0 0 1184889.558555603 3708503.656683445 0 3708503.656683445 -461551.5886926055 0 0 0 0 4974538.0982017517 26777356.453118622 0 26777356.453118622 -86273766.237623692 0 0 0 0 7807858.3588082902 510640.51262305817 0 510640.51262305817 720298.62564909272 0 0 0 0 -872676.99031066895 1116828.7416120172 0 1116828.7416120172 3919824.9435381591 0 0 0 0 1279604.5978374481 -146677.7212511301 0 -146677.7212511301 82711.457329750061 0 0 0 0 2577686.1595230103 -2395534.2980313301 0 -2395534.2980313301 -2666351.3233668804 0 0 0 0 5094038.0969796721 1256939.4051962728 0 1256939.4051962728 150088.52598817181 0 0 0 0 1273790.0890388489 -159164.26338493824 0 -159164.26338493824 57830.699264604598 0 0 0 0 3914075.363192108 699563.41393825971 0 699563.41393825971 1545715.2544990708 0 0 0 0 15811660.126190186 -8574499.4983482361 0 -8574499.4983482361 -20105581.781160355 0 0 0 0 32084725.570173264 18994906.717807412 0 18994906.717807412 -90906831.302150726 0 0 0 0 173713.29757857602 52626.191380196251 0 52626.191380196251 8932.0783990691416 0 0 0 0 11158089.47121048 -3943686.6279351711 0 -3943686.6279351711 -12437130.855695724 0 0 0 0 6540678.6451513022 1469950.9674435232 0 1469950.9674435232 1547797.8672983265 0 0 0 0 14970110.333435059 -2737951.9013690948 0 -2737951.9013690948 -23347118.518373013 0 0 0 0 5621521.0722866058 -11322684.119537592 0 -11322684.119537592 -6318456.1508355141 0 0 0 0 10158992.466098785 -17934356.833899498 0 -17934356.833899498 3055056.4349603653 0 0 0 0 12488978.785533905 -14658027.312671185 0 -14658027.312671185 -24344646.793800354 0 0 0 0 4612723.8780269623 -11903467.425457478 0 -11903467.425457478 -8584898.2152671814 0 0 0 0 11607231.059818268 -16805939.266844988 0 -16805939.266844988 -6329209.035161972 0 0 0 0 16480890.427886963 -26316888.675758362 0 -26316888.675758362 2618340.9050741196 0 0 0 0 9944183.6453704834 -23903552.390270233 0 -23903552.390270233 -25233130.36214447 0 0 0 0 18184260.75427866 -10208850.5096623 0 -10208850.5096623 -9537480.9405345917 0 0 0 0 5348906.8453369141 -20333372.815430164 0 -20333372.815430164 12027058.112165928 0 0 0 0 6425630.8519859314 -31491813.559244394 0 -31491813.559244394 76080469.457970619 0 0 0 0 2998596.8143901825 -21601875.848996878 0 -21601875.848996878 24286552.252040386 0 0 0 0 1327401.3669774123 -10373929.827027006 0 -10373929.827027006 1767099.7373104095 0 0 0 0 -9461024.1708602905 -49284323.408042431 0 -49284323.408042431 3967352.6488142014 0 0 0 0 77013837.529525757 87022174.542636871 0 87022174.542636871 -163995921.25243998 0 0 0 0 46138657.232433319 -1549974.9238591194 0 -1549974.9238591194 -106023949.2062099 0 0 0 0 68334670.705513 39890586.384926319 0 39890586.384926319 67304880.754839897 0 0 0 0 38112372.580547333 -43221743.349503279 0 -43221743.349503279 16956590.112909436 0 0 0 0 141508693.08750916 24510099.30181706 0 24510099.30181706 31418065.630431175 0 0 0 0 104038437.72354984 24235648.21402657 0 24235648.21402657 -24997934.948987484 0 0 0 0 93608716.925586224 81451915.629233092 0 81451915.629233092 95576197.890398979 0 0 0 0 192577653.68906021 131386594.61609268 0 131386594.61609268 38789658.563260436 0 0 0 0 347252.87424221262 -285587.09365813341 0 -285587.09365813341 -5195.4002935080789 0 0 0 0 39226702.813936234 186133962.06783485 0 186133962.06783485 290410135.16141009 0 0 0 0 585908.44093175977 -1761054.4173677636 0 -1761054.4173677636 84784.543874463707 0 0 0 0 33909358.143932343 -6628489.0412032604 0 -6628489.0412032604 -82342652.850789011 0 0 0 0 160784.1113101393 -457310.27871397435 0 -457310.27871397435 70212.309010578116 0 0 0 0 59951338.582038879 71113235.590546846 0 71113235.590546846 -69571819.349619269 0 0 0 0 -7331309.6149864197 -4692036.5617509484 0 -4692036.5617509484 -7770488.0935840607 0 0 0 0 48554729.332660675 59837831.029500604 0 59837831.029500604 38077041.869025707 0 0 0 0 89319618.864437103 5119041.9635360241 0 5119041.9635360241 -13608831.088185608 0 0 0 0 54115505.284152985 -46186805.038122296 0 -46186805.038122296 7701202.4242446423 0 0 0 0 58528846.43094039 17965139.184296764 0 17965139.184296764 27529646.357603073 0 0 0 0 52169057.302715302 -15080916.713576436 0 -15080916.713576436 36354707.661527872 0 0 0 0 165530485.50359344 73972928.564313769 0 73972928.564313769 15368715.431721926 0 0 0 0 108883980.23509979 -2161961.0278360248 0 -2161961.0278360248 24480870.478793383 0 0 0 0 308364876.19245529 -2410797.79554528 0 -2410797.79554528 41347277.895252526 0 0 0 0 205843417.39000702 220683879.81245717 0 220683879.81245717 242499611.2990005 0 0 0 0 163968554.17789459 45219609.043004632 0 45219609.043004632 48388665.876641989 0 0 0 0 140089659.65986538 -74423191.573498756 0 -74423191.573498756 12948256.338856697 0 0 0 0 60228240.689834595 -69062197.240737557 0 -69062197.240737557 76885419.193334341 0 0 0 0 128615275.89262962 98344240.666904271 0 98344240.666904271 62842454.171916723 0 0 0 0 175334.67159581138 -127295.71259488165 0 -127295.71259488165 -6671.1353348760458 0 0 0 0 85944966.172485352 80366917.35747537 0 80366917.35747537 80626458.828006178 0 0 0 0 454046718.15408325 449424547.49962151 0 449424547.49962151 369990681.3911761 0 0 0 0 844147384.3975029 401841849.62561888 0 401841849.62561888 192319406.7697382 0 0 0 0 364455260.64611816 529132885.49735045 0 529132885.49735045 385372047.74552089 0 0 0 0 374604759.3296051 284683603.5721516 0 284683603.5721516 171933225.06549489 0 0 0 0 279468574.99329185 354257160.26051092 0 354257160.26051092 114598237.47781241 0 0 0 0 330436350.44578934 250802308.56455517 0 250802308.56455517 301745788.01493216 0 0 0 0 73967220.792934418 -76222960.431032777 0 -76222960.431032777 212588411.85116386 0 0 0 0 228263214.67717361 179402353.72343278 0 179402353.72343278 79788738.356015205 0 0 0 0 219389.57352219708 -191666.6221410064 0 -191666.6221410064 -38502.814722761745 0 0 0 0 229558692.96337891 232651064.61878169 0 232651064.61878169 146397422.87520161 0 0 0 0 -227314469.00409698 -81144587.208217859 0 -81144587.208217859 299638638.59094143 0 0 0 0 -120672976.86703491 -102388994.85002041 0 -102388994.85002041 259613416.33244598 0 0 0 0 520643681.95503616 1190552071.3383844 0 1190552071.3383844 1955756101.4615262 0 0 0 0 98824510.808135986 155523780.25494707 0 155523780.25494707 466030837.07898307 0 0 0 0 547438409.50817108 864987280.86602306 0 864987280.86602306 823936141.5243485 0 0 0 0 1366823604.3537292 911210824.39578354 0 911210824.39578354 78787960.628370643 0 0 0 0 2200213555.3152428 1353531345.4957242 0 1353531345.4957242 301864868.84029585 0 0 0 0 2205693161.4041939 757378341.05629551 0 757378341.05629551 -197816494.63205093 0 0 0 0 1319810822.5946426 701088265.65855372 0 701088265.65855372 149330026.87956488 0 0 0 0 1005442699.7608032 687391960.41056609 0 687391960.41056609 171863837.26501626 0 0 0 0 1574911403.2333736 433068103.55795228 0 433068103.55795228 -199290645.80071658 0 0 0 0 2204081192.0838165 -12191582.459209206 0 -12191582.459209206 -388864160.47677702 0 0 0 0 1403063981.9197502 348211950.17252249 0 348211950.17252249 -195943043.25636876 0 0 0 0 1230132209.8621016 66978028.320073962 0 66978028.320073962 -100980359.01824719 0 0 0 0 1115165146.7921715 59398995.706632078 0 59398995.706632078 -100115909.62086727 0 0 0 0 1229507387.753727 -160905648.60361683 0 -160905648.60361683 -405451967.8989771 0 0 0 0 438919731.20383835 167515110.09532073 0 167515110.09532073 264508427.94921288 0 0 0 0 688545380.63743973 353930505.32531577 0 353930505.32531577 183928146.93354738 0 0 0 0 805959550.96871376 -217129153.73963696 0 -217129153.73963696 -69352221.893199444 0 0 0 0 274987425.57260895 172406965.29013804 0 172406965.29013804 265983538.97130156 0 0 0 0 91980276.744918346 385274208.70676762 0 385274208.70676762 -284673839.61247057 0 0 0 0 166711856.49195719 -169717627.69626424 0 -169717627.69626424 22866326.434069753 0 0 0 0 498145913.49870682 3520974.2685899585 0 3520974.2685899585 -240707522.34602112 0 0 0 0 2204812561.1605606 -477391428.76908886 0 -477391428.76908886 -456704360.86989146 0 0 0 0 755454508.85711288 -804459962.72605824 0 -804459962.72605824 244739182.88675776 0 0 0 0 1191177186.5813255 -493955708.16860837 0 -493955708.16860837 -343176431.14497286 0 0 0 0 2201784822.2676926 -1277384810.0213516 0 -1277384810.0213516 49583310.7564511 0 0 0 0 55670642.056972504 -1110049955.44189 0 -1110049955.44189 1787970456.45472 0 0 0 0 1466222.4989403049 435688.5693581216 0 435688.5693581216 10242.436686100869 0 0 0 0 2195346438.0184326 110386.76944240139 0 110386.76944240139 -1607441.7501947344 0 0 0 0 48351919.645175934 1106945919.0989013 0 1106945919.0989013 1383846092.3172467 0 0 0 0 2148156.7894601896 -1001464.998360215 0 -1001464.998360215 -25613.135652657395 0 0 0 0 -36787669.867469788 5556465.1532597542 0 5556465.1532597542 -462353.59679357708 0 0 0 0 -36542257.038791656 -10593914.392593205 0 -10593914.392593205 -1038202.7398152836 0 0 0 0 198210746.65771484 -174183441.79235715 0 -174183441.79235715 197654003.26732007 0 0 0 0 3298651.4913802594 -348837.06555506238 0 -348837.06555506238 405889.88416553719 0 0 0 0 1480013.6981892502 -1095926.6025811369 0 -1095926.6025811369 -264745.79286966118 0 0 0 0 640455154.9815073 -275965065.76691651 0 -275965065.76691651 92075439.138216227 0 0 0 0 1539917.7920145746 -47068.216053909622 0 -47068.216053909622 333383.72089497803 0 0 0 0 -136468385.07995987 81347865.405380547 0 81347865.405380547 -29948659.04298389 0 0 0 0 -171565176.31020737 32760651.293015659 0 32760651.293015659 108318498.4380517 0 0 0 0 -134927644.39631653 -23534864.270558834 0 -23534864.270558834 45344054.9328475 0 0 0 0 -36490040.283306122 -11649424.949659228 0 -11649424.949659228 20294267.180779342 0 0 0 0 -36953338.504548073 6747913.1387810111 0 6747913.1387810111 21292897.182154417 0 0 0 0 3730436.1348913778 -260635.85924587306 0 -260635.85924587306 144835.25278330944 0 0 0 0 84532473.28645134 -223353316.06710377 0 -223353316.06710377 43416575.643665791 0 0 0 0 -110478701.59620619 -69313663.798002973 0 -69313663.798002973 -22828670.100900531 0 0 0 0 -99298925.378105164 -103244871.95114446 0 -103244871.95114446 -104076262.11406521 0 0 0 0 -116890489.15109587 -55406870.422957078 0 -55406870.422957078 69305510.482402086 0 0 0 0 -118695175.6538353 -218415305.59858704 0 -218415305.59858704 -122696119.92625403 0 0 0 0 4052725.9143828079 221140.44802407152 0 221140.44802407152 -368304.8285430001 0 0 0 0 -94814400.317680359 59790474.103762954 0 59790474.103762954 106408312.83037627 0 0 0 0 1871099950.4961128 161499309.50351951 0 161499309.50351951 -192871384.32246608 0 0 0 0 330609251.72911835 -158893200.81433803 0 -158893200.81433803 -83550431.423948109 0 0 0 0 1715585019.9626312 843209276.19754076 0 843209276.19754076 238879658.15167776 0 0 0 0 2202074432.0168128 1016279951.599202 0 1016279951.599202 -182873614.13922912 0 0 0 0 921961466.05111694 1523205959.5640647 0 1523205959.5640647 787535198.19683063 0 0 0 0 1282012952.5946774 376561700.73475891 0 376561700.73475891 -49483397.019268751 0 0 0 0 153995539.13724709 389928290.73630071 0 389928290.73630071 104562398.35323253 0 0 0 0 130288071.63025665 -133753476.26865587 0 -133753476.26865587 296501811.34676421 0 0 0 0 378205521.27644539 -112959484.92659113 0 -112959484.92659113 -33258870.728342175 0 0 0 0 137939666.1744175 -80475586.613632202 0 -80475586.613632202 14554995.776136041 0 0 0 0 295282714.62179422 182346121.44000292 0 182346121.44000292 72014256.047368944 0 0 0 0 675725206.42786789 -31024755.473244786 0 -31024755.473244786 185529818.29580581 0 0 0 0 38046229.173778534 41473527.116676852 0 41473527.116676852 29633494.646068096 0 0 0 0 233240291.26629639 -50440416.895397544 0 -50440416.895397544 -247913829.40525591 0 0 0 0 111621411.6894455 -42657814.051716834 0 -42657814.051716834 -51797064.875252426 0 0 0 0 63140344.313674927 -169117305.61431333 0 -169117305.61431333 14184469.796330154 0 0 0 0 165183130.61789513 -123008159.05955738 0 -123008159.05955738 -188307171.91342378 0 0 0 0 65306663.957107544 -79118538.717831373 0 -79118538.717831373 -204324300.04771137 0 0 0 0 11578744.072029114 -156812017.35954285 0 -156812017.35954285 -157803781.56211895 0 0 0 0 34124626.464595795 -150536573.48688293 0 -150536573.48688293 -241210668.5306747 0 0 0 0 -32376555.488479614 -108861306.49371967 0 -108861306.49371967 -175432378.68643785 0 0 0 0 -4665750.7071914673 -173857568.08296752 0 -173857568.08296752 -183857449.54270989 0 0 0 0 10054985.827007294 -186814467.96693248 0 -186814467.96693248 -48658124.557719827 0 0 0 0 67778899.314918518 -122474380.22542015 0 -122474380.22542015 -158057497.47578427 0 0 0 0 -155307277.61409378 -102022609.5039407 0 -102022609.5039407 -142879225.86229503 0 0 0 0 -78860252.100675583 -184174544.24657232 0 -184174544.24657232 -56970823.296878099 0 0 0 0 -112204334.70016479 -84968199.748839438 0 -84968199.748839438 124698834.41501474 0 0 0 0 -22791215.206199646 -151749856.57617468 0 -151749856.57617468 -62893293.635352626 0 0 0 0 42583611.919784546 -180129953.48628473 0 -180129953.48628473 131156514.26735258 0 0 0 0 -19322618.904624939 -87676699.591593623 0 -87676699.591593623 8037160.9324415326 0 0 0 0 17346407.007701874 5896523.5335355997 0 5896523.5335355997 240709662.69284886 0 0 0 0 -17598987.3757658 -99123315.888728902 0 -99123315.888728902 113047125.37303591 0 0 0 0 -137019291.48616409 -33455804.583064198 0 -33455804.583064198 243687551.0646987 0 0 0 0 -101264660.74889946 16611050.172987223 0 16611050.172987223 -298669.33477115631 0 0 0 0 -44418009.690731049 115482809.90577567 0 115482809.90577567 149332912.81556559 0 0 0 0 31148583.020124435 -20219076.873634934 0 -20219076.873634934 237384427.96623611 0 0 0 0 457634747.20457077 95301067.38490057 0 95301067.38490057 451919981.20266342 0 0 0 0 386393889.66546059 204926309.40841794 0 204926309.40841794 312102298.90059328 0 0 0 0 775059829.00177002 433032778.76720572 0 433032778.76720572 255970443.41165912 0 0 0 0 103878025.47848129 -97247192.920145631 0 -97247192.920145631 353033105.9237473 0 0 0 0 383473498.43824005 45033572.183838129 0 45033572.183838129 242822678.74745256 0 0 0 0 617547730.9499836 558531590.539235 0 558531590.539235 1433693951.748044 0 0 0 0 750867774.20333481 313972403.55225015 0 313972403.55225015 409352834.2804389 0 0 0 0 293043344.30756855 200735067.3892687 0 200735067.3892687 708582551.06837988 0 0 0 0 1280332875.7100067 880945776.53599358 0 880945776.53599358 396059477.39801884 0 0 0 0 636171083.78649902 419772701.93362546 0 419772701.93362546 590040565.09429502 0 0 0 0 1323800551.0714111 305370681.55113316 0 305370681.55113316 336618867.52604294 0 0 0 0 1457364072.1384821 744831387.7202121 0 744831387.7202121 -179763032.43171215 0 0 0 0 116329.82514377311 191720.22849758435 0 191720.22849758435 573184.42983358714 0 0 0 0 83780244.190311432 244770002.1168139 0 244770002.1168139 537631488.5060997 0 0 0 0 1366184973.6940212 112195235.69245604 0 112195235.69245604 -95815506.172287941 0 0 0 0 806434387.82670116 -23385673.218118131 0 -23385673.218118131 -128454275.62871742 0 0 0 0 852642909.32754135 421568764.64189136 0 421568764.64189136 46531073.493979454 0 0 0 0 1142322514.4711008 639420331.19685292 0 639420331.19685292 202102906.80372429 0 0 0 0 801239940.87062836 319403634.45786929 0 319403634.45786929 559330812.90828705 0 0 0 0 468368864.42375183 262005185.02214861 0 262005185.02214861 175354964.0335815 0 0 0 0 850038184.31856084 457521663.85307688 0 457521663.85307688 -142812670.28004456 0 0 0 0 789835043.44850922 592159919.34340596 0 592159919.34340596 127443420.90638763 0 0 0 0 883193853.37468719 588876385.57835829 0 588876385.57835829 -74552286.440380692 0 0 0 0 687995062.55435944 292741350.92472851 0 292741350.92472851 -35603274.486966848 0 0 0 0 289893895.15615654 116371724.69940871 0 116371724.69940871 14731236.725709438 0 0 0 0 161760727.93223572 43802168.738914013 0 43802168.738914013 -8368303.8579757214 0 0 0 0 609884608.41345215 375777301.94530869 0 375777301.94530869 -106264228.43392754 0 0 0 0 918864167.26824951 488997530.43083382 0 488997530.43083382 -91706387.376242876 0 0 0 0 1377563.4657149892 507174.67351297522 0 507174.67351297522 561100.16455827164 0 0 0 0 -208393156.89505768 337306211.16828585 0 337306211.16828585 -120206744.67649662 0 0 0 0 -83033702.931976318 -39941856.932981253 0 -39941856.932981253 -43471639.434191942 0 0 0 0 464125797.25033951 279564040.45733035 0 279564040.45733035 108134823.21663034 0 0 0 0 787059472.09638977 269885774.06711638 0 269885774.06711638 -408138001.90764964 0 0 0 0 612407.87856967375 321631.00415031798 0 321631.00415031798 292466.30524852494 0 0 0 0 182852208.6412735 -24020895.23393552 0 -24020895.23393552 -54575191.700846374 0 0 0 0 -233427691.26644611 391322559.41902792 0 391322559.41902792 519635046.28620327 0 0 0 0 483548044.61190796 511891164.19350654 0 511891164.19350654 409389472.71563268 0 0 0 0 175907250.18513489 401802105.76065862 0 401802105.76065862 428366771.2444526 0 0 0 0 353027092.19237518 121718890.02987328 0 121718890.02987328 58697892.309085846 0 0 0 0 196862206.90164948 170571836.20185089 0 170571836.20185089 51202021.970211387 0 0 0 0 8354995.4448547363 58269942.630201697 0 58269942.630201697 102056024.73775291 0 0 0 0 540836751.16178322 58700762.208368942 0 58700762.208368942 147927117.93333864 0 0 0 0 507936703.8266449 443726821.23153406 0 443726821.23153406 362404356.73488218 0 0 0 0 298351391.31698608 124567938.51075464 0 124567938.51075464 353381629.13186353 0 0 0 0 687144334.8321991 372087900.75803983 0 372087900.75803983 170804321.41286135 0 0 0 0 269312064.3237381 135612868.78384203 0 135612868.78384203 184062902.65378857 0 0 0 0 233007788.62759399 -31135485.616800696 0 -31135485.616800696 32372518.840896606 0 0 0 0 94232712.829734802 46886461.677156389 0 46886461.677156389 162673695.00727808 0 0 0 0 140687028.8644371 27522234.798598409 0 27522234.798598409 41685444.064347029 0 0 0 0 6695476.4435043335 21183730.71894896 0 21183730.71894896 -37072510.575882673 0 0 0 0 44245230.419937134 -49192878.180289924 0 -49192878.180289924 54931685.736984968 0 0 0 0 -66445826.226659775 251258.12182792276 0 251258.12182792276 -42478043.635354996 0 0 0 0 -277983036.35654449 69323832.040553927 0 69323832.040553927 -17823490.914516926 0 0 0 0 -93839770.281616211 24151400.288482189 0 24151400.288482189 -75823465.080033779 0 0 0 0 -291034173.41711426 -62477564.067825556 0 -62477564.067825556 -47508659.089109182 0 0 0 0 -83734123.701138496 -43077730.721406192 0 -43077730.721406192 -29514750.120868683 0 0 0 0 -120014885.733078 72877048.965811133 0 72877048.965811133 2129108.8103884459 0 0 0 0 -109518619.71624184 10353797.755779475 0 10353797.755779475 -130757878.12719941 0 0 0 0 80373277.984024048 100004841.30945063 0 100004841.30945063 -10549239.535335839 0 0 0 0 -205979096.79608154 2065072.7692362666 0 2065072.7692362666 115438667.96451187 0 0 0 0 -40826882.412590027 139166001.85768712 0 139166001.85768712 91407016.527160645 0 0 0 0 690781.65818984876 423676.23595575569 0 423676.23595575569 1515698.2005235283 0 0 0 0 20085058.72568512 20309171.126559675 0 20309171.126559675 -23793654.350110531 0 0 0 0 -227958387.23614883 122970916.7375387 0 122970916.7375387 59653392.590994 0 0 0 0 1754038.8239574982 735416.57070862688 0 735416.57070862688 71928.972206612118 0 0 0 0 -516558.3952922821 207938.22578144073 0 207938.22578144073 239397.31015062332 0 0 0 0 2131509.7392433118 -682441.17653647577 0 -682441.17653647577 -5518.9895284664817 0 0 0 0 1571149.3079705369 -1028657.7592475377 0 -1028657.7592475377 576578.25985680171 0 0 0 0 -1446732.9513629265 846019.75284660328 0 846019.75284660328 148196.47329555909 0 0 0 0 3904510.8066499084 -2244509.4852467086 0 -2244509.4852467086 715002.69899540185 0 0 0 0 607508.18098449707 1392717.6644443274 0 1392717.6644443274 -2127258.8348016739 0 0 0 0 -561553.61285305023 5123253.765978992 0 5123253.765978992 -13919016.239610434 0 0 0 0 69973.20510839182 249180.64795387443 0 249180.64795387443 -113236.9516313503 0 0 0 0 -419489450.29576111 31324841.243760824 0 31324841.243760824 29699509.919528961 0 0 0 0 4189378.1890411377 -3053615.4582619667 0 -3053615.4582619667 -1543557.9814662933 0 0 0 0 3332501.8482666016 -1409390.6690769196 0 -1409390.6690769196 -182038.37405490875 0 0 0 0 -980587.79768371582 -3073655.497071743 0 -3073655.497071743 81721.729571342468 0 0 0 0 1605886.6831893921 -2779572.3722105026 0 -2779572.3722105026 -1038860.158197403 0 0 0 0 1617411.0234184265 -2749381.0026122332 0 -2749381.0026122332 -1078805.8407478333 0 0 0 0 215539.28684234619 -2149843.2337579727 0 -2149843.2337579727 596061.32205581665 0 0 0 0 931231.14441680908 -3876785.9164295197 0 -3876785.9164295197 -1304396.6819086075 0 0 0 0 750373.43576812744 -3853166.519133091 0 -3853166.519133091 -1559593.3198242188 0 0 0 0 1651476.252620697 -2785617.0344007015 0 -2785617.0344007015 -1100400.5056247711 0 0 0 0 1674769.5463562012 -2825459.9113483429 0 -2825459.9113483429 -1057340.1367752552 0 0 0 0 1858749.1538124084 -3242619.4704596996 0 -3242619.4704596996 -1987063.9899196625 0 0 0 0 1878164.9500274658 -3337994.2964477539 0 -3337994.2964477539 -1603895.2017393708 0 0 0 0 3000874.4001922607 -2771840.4120426178 0 -2771840.4120426178 -1387842.6797041893 0 0 0 0 -710378.3553237915 -1748886.7502746582 0 -1748886.7502746582 -1914240.1151914597 0 0 0 0 3117009.6545944214 -2393626.3482456207 0 -2393626.3482456207 -1586309.9388861656 0 0 0 0 3388850.8635978699 -2464345.9358680248 0 -2464345.9358680248 -2255265.3722820282 0 0 0 0 2673479.8200937733 -551398.88425127231 0 -551398.88425127231 -156121.86435183208 0 0 0 0 3583425.4435195923 -2646384.8043112755 0 -2646384.8043112755 -2334243.0430181026 0 0 0 0 -591581.51456832886 -1850520.5077168941 0 -1850520.5077168941 -2239329.9862995148 0 0 0 0 3643015.4096832154 -1813900.4017109415 0 -1813900.4017109415 302215.25228970271 0 0 0 0 1624381.4071273804 -6564119.1511716843 0 -6564119.1511716843 -4366988.924577415 0 0 0 0 1793252.9449238461 -4424252.7303314945 0 -4424252.7303314945 323847.19391670969 0 0 0 0 7558223.3448314667 8391292.673312664 0 8391292.673312664 2308496.1296064258 0 0 0 0 2152966.4555015564 -4149940.7854554653 0 -4149940.7854554653 -1752390.9080286026 0 0 0 0 3740598.6710891724 -3368345.6269373894 0 -3368345.6269373894 -2081837.1800787449 0 0 0 0 25988523.682189941 11898886.328227997 0 11898886.328227997 9826920.6136016846 0 0 0 0 6518317.4110332131 -472366.30526844598 0 -472366.30526844598 -973923.58074108884 0 0 0 0 19042776.778302193 -4335080.8514139652 0 -4335080.8514139652 -773898.09252357483 0 0 0 0 2008503.4530738369 1650374.7883508475 0 1650374.7883508475 -95998.08602388436 0 0 0 0 2277763.8094558716 -2154793.2113857269 0 -2154793.2113857269 -2481698.3658151627 0 0 0 0 1021237.2547454834 17490755.449398994 0 17490755.449398994 12155511.918257713 0 0 0 0 1293160.3185367584 -547462.10897272825 0 -547462.10897272825 -633601.88588905334 0 0 0 0 1758032.699798584 990567.32062768936 0 990567.32062768936 500294.71758270264 0 0 0 0 595560.5753529435 -7347.379720560275 0 -7347.379720560275 -419507.44606953161 0 0 0 0 274730.98822021484 -1341741.6796340942 0 -1341741.6796340942 595456.73671492934 0 0 0 0 1725717.2690200806 184216.12783718109 0 184216.12783718109 -3755825.7572393417 0 0 0 0 822827.27579498291 361504.57929706573 0 361504.57929706573 -768328.50777763128 0 0 0 0 2393700.2912133946 -550148.53840517253 0 -550148.53840517253 557653.46900093206 0 0 0 0 1229691.3656082153 349239.83321499825 0 349239.83321499825 -704945.48443841934 0 0 0 0 14328581.536653519 -8274139.3274555206 0 -8274139.3274555206 2445470.1370811462 0 0 0 0 9858654.3753356934 1251405.5225231647 0 1251405.5225231647 452168.10638022423 0 0 0 0 1868672.5755615234 -1121779.1448612213 0 -1121779.1448612213 2096226.7560920715 0 0 0 0 36900.716766357422 337097.86337184906 0 337097.86337184906 -230566.28837460279 0 0 0 0 756162.74921184219 704107.95925080613 0 704107.95925080613 159731.81752801005 0 0 0 0 93812366.993614197 172537135.33803785 0 172537135.33803785 -126230783.3376894 0 0 0 0 241181.90291363746 436453.94846326998 0 436453.94846326998 1383347.0760819202 0 0 0 0 -147919274.04399872 175698491.10441577 0 175698491.10441577 -29738741.149544239 0 0 0 0 42952820.282875061 -14779600.971182585 0 -14779600.971182585 -57746544.141790152 0 0 0 0 1964313.3911666833 -164883.06934321113 0 -164883.06934321113 -44936.316865812056 0 0 0 0 992792.16549475677 333640.80291969189 0 333640.80291969189 1244194.9538087272 0 0 0 0 705202.52454376221 -77898.432429790497 0 -77898.432429790497 714508.26151990891 0 0 0 0 815420.8429688029 107392.45212807658 0 107392.45212807658 692990.11958671839 0 0 0 0 562779.62437438965 99509.123756408691 0 99509.123756408691 -155514.44623494148 0 0 0 0 801498.45733070374 46206.512306451797 0 46206.512306451797 -144292.58314704895 0 0 0 0 -1204767.4022455215 -21156625.951863825 0 -21156625.951863825 11787643.982552528 0 0 0 0 19160369.260139465 -61548661.430113792 0 -61548661.430113792 -114185264.53671169 0 0 0 0 2824671.1702651978 -53347654.449824333 0 -53347654.449824333 72693029.690196037 0 0 0 0 755966.17702484131 -25387591.40973258 0 -25387591.40973258 454318.41928672791 0 0 0 0 -5804567.7329483032 -38216117.801796198 0 -38216117.801796198 -2439590.5344898105 0 0 0 0 -946984.15377807617 -34022952.083030462 0 -34022952.083030462 -43362093.471539497 0 0 0 0 -14870901.436683655 -23625579.323501587 0 -23625579.323501587 -10626154.505252838 0 0 0 0 -4386896.2862167358 -28616229.960613728 0 -28616229.960613728 -12082864.543942809 0 0 0 0 -8794568.6310691833 -36384604.842276096 0 -36384604.842276096 10027064.909181595 0 0 0 0 6465153.2408926748 -4290763.0035683243 0 -4290763.0035683243 128862.72966971016 0 0 0 0 -21140383.28793335 -26909981.510828495 0 -26909981.510828495 155507.63263219595 0 0 0 0 -23166594.399980545 -14637295.670358062 0 -14637295.670358062 -1268053.1469097137 0 0 0 0 -1438009.5536317825 -5397164.8913271427 0 -5397164.8913271427 -1411554.2219924927 0 0 0 0 7536240.8030003514 -3967475.4797562798 0 -3967475.4797562798 -710243.02735220105 0 0 0 0 1000949.8110809326 -4074226.190975666 0 -4074226.190975666 -1282619.6309555471 0 0 0 0 -303981.53405380249 -5475998.35111022 0 -5475998.35111022 -1210732.7793560028 0 0 0 0 316830.59459590912 -4405817.984464407 0 -4405817.984464407 -1204491.5220909119 0 0 0 0 2098720.6252385192 -4516892.1882646075 0 -4516892.1882646075 241285.02254620023 0 0 0 0 4403432.0732688904 -2027172.1754150391 0 -2027172.1754150391 -4163995.7609378695 0 0 0 0 -10923634.046188354 -19085602.781686068 0 -19085602.781686068 3074187.2422075272 0 0 0 0 10553351.888306852 -2585745.7524715718 0 -2585745.7524715718 -1602803.7765785442 0 0 0 0 454575.98561487347 -4893668.0763758607 0 -4893668.0763758607 -678596.86034463183 0 0 0 0 117244.65139468387 -1351826.7949848049 0 -1351826.7949848049 -191215.05916039133 0 0 0 0 -4334983.0185012817 -12282907.051448882 0 -12282907.051448882 -4579067.6497440338 0 0 0 0 -1039998.4409561157 -25899523.421573758 0 -25899523.421573758 -7766433.9760814607 0 0 0 0 40457067.403366089 -42323955.186571211 0 -42323955.186571211 -10886607.715278536 0 0 0 0 17833274.688236237 -33276840.319801405 0 -33276840.319801405 -14074694.52288413 0 0 0 0 -19656262.900218964 -56606894.613826036 0 -56606894.613826036 -10527548.891972065 0 0 0 0 -5272399.4116439819 -24283987.143530607 0 -24283987.143530607 27555193.332034111 0 0 0 0 21482478.392280579 -15965294.091095984 0 -15965294.091095984 -18508866.095814228 0 0 0 0 6337946.9115600586 -23899614.262866974 0 -23899614.262866974 -19058494.471380234 0 0 0 0 25628597.556549072 -21042067.889111519 0 -21042067.889111519 -29941677.186715126 0 0 0 0 27333052.545337677 -13453719.048929334 0 -13453719.048929334 -24514742.76550293 0 0 0 0 47534627.805625916 15551311.947836876 0 15551311.947836876 -284348.53619003296 0 0 0 0 1090642.108882797 312054.05690252688 0 312054.05690252688 80486.501157967374 0 0 0 0 24849954.186126709 -17770111.013890624 0 -17770111.013890624 -18059717.019091606 0 0 0 0 24777607.448257446 -16889516.59868598 0 -16889516.59868598 -25696205.038039207 0 0 0 0 30000692.101074219 -22018488.569262087 0 -22018488.569262087 -20775417.397515774 0 0 0 0 6374541.7210617065 -20058148.176071048 0 -20058148.176071048 -13212377.076498032 0 0 0 0 20765464.186012268 -24249355.072524071 0 -24249355.072524071 -21261999.403584003 0 0 0 0 23025951.574001312 -20402735.833889008 0 -20402735.833889008 -17188662.326261282 0 0 0 0 36635439.067199707 -33408626.327499866 0 -33408626.327499866 -20445423.779146194 0 0 0 0 2590639.1569633484 -673857.97394418716 0 -673857.97394418716 -4220660.7661409378 0 0 0 0 12147183.048704926 -2282512.2069937419 0 -2282512.2069937419 -2456552.2859778656 0 0 0 0 5206102.9411262218 -2015595.2004588102 0 -2015595.2004588102 -37866.993365456816 0 0 0 0 14288063.235964868 -1776227.8435190483 0 -1776227.8435190483 -3269319.8436655193 0 0 0 0 1985196.8460845947 -4855909.8193993568 0 -4855909.8193993568 -4747788.7687768936 0 0 0 0 30210335.541158676 -93325705.031056881 0 -93325705.031056881 -34005231.92194438 0 0 0 0 170890174.26350212 77173339.17325592 0 77173339.17325592 22743723.351728082 0 0 0 0 -96539830.790454865 -9729696.0943076611 0 -9729696.0943076611 -45636840.226532578 0 0 0 0 72146250.488235474 91650592.282400608 0 91650592.282400608 -30920031.255943298 0 0 0 0 -65585240.436544418 17278677.706855774 0 17278677.706855774 54778447.612820625 0 0 0 0 2045365.8776130676 -6423235.105679512 0 -6423235.105679512 -4711197.6365947723 0 0 0 0 79695181.523962021 -39418402.47069931 0 -39418402.47069931 -58916287.175836563 0 0 0 0 6174479.8195273159 -1253438.9893089316 0 -1253438.9893089316 -798755.02969430503 0 0 0 0 160239.30418130988 452702.66196718183 0 452702.66196718183 -30934.941025582608 0 0 0 0 -3607581.8640422821 35557482.453137875 0 35557482.453137875 -39055.759072467685 0 0 0 0 1969051.277009964 2623190.5473952293 0 2623190.5473952293 26802236.341026306 0 0 0 0 28126513.174835205 5787185.1751766205 0 5787185.1751766205 -7180946.17445755 0 0 0 0 1064648.7159351362 1919526.4688616083 0 1919526.4688616083 -808066.39399507456 0 0 0 0 -28959236.419462562 -5719642.4023474455 0 -5719642.4023474455 -41141760.109992981 0 0 0 0 -39707477.122999191 -132824937.87496352 0 -132824937.87496352 -100952052.06133604 0 0 0 0 2236727.1374632744 364001.94724695617 0 364001.94724695617 -985023.1653965814 0 0 0 0 97486023.444317341 27482879.011367083 0 27482879.011367083 4772999.1970081329 0 0 0 0 254265667.48404694 52629148.662406862 0 52629148.662406862 25312756.972019553 0 0 0 0 41034186.377527714 58412976.876905799 0 58412976.876905799 83180235.492280483 0 0 0 0 89519809.208758831 -74564078.218626857 0 -74564078.218626857 -44594309.871498585 0 0 0 0 118208999.26670074 80798846.925504595 0 80798846.925504595 201986334.5878427 0 0 0 0 404894481.42531204 276849208.19987214 0 276849208.19987214 132376763.24812481 0 0 0 0 114103635.61533928 135057493.0059467 0 135057493.0059467 95744285.748792589 0 0 0 0 153635333.23438787 -10817452.396296442 0 -10817452.396296442 -47581099.178282857 0 0 0 0 5782388.0028972626 -93612497.486388445 0 -93612497.486388445 -52290723.911003113 0 0 0 0 -47248712.733549118 -55775204.261444807 0 -55775204.261444807 37282801.049954891 0 0 0 0 -93268548.453480497 -169653003.58021584 0 -169653003.58021584 -29499695.948651791 0 0 0 0 818385.47229839582 104675.12957898923 0 104675.12957898923 -398284.7488334229 0 0 0 0 25623679.070356369 -10187202.182329178 0 -10187202.182329178 -56444474.648359418 0 0 0 0 95131874.871822834 -79839095.877109647 0 -79839095.877109647 -65532.585242271423 0 0 0 0 -93918346.256879807 -6199765.0223276615 0 -6199765.0223276615 15198121.551486969 0 0 0 0 -16382665.43611908 3621552.0822094679 0 3621552.0822094679 -6238004.1439027786 0 0 0 0 -4373253.340842247 -21703669.409932494 0 -21703669.409932494 32038010.667304516 0 0 0 0 22054273.720100403 446752.14649891853 0 446752.14649891853 17160357.223527372 0 0 0 0 47664392.362123489 -26329167.420118809 0 -26329167.420118809 30349197.529679775 0 0 0 0 11697690.28852272 883389.10483819246 0 883389.10483819246 64153977.936820388 0 0 0 0 157296.79852927732 69539.203595965984 0 69539.203595965984 -113974.32456782857 0 0 0 0 44482862.351331711 53838672.19118762 0 53838672.19118762 26658867.223215818 0 0 0 0 -21653224.38391304 18367448.317786992 0 18367448.317786992 15112144.834336832 0 0 0 0 38425632.762992859 9082907.0785753727 0 9082907.0785753727 -5896651.6150556803 0 0 0 0 -14098156.867050171 -10809455.738326937 0 -10809455.738326937 5892999.9283354282 0 0 0 0 6852469.8426094055 19863657.630335569 0 19863657.630335569 11571963.811956882 0 0 0 0 -31665470.416301727 -825684.97180843353 0 -825684.97180843353 10916149.919017971 0 0 0 0 -72449281.841285706 -30557995.966947734 0 -30557995.966947734 -2040074.2185783386 0 0 0 0 -41665720.393744469 18536570.025500774 0 18536570.025500774 10903643.756910324 0 0 0 0 -17141270.32378459 -1053466.1453120857 0 -1053466.1453120857 -30285641.022304177 0 0 0 0 -55722491.137684822 -34002037.580743194 0 -34002037.580743194 -14172403.982753038 0 0 0 0 169159.85658030328 -215130.21585757297 0 -215130.21585757297 -75438.382102697331 0 0 0 0 2617888.0004520416 80624.477634191513 0 80624.477634191513 -438741.99698257446 0 0 0 0 7376003.3666250128 -1368740.6491956492 0 -1368740.6491956492 854498.11437355459 0 0 0 0 4431261.4224861264 290312.33674019563 0 290312.33674019563 227747.06039254041 0 0 0 0 5644254.0186018758 1829125.8538708277 0 1829125.8538708277 -301816.28698764625 0 0 0 0 -73623151.560680389 -16635141.028147697 0 -16635141.028147697 11884082.02052927 0 0 0 0 -101355553.88885117 658546.04174220562 0 658546.04174220562 2324797.3804500103 0 0 0 0 1424424.0516147614 -908020.59739387035 0 -908020.59739387035 -1822550.3850007057 0 0 0 0 -64310817.348865509 -23073441.698235512 0 -23073441.698235512 20146220.071273446 0 0 0 0 -65313238.777132034 -15117693.243772507 0 -15117693.243772507 -11925061.256569386 0 0 0 0 4776083.7415466309 888073.07287979126 0 888073.07287979126 -725728.2684173584 0 0 0 0 -105821263.22374058 -54860948.91317606 0 -54860948.91317606 -348896.74729728699 0 0 0 0 8209183.2445534933 -992120.67677118687 0 -992120.67677118687 -12979.771346805035 0 0 0 0 12436375.014394786 -895452.50088881794 0 -895452.50088881794 -3266091.0459963423 0 0 0 0 16393737.889678955 -13170745.595944405 0 -13170745.595944405 -8318735.2361516953 0 0 0 0 6833480.0193120101 741880.30682932911 0 741880.30682932911 -373909.24367941637 0 0 0 0 65057721.476819992 321523712.52879667 0 321523712.52879667 392060378.61814404 0 0 0 0 4483385.6037368774 308062556.18874598 0 308062556.18874598 509495040.0099659 0 0 0 0 259443345.17206955 817043222.82501912 0 817043222.82501912 1263433586.0022569 0 0 0 0 1391917567.3419838 257063120.44270539 0 257063120.44270539 411831079.09714198 0 0 0 0 -108362339.81268692 -66908203.415132523 0 -66908203.415132523 573825887.74946547 0 0 0 0 72423.309999379329 82744.899794430938 0 82744.899794430938 935550.66760957008 0 0 0 0 1512514772.7446423 275860541.80105603 0 275860541.80105603 51735226.933195114 0 0 0 0 -93257.249822182581 28634.976926207542 0 28634.976926207542 43657.555390763213 0 0 0 0 1955168.73692175 1942956.7425323338 0 1942956.7425323338 -764825.76106976171 0 0 0 0 1222919.0347595215 -97519.315276622772 0 -97519.315276622772 -1309915.8199949265 0 0 0 0 161630879.0174408 -28850054.81571269 0 -28850054.81571269 -165520105.792943 0 0 0 0 108845488.79402924 100036346.06218433 0 100036346.06218433 -73572043.159550071 0 0 0 0 3131689.7457019733 1482660.8036597387 0 1482660.8036597387 -911564.67318089167 0 0 0 0 2023884.9993743896 -1962563.6784572601 0 -1962563.6784572601 -5386716.7044348717 0 0 0 0 4049450.4039675202 1011905.258127674 0 1011905.258127674 -1076949.2386487341 0 0 0 0 17829427.106788635 6812887.9693579674 0 6812887.9693579674 -4477683.2243442535 0 0 0 0 84266338.658493042 -46400223.69666481 0 -46400223.69666481 -173566181.38003814 0 0 0 0 1953498.894241333 126006.38814163208 0 126006.38814163208 -4305512.5021591187 0 0 0 0 1413300.1352157593 819175.08058834076 0 819175.08058834076 -4846156.2968950272 0 0 0 0 198740.21584271919 -2719.0996032343246 0 -2719.0996032343246 -142107.65191002004 0 0 0 0 -406719.4108505249 -709312.12953186035 0 -709312.12953186035 -3111964.9529714584 0 0 0 0 -6230651.0050468445 -46173856.705555916 0 -46173856.705555916 13043347.563852787 0 0 0 0 114479341.06872559 124030597.48362136 0 124030597.48362136 76275818.459810376 0 0 0 0 101319621.5950985 -34363035.098084688 0 -34363035.098084688 -47287709.6456213 0 0 0 0 -11424486.861806512 87733274.471181944 0 87733274.471181944 132056294.72335243 0 0 0 0 282626932.43311119 396756149.03077912 0 396756149.03077912 292288746.13857424 0 0 0 0 210166928.7926445 242940786.79534003 0 242940786.79534003 225486687.93577597 0 0 0 0 201505235.82924414 83430710.398233056 0 83430710.398233056 88163251.232386589 0 0 0 0 488839605.37940407 104962454.38327181 0 104962454.38327181 281907998.59153008 0 0 0 0 692449330.59858704 603963275.92746949 0 603963275.92746949 221956546.00712979 0 0 0 0 190119546.78407669 698256141.02723598 0 698256141.02723598 457614889.91530597 0 0 0 0 252468555.34688187 647002188.36311901 0 647002188.36311901 515806989.84126663 0 0 0 0 189464297.92588234 491290615.00062978 0 491290615.00062978 197848818.62296927 0 0 0 0 545080864.14264679 555324627.96891057 0 555324627.96891057 209533574.72586113 0 0 0 0 371244154.34567261 480461893.23957169 0 480461893.23957169 367973551.14458972 0 0 0 0 341161603.33668709 124488070.1451174 0 124488070.1451174 -383258076.70059156 0 0 0 0 -104747233.17890358 249025780.1058073 0 249025780.1058073 185797795.75718784 0 0 0 0 1658935.3692640197 226982.00921238353 0 226982.00921238353 39975.97788069761 0 0 0 0 -55351293.247795105 7622399.0173034072 0 7622399.0173034072 766233.9037065506 0 0 0 0 44464212.275657654 317740328.61900282 0 317740328.61900282 -464804329.100384 0 0 0 0 -34654832.85464859 -43220900.127702713 0 -43220900.127702713 -42479376.654349804 0 0 0 0 3668973.9490108541 308468.48460382404 0 308468.48460382404 -502995.4472093709 0 0 0 0 -36412485.083209038 122042622.7446574 0 122042622.7446574 -288263894.89245427 0 0 0 0 287794152.95458412 104554965.69692016 0 104554965.69692016 -42390657.513043404 0 0 0 0 -56641928.35573101 -72831131.015140176 0 -72831131.015140176 80817721.61295867 0 0 0 0 -55020825.276433945 26985161.88490051 0 26985161.88490051 92728768.758770227 0 0 0 0 373761320.23817635 -58095957.999984264 0 -58095957.999984264 -15987521.443651676 0 0 0 0 584946.71681338269 290343.35487481917 0 290343.35487481917 131130.46014972293 0 0 0 0 822272105.03433704 439255293.87535161 0 439255293.87535161 108320944.04413342 0 0 0 0 446290567.1185627 550466365.89793944 0 550466365.89793944 525899746.34542024 0 0 0 0 341116149.26954746 353779095.38688254 0 353779095.38688254 158954871.44804621 0 0 0 0 657578177.73031139 523587506.20965451 0 523587506.20965451 223970766.45614421 0 0 0 0 369520482.078022 519846208.23612452 0 519846208.23612452 446043171.80346656 0 0 0 0 200609581.45880127 124371333.12296224 0 124371333.12296224 59392075.565597445 0 0 0 0 2624186.3510613027 178917.74165792164 0 178917.74165792164 -326725.22428762098 0 0 0 0 161708854.76588535 -34869787.736000538 0 -34869787.736000538 -523231637.19677716 0 0 0 0 1019016.7889752779 83096.128236445104 0 83096.128236445104 -114908.97080375662 0 0 0 0 -15071802.517463923 -284241395.43603373 0 -284241395.43603373 -242358722.85898709 0 0 0 0 642573070.56378555 776900977.74447775 0 776900977.74447775 661855685.05230212 0 0 0 0 354637363.62817097 -263076913.64310455 0 -263076913.64310455 -283042414.09625602 0 0 0 0 149051319.4375782 -98332569.967248321 0 -98332569.967248321 -314240669.26668048 0 0 0 0 32234616.450132608 19102200.445926577 0 19102200.445926577 -236927000.21935606 0 0 0 0 -46910873.669739723 -67376440.337772012 0 -67376440.337772012 -321632346.92409897 0 0 0 0 64947653.573552847 14563302.244662434 0 14563302.244662434 -429131637.86018276 0 0 0 0 41003651.432395458 -45564638.414649665 0 -45564638.414649665 -328250305.7803998 0 0 0 0 44409.016156202182 430205.97985754616 0 430205.97985754616 -33264.40964303154 0 0 0 0 -605183.25376352668 -5167284.9129711725 0 -5167284.9129711725 -14815224.407880783 0 0 0 0 -41426239.691056967 -8847621.142077744 0 -8847621.142077744 22675537.255950451 0 0 0 0 16488.764998570085 28176924.260690663 0 28176924.260690663 26888438.015792608 0 0 0 0 6816745.5928603699 -751522.00488001027 0 -751522.00488001027 752593.3771179741 0 0 0 0 -16650531.552512169 -3302036.0746341944 0 -3302036.0746341944 20526706.338854313 0 0 0 0 -42932240.237650871 -81123837.435199618 0 -81123837.435199618 -35390837.506989479 0 0 0 0 -53424855.974511623 36807151.783061743 0 36807151.783061743 261096003.98461795 0 0 0 0 701941949.59711552 6236056.8516938686 0 6236056.8516938686 207572822.12502444 0 0 0 0 182642074.81340599 43524817.913601637 0 43524817.913601637 276085644.80424428 0 0 0 0 -40733757.735224724 -176150954.62890285 0 -176150954.62890285 -13579241.396967053 0 0 0 0 156041877.91457939 131209440.36146244 0 131209440.36146244 -11950285.949172258 0 0 0 0 507754048.49247932 260350611.1270721 0 260350611.1270721 71552912.458177775 0 0 0 0 216444454.70500183 79446404.147773564 0 79446404.147773564 40632981.382751465 0 0 0 0 1049199972.6447315 473340488.26599169 0 473340488.26599169 205051081.34439576 0 0 0 0 459316122.14490986 263731705.90547681 0 263731705.90547681 157354928.73625231 0 0 0 0 513678350.69749713 494609288.6629281 0 494609288.6629281 253462036.928864 0 0 0 0 740717213.7977438 55552533.759673119 0 55552533.759673119 -170927411.75956154 0 0 0 0 277187615.45685863 245942171.80685771 0 245942171.80685771 -2320749.4235332012 0 0 0 0 262323366.29674625 386798375.09790659 0 386798375.09790659 70016038.59281075 0 0 0 0 214778589.41624546 173030085.42534447 0 173030085.42534447 530371928.88198829 0 0 0 0 234917481.11421752 175531256.55243719 0 175531256.55243719 83708608.322951317 0 0 0 0 121080784.84090424 222070169.44791532 0 222070169.44791532 209828624.48523116 0 0 0 0 107349666.98710215 147139504.94144586 0 147139504.94144586 39957910.631588459 0 0 0 0 325899671.82646275 228560839.27145123 0 228560839.27145123 -28832151.055105686 0 0 0 0 109327908.70478439 161856956.01474023 0 161856956.01474023 60031933.289826751 0 0 0 0 137741063.10517752 63179067.808268964 0 63179067.808268964 -3342211.7945661545 0 0 0 0 53527499.560733795 46138775.891124606 0 46138775.891124606 18003831.605132818 0 0 0 0 -54199480.252714276 -21924752.192999691 0 -21924752.192999691 38954528.309099436 0 0 0 0 -9652476.717792511 127669762.91145825 0 127669762.91145825 180981902.77729082 0 0 0 0 -672072.61550834891 1128678.3289278189 0 1128678.3289278189 490041.88929709024 0 0 0 0 1495008.7584464715 464381.96682959294 0 464381.96682959294 -164648.70649457187 0 0 0 0 1883990.4593169531 2016027.4387890506 0 2016027.4387890506 4231226.404015067 0 0 0 0 9972468.7472381592 9510233.176448822 0 9510233.176448822 28413415.032741547 0 0 0 0 5332933.9771385193 230134.60865736008 0 230134.60865736008 -444382.83898925781 0 0 0 0 366466844.81965446 -2534428.443848893 0 -2534428.443848893 84678204.200059414 0 0 0 0 24137963.840818405 -36014878.748064995 0 -36014878.748064995 -115669288.87086105 0 0 0 0 927767.77253489033 -859626.13123517763 0 -859626.13123517763 -1762627.133058324 0 0 0 0 1030222491.3180742 -70702172.807646394 0 -70702172.807646394 -160492508.22582102 0 0 0 0 961954561.10700035 79833660.052675247 0 79833660.052675247 -186778927.61121941 0 0 0 0 408305091.10988808 -509899385.66048622 0 -509899385.66048622 714830915.87418342 0 0 0 0 495015968.98020208 -40962377.425395429 0 -40962377.425395429 -101978493.33095551 0 0 0 0 1451504.1726921531 -410435.7132292118 0 -410435.7132292118 -3166801.3873870876 0 0 0 0 302154620.83180833 -17578726.410092592 0 -17578726.410092592 -102376912.09052467 0 0 0 0 282803248.82151544 170596564.56556478 0 170596564.56556478 -106338195.31786537 0 0 0 0 471592458.72507954 160703188.84694934 0 160703188.84694934 -112225862.78494644 0 0 0 0 582860078.15826035 141674255.8267808 0 141674255.8267808 -144081310.25484705 0 0 0 0 448928752.513381 398746008.53881478 0 398746008.53881478 -138585418.52045631 0 0 0 0 301486103.38960505 305980075.79225588 0 305980075.79225588 -76673291.079994678 0 0 0 0 276080081.96011639 326184778.85840142 0 326184778.85840142 -79510531.643382788 0 0 0 0 816940.70261861687 48187.161129191285 0 48187.161129191285 -64536.879687625289 0 0 0 0 932205949.28891087 -270015568.71848273 0 -270015568.71848273 -547291473.14300466 0 0 0 0 389661034.31115437 429745977.80476224 0 429745977.80476224 -171241946.56870961 0 0 0 0 761594476.74952698 319713940.90610838 0 319713940.90610838 -171833553.51744413 0 0 0 0 54219021.582043648 404291309.11239958 0 404291309.11239958 -24715475.445716858 0 0 0 0 -28613197.784944654 -556722.40897788107 0 -556722.40897788107 -261352889.70782113 0 0 0 0 249855642.24373841 -137796349.77646169 0 -137796349.77646169 -239092763.08411646 0 0 0 0 388328799.74869633 287317638.90312266 0 287317638.90312266 -96732891.996240497 0 0 0 0 229743491.04099798 7003673.4846861362 0 7003673.4846861362 -560427618.91973162 0 0 0 0 1430109.9255246031 146585.80829837348 0 146585.80829837348 -104163.92196677366 0 0 0 0 191012926.8313241 367965030.13777733 0 367965030.13777733 -542055502.4738543 0 0 0 0 34160682.670717478 89149793.344312474 0 89149793.344312474 -161996330.49159127 0 0 0 0 -33079811.454372406 327572507.83247817 0 327572507.83247817 263048461.33355421 0 0 0 0 213162297.05479145 106625400.97748816 0 106625400.97748816 307081463.03815204 0 0 0 0 414098083.12089562 -69201939.031401217 0 -69201939.031401217 87613165.81978178 0 0 0 0 661321155.09902573 -70623013.902923286 0 -70623013.902923286 418932749.00192344 0 0 0 0 773136530.28523779 160326473.98309988 0 160326473.98309988 227823503.71209699 0 0 0 0 -225661624.29184747 163482270.25987345 0 163482270.25987345 25578940.385718405 0 0 0 0 551282375.61828327 -415730181.92173141 0 -415730181.92173141 -352408812.592996 0 0 0 0 908422214.96329117 -150311934.73184758 0 -150311934.73184758 64940260.154871941 0 0 0 0 992977706.11826515 -128357615.11788046 0 -128357615.11788046 -166147816.15479779 0 0 0 0 955785242.08444214 -459666785.10435408 0 -459666785.10435408 130889512.49898964 0 0 0 0 310216.82344903803 280414.4879780421 0 280414.4879780421 1057300.0456325042 0 0 0 0 1698250720.5624051 -306548358.9855203 0 -306548358.9855203 171016358.63503537 0 0 0 0 967005740.67103386 -334871070.39252049 0 -334871070.39252049 -101010776.15288356 0 0 0 0 886004563.56175327 -496817094.57058072 0 -496817094.57058072 336404823.16026038 0 0 0 0 889426150.20206642 -304812420.90325034 0 -304812420.90325034 317771927.4222874 0 0 0 0 161531768.250296 -199206857.7066282 0 -199206857.7066282 265886010.34348583 0 0 0 0 89244719.578296423 -184584290.37673116 0 -184584290.37673116 -116562502.49932969 0 0 0 0 142977.39566925599 -197122.85466602084 0 -197122.85466602084 137743.56592347566 0 0 0 0 117038699.69408166 -193607745.69949877 0 -193607745.69949877 414339118.31327105 0 0 0 0 56595842.432804108 -97017995.887158871 0 -97017995.887158871 169985288.87521553 0 0 0 0 84862623.624660969 -169830149.14034677 0 -169830149.14034677 286598656.39367676 0 0 0 0 112196723.32536316 -140929810.90977335 0 -140929810.90977335 219904515.2579689 0 0 0 0 149127409.45505333 -179681288.40153313 0 -179681288.40153313 172550889.43655968 0 0 0 0 143699818.62590981 -126940828.36253262 0 -126940828.36253262 47621804.226234436 0 0 0 0 180557552.42023468 -164101969.63734627 0 -164101969.63734627 27430867.383245468 0 0 0 0 165305128.44722891 -190713511.88072062 0 -190713511.88072062 82875443.506866455 0 0 0 0 2105180.365836259 -656155.53465212602 0 -656155.53465212602 -892964.03014112427 0 0 0 0 -48418022.737298012 68018313.327530861 0 68018313.327530861 64292072.440078735 0 0 0 0 1641332.8756411076 2982541.7023147345 0 2982541.7023147345 -1855424.3635044098 0 0 0 0 918898495.71107388 -203364604.10836154 0 -203364604.10836154 -313004588.00209284 0 0 0 0 1047137.7613496889 1103901.7157585723 0 1103901.7157585723 2931588.2079850491 0 0 0 0 114134187.09547472 147374438.5643549 0 147374438.5643549 -7789843.8282158375 0 0 0 0 484272255.03403711 73676021.687149584 0 73676021.687149584 -136384804.01084363 0 0 0 0 125166425.06923389 125527180.71441168 0 125527180.71441168 260096084.62462997 0 0 0 0 100516549.51016927 34263346.176766783 0 34263346.176766783 -25728402.071273088 0 0 0 0 2426404.0472865105 62504766.671393931 0 62504766.671393931 -25712708.865528703 0 0 0 0 194968402.98938847 9654262.2801865339 0 9654262.2801865339 -237129229.13199347 0 0 0 0 124982328.86690712 -64685686.205703408 0 -64685686.205703408 -172086722.96111929 0 0 0 0 182071186.17568874 -44090584.25584662 0 -44090584.25584662 -262357110.81152236 0 0 0 0 130685482.24743712 -222077206.07888287 0 -222077206.07888287 -158523916.37321448 0 0 0 0 114995992.23985195 -221326608.44773144 0 -221326608.44773144 -151297346.81959367 0 0 0 0 45596655.412305832 -36175509.041676342 0 -36175509.041676342 -288601688.97023767 0 0 0 0 320518596.08703947 -268856612.10474408 0 -268856612.10474408 -215945530.93367797 0 0 0 0 617676.68992773816 76463.18712178737 0 76463.18712178737 -39082.448219626545 0 0 0 0 82178100.273951054 347080373.02589631 0 347080373.02589631 195943305.26043415 0 0 0 0 -76115818.443268061 209109518.34772319 0 209109518.34772319 213350032.71835887 0 0 0 0 -22989383.119297504 223730220.89667916 0 223730220.89667916 217371574.93867034 0 0 0 0 399615235.86108875 48557926.094738692 0 48557926.094738692 76585733.517225161 0 0 0 0 178756380.25840068 -147128338.67875293 0 -147128338.67875293 205383893.88477135 0 0 0 0 124755451.58523273 -47724066.781953484 0 -47724066.781953484 22466614.954348207 0 0 0 0 63263311.999559402 63124007.546048343 0 63124007.546048343 -63048966.737471037 0 0 0 0 229282474.10346699 -41520899.001377463 0 -41520899.001377463 -50620370.38302891 0 0 0 0 48769916.583930969 81537115.32204926 0 81537115.32204926 11815506.638676047 0 0 0 0 130089459.92080688 -31046166.227209389 0 -31046166.227209389 63361682.794931769 0 0 0 0 31262811.5302701 74907150.747612432 0 74907150.747612432 -24711760.144482613 0 0 0 0 21273679.494646072 97188494.014895618 0 97188494.014895618 62522682.745312549 0 0 0 0 9564518.7802174091 115020631.02074501 0 115020631.02074501 1732116.2606053352 0 0 0 0 9509735.0636024475 117950564.8087942 0 117950564.8087942 -167634739.59086692 0 0 0 0 -36576800.844689369 92113732.847728133 0 92113732.847728133 -26692980.786025599 0 0 0 0 26003938.167214394 90426946.999087796 0 90426946.999087796 -165764215.06087661 0 0 0 0 182941549.26246071 195955226.60807586 0 195955226.60807586 -27142645.972873807 0 0 0 0 50481870.161603928 86287090.171400726 0 86287090.171400726 11352552.472990036 0 0 0 0 98299829.401447296 82209265.491697788 0 82209265.491697788 27291096.082864381 0 0 0 0 50258962.550562859 101046916.43755138 0 101046916.43755138 -128025329.57661402 0 0 0 0 233839.24879074097 96531906.85632813 0 96531906.85632813 -29463801.594983734 0 0 0 0 48148978.919023514 126590957.08249962 0 126590957.08249962 -29680010.922186032 0 0 0 0 52070159.642837524 115831412.13598007 0 115831412.13598007 -7536798.5622606277 0 0 0 0 138262692.15549088 127571344.07189482 0 127571344.07189482 -30690521.705885649 0 0 0 0 171314473.6035161 35552297.695062459 0 35552297.695062459 -95069804.055723906 0 0 0 0 95295619.382311583 126412154.31173041 0 126412154.31173041 -18854491.25912869 0 0 0 0 52761947.592648506 84855751.076540172 0 84855751.076540172 -59246413.158201754 0 0 0 0 -23397979.656443119 112384534.30047071 0 112384534.30047071 -68865778.364634335 0 0 0 0 24415928.0704813 -26231716.186982751 0 -26231716.186982751 -127659623.46459371 0 0 0 0 472382474.98002911 -222443700.6438843 0 -222443700.6438843 -139774252.6877085 0 0 0 0 485853822.38523769 -203524724.09856457 0 -203524724.09856457 -252977256.88206351 0 0 0 0 361525452.29275513 -156192866.27172643 0 -156192866.27172643 -178168319.78678936 0 0 0 0 583298699.01424742 -156170040.6903162 0 -156170040.6903162 -358911406.16801286 0 0 0 0 545115414.42032552 -51827006.821642786 0 -51827006.821642786 -246536182.86573601 0 0 0 0 184551739.20853424 50515417.333065867 0 50515417.333065867 -94218866.834753036 0 0 0 0 194848148.36378479 39743412.400675178 0 39743412.400675178 -102496172.93571019 0 0 0 0 207388556.98118591 53993502.852697581 0 53993502.852697581 -102510987.48213577 0 0 0 0 2088593631.3715005 277907009.40589184 0 277907009.40589184 56836718.256946146 0 0 0 0 668829237.2769804 9899034.4254783392 0 9899034.4254783392 -100940313.8149761 0 0 0 0 184230541.27070713 -163115168.27290553 0 -163115168.27290553 -151832049.36623242 0 0 0 0 550581684.03602219 -265364168.87749517 0 -265364168.87749517 -194385065.05417275 0 0 0 0 581990673.52541065 -218309571.19189912 0 -218309571.19189912 -265805810.58364663 0 0 0 0 542966939.29972458 -217091247.67739433 0 -217091247.67739433 -364078374.92331249 0 0 0 0 577496283.42625415 -295065797.21365422 0 -295065797.21365422 -428251397.01240695 0 0 0 0 2815288187.7951584 318660662.18446892 0 318660662.18446892 34724219.194498241 0 0 0 0 -217284295.3682909 -615601916.80454922 0 -615601916.80454922 -163089630.29290441 0 0 0 0 2206007591.3039317 -758228759.29822993 0 -758228759.29822993 -155925000.10085595 0 0 0 0 479761.72786784265 -191506.06552885962 0 -191506.06552885962 -50724.484793619449 0 0 0 0 542649968.64437866 -815626782.78466582 0 -815626782.78466582 -579795134.13095462 0 0 0 0 1652067196.3368492 -519899164.57961208 0 -519899164.57961208 -513754843.52092922 0 0 0 0 1896758582.8117514 -418076801.60090744 0 -418076801.60090744 -520476879.36553782 0 0 0 0 1522452983.6009884 -724854105.48416269 0 -724854105.48416269 -586175667.86154377 0 0 0 0 1629264647.9740524 -275263683.07082641 0 -275263683.07082641 -405971916.32326186 0 0 0 0 860844055.2287693 -246734285.08273646 0 -246734285.08273646 -405621107.49615759 0 0 0 0 804543916.93642724 -289050064.63328642 0 -289050064.63328642 -429823922.142097 0 0 0 0 770310026.64358425 -58036743.401901901 0 -58036743.401901901 -307901107.66724414 0 0 0 0 1033996200.7020864 -31648945.230359405 0 -31648945.230359405 -258759543.57623661 0 0 0 0 1072290816.5289741 10061847.133575454 0 10061847.133575454 -303236419.00022924 0 0 0 0 1499831898.7713203 -91139300.946154177 0 -91139300.946154177 -306418758.27988219 0 0 0 0 2204309107.5360675 -171752351.50815421 0 -171752351.50815421 -619609802.93420482 0 0 0 0 421106341.74286652 93983892.072178841 0 93983892.072178841 -98013181.54518652 0 0 0 0 307998000.66182518 83522123.295355558 0 83522123.295355558 -74157782.700917602 0 0 0 0 429377488.82784653 101931949.25154394 0 101931949.25154394 -130139813.28699279 0 0 0 0 638927228.6231041 -27686996.475871325 0 -27686996.475871325 -257632058.86469641 0 0 0 0 636868366.65351295 -31058465.545926869 0 -31058465.545926869 -254915651.72349918 0 0 0 0 593003819.44982147 83062917.721767545 0 83062917.721767545 -131697743.21793845 0 0 0 0 600572862.51338482 158461704.41570377 0 158461704.41570377 -119397642.66679861 0 0 0 0 685845560.91542339 200353500.05515099 0 200353500.05515099 -129061140.13668251 0 0 0 0 600397422.00048161 180364141.7775842 0 180364141.7775842 -106403270.82563025 0 0 0 0 420084320.0745039 207133634.2169185 0 207133634.2169185 -99532897.907991767 0 0 0 0 257674817.20201063 299894477.41830671 0 299894477.41830671 87452338.100278318 0 0 0 0 395367013.27820826 698827864.21592784 0 698827864.21592784 209786977.10611442 0 0 0 0 686031.64075520821 63826.016031237086 0 63826.016031237086 -23770.896625694659 0 0 0 0 63463394.817141771 -23336020.740181729 0 -23336020.740181729 -70719824.191506624 0 0 0 0 101399024.47765827 110898659.62509018 0 110898659.62509018 -366773332.61710668 0 0 0 0 1736439668.0288267 43008160.644174457 0 43008160.644174457 -305705747.53508115 0 0 0 0 970260959.32717896 323526463.61901689 0 323526463.61901689 -230668992.56734556 0 0 0 0 1719934853.9123077 336394533.86617553 0 336394533.86617553 -247283641.63014472 0 0 0 0 1564151183.8426266 -26073486.002401214 0 -26073486.002401214 -290259879.32443839 0 0 0 0 2204180713.6595764 374618814.45358551 0 374618814.45358551 -40111883.632408425 0 0 0 0 1772676613.5826397 517302274.83005494 0 517302274.83005494 -77507027.829938978 0 0 0 0 1790393688.0368595 470179106.64800727 0 470179106.64800727 -118521417.15898514 0 0 0 0 1490743083.3291922 886158914.89433801 0 886158914.89433801 344689792.02559441 0 0 0 0 885506.17824864201 -42004.560565671301 0 -42004.560565671301 -75128.417675861856 0 0 0 0 2123774584.5232019 411916490.91623557 0 411916490.91623557 -193441596.30249089 0 0 0 0 2205458792.1769648 622238101.11764848 0 622238101.11764848 322441762.52131343 0 0 0 0 1634738.688476196 -177951.6847984218 0 -177951.6847984218 -239887.18524877224 0 0 0 0 -30860357.281648636 5339239.0279930234 0 5339239.0279930234 16034105.386955492 0 0 0 0 -117380323.09522676 76400528.571899712 0 76400528.571899712 -20557355.846816845 0 0 0 0 816469098.5417099 -208435009.49229479 0 -208435009.49229479 -17244684.935536519 0 0 0 0 -178014774.72855854 4616354.5509095564 0 4616354.5509095564 240247905.51492119 0 0 0 0 263816842.55460167 307541435.00724268 0 307541435.00724268 171237142.38499126 0 0 0 0 112657841.86180115 -257670439.70636848 0 -257670439.70636848 110488432.52088791 0 0 0 0 -51061565.296518326 44695768.588373199 0 44695768.588373199 -41314344.560211569 0 0 0 0 -14051654.85337925 -88332002.311528981 0 -88332002.311528981 -106665108.32288656 0 0 0 0 -8329591.4571380615 -2005382.5744028986 0 -2005382.5744028986 2806580.7954210639 0 0 0 0 1906975.7315008952 -194196.81092654791 0 -194196.81092654791 -207730.93368005697 0 0 0 0 5869119.3624305725 3852134.9293528944 0 3852134.9293528944 -12335570.63708353 0 0 0 0 2229741.7892131815 -275176.98827947013 0 -275176.98827947013 -364343.48791288555 0 0 0 0 -11562512.335601807 -126137049.35281599 0 -126137049.35281599 -288135436.5652734 0 0 0 0 -10800761.462716103 -12484161.572934488 0 -12484161.572934488 -9799128.0693225563 0 0 0 0 32422230.180434227 -12010476.435775943 0 -12010476.435775943 -275027055.89236349 0 0 0 0 -1307582.9707336426 -1606325.093509078 0 -1606325.093509078 -2460642.757093519 0 0 0 0 2255204.1152437078 -1032203.3490807342 0 -1032203.3490807342 -738782.0981346725 0 0 0 0 -12146940.318754196 -34847282.927321866 0 -34847282.927321866 -244491000.95666516 0 0 0 0 -124547417.23335266 -20133306.882450104 0 -20133306.882450104 -179914195.19196415 0 0 0 0 4071159.1838565888 506329.83928176109 0 506329.83928176109 -1112650.8769426637 0 0 0 0 717655.27026367188 -203505.75904178619 0 -203505.75904178619 -4443339.2872810364 0 0 0 0 3645370.0913802478 1623729.7562982878 0 1623729.7562982878 -1414113.6252142547 0 0 0 0 9284563.5810089111 -185159609.36240673 0 -185159609.36240673 -293463936.78526354 0 0 0 0 -122742638.47228622 -104774846.29091811 0 -104774846.29091811 -262574218.4255991 0 0 0 0 -41657685.421447754 -87749955.172409534 0 -87749955.172409534 -284309690.52012157 0 0 0 0 -33560775.508651733 -190998939.85670805 0 -190998939.85670805 -282899688.23741102 0 0 0 0 -110366962.64006805 -70207506.285971642 0 -70207506.285971642 -259855366.87618256 0 0 0 0 4808333.4264315851 1082706.1813186123 0 1082706.1813186123 -1318263.822996723 0 0 0 0 -89297684.912658691 -105183118.83144569 0 -105183118.83144569 -284796103.22782993 0 0 0 0 -13006722.185211182 -117337278.34352803 0 -117337278.34352803 -258147749.24702764 0 0 0 0 12619125.527908325 -136563207.03526711 0 -136563207.03526711 -276339776.90146971 0 0 0 0 -32404061.398693085 -165115946.03857064 0 -165115946.03857064 -238547014.59916234 0 0 0 0 70825513.712303162 -120491545.41692877 0 -120491545.41692877 -261431339.69474602 0 0 0 0 82178312.049789429 72849872.793244362 0 72849872.793244362 -517400079.52842045 0 0 0 0 76140999.909667969 -150017479.53367674 0 -150017479.53367674 -252311532.42232513 0 0 0 0 147033972.53884506 -12228000.024281979 0 -12228000.024281979 -525565865.42852259 0 0 0 0 2607889.5709156329 -794239.46496212878 0 -794239.46496212878 -526061.83819989557 0 0 0 0 27395633.305534363 -43863775.208847046 0 -43863775.208847046 -339988005.3012042 0 0 0 0 134931914.10131073 -70960846.899700642 0 -70960846.899700642 -384542789.11619043 0 0 0 0 39729885.73538208 20521961.596456051 0 20521961.596456051 -404658104.88016784 0 0 0 0 -137950553.27429199 19464596.039681435 0 19464596.039681435 -274541260.44004917 0 0 0 0 -15641050.168655396 -35173222.845304966 0 -35173222.845304966 -323157993.68342686 0 0 0 0 -61540139.198242188 22380412.260174274 0 22380412.260174274 -373084204.5236454 0 0 0 0 -117348694.66014099 69585902.108244896 0 69585902.108244896 -338175334.30203295 0 0 0 0 49552644.255895615 -42025164.942936838 0 -42025164.942936838 -347562450.84873676 0 0 0 0 28906513.369075775 -123308574.77724147 0 -123308574.77724147 -407794322.44085217 0 0 0 0 66636692.942840576 -7943388.0406091213 0 -7943388.0406091213 -253482787.6733734 0 0 0 0 3391149.7790503502 -9316522.6798629612 0 -9316522.6798629612 -7535577.409747839 0 0 0 0 -11601087.874139786 33708827.9842453 0 33708827.9842453 17370966.356570005 0 0 0 0 -2615231.5891990662 8189927.8255958557 0 8189927.8255958557 -4354630.1624937057 0 0 0 0 20441789.568881989 4507033.6611692905 0 4507033.6611692905 -19960051.430281639 0 0 0 0 4646002.9386520535 608309.67916647787 0 608309.67916647787 -738024.25763481576 0 0 0 0 -3449604.2473459244 3791701.3652893305 0 3791701.3652893305 -909214.89499258995 0 0 0 0 3714148.5615467704 -948185.87500081619 0 -948185.87500081619 -487135.94204013166 0 0 0 0 1656821.865014455 1354590.6099979326 0 1354590.6099979326 -1456389.0771826536 0 0 0 0 -5481101.360496521 -52996121.362065822 0 -52996121.362065822 -246977073.5149467 0 0 0 0 13223509.653681755 -47608297.839618772 0 -47608297.839618772 -267154334.74420691 0 0 0 0 11526053.78103447 -53710544.136713386 0 -53710544.136713386 -247798079.61913398 0 0 0 0 -32100801.228010178 -177086312.9281019 0 -177086312.9281019 -580177606.16648793 0 0 0 0 -317097.1036529541 134937563.59444439 0 134937563.59444439 -466484536.79956597 0 0 0 0 493894.53548952285 431549.95812766487 0 431549.95812766487 -449608.70098904055 0 0 0 0 9162386.2799301147 49369749.968819618 0 49369749.968819618 -366901555.25333643 0 0 0 0 -101779619.64759469 128764141.25443926 0 128764141.25443926 -292707208.71637344 0 0 0 0 -91539681.025882721 49006139.132046342 0 49006139.132046342 -168146839.72123411 0 0 0 0 34371270.406107903 58242321.802953541 0 58242321.802953541 -277741686.69720441 0 0 0 0 -12655269.856803656 50580863.221769661 0 50580863.221769661 -168489982.85580337 0 0 0 0 52919068.688948631 39549664.428766035 0 39549664.428766035 -210681273.28747904 0 0 0 0 28570815.929519653 38883992.234128624 0 38883992.234128624 -124429944.19335851 0 0 0 0 38956144.421114922 77496643.511844516 0 77496643.511844516 -71910247.075765401 0 0 0 0 106800835.50301409 85528366.318552047 0 85528366.318552047 -130649980.79344827 0 0 0 0 24048193.08154583 -22233604.354486234 0 -22233604.354486234 -188450622.86578047 0 0 0 0 45426761.696873665 -34212565.051605284 0 -34212565.051605284 -257683169.79300016 0 0 0 0 22190920.039158821 -17285792.407012492 0 -17285792.407012492 -183841915.26971775 0 0 0 0 34049497.935200691 -24045490.656686842 0 -24045490.656686842 -245563779.3203336 0 0 0 0 165713563.15047312 -33462491.809839606 0 -33462491.809839606 -554138729.89871216 0 0 0 0 95113878.855199814 43172001.083974361 0 43172001.083974361 -434566264.77749538 0 0 0 0 756429.68823778257 -786597.82531728689 0 -786597.82531728689 701663.15899496689 0 0 0 0 -369948518.67202187 -276004352.38637352 0 -276004352.38637352 -285220399.19737363 0 0 0 0 -173632584.51407814 -680591304.01019359 0 -680591304.01019359 -594872322.76202393 0 0 0 0 202413141.46789169 -146427626.25154686 0 -146427626.25154686 -374001458.92760849 0 0 0 0 97606455.127941132 -117935567.25170135 0 -117935567.25170135 -275238892.20512199 0 0 0 0 72468560.579859734 -353090888.50287443 0 -353090888.50287443 -336304400.34304047 0 0 0 0 270673881.39796829 -311930545.424119 0 -311930545.424119 -512265700.99508309 0 0 0 0 270492356.93243408 -185473308.99792671 0 -185473308.99792671 -250682727.08810139 0 0 0 0 145827226.57682037 -206280951.09858799 0 -206280951.09858799 -150999120.03890228 0 0 0 0 220351702.22499084 -49576068.540361404 0 -49576068.540361404 -49272798.659362793 0 0 0 0 106199028.70809078 -54964772.563403249 0 -54964772.563403249 92127365.000005722 0 0 0 0 199534672.69686508 -177622569.0029068 0 -177622569.0029068 -311038484.85071182 0 0 0 0 -151397257.9043808 218164786.21677279 0 218164786.21677279 132274716.79533029 0 0 0 0 -60454384.780787468 93311227.890080452 0 93311227.890080452 188207691.8162322 0 0 0 0 -65008661.052147955 111131655.66400242 0 111131655.66400242 171590597.81094551 0 0 0 0 54045649.167109728 165797232.20240152 0 165797232.20240152 -380991559.82177496 0 0 0 0 -86049114.264127254 279479417.13828897 0 279479417.13828897 -71131982.285497189 0 0 0 0 -258000.26321450609 879283.63542318228 0 879283.63542318228 -33358.060509816976 0 0 0 0 488141993.88717437 -103638129.94835651 0 -103638129.94835651 -417929569.15832329 0 0 0 0 -119498347.33395958 -118165520.77406809 0 -118165520.77406809 -156303973.17046767 0 0 0 0 -12609439.050664902 -41388390.542187095 0 -41388390.542187095 -449199840.10651302 0 0 0 0 50809309.657501221 12603182.069348574 0 12603182.069348574 -400388794.81611472 0 0 0 0 -4468999.3464529514 -5142479.1406412125 0 -5142479.1406412125 -113594555.96991426 0 0 0 0 3220214.6571595818 -3017792.2628313252 0 -3017792.2628313252 2428548.3046746934 0 0 0 0 282427.70908842329 -20423.667885339353 0 -20423.667885339353 184715.72091211006 0 0 0 0 733801.71095466614 101776777.69635415 0 101776777.69635415 2828359.3016390353 0 0 0 0 460372130.71813202 -135669311.46614599 0 -135669311.46614599 4301584.4130520821 0 0 0 0 2172043.7757630865 -2049764.9367759814 0 -2049764.9367759814 1665737.2650709769 0 0 0 0 63654197.85822773 -111656910.16917145 0 -111656910.16917145 -546106425.45511341 0 0 0 0 333056606.26128387 423889048.90759468 0 423889048.90759468 290037641.23640871 0 0 0 0 524725177.56794739 658407237.14358521 0 658407237.14358521 544237458.39171553 0 0 0 0 443281432.6145134 389949041.17365408 0 389949041.17365408 264104157.85216331 0 0 0 0 935638282.44245148 529836198.12198329 0 529836198.12198329 300090940.77762437 0 0 0 0 213772463.72705078 148966039.71768284 0 148966039.71768284 128070267.64115977 0 0 0 0 188509955.81782532 145970215.27815437 0 145970215.27815437 128465640.69782883 0 0 0 0 -136197463.82983041 -6621388.9776078761 0 -6621388.9776078761 47162414.904383659 0 0 0 0 202529765.46180725 102995507.49642563 0 102995507.49642563 116637928.18276262 0 0 0 0 -172137243.39919472 176744956.80437839 0 176744956.80437839 -246417952.41338634 0 0 0 0 197943.03112438135 4805.3483493612148 0 4805.3483493612148 -132590.15989036905 0 0 0 0 -145110709.61231995 78235556.91187191 0 78235556.91187191 -1027663.1231870651 0 0 0 0 269223807.14504242 96890062.099674225 0 96890062.099674225 111293133.86867332 0 0 0 0 -95259330.53276062 -87817016.517561913 0 -87817016.517561913 377416510.01682281 0 0 0 0 -162473149.21700668 43332110.008325577 0 43332110.008325577 130693547.05220342 0 0 0 0 245254145.20312655 -67792804.606663093 0 -67792804.606663093 91043290.488581657 0 0 0 0 259680083.69595718 196956794.08432674 0 196956794.08432674 71588282.823112011 0 0 0 0 373175839.24302864 278712525.20455742 0 278712525.20455742 199140947.63911247 0 0 0 0 495683468.00553894 123940102.2783494 0 123940102.2783494 -68725134.868432045 0 0 0 0 622986682.4585495 405966088.61155891 0 405966088.61155891 -182553487.87323451 0 0 0 0 542920.9163234029 -141533.7044525533 0 -141533.7044525533 -97052.980453548487 0 0 0 0 792898332.50672531 480688230.25436544 0 480688230.25436544 13658893.80177927 0 0 0 0 7685198.3346449882 7599719.7669388186 0 7599719.7669388186 2266974.4185957024 0 0 0 0 3528973.4469165802 18261483.708884478 0 18261483.708884478 -14401008.848249435 0 0 0 0 7141731.1984810829 10435762.573608279 0 10435762.573608279 -9199796.792552948 0 0 0 0 10355707.483222961 21805541.620748997 0 21805541.620748997 -23824443.698414803 0 0 0 0 5862051.9807128906 79406974.070823193 0 79406974.070823193 -70216805.431064606 0 0 0 0 -4478807.950428009 39477807.752552032 0 39477807.752552032 -31921026.999221802 0 0 0 0 1428965.9245050265 297500.25908390386 0 297500.25908390386 -95318.351127965609 0 0 0 0 22932421.636196136 -3755075.482139349 0 -3755075.482139349 6299656.878991127 0 0 0 0 51642857.751499176 43400189.86413908 0 43400189.86413908 -42911951.858570576 0 0 0 0 49299684.407855988 13213791.581202507 0 13213791.581202507 -27009292.773500144 0 0 0 0 -63641360.344215393 46596835.480680227 0 46596835.480680227 9724670.3865356445 0 0 0 0 7678225.9051225334 8104827.3548202449 0 8104827.3548202449 2149482.9917033454 0 0 0 0 -58230345.136227608 29094134.927041054 0 29094134.927041054 16642802.873338699 0 0 0 0 -53802569.443498611 42172957.978115082 0 42172957.978115082 21565957.933917999 0 0 0 0 -58731404.845252991 23958658.558346748 0 23958658.558346748 -13934171.384501457 0 0 0 0 4336950.842298287 1020416.670099278 0 1020416.670099278 -373122.35354871186 0 0 0 0 445580332.7946701 -167194852.53528404 0 -167194852.53528404 -194832634.35029602 0 0 0 0 21373670.411552429 8718972.7582421303 0 8718972.7582421303 13572961.163970351 0 0 0 0 27249220.825061798 5056014.448779583 0 5056014.448779583 -5209505.2663173676 0 0 0 0 7627925.4074233351 9794732.2941083629 0 9794732.2941083629 -441733.71885977592 0 0 0 0 -30837389.865318298 47779478.63893795 0 47779478.63893795 -201585176.69405746 0 0 0 0 62654102.138483047 216553656.99291325 0 216553656.99291325 62577993.640188217 0 0 0 0 5370622.8633414432 -70660.75699180318 0 -70660.75699180318 -1374889.2181793926 0 0 0 0 -109562324.1916275 -883627.03746986389 0 -883627.03746986389 9884869.5032038689 0 0 0 0 -80728237.733514786 35711163.928416252 0 35711163.928416252 10471530.213779449 0 0 0 0 -12167599.115600586 32600961.271408081 0 32600961.271408081 -4560218.7070789337 0 0 0 0 1024699893.7339478 959433198.14428377 0 959433198.14428377 313357797.89693832 0 0 0 0 193288123.05872345 -777363013.37414837 0 -777363013.37414837 -948663102.50028038 0 0 0 0 1678975627.8457565 599374623.37514973 0 599374623.37514973 -177241659.54953384 0 0 0 0 1565511232.9184494 77283415.753653526 0 77283415.753653526 31687960.197177887 0 0 0 0 783169136.46816254 98019905.713524818 0 98019905.713524818 245411718.39468956 0 0 0 0 1642122389.1999359 -728035353.05470181 0 -728035353.05470181 431786916.74714279 0 0 0 0 2134511968.4027863 -159237526.41805458 0 -159237526.41805458 -104764216.66379166 0 0 0 0 582297419.72754669 181882866.3839879 0 181882866.3839879 43987552.958457947 0 0 0 0 1335888642.744503 645966122.23527575 0 645966122.23527575 19735318.411865234 0 0 0 0 645769594.01948738 323685005.8542347 0 323685005.8542347 -4085655.2068986893 0 0 0 0 -242359776.9880991 -211384863.33322108 0 -211384863.33322108 265431239.57151794 0 0 0 0 217989140.51911736 402533747.86134911 0 402533747.86134911 134230228.01307917 0 0 0 0 -104284731.74593353 -333674512.22912216 0 -333674512.22912216 -10735763.291315079 0 0 0 0 213889.80154820438 -86483.752429866232 0 -86483.752429866232 31180.001314895693 0 0 0 0 595657115.22966003 163533132.57445335 0 163533132.57445335 49935852.831106186 0 0 0 0 -113250415.47956848 229253154.39666939 0 229253154.39666939 123024194.01285362 0 0 0 0 35860520.458755493 -80557568.212212563 0 -80557568.212212563 -270927729.43890953 0 0 0 0 102381771.99751282 -21189275.057519913 0 -21189275.057519913 172014481.40172207 0 0 0 0 216382419.54850769 -298525486.95748806 0 -298525486.95748806 125452368.9660778 0 0 0 0 301286081.85251999 -139321392.50669271 0 -139321392.50669271 85613911.80821228 0 0 0 0 298489624.13844299 -170070051.00009727 0 -170070051.00009727 527715989.9522171 0 0 0 0 2063885.4629610972 945550.02892388729 0 945550.02892388729 -870201.33580400562 0 0 0 0 516287342.29360962 120276279.77449417 0 120276279.77449417 -267485321.192873 0 0 0 0 -31696703.365018845 29284901.581362247 0 29284901.581362247 -135301265.49677473 0 0 0 0 569379006.12587929 154323118.28258467 0 154323118.28258467 -106844178.80967903 0 0 0 0 66198351.809488297 -90179020.872474194 0 -90179020.872474194 -236123732.86060166 0 0 0 0 62082483.3969841 -136376987.3503418 0 -136376987.3503418 -153233780.60465622 0 0 0 0 617354476.29037285 19397088.928883076 0 19397088.928883076 -357332564.67484665 0 0 0 0 653004744.58740354 -141692422.40931118 0 -141692422.40931118 -507853677.04931641 0 0 0 0 645918814.79872298 19837551.308257878 0 19837551.308257878 -585743564.6360817 0 0 0 0 515528461.50669861 -289496091.86171722 0 -289496091.86171722 -665470419.98384094 0 0 0 0 937775151.65673828 -85064313.67093277 0 -85064313.67093277 -808859599.65702057 0 0 0 0 286848838.07795715 -304903778.65330505 0 -304903778.65330505 1492677472.8260803 0 0 0 0 1303736808.533165 584160583.2144165 0 584160583.2144165 -103087484.01544952 0 0 0 0 504573188.73028564 420512997.159235 0 420512997.159235 223230579.86644459 0 0 0 0 285519706.71622467 -418454197.77088356 0 -418454197.77088356 -643384748.75206947 0 0 0 0 706867406.48373413 -361682148.24903297 0 -361682148.24903297 -1072319520.5147209 0 0 0 0 469191330.05982208 -197426240.34389305 0 -197426240.34389305 -425806050.73639679 0 0 0 0 236957078.28725815 -219340921.20942116 0 -219340921.20942116 -191205280.89450455 0 0 0 0 354340714.87093353 -260104016.73242569 0 -260104016.73242569 -414559095.36310959 0 0 0 0 434298520.15968323 -117375491.81231499 0 -117375491.81231499 -182301878.0587616 0 0 0 0 309921996.81726933 -158301898.70903158 0 -158301898.70903158 -147555981.3552742 0 0 0 0 323362683.85746384 -196934943.35786629 0 -196934943.35786629 -214657129.2237339 0 0 0 0 256383281.66100788 -200665999.17450476 0 -200665999.17450476 -39616435.888465881 0 0 0 0 260342160.34409332 -180762560.68731689 0 -180762560.68731689 3148874.0947704315 0 0 0 0 301286750.82427597 -139658970.37174892 0 -139658970.37174892 -90428869.518894196 0 0 0 0 386567064.48011398 -89977993.572010994 0 -89977993.572010994 -61555319.50932312 0 0 0 0 353432419.68466473 17242131.824193716 0 17242131.824193716 70902587.967206955 0 0 0 0 140597368.9751339 -48616278.195672035 0 -48616278.195672035 50847135.790687561 0 0 0 0 2191694.367999915 8693744.5442807116 0 8693744.5442807116 4378547.6849987293 0 0 0 0 4383595.8162126541 23177330.01199913 0 23177330.01199913 7003116.099067688 0 0 0 0 191947287.3077631 -170994685.42348528 0 -170994685.42348528 77465409.177818298 0 0 0 0 169848540.20703888 -114404475.97520256 0 -114404475.97520256 10981589.264444351 0 0 0 0 -12387899.712432861 -11132369.344985962 0 -11132369.344985962 -11060952.346835345 0 0 0 0 1744131.1599525735 -38444.418901130557 0 -38444.418901130557 -448556.74792741472 0 0 0 0 -3189812.4461898804 40624285.413614273 0 40624285.413614273 -13039833.742729187 0 0 0 0 51563100.053348541 14820987.543309212 0 14820987.543309212 -2695457.8923947811 0 0 0 0 4746813.928609848 20745091.535884857 0 20745091.535884857 14007701.405403137 0 0 0 0 4968486.0180886891 7851930.2863378897 0 7851930.2863378897 -6680844.5545266327 0 0 0 0 35170140.912975311 -23886630.254802465 0 -23886630.254802465 -20142831.595932007 0 0 0 0 -226321336.22093582 34457335.144791842 0 34457335.144791842 35859822.076234818 0 0 0 0 -176939819.16056824 111811033.66207886 0 111811033.66207886 21934550.196603775 0 0 0 0 -171329239.6530304 -41332524.003862381 0 -41332524.003862381 24216026.842395782 0 0 0 0 -47334207.131851196 -91525920.673961639 0 -91525920.673961639 -58673872.968315125 0 0 0 0 19984378.25113678 -18332289.36926651 0 -18332289.36926651 -92635997.411995888 0 0 0 0 59665670.516479492 43024463.824279785 0 43024463.824279785 14571796.985961914 0 0 0 0 -48570909.451118469 80618208.897333145 0 80618208.897333145 14637237.299339294 0 0 0 0 32571129.151247025 52830311.145187378 0 52830311.145187378 41097558.444778442 0 0 0 0 4148487.6178702163 6419763.744838356 0 6419763.744838356 -6839351.1924359864 0 0 0 0 75162885.228172302 100919768.99167633 0 100919768.99167633 125143208.63165283 0 0 0 0 73707.926504106261 24044.320681826677 0 24044.320681826677 -155041.67261067126 0 0 0 0 -8339391.8581123352 -36001180.931151867 0 -36001180.931151867 -3133.4130020141602 0 0 0 0 -17625493.410259247 -41839487.096801758 0 -41839487.096801758 10330459.483577728 0 0 0 0 -7671649.1954345703 -33577338.758324623 0 -33577338.758324623 8794594.9183311462 0 0 0 0 -15284778.45161438 -36134132.607092857 0 -36134132.607092857 24209541.040534973 0 0 0 0 11856543.282455444 25176416.486999512 0 25176416.486999512 46487188.986690521 0 0 0 0 22294890.177270412 17004000.212219715 0 17004000.212219715 8028434.7861480713 0 0 0 0 -974758.30055618286 21373456.299732208 0 21373456.299732208 30803527.378067017 0 0 0 0 -1151670.2517337799 -3463891.2391204834 0 -3463891.2391204834 -10519792.165367126 0 0 0 0 -18222916.600170135 3841982.4957199097 0 3841982.4957199097 15388872.575801849 0 0 0 0 -10913138.149462461 -2230959.4645104408 0 -2230959.4645104408 20091884.994979858 0 0 0 0 -4461449.2241744995 27642949.269191265 0 27642949.269191265 52797636.556655884 0 0 0 0 -5234647.6468486786 47664742.877242088 0 47664742.877242088 45946802.260940552 0 0 0 0 -40640955.57251358 -19826492.163951874 0 -19826492.163951874 29980287.14431572 0 0 0 0 35122217.897392273 35827831.472934723 0 35827831.472934723 14705215.377681732 0 0 0 0 25502973.40114975 68595476.197093964 0 68595476.197093964 139148989.07475281 0 0 0 0 62190602.881111145 33348918.788368225 0 33348918.788368225 41870117.779243469 0 0 0 0 76228678.84929657 94794092.795700073 0 94794092.795700073 102322622.71194458 0 0 0 0 101642758.31240845 146371424.51792908 0 146371424.51792908 143216371.58885193 0 0 0 0 -306744.78118282789 178012.23582216073 0 178012.23582216073 458701.03175676893 0 0 0 0 1859628.3812306277 5810402.254604198 0 5810402.254604198 2490707.8425441645 0 0 0 0 46896112.525871277 -20574267.798265457 0 -20574267.798265457 93010172.336319923 0 0 0 0 -11152182.265697479 3136683.4664077759 0 3136683.4664077759 10408872.803315163 0 0 0 0 -14779181.146081924 6305344.1806640625 0 6305344.1806640625 11555528.690288544 0 0 0 0 1032316.4568793329 2356643.6769333077 0 2356643.6769333077 229504.61991477199 0 0 0 0 -14032918.524324417 -7257618.970954895 0 -7257618.970954895 2829644.9998836517 0 0 0 0 61995439.102231979 -56142864.628261566 0 -56142864.628261566 -1692600.2972927094 0 0 0 0 434332.29705880006 1858373.1527310163 0 1858373.1527310163 2598768.1224713437 0 0 0 0 438788814.62281895 154085210.572649 0 154085210.572649 72675074.561832428 0 0 0 0 623514912.75111008 341388454.68764114 0 341388454.68764114 -80792083.368690491 0 0 0 0 3806700.1108183092 399504.7825694019 0 399504.7825694019 -463241.90885094041 0 0 0 0 598486514.67007828 119188942.29013062 0 119188942.29013062 29065781.221529007 0 0 0 0 1235393900.7104826 170552117.37752056 0 170552117.37752056 310620991.55888367 0 0 0 0 1229160989.726614 290383647.01082802 0 290383647.01082802 -102142376.95822525 0 0 0 0 -149394.6091401322 682470.34774231375 0 682470.34774231375 132046.03061454184 0 0 0 0 1361241924.4472749 1011334840.1286345 0 1011334840.1286345 345469817.43925476 0 0 0 0 735802943.04492021 -233277438.13099003 0 -233277438.13099003 1651010971.996151 0 0 0 0 1229289.5619437245 15897.79104809463 0 15897.79104809463 -18895.220364906825 0 0 0 0 126198024.90001678 -516056443.40410519 0 -516056443.40410519 988572226.71326637 0 0 0 0 124771246.91156769 -90820510.00611496 0 -90820510.00611496 110346928.890131 0 0 0 0 86387642.352621078 -114448496.21630144 0 -114448496.21630144 100819459.44874573 0 0 0 0 137276361.86090136 -195154429.22861218 0 -195154429.22861218 258192392.2685318 0 0 0 0 370667060.7191391 -319387675.80632782 0 -319387675.80632782 80447337.838937759 0 0 0 0 456466474.00362015 -166411123.07729912 0 -166411123.07729912 -118658617.13392258 0 0 0 0 1252556935.0045528 -711749435.19226265 0 -711749435.19226265 -55220274.896354675 0 0 0 0 1469304953.9587214 -190920114.72280693 0 -190920114.72280693 -494152885.75222397 0 0 0 0 862723071.06207108 209472741.68571782 0 209472741.68571782 -590659715.88769531 0 0 0 0 704511452.74991798 -332536769.50201321 0 -332536769.50201321 -131958360.78604984 0 0 0 0 377750228.57620811 203704179.93558502 0 203704179.93558502 25183139.76332593 0 0 0 0 490547170.65194368 272317315.58198738 0 272317315.58198738 -202919705.85734177 0 0 0 0 361386790.17580926 -59992850.667975605 0 -59992850.667975605 -111530300.66511917 0 0 0 0 272909947.32018852 -217223677.74081993 0 -217223677.74081993 -64514929.255624771 0 0 0 0 323700620.67056274 -124488486.39143181 0 -124488486.39143181 -93497519.305830002 0 0 0 0 160216642.84380436 -196296062.10674858 0 -196296062.10674858 -123253065.99661255 0 0 0 0 295540539.12979507 -96880024.679305077 0 -96880024.679305077 -111164543.92950821 0 0 0 0 -95624781.006650716 175831612.49571264 0 175831612.49571264 262442479.38591003 0 0 0 0 -7634049.3025793433 -108250571.19076443 0 -108250571.19076443 397504425.90541363 0 0 0 0 609979870.10286427 263877736.40724373 0 263877736.40724373 -197456649.76402283 0 0 0 0 -391037.36894803977 1491413.0146676851 0 1491413.0146676851 70815.03700886108 0 0 0 0 -335018108.95094347 515849943.19060326 0 515849943.19060326 260951181.7076416 0 0 0 0 565316.05963487132 -382357.38284706092 0 -382357.38284706092 -220115.66864833329 0 0 0 0 -311675506.03658122 847996063.47613716 0 847996063.47613716 -304353238.33455658 0 0 0 0 -565571557.78738403 145917485.96190643 0 145917485.96190643 190615902.13756704 0 0 0 0 105073420.66108683 274868420.80856448 0 274868420.80856448 -485630695.50463104 0 0 0 0 935980075.25261581 379951514.86806083 0 379951514.86806083 52630747.416433334 0 0 0 0 116318919.93314648 -77043837.278401375 0 -77043837.278401375 118185514.97760034 0 0 0 0 -4104620.0901889801 131554702.41985798 0 131554702.41985798 483304373.74633408 0 0 0 0 214808251.53966331 -61585444.632766724 0 -61585444.632766724 486267216.88805962 0 0 0 0 -45524434.187342644 -21123172.233094215 0 -21123172.233094215 54595719.256241322 0 0 0 0 -315585842.3266207 102426388.70470238 0 102426388.70470238 242724251.70846176 0 0 0 0 4061348.3049963713 -16872491.199204922 0 -16872491.199204922 60437109.352416992 0 0 0 0 -253746881.2551384 178375364.3231144 0 178375364.3231144 -158704154.96198726 0 0 0 0 802585.67033345089 -1637646.7097214824 0 -1637646.7097214824 -156902.44120370038 0 0 0 0 -621692786.74463177 533690217.65455055 0 533690217.65455055 -108306840.55669641 0 0 0 0 261452.42936178111 -3604984.8162761391 0 -3604984.8162761391 373985.16509340145 0 0 0 0 1699562.7549686432 -12865867.68204689 0 -12865867.68204689 3913068.8452036381 0 0 0 0 26375898.799343109 86069987.221889973 0 86069987.221889973 113741736.10496187 0 0 0 0 206736663.41428757 174562151.14292765 0 174562151.14292765 153083588.5408814 0 0 0 0 2277119.9920678218 -935055.25238597859 0 -935055.25238597859 4206076.3009620421 0 0 0 0 -10059233.196797371 -16239707.774578571 0 -16239707.774578571 13237071.568178177 0 0 0 0 8552094.3744678497 -610425.61424541473 0 -610425.61424541473 6278093.3321506977 0 0 0 0 -5749312.2309017181 15802523.83910656 0 15802523.83910656 30597179.435396194 0 0 0 0 20587066.571507454 30566835.453872681 0 30566835.453872681 10484334.029752731 0 0 0 0 9356938.3518037796 15669357.352580547 0 15669357.352580547 -1443077.7292957306 0 0 0 0 -708613.8253618516 457780.50707351277 0 457780.50707351277 1041549.8356090903 0 0 0 0 3204609.6812150478 44999978.873848915 0 44999978.873848915 102807211.74859619 0 0 0 0 -28914995.750965595 69350770.433373928 0 69350770.433373928 89248608.835235119 0 0 0 0 -28815403.896101952 64686621.282473087 0 64686621.282473087 175235159.64717436 0 0 0 0 -386286.92203128338 24336079.967740536 0 24336079.967740536 58558348.030024529 0 0 0 0 -14553526.330716699 -1081910.514503479 0 -1081910.514503479 120035903.99192429 0 0 0 0 2785379.0770225525 -315435.03190851212 0 -315435.03190851212 -1009505.0208547115 0 0 0 0 743547.14785133325 2279029.7447831444 0 2279029.7447831444 981074.50749106868 0 0 0 0 105020236.44504547 -22171965.093651772 0 -22171965.093651772 -24308790.148964882 0 0 0 0 -10273141.983106852 -76435866.502730548 0 -76435866.502730548 170199639.87353706 0 0 0 0 -2667282.4849910736 -34597188.721698284 0 -34597188.721698284 113782853.60629368 0 0 0 0 58370761.300524235 -128428142.78481866 0 -128428142.78481866 187726614.25670815 0 0 0 0 4928064.9219360352 -61918115.117984772 0 -61918115.117984772 257411411.4572525 0 0 0 0 -16695636.515921593 -90645936.776039958 0 -90645936.776039958 281430712.37260532 0 0 0 0 -33824924.187957764 -44247232.505975246 0 -44247232.505975246 186305901.1975162 0 0 0 0 -51067567.888971329 -28442385.605811119 0 -28442385.605811119 184090276.28374386 0 0 0 0 -47583681.76072216 -56980210.6686306 0 -56980210.6686306 228170952.53998327 0 0 0 0 -7966111.3665933609 -57558715.447856903 0 -57558715.447856903 97689446.808053017 0 0 0 0 1531197.6209201813 -10255718.419114113 0 -10255718.419114113 70478767.959475994 0 0 0 0 2047537.5693667496 2945988.344592608 0 2945988.344592608 1213568.016871104 0 0 0 0 153662.06471824646 -21031258.22134304 0 -21031258.22134304 62132334.625674248 0 0 0 0 -5686287.2560882568 25020497.54395771 0 25020497.54395771 118954511.07326889 0 0 0 0 -50320629.255021393 -10643153.26641573 0 -10643153.26641573 171538694.56663132 0 0 0 0 -97229859.299489975 4248301.0470254421 0 4248301.0470254421 216527370.87685871 0 0 0 0 -85217646.097557068 39908751.233633399 0 39908751.233633399 200992041.26989877 0 0 0 0 22374396.306386948 75420156.407447815 0 75420156.407447815 138226540.00016928 0 0 0 0 -6591963.7820481062 15361379.189687163 0 15361379.189687163 52873263.027496338 0 0 0 0 -20891195.870236397 -4656961.2208142281 0 -4656961.2208142281 9114404.9820804596 0 0 0 0 2201846.9741356117 852052.59532336192 0 852052.59532336192 2780066.3065744899 0 0 0 0 5354837.7408103943 8990805.5338039398 0 8990805.5338039398 52872146.126720004 0 0 0 0 -3851957.476433754 5556669.5597949028 0 5556669.5597949028 48045439.759283066 0 0 0 0 -3480312.7690086365 11258397.890172005 0 11258397.890172005 88988080.374969482 0 0 0 0 773766.75251656119 4200977.4815050978 0 4200977.4815050978 3098875.3431472764 0 0 0 0 -1478126.3318138123 4549093.1123917103 0 4549093.1123917103 3615101.7582042217 0 0 0 0 1647323.3737940788 8524144.8376545906 0 8524144.8376545906 -179270.73051023483 0 0 0 0 3171540.8689132826 3711273.8347706515 0 3711273.8347706515 1453932.4158125003 0 0 0 0 9982275.0684585571 10754507.299147367 0 10754507.299147367 23921093.264476776 0 0 0 0 2352300.2523450851 4297531.8706536293 0 4297531.8706536293 -1695224.1761975288 0 0 0 0 4814642.1407403946 6243794.2764072418 0 6243794.2764072418 -5491194.7325816154 0 0 0 0 10721028.139583588 9007468.6387808323 0 9007468.6387808323 275771.3573756218 0 0 0 0 2793646.0041828156 -939292.45062255859 0 -939292.45062255859 4138105.5500540733 0 0 0 0 1528958.9878656294 644018.83257529826 0 644018.83257529826 6856.2153865310829 0 0 0 0 3937389.0020655394 657911.34924429655 0 657911.34924429655 -262256.94616699219 0 0 0 0 11241442.98295112 -1496940.4554279223 0 -1496940.4554279223 -840056.02115440369 0 0 0 0 4057684.8779802322 -1357794.6808156967 0 -1357794.6808156967 32176.683418273926 0 0 0 0 3777759.784954071 1491544.372569561 0 1491544.372569561 -2031472.755153656 0 0 0 0 1500579.7933983803 1340870.313062191 0 1340870.313062191 -1042685.0579376221 0 0 0 0 4920703.3877630234 -23228.421505451202 0 -23228.421505451202 -2154775.9267959595 0 0 0 0 1669330.055434227 6963555.7864146233 0 6963555.7864146233 -58828.62997341156 0 0 0 0 27755878.251929283 15745785.051806927 0 15745785.051806927 6765288.8846537471 0 0 0 0 30312119.176573515 4196051.4119390249 0 4196051.4119390249 798613.36464500427 0 0 0 0 -89258.691296867793 -126880.9450525624 0 -126880.9450525624 88344.880875949981 0 0 0 0 1062284.651391983 -1366372.6807699203 0 -1366372.6807699203 -960793.39298629761 0 0 0 0 -7882487.810292244 -8046731.874127388 0 -8046731.874127388 1808444.2231454849 0 0 0 0 4833374.5233506728 622446.00321000221 0 622446.00321000221 2315454.1667473665 0 0 0 0 1328249.5067043304 637823.02198934555 0 637823.02198934555 -424103.11980438232 0 0 0 0 2055200.1304831253 865437.23608979234 0 865437.23608979234 1282737.672789996 0 0 0 0 1157258.6566009521 934999.79316949844 0 934999.79316949844 -119530.74639511108 0 0 0 0 2291233.0635344856 1380127.2476382009 0 1380127.2476382009 1263611.6824292885 0 0 0 0 2938115.8941089073 1209946.5569969669 0 1209946.5569969669 -187412.55331138708 0 0 0 0 1409643.9380483297 396292.14910882013 0 396292.14910882013 -321129.78224644798 0 0 0 0 2105489.1458892822 1470823.7650241852 0 1470823.7650241852 -73239.37654876709 0 0 0 0 -49984.176989431726 81065.157876121579 0 81065.157876121579 150950.42825148394 0 0 0 0 -2927634.0924713612 -2446522.6982341409 0 -2446522.6982341409 7886648.6926727295 0 0 0 0 10103765.202196121 -476844.20779657364 0 -476844.20779657364 10514143.25902462 0 0 0 0 5376550.2181515694 7907826.9444147348 0 7907826.9444147348 -1017447.7400560379 0 0 0 0 23152446.091256142 12716447.471981764 0 12716447.471981764 -1156.1320638656616 0 0 0 0 7825982.8019471169 18510482.001225471 0 18510482.001225471 799610.08598709106 0 0 0 0 32244322.115115166 -4204800.4655833244 0 -4204800.4655833244 -4935349.4751855135 0 0 0 0 848850.50237466069 5044629.5507235983 0 5044629.5507235983 2221641.8096357011 0 0 0 0 31781243.822324753 39649787.449320555 0 39649787.449320555 10933398.881645203 0 0 0 0 36130246.480558395 43854690.690887451 0 43854690.690887451 7468006.4305944443 0 0 0 0 35248001.930438519 41407882.598813534 0 41407882.598813534 3000921.9478654861 0 0 0 0 7912337.4113788605 46542495.344989777 0 46542495.344989777 22511334.065171719 0 0 0 0 38471251.750596523 34173227.592079997 0 34173227.592079997 -36514874.236944199 0 0 0 0 30238108.433372498 36870460.328420639 0 36870460.328420639 6532450.2701551914 0 0 0 0 1349222.7082953462 -453930.8977465299 0 -453930.8977465299 -730989.08589103352 0 0 0 0 26462333.943597794 -10545233.457839489 0 -10545233.457839489 6297915.4649957418 0 0 0 0 86248543.233855247 -49286762.782494381 0 -49286762.782494381 21216720.528874159 0 0 0 0 40029314.111053467 2123654.9221105482 0 2123654.9221105482 -447646.85270819813 0 0 0 0 23816946.83467865 8531066.9630582333 0 8531066.9630582333 592842.83617216349 0 0 0 0 44034235.135875702 19906974.003948927 0 19906974.003948927 -7919759.5849750042 0 0 0 0 62666280.576299191 12352264.062430292 0 12352264.062430292 -5012262.4497680664 0 0 0 0 1757491.9922146797 -7560823.664700985 0 -7560823.664700985 12953863.135863304 0 0 0 0 2375237.2235692074 5662459.8369951556 0 5662459.8369951556 597543.03163099603 0 0 0 0 44615642.269674301 22839436.148517907 0 22839436.148517907 4706059.9109113216 0 0 0 0 16639431.851657867 13746545.056711674 0 13746545.056711674 2337218.9505672455 0 0 0 0 28671323.262728691 20803660.619208664 0 20803660.619208664 6464539.3005752563 0 0 0 0 19013277.265182495 1623512.4344069958 0 1623512.4344069958 -6360012.4810934067 0 0 0 0 5953444.5447654724 5847828.6050524069 0 5847828.6050524069 -2207856.9230881198 0 0 0 0 14734913.630535126 -1324822.6237215996 0 -1324822.6237215996 -5251144.3772964478 0 0 0 0 23053941.65063858 19655821.890665293 0 19655821.890665293 -9381704.4730222225 0 0 0 0 18392436.476064682 -939639.17558193207 0 -939639.17558193207 -9619156.9826645851 0 0 0 0 -16494537.054319382 -869812.10743808746 0 -869812.10743808746 17645839.504711151 0 0 0 0 8338116.1948690414 9043795.13626194 0 9043795.13626194 11527284.711082458 0 0 0 0 5563157.2902211342 -288704.85712304257 0 -288704.85712304257 1835509.246451196 0 0 0 0 16895687.312524796 11463999.982786655 0 11463999.982786655 -5728891.6251679659 0 0 0 0 -175172.74315030192 -185713.81890201743 0 -185713.81890201743 89250.288475086447 0 0 0 0 35079479.571546078 91066184.583257198 0 91066184.583257198 -51955241.32091713 0 0 0 0 53422236.071359962 167584976.69168791 0 167584976.69168791 -201594055.94974518 0 0 0 0 26056648.671168089 81821637.242058516 0 81821637.242058516 -2176524.3968484402 0 0 0 0 -15578493.864966512 162970846.67955279 0 162970846.67955279 32807228.598501205 0 0 0 0 26423311.548435211 32909099.363642931 0 32909099.363642931 34552570.154261589 0 0 0 0 22575290.252893448 80954558.244681358 0 80954558.244681358 12550818.669188976 0 0 0 0 8089781.295425415 49781103.578446865 0 49781103.578446865 80142048.837286949 0 0 0 0 31239970.623958111 22834464.344338298 0 22834464.344338298 -81383639.828677177 0 0 0 0 -14276597.262122154 86800920.458650678 0 86800920.458650678 -67152920.570284963 0 0 0 0 30330210.42056632 23389912.19314748 0 23389912.19314748 -76705547.667702436 0 0 0 0 3520101.9070996456 -1336668.8484969372 0 -1336668.8484969372 -1604965.9488098102 0 0 0 0 17071262.664000511 32532000.28933692 0 32532000.28933692 -80196540.347540557 0 0 0 0 20842511.98167038 15748467.301857829 0 15748467.301857829 -69499353.841754913 0 0 0 0 49597254.857205153 14514194.626687527 0 14514194.626687527 -79882540.577742338 0 0 0 0 50551278.417608976 -6974773.7665727139 0 -6974773.7665727139 -156493850.25546241 0 0 0 0 51659479.866646647 -4018619.8425907791 0 -4018619.8425907791 -153293797.354918 0 0 0 0 -17780472.559195757 -48998052.482089281 0 -48998052.482089281 -59285772.748395443 0 0 0 0 4713635.5084887296 -3471846.2303526774 0 -3471846.2303526774 -22789978.607964039 0 0 0 0 4253314.23345262 -3944410.600212039 0 -3944410.600212039 3134373.5674597626 0 0 0 0 -11114167.338327408 -21905287.949268579 0 -21905287.949268579 -15835906.888208628 0 0 0 0 -14025174.457105637 -23353905.642766476 0 -23353905.642766476 -10619282.878343821 0 0 0 0 -6281712.7072753906 -1996976.5300807953 0 -1996976.5300807953 868077.27819919586 0 0 0 0 4397845.5040311813 -7448486.2707170248 0 -7448486.2707170248 -9871081.4829521179 0 0 0 0 -13170280.942907333 -10193865.539997578 0 -10193865.539997578 -1421137.8224067688 0 0 0 0 -11530059.257888794 -15852159.236228943 0 -15852159.236228943 -6412124.9801940918 0 0 0 0 7598456.4521484375 -18146540.772089005 0 -18146540.772089005 -34659307.686733246 0 0 0 0 160833.0970977433 -73431.93148694816 0 -73431.93148694816 -47789.066514007747 0 0 0 0 5908199.062967658 -14733872.019787334 0 -14733872.019787334 -30708304.531604767 0 0 0 0 5519985.7699647564 -2307537.4843978062 0 -2307537.4843978062 -2064776.6112131407 0 0 0 0 15719263.314523697 -9497038.6215698719 0 -9497038.6215698719 3342821.0162603855 0 0 0 0 36870379.556106567 -25520769.748558283 0 -25520769.748558283 6821307.0193138123 0 0 0 0 20246528.993452072 -1378484.0958251953 0 -1378484.0958251953 -17524456.242934227 0 0 0 0 24391409.461576462 -11779208.439147949 0 -11779208.439147949 -9652555.3658452034 0 0 0 0 13173881.95041275 -4498581.0607881546 0 -4498581.0607881546 -3194844.2174315453 0 0 0 0 18203289.45968914 -11669758.310462475 0 -11669758.310462475 -546903.75517559052 0 0 0 0 14642162.435956001 -8214462.9807920456 0 -8214462.9807920456 -607169.69201771915 0 0 0 0 18195032.140525818 -8011152.9245262146 0 -8011152.9245262146 -3790831.8645925522 0 0 0 0 8265839.0569935068 -1604759.7694621175 0 -1604759.7694621175 137970.20439593587 0 0 0 0 3402873.3245506287 -7661302.9618029594 0 -7661302.9618029594 -5253085.1827578545 0 0 0 0 21773653.347213745 30571518.214251757 0 30571518.214251757 -17311570.492801666 0 0 0 0 9002138.5732498169 9088179.8639285564 0 9088179.8639285564 -11412065.705965281 0 0 0 0 15094225.943636052 3066642.1246216032 0 3066642.1246216032 253073.46471629641 0 0 0 0 1984194.0731864721 915188.83103485033 0 915188.83103485033 -999972.17803932622 0 0 0 0 23784795.726699829 -1936951.0853696465 0 -1936951.0853696465 -53700336.933947921 0 0 0 0 18036995.604888916 -200604.90007632971 0 -200604.90007632971 -51079385.215495348 0 0 0 0 19839579.251497269 8020364.0673375428 0 8020364.0673375428 -23411620.44236517 0 0 0 0 10211156.197380066 32852636.915444881 0 32852636.915444881 -57468830.586840183 0 0 0 0 -4570831.9768600464 13653829.605413198 0 13653829.605413198 -4105016.5482944101 0 0 0 0 6218220.4081631415 -495371.50761848578 0 -495371.50761848578 962279.18355923821 0 0 0 0 883319.16622294951 233834.43618704006 0 233834.43618704006 -423301.41171114321 0 0 0 0 71305704.779946327 125137220.29247704 0 125137220.29247704 124549906.62140453 0 0 0 0 3663069.5742013091 594804.42036096612 0 594804.42036096612 65075.729424175515 0 0 0 0 -16181305.447525024 1086318.711669445 0 1086318.711669445 16373684.438802719 0 0 0 0 3597103.8110904694 8153318.0538190603 0 8153318.0538190603 9069376.5562634468 0 0 0 0 141532.09777616709 639167.1789796981 0 639167.1789796981 815722.02066261007 0 0 0 0 574049.62270355225 26713.972169876099 0 26713.972169876099 -437002.16025352478 0 0 0 0 -1388786.7946681976 -6969654.0165524483 0 -6969654.0165524483 428889.20256614685 0 0 0 0 11973011.100568693 -1464580.7681280721 0 -1464580.7681280721 688513.27472854662 0 0 0 0 2952920.7731933594 -8168840.0901813507 0 -8168840.0901813507 -4726470.5861320496 0 0 0 0 -6141626.5733184814 -5835640.5103702545 0 -5835640.5103702545 845179.85414981842 0 0 0 0 -1819303.141708374 -10410609.524996758 0 -10410609.524996758 -3687655.8037996292 0 0 0 0 -1843346.7297735214 -10461134.370088696 0 -10461134.370088696 -2369605.8915271759 0 0 0 0 3493976.0716094971 -6064690.3954520226 0 -6064690.3954520226 -1557195.0043156147 0 0 0 0 -1413873.3191547394 -4440321.169101119 0 -4440321.169101119 5678181.1232223511 0 0 0 0 -924344.08002471924 -3762488.5785326958 0 -3762488.5785326958 4682807.3760685921 0 0 0 0 21862539.368240356 -285427.49820041656 0 -285427.49820041656 -9694154.2896623611 0 0 0 0 10035143.034304082 -1871742.4733705511 0 -1871742.4733705511 -2456138.2166309785 0 0 0 0 23476120.008579254 3554792.9189133644 0 3554792.9189133644 -22033716.827693939 0 0 0 0 27717394.102386475 -7214900.1498908997 0 -7214900.1498908997 -18822364.595420003 0 0 0 0 23888734.430503845 283861.29446363449 0 283861.29446363449 -17645777.498435378 0 0 0 0 2040423.6761360168 -1024892.9104558229 0 -1024892.9104558229 -1844368.5809357166 0 0 0 0 10918573.758018494 19468102.488095641 0 19468102.488095641 -8063569.9880144596 0 0 0 0 14838733.440683339 -2025217.1520848186 0 -2025217.1520848186 -2095954.7248116869 0 0 0 0 12432309.880973816 3599985.0126347542 0 3599985.0126347542 4670040.4777984619 0 0 0 0 8858610.84126091 18080863.591489196 0 18080863.591489196 -12137867.615505695 0 0 0 0 21946577.448617935 24659399.875704527 0 24659399.875704527 -37240750.97334528 0 0 0 0 31165693.338573456 15883834.633845806 0 15883834.633845806 -14547664.205854654 0 0 0 0 20497041.099089682 5631602.3184053302 0 5631602.3184053302 -1794569.7010309999 0 0 0 0 17164850.93006897 14470176.106697798 0 14470176.106697798 -25042242.192604542 0 0 0 0 21721489.85092926 5968166.622800827 0 5968166.622800827 -9647911.5506000519 0 0 0 0 18199811.84731501 4365339.622122827 0 4365339.622122827 -908361.7243219614 0 0 0 0 33534554.044898987 13561100.298531532 0 13561100.298531532 -39103340.499403715 0 0 0 0 16579841.801261902 14499531.977332592 0 14499531.977332592 -19584336.658299923 0 0 0 0 21131987.778068542 -599033.5520529747 0 -599033.5520529747 -24184051.515522957 0 0 0 0 41959345.282809407 11824501.71856508 0 11824501.71856508 -16820661.46298933 0 0 0 0 42483695.648183227 -13056885.231093038 0 -13056885.231093038 -9613552.6184401512 0 0 0 0 14887209.538700104 6961527.1585373878 0 6961527.1585373878 -14627593.492127776 0 0 0 0 -10399312.735359192 20174336.878257394 0 20174336.878257394 -25391400.70751667 0 0 0 0 12309523.024110317 22211789.26502654 0 22211789.26502654 -25577786.605294704 0 0 0 0 13059094.022331238 10047083.650478959 0 10047083.650478959 -36740538.184857488 0 0 0 0 4435614.4424209595 29494946.72042948 0 29494946.72042948 -44378827.770455733 0 0 0 0 27715525.210159302 33197395.611149311 0 33197395.611149311 -47301232.017347634 0 0 0 0 -4587548.6079711914 44812408.299276233 0 44812408.299276233 -88238690.543071508 0 0 0 0 -11733862.72164917 32721548.01482141 0 32721548.01482141 -47003501.199824758 0 0 0 0 70094165.410604477 59101071.371206105 0 59101071.371206105 -119340409.7162503 0 0 0 0 33258917.529960632 13865992.124855757 0 13865992.124855757 -35077888.946606159 0 0 0 0 30922343.104675293 7071587.8516129255 0 7071587.8516129255 -33345505.51007843 0 0 0 0 32473199.426040649 1414436.6921930313 0 1414436.6921930313 -22396945.571251094 0 0 0 0 54756444.453437805 3951021.5601136684 0 3951021.5601136684 -43716298.309973717 0 0 0 0 31255235.441740036 19221279.06306994 0 19221279.06306994 -39420283.951960564 0 0 0 0 44731431.123588562 17281829.26654458 0 17281829.26654458 -60252409.83869648 0 0 0 0 93718957.142021179 -3690234.1787269115 0 -3690234.1787269115 -62115495.961391255 0 0 0 0 75164089.962089539 -24633943.158596516 0 -24633943.158596516 -39599858.873135388 0 0 0 0 48500800.543167114 -13215596.403714418 0 -13215596.403714418 -43771648.130979419 0 0 0 0 41612498.496780396 -25213751.552031934 0 -25213751.552031934 -29801953.83765167 0 0 0 0 44709375.998046875 -23149424.90914011 0 -23149424.90914011 -28639984.045021772 0 0 0 0 31792782.313257217 -16533074.409378827 0 -16533074.409378827 -29246095.319642067 0 0 0 0 33451043.185180664 -14937054.25947094 0 -14937054.25947094 -28485102.363812447 0 0 0 0 45519556.379837036 -8782542.2338337898 0 -8782542.2338337898 -36362551.540410042 0 0 0 0 37242953.043960571 -8090827.4618816376 0 -8090827.4618816376 -31405383.518030167 0 0 0 0 29507708.278404236 -3806821.8867413998 0 -3806821.8867413998 -27963540.563117981 0 0 0 0 26376899.77571106 -11384907.260952473 0 -11384907.260952473 -24047085.477384567 0 0 0 0 95426182.588691711 -48184486.808495522 0 -48184486.808495522 -47757847.236038685 0 0 0 0 85525791.455051422 -46969355.511337042 0 -46969355.511337042 -67732712.815854549 0 0 0 0 100945085.67618561 -8285800.4739012718 0 -8285800.4739012718 -13215930.266933441 0 0 0 0 45305664.964262009 -32864057.941381902 0 -32864057.941381902 -18328822.55106473 0 0 0 0 54873284.887252808 -36661188.76586175 0 -36661188.76586175 -22671565.073192358 0 0 0 0 71795071.25990963 -11653458.850944147 0 -11653458.850944147 -48445610.587492466 0 0 0 0 172251870.99375916 -22514861.874637842 0 -22514861.874637842 -47696273.183482409 0 0 0 0 166886777.11782074 -22104454.498383522 0 -22104454.498383522 -32646568.206827164 0 0 0 0 106880120.04369926 -17340491.921564698 0 -17340491.921564698 -66438.052306175232 0 0 0 0 452673.02361679077 -3782305.5233223438 0 -3782305.5233223438 -20127811.520459652 0 0 0 0 1124805.2858244572 -1174259.6801924724 0 -1174259.6801924724 -1056760.1128676226 0 0 0 0 168526778.65156174 -15030593.880773067 0 -15030593.880773067 -5235599.8512165546 0 0 0 0 174231864.94184232 -71519529.480785787 0 -71519529.480785787 20706459.374872684 0 0 0 0 -233283.75114374422 11466.045543193817 0 11466.045543193817 380647.37740294042 0 0 0 0 -42158271.194267273 124026141.52373815 0 124026141.52373815 -144796032.07915902 0 0 0 0 -57511087.103479385 44891253.063919768 0 44891253.063919768 -80964958.799557924 0 0 0 0 -16977314.512759209 10627591.997665703 0 10627591.997665703 -59781345.193382382 0 0 0 0 -25764184.711738586 39509393.864263058 0 39509393.864263058 -107264847.23230219 0 0 0 0 -33392695.960178375 40244667.731565833 0 40244667.731565833 -66905032.349539042 0 0 0 0 -718991.91846759245 1045428.27536692 0 1045428.27536692 840289.3969569758 0 0 0 0 -65018949.615432739 55017438.452114582 0 55017438.452114582 -63044987.852238178 0 0 0 0 -43053664.244735718 80253620.625182629 0 80253620.625182629 -105290274.12116285 0 0 0 0 28856173.77347374 -16650777.702165008 0 -16650777.702165008 -14332882.526181698 0 0 0 0 31718185.22265625 -45002729.201765537 0 -45002729.201765537 4163775.8878583908 0 0 0 0 1099662.2791245147 -1599352.7918047523 0 -1599352.7918047523 -1060687.5621843562 0 0 0 0 -35927631.413299561 -19071636.464818954 0 -19071636.464818954 3282843.7049942017 0 0 0 0 121997974.37765503 -28523265.834715843 0 -28523265.834715843 -10751064.10420084 0 0 0 0 245557507.51741791 9918150.5519633293 0 9918150.5519633293 -17807182.749220848 0 0 0 0 102926446.78764725 -48107750.087481499 0 -48107750.087481499 26611946.528320312 0 0 0 0 77784846.267677307 -12276791.921820164 0 -12276791.921820164 3783044.049813509 0 0 0 0 162064853.57435632 205806476.90162247 0 205806476.90162247 112557904.98336029 0 0 0 0 137783380.88894653 134817627.68762708 0 134817627.68762708 22461410.657064438 0 0 0 0 118457863.74764252 244645055.5891102 0 244645055.5891102 202330742.16883516 0 0 0 0 38902690.367622375 15103704.01495016 0 15103704.01495016 -65323662.748502642 0 0 0 0 81057483.641178131 5314597.4471558928 0 5314597.4471558928 -70125396.717246532 0 0 0 0 11989524.683952332 114862785.06996676 0 114862785.06996676 68398914.973572284 0 0 0 0 55633423.536148071 -11818831.987811983 0 -11818831.987811983 -45310810.838161469 0 0 0 0 54285706.93548584 17997480.482465506 0 17997480.482465506 -75656008.956320882 0 0 0 0 29712600.881412506 1969112.19772017 0 1969112.19772017 -52504397.95509553 0 0 0 0 26861518.845014572 7915484.9562405348 0 7915484.9562405348 -62404725.2702353 0 0 0 0 -4673171.4353408813 9355347.5981864929 0 9355347.5981864929 -51115585.866695881 0 0 0 0 2304158.0966491699 24193752.874211788 0 24193752.874211788 -73673732.121382713 0 0 0 0 -16277162.901111603 16108287.144617081 0 16108287.144617081 -49472758.867579937 0 0 0 0 23606882.761383057 21551340.335690498 0 21551340.335690498 -66344766.261172533 0 0 0 0 175119113.32302475 44048896.96739006 0 44048896.96739006 -47239350.207221031 0 0 0 0 23527924.415557861 19315285.215702534 0 19315285.215702534 -11627897.087079763 0 0 0 0 394671031.75073242 105941613.57601738 0 105941613.57601738 -60064287.339223862 0 0 0 0 15656748.26423645 3441307.4045133591 0 3441307.4045133591 -22179109.034893036 0 0 0 0 -14678843.948631287 78533885.399348736 0 78533885.399348736 -61741167.722756863 0 0 0 0 -831660.78856956959 812363.57540860074 0 812363.57540860074 1107493.0407955735 0 0 0 0 -1088394.4531459808 35587397.918410778 0 35587397.918410778 -26530398.580409527 0 0 0 0 102115007.5005722 28657879.126494884 0 28657879.126494884 -29538090.076923132 0 0 0 0 25306911.82125473 55921492.432426929 0 55921492.432426929 91925727.141347885 0 0 0 0 -414973.42045983113 338188.78581208177 0 338188.78581208177 576296.11469730386 0 0 0 0 106351251.82770157 317069276.57655001 0 317069276.57655001 324326185.94540977 0 0 0 0 257107657.64306545 354944819.6513412 0 354944819.6513412 260864750.30202961 0 0 0 0 175834736.78952789 229104771.40235853 0 229104771.40235853 92634892.200332165 0 0 0 0 174376750.61717725 250318104.18461823 0 250318104.18461823 118528266.51416874 0 0 0 0 244386484.4018898 196644718.34839869 0 196644718.34839869 159440776.35488224 0 0 0 0 220647318.24184227 144273830.24357104 0 144273830.24357104 44341792.573553085 0 0 0 0 -557438.36653139722 -128227.48296758579 0 -128227.48296758579 639707.39049149025 0 0 0 0 323634273.93911934 2321010.5397410393 0 2321010.5397410393 26735447.4804039 0 0 0 0 394547815.90690422 163854356.48447263 0 163854356.48447263 -142459084.83873749 0 0 0 0 486664369.00286865 23284822.039077759 0 23284822.039077759 -136336011.33573723 0 0 0 0 412404054.9596405 221884034.21554708 0 221884034.21554708 46099778.928149797 0 0 0 0 311357361.88047791 307472446.80998731 0 307472446.80998731 125744135.52084374 0 0 0 0 74876032.357540131 -25974664.562288284 0 -25974664.562288284 17933976.374605179 0 0 0 0 69074691.353569031 -42036682.862211704 0 -42036682.862211704 -26145782.299861908 0 0 0 0 7533483.3418807983 45284309.762403965 0 45284309.762403965 5639383.0498697758 0 0 0 0 178175092.11356735 46241215.912311554 0 46241215.912311554 3588455.8468437195 0 0 0 0 62382411.873291016 -32201621.941414833 0 -32201621.941414833 17377234.372350693 0 0 0 0 63362567.289072037 -34289703.518261194 0 -34289703.518261194 12272647.320677757 0 0 0 0 2151400.1929508382 -989195.82286501303 0 -989195.82286501303 1720731.6643960001 0 0 0 0 67665954.022239685 -52458494.149173439 0 -52458494.149173439 50828900.827733994 0 0 0 0 -317928.6659048181 -581964.73614740558 0 -581964.73614740558 678.27213015651796 0 0 0 0 202025.39095648378 900615.58024369134 0 900615.58024369134 782081.46962034167 0 0 0 0 212685.91783905029 24215.881996631622 0 24215.881996631622 -196021.24546146393 0 0 0 0 66681848.129501343 -77379378.468781471 0 -77379378.468781471 66118780.231443644 0 0 0 0 1630283.8647195841 -678531.95939547662 0 -678531.95939547662 591893.74901006138 0 0 0 0 2642131.9936742783 -3734206.0544099808 0 -3734206.0544099808 -4645649.9950237274 0 0 0 0 172290428.08757019 -481722223.18031168 0 -481722223.18031168 -220305051.19343257 0 0 0 0 102215974.08662415 -84115235.854273319 0 -84115235.854273319 21814714.471928596 0 0 0 0 161574769.43398094 -170543515.97540188 0 -170543515.97540188 -250976458.91444111 0 0 0 0 32075835.235978127 33240173.007446647 0 33240173.007446647 -9022351.5235462189 0 0 0 0 845251712.6100235 -47677860.756011486 0 -47677860.756011486 -435944536.68760824 0 0 0 0 237289657.322299 -22755334.698474646 0 -22755334.698474646 -77253968.351135254 0 0 0 0 384360745.33005524 528591602.92204356 0 528591602.92204356 1316988856.2629158 0 0 0 0 1054419994.5780182 -467608473.70717239 0 -467608473.70717239 201499193.40440464 0 0 0 0 -331424971.65657425 146988044.95893383 0 146988044.95893383 272448438.27044928 0 0 0 0 3061.7990283966064 813227.66833519936 0 813227.66833519936 1832180.6580734253 0 0 0 0 51175.065266871359 -272611.90315385582 0 -272611.90315385582 2658127.2510574642 0 0 0 0 626386827.4146347 306781505.55027771 0 306781505.55027771 -61922642.325825453 0 0 0 0 1225794711.6071472 419050780.50816298 0 419050780.50816298 -205246792.85203362 0 0 0 0 1268180.5290840752 302092.59708449477 0 302092.59708449477 104152.76950919945 0 0 0 0 318817741.49438858 627831136.44792604 0 627831136.44792604 871851897.78208518 0 0 0 0 110918621.79062653 133052890.49035323 0 133052890.49035323 85881863.761804461 0 0 0 0 -9983817.3468742371 13211649.351336479 0 13211649.351336479 111047905.39656496 0 0 0 0 -9705747.7593746185 2057763.6374278069 0 2057763.6374278069 1091438.4727914333 0 0 0 0 518347805.82009077 293721304.66794777 0 293721304.66794777 -34189426.06327343 0 0 0 0 726796378.78436279 403168908.6002655 0 403168908.6002655 24000085.300296783 0 0 0 0 522121947.40253305 268525276.75325525 0 268525276.75325525 -63308226.544052124 0 0 0 0 801020948.57021713 294854621.93716049 0 294854621.93716049 -217747449.48057795 0 0 0 0 928109490.64488983 -234082086.80589104 0 -234082086.80589104 -57016689.961448431 0 0 0 0 1298710929.6064987 453994304.46730798 0 453994304.46730798 -185508834.97549057 0 0 0 0 370541792.04794693 517659054.59339905 0 517659054.59339905 119961939.71023762 0 0 0 0 785904980.06699562 258676622.61302722 0 258676622.61302722 -249393267.43700218 0 0 0 0 -1325370.0626373291 -89131.710354328156 0 -89131.710354328156 884398.11563873291 0 0 0 0 -108126724.54456711 64175640.151899576 0 64175640.151899576 -34033947.968967438 0 0 0 0 -500760.82891464233 -293268.68060207367 0 -293268.68060207367 1324594.0318756104 0 0 0 0 263322.25140693551 -3693.5684593743645 0 -3693.5684593743645 1903167.4985877695 0 0 0 0 -1506672.7906227112 79419.201353549957 0 79419.201353549957 1400450.8670444489 0 0 0 0 -2003731.275554657 -1338108.5582575798 0 -1338108.5582575798 561727.1317820549 0 0 0 0 -1552512.6045131683 -541943.88534832001 0 -541943.88534832001 1191131.1702613831 0 0 0 0 -1316395.289352417 -566323.32260894775 0 -566323.32260894775 220140.18663883209 0 0 0 0 1695102799.0664635 134204611.31825829 0 134204611.31825829 -79992892.047803402 0 0 0 0 1066912505.6599121 393059565.57789135 0 393059565.57789135 -212044723.0978539 0 0 0 0 925333515.06591034 239837829.21241665 0 239837829.21241665 112916645.89237881 0 0 0 0 18328.606325307861 42780.227687559091 0 42780.227687559091 50926.786207687808 0 0 0 0 733358788.56243134 369640374.41752625 0 369640374.41752625 81437776.923160553 0 0 0 0 -28503.40733021684 38093.470268085599 0 38093.470268085599 487204.39212014619 0 0 0 0 940172496.08089256 99072179.975061655 0 99072179.975061655 418374045.26335144 0 0 0 0 780237512.3844223 679727643.90029907 0 679727643.90029907 373718204.63572884 0 0 0 0 1450300989.0066376 557784307.85260963 0 557784307.85260963 25196160.295634747 0 0 0 0 3876694.1726646423 31530312.520158172 0 31530312.520158172 274472369.94332981 0 0 0 0 598310.02463060338 33797.478108551353 0 33797.478108551353 -188126.14678886486 0 0 0 0 814375709.73220015 500281562.79198974 0 500281562.79198974 159234463.79710102 0 0 0 0 320770.47352291085 -49735.222480669618 0 -49735.222480669618 -110771.85516285617 0 0 0 0 159418986.48667526 81563821.612962246 0 81563821.612962246 22253602.232375145 0 0 0 0 216345285.95013428 164200817.01552916 0 164200817.01552916 -19370786.508039236 0 0 0 0 989969533.29681158 233614894.6825783 0 233614894.6825783 75951183.184631348 0 0 0 0 367168363.70077896 532719916.92284489 0 532719916.92284489 96262940.691855699 0 0 0 0 -25028734.736534834 -70925194.88221778 0 -70925194.88221778 -8521369.244550705 0 0 0 0 -2515849.1647319794 26293457.097914934 0 26293457.097914934 20258088.818618715 0 0 0 0 -20272337.277797699 -18145923.855360508 0 -18145923.855360508 10708061.591164589 0 0 0 0 142766455.79362106 -202692277.82985592 0 -202692277.82985592 191457750.1757946 0 0 0 0 507097643.62347412 168136650.28485394 0 168136650.28485394 -107593577.89209175 0 0 0 0 393119.19474004954 123007.1765676979 0 123007.1765676979 601609.44605605979 0 0 0 0 387236016.61496735 188100415.9025259 0 188100415.9025259 204230583.05409479 0 0 0 0 -13760176.664161682 4262293.4292421341 0 4262293.4292421341 13714739.483440399 0 0 0 0 -31685832.378044128 11001303.063265324 0 11001303.063265324 12240550.926160812 0 0 0 0 -16628019.320472717 12403431.502130032 0 12403431.502130032 8141670.8139972687 0 0 0 0 -6676269.9059467316 18498322.406110525 0 18498322.406110525 -3330422.7035961151 0 0 0 0 -9359669.0881786346 14767498.097784996 0 14767498.097784996 5204752.1347579956 0 0 0 0 -9388730.7055263519 14911371.564967155 0 14911371.564967155 4735559.3504238129 0 0 0 0 -8663935.3208045959 21554393.612416625 0 21554393.612416625 -3918755.7436857224 0 0 0 0 -8556255.1163253784 20104230.949607849 0 20104230.949607849 -724861.09877967834 0 0 0 0 -7548883.478094101 24047618.479248524 0 24047618.479248524 848004.64061546326 0 0 0 0 -21747766.541618347 41361883.655385017 0 41361883.655385017 -18406138.60214901 0 0 0 0 -22342862.147773743 21080393.67505455 0 21080393.67505455 2230984.4567570686 0 0 0 0 -21942494.694649458 17637839.298115075 0 17637839.298115075 15589560.433654785 0 0 0 0 -46010195.688430786 39955090.857284546 0 39955090.857284546 13652076.852719784 0 0 0 0 -38203830.002338409 30746543.26655221 0 30746543.26655221 14697355.495317459 0 0 0 0 -98836793.61416626 -22829910.789114237 0 -22829910.789114237 52414806.041378975 0 0 0 0 335349.64291763306 -32338752.295874119 0 -32338752.295874119 29185154.624520302 0 0 0 0 487082.01380274817 -1262.6957340249792 0 -1262.6957340249792 -228894.49171770108 0 0 0 0 16626185.631074905 -7445890.2172665596 0 -7445890.2172665596 -222755.73422813416 0 0 0 0 214865255.83280563 209055515.05179977 0 209055515.05179977 79090170.439803362 0 0 0 0 147359680.42487478 121564132.05826455 0 121564132.05826455 120513531.96059704 0 0 0 0 -1051536.0485191345 -724499.4995174408 0 -724499.4995174408 16349.149149477482 0 0 0 0 -2090039.6481056213 -722969.08547884226 0 -722969.08547884226 1314435.1727256775 0 0 0 0 -2117213.0096473694 -6557757.245285511 0 -6557757.245285511 10166214.276376724 0 0 0 0 -31585129.459704801 -8742710.9991503544 0 -8742710.9991503544 14356729.378412247 0 0 0 0 -998706.24892139435 -1280891.8501003981 0 -1280891.8501003981 1165025.6284332275 0 0 0 0 -13626946.469022751 2030140.9532623291 0 2030140.9532623291 7394596.9382572174 0 0 0 0 -4093791.7756004333 4291217.435552597 0 4291217.435552597 6407907.2623004913 0 0 0 0 -1618330.3113327026 -139329.75466680527 0 -139329.75466680527 2792541.666261673 0 0 0 0 -1245485.5813789368 -319091.03988075256 0 -319091.03988075256 891501.6825709343 0 0 0 0 -1305193.0848770142 933175.53259658813 0 933175.53259658813 1727021.9279112816 0 0 0 0 -479757.5574760437 1141839.5407791138 0 1141839.5407791138 1642837.2123413086 0 0 0 0 -2070953.5261268616 3366210.6654963493 0 3366210.6654963493 2248491.339838028 0 0 0 0 -1982423.6767992973 3174474.0027832985 0 3174474.0027832985 2431662.6982383728 0 0 0 0 -816416.78043746948 4951326.6390695572 0 4951326.6390695572 940150.57489681244 0 0 0 0 -2498820.1415519714 14070762.258267403 0 14070762.258267403 10579258.01192379 0 0 0 0 -6546730.3449134827 8022295.963416338 0 8022295.963416338 1543334.400592804 0 0 0 0 -8312374.006362915 8781816.693239212 0 8781816.693239212 8762209.2459774017 0 0 0 0 -5325553.3905284405 15880933.353383213 0 15880933.353383213 6432592.7828960419 0 0 0 0 -5762196.9921569824 10584668.016928673 0 10584668.016928673 13287971.829202652 0 0 0 0 -6496784.9970970154 16474191.309936523 0 16474191.309936523 6144248.8820457458 0 0 0 0 -5086660.8581809998 20344069.356374741 0 20344069.356374741 20685190.975693703 0 0 0 0 6938219.4639110565 13369764.533645153 0 13369764.533645153 -35221665.282971859 0 0 0 0 169739.31871943921 228465.70220195735 0 228465.70220195735 -91407.160845115199 0 0 0 0 -46983.538740254939 1720822.4289975008 0 1720822.4289975008 184307.27754702937 0 0 0 0 14715523.947235107 15044211.131444931 0 15044211.131444931 -35660425.940406799 0 0 0 0 -13860560.722629547 12022454.126056671 0 12022454.126056671 37000661.535925865 0 0 0 0 10162007.375820398 17515151.921745837 0 17515151.921745837 -10484420.874040604 0 0 0 0 9303689.7632317543 24964121.077728808 0 24964121.077728808 -7620900.1444892883 0 0 0 0 13585708.017659187 21258721.76358223 0 21258721.76358223 -9965145.6015748978 0 0 0 0 4784513.1057291031 26227965.03308773 0 26227965.03308773 8894201.2012023926 0 0 0 0 3677829.8158416748 15590827.455669403 0 15590827.455669403 20562313.073226929 0 0 0 0 17169890.518415451 44060538.937821388 0 44060538.937821388 30414316.844530106 0 0 0 0 19850967.073013306 41772069.57257843 0 41772069.57257843 11368068.304615021 0 0 0 0 6828498.0218315125 37399249.323203087 0 37399249.323203087 54745096.107597351 0 0 0 0 73156410.169921875 -11838359.766263962 0 -11838359.766263962 -73750641.665940285 0 0 0 0 -317904.95189366397 676633.47926573211 0 676633.47926573211 359042.57810291206 0 0 0 0 59242326.507104874 609996.82115650177 0 609996.82115650177 -41173913.512210846 0 0 0 0 -8489008.6334762573 8171611.2163047791 0 8171611.2163047791 67268297.960832596 0 0 0 0 -3071856.8855400085 20077884.106070518 0 20077884.106070518 29367319.980236053 0 0 0 0 -2803420.0101127625 -2501817.9047441483 0 -2501817.9047441483 28114654.163047791 0 0 0 0 496666.11207304429 861508.7533989693 0 861508.7533989693 -158558.49198385864 0 0 0 0 -232168.7897567749 697081.10925102234 0 697081.10925102234 2808921.120557785 0 0 0 0 -11444533.472038269 -5234455.5951766968 0 -5234455.5951766968 -4529244.6791648865 0 0 0 0 1555158.9830932617 702471.12171268463 0 702471.12171268463 1628563.8519287109 0 0 0 0 352023.52322006226 3671822.8999319077 0 3671822.8999319077 2072544.3847904205 0 0 0 0 385609.17536428198 575819.86513923341 0 575819.86513923341 -169878.36378091143 0 0 0 0 40596857.787329197 -29315576.360827684 0 -29315576.360827684 -21030660.690135956 0 0 0 0 -25347814.745223999 32918144.829586029 0 32918144.829586029 35616834.333025575 0 0 0 0 -21388024.682666779 -9409037.5101270676 0 -9409037.5101270676 40712708.43915844 0 0 0 0 -10617928.34192276 19240232.366428375 0 19240232.366428375 -9264262.8257246017 0 0 0 0 -9926339.095916748 197133.74646949768 0 197133.74646949768 704236.71779823303 0 0 0 0 -22345330.063039303 -2579714.3910046816 0 -2579714.3910046816 804301.27620697021 0 0 0 0 -3485268.3545532227 -284081.04094219208 0 -284081.04094219208 358757.06830978394 0 0 0 0 -902432.49287605286 -435422.56370782852 0 -435422.56370782852 -2702370.4934196472 0 0 0 0 -130534.55379593745 974218.03692274739 0 974218.03692274739 563344.30108957342 0 0 0 0 320370.98139190674 -2482743.6607675552 0 -2482743.6607675552 -1425900.1422863007 0 0 0 0 -2575164.3897104263 -29743.005511283875 0 -29743.005511283875 7010260.3141765594 0 0 0 0 6648196.7228469849 11082777.411829948 0 11082777.411829948 10268040.138560295 0 0 0 0 3135990.3835144043 2423854.4751672745 0 2423854.4751672745 452078.71990633011 0 0 0 0 -3059641.2579078674 -1528820.1831684113 0 -1528820.1831684113 3992283.8077774048 0 0 0 0 12431673.481380463 -27009596.419161797 0 -27009596.419161797 40874405.880096674 0 0 0 0 -19377741.90801239 72599699.456629753 0 72599699.456629753 28475196.363870621 0 0 0 0 68525091.285633087 -34716905.0879426 0 -34716905.0879426 -66257211.788511276 0 0 0 0 57245493.031517029 -25511991.35667038 0 -25511991.35667038 -31625320.675949097 0 0 0 0 -45728.504739008844 367911.75498955545 0 367911.75498955545 206387.31712600007 0 0 0 0 14440784.80247879 19210954.23213768 0 19210954.23213768 21326621.542534351 0 0 0 0 59202706.221374512 20610291.467759132 0 20610291.467759132 -1129564.2470531464 0 0 0 0 24914090.998085022 11680795.926037788 0 11680795.926037788 -2991203.7426867485 0 0 0 0 76436240.072894096 -16698718.783346891 0 -16698718.783346891 -15400133.467363358 0 0 0 0 19403616.308391571 -17595827.929338455 0 -17595827.929338455 -10201028.502679825 0 0 0 0 19018379.163993835 -3550512.4763097763 0 -3550512.4763097763 -3358094.2561845779 0 0 0 0 39977284.446853638 -5023088.7597379684 0 -5023088.7597379684 -6465710.4441337585 0 0 0 0 15829937.146062851 6688628.5547175407 0 6688628.5547175407 -706367.15004730225 0 0 0 0 19991924.971916199 6434090.0032310486 0 6434090.0032310486 -808652.67565727234 0 0 0 0 20398851.035095215 3463488.8388977051 0 3463488.8388977051 -2101354.0625534058 0 0 0 0 16078526.546649933 4305891.1779403687 0 4305891.1779403687 -193424.23879814148 0 0 0 0 15761813.304609299 2459235.1932983398 0 2459235.1932983398 743249.48488426208 0 0 0 0 19528487.305125713 843657.52012646198 0 843657.52012646198 1288449.4972610474 0 0 0 0 16996492.856891632 4181905.6445789337 0 4181905.6445789337 2903928.1011676788 0 0 0 0 17090446.923294067 4528492.8142957687 0 4528492.8142957687 -507401.85743713379 0 0 0 0 15281378.132854462 5139455.2908630371 0 5139455.2908630371 1823760.6620006561 0 0 0 0 17761273.896003485 5085560.6556400657 0 5085560.6556400657 1104466.4468574524 0 0 0 0 15602881.099998474 5137548.0005111694 0 5137548.0005111694 3822916.8996654749 0 0 0 0 12229613.63350296 -1508444.0786345005 0 -1508444.0786345005 -14749643.706058502 0 0 0 0 17633797.980628967 6655826.2308893204 0 6655826.2308893204 2595303.7452099323 0 0 0 0 8537748.2494231649 -1606565.297845006 0 -1606565.297845006 -4563247.3272633925 0 0 0 0 149315691.34052277 -45742669.518836975 0 -45742669.518836975 -41202106.892747879 0 0 0 0 47101748.723617554 20087138.7651577 0 20087138.7651577 -19919329.604896545 0 0 0 0 56889343.402061462 24605585.347290039 0 24605585.347290039 -30999846.274337769 0 0 0 0 127804001.52735806 42564265.452542543 0 42564265.452542543 -29146701.664463043 0 0 0 0 54681455.280395508 17761289.835929871 0 17761289.835929871 -19565497.570615768 0 0 0 0 59092212.533409119 -42377014.512214661 0 -42377014.512214661 -40229510.608599663 0 0 0 0 53006375.097640991 -2997472.3310432434 0 -2997472.3310432434 -32519247.942165375 0 0 0 0 99389209.555366516 8820639.6134185791 0 8820639.6134185791 -32646465.86416626 0 0 0 0 16472387.652015686 3921286.510843277 0 3921286.510843277 721998.67380905151 0 0 0 0 12149285.705528259 2678287.9396324158 0 2678287.9396324158 1383322.4298429489 0 0 0 0 15419835.134914398 4018930.1229953766 0 4018930.1229953766 53350.339950561523 0 0 0 0 10427890.976356506 3552411.3197250366 0 3552411.3197250366 2048410.2462501526 0 0 0 0 12657410.30557251 5334815.1844406128 0 5334815.1844406128 306793.31917190552 0 0 0 0 9863506.2919988632 4923582.8526170254 0 4923582.8526170254 757200.8558807373 0 0 0 0 4412767.3257281594 -855161.98551201867 0 -855161.98551201867 -391689.89374881424 0 0 0 0 163322427.79547143 -72936338.862231612 0 -72936338.862231612 24221544.689622879 0 0 0 0 -567778.2065557586 -135501.25964157912 0 -135501.25964157912 634381.80509954039 0 0 0 0 170164768.41360092 4883220.9368724823 0 4883220.9368724823 34614747.008275986 0 0 0 0 16269370.829431534 64661200.423741341 0 64661200.423741341 -33503301.440856695 0 0 0 0 10667565.655071259 3681756.9149017334 0 3681756.9149017334 -93157.592624902725 0 0 0 0 10721181.838275909 1551486.6332511902 0 1551486.6332511902 -2237375.0772453249 0 0 0 0 12005514.059757233 3987306.652338028 0 3987306.652338028 334191.18885743618 0 0 0 0 15067903.86293602 5650718.5659823418 0 5650718.5659823418 -479094.17179107666 0 0 0 0 11976950.164253235 4482199.4982118607 0 4482199.4982118607 -2158631.5088443756 0 0 0 0 109539771.03903961 -35304287.955356121 0 -35304287.955356121 -14747907.006351471 0 0 0 0 2824673.8373730248 -1278620.1533813323 0 -1278620.1533813323 841128.57779967971 0 0 0 0 -54174.536433696747 4520411.2356011868 0 4520411.2356011868 4317579.7587795258 0 0 0 0 67307646.90265274 -3354031.1984500885 0 -3354031.1984500885 -1566493.3984670639 0 0 0 0 -1002644.4463936388 -229302.43325448269 0 -229302.43325448269 1148888.1586526488 0 0 0 0 63972795.871920347 -12520758.388701141 0 -12520758.388701141 6263799.4052009583 0 0 0 0 91580278.443092346 -40180009.51729393 0 -40180009.51729393 -12121259.605269432 0 0 0 0 64222824.070691824 -10440869.382986128 0 -10440869.382986128 -18282214.216098785 0 0 0 0 64148446.801677704 -38212181.81394577 0 -38212181.81394577 17773207.603281021 0 0 0 0 55931584.553665161 -28892248.591722488 0 -28892248.591722488 -22121512.334945202 0 0 0 0 100605030.11821365 86712704.563812256 0 86712704.563812256 110210420.12846184 0 0 0 0 211392988.98207092 62794959.291932583 0 62794959.291932583 31047267.382354736 0 0 0 0 111465516.95914459 -43923175.332494736 0 -43923175.332494736 18273631.681530714 0 0 0 0 121469804.96926308 -30421017.363293648 0 -30421017.363293648 -55784547.783226013 0 0 0 0 110690551.14567375 3407243.5561246872 0 3407243.5561246872 -50429129.11932373 0 0 0 0 78621129.294845581 -10490511.313652992 0 -10490511.313652992 8816424.6989221573 0 0 0 0 -34762489.917804718 17106371.001703262 0 17106371.001703262 -41546572.219730854 0 0 0 0 105161359.53655243 -16554897.460453987 0 -16554897.460453987 -59413521.372240067 0 0 0 0 117774959.53541183 -40161152.310341835 0 -40161152.310341835 -63823544.552089691 0 0 0 0 308344069.97720337 17159274.632789612 0 17159274.632789612 -59446507.239562273 0 0 0 0 62883727.052782059 -18737110.851696014 0 -18737110.851696014 -47646822.568618774 0 0 0 0 67578611.39812851 -21093812.22164917 0 -21093812.22164917 -93903193.195863724 0 0 0 0 -4365395.9930610657 36717024.428918839 0 36717024.428918839 -6079968.60572052 0 0 0 0 5787346.8838434219 -7738425.6996147633 0 -7738425.6996147633 -13023866.367473602 0 0 0 0 72112395.016136169 31356595.701158524 0 31356595.701158524 -22992769.83348465 0 0 0 0 74860116.60528183 -15466752.493400574 0 -15466752.493400574 -43472662.975212097 0 0 0 0 104021209.32964897 -13839933.464034081 0 -13839933.464034081 -64936380.727733612 0 0 0 0 91835999.730724335 -15843967.685709 0 -15843967.685709 -43573180.909936428 0 0 0 0 104733473.84267426 71647470.426496506 0 71647470.426496506 -6589802.09790802 0 0 0 0 185762506.98731995 6156455.4174232483 0 6156455.4174232483 -62680020.279880047 0 0 0 0 8599990.6236801147 57118947.332397461 0 57118947.332397461 -1101473.0554208755 0 0 0 0 27602983.787815094 16354371.172237396 0 16354371.172237396 -17176587.885902405 0 0 0 0 37129864.524353027 28583877.802659988 0 28583877.802659988 -18902242.033499718 0 0 0 0 35910974.465702057 29308875.715990543 0 29308875.715990543 -7392561.7724609375 0 0 0 0 39153163.864624023 29263782.548164368 0 29263782.548164368 -17290659.058261871 0 0 0 0 28675215.568595886 20163506.866744995 0 20163506.866744995 -8484263.4493031502 0 0 0 0 39200197.941192627 15465145.878347397 0 15465145.878347397 -18706831.89667511 0 0 0 0 21514324.82321167 13242986.166301727 0 13242986.166301727 -18159860.1049366 0 0 0 0 31228604.034297943 5833257.8862113953 0 5833257.8862113953 -19213879.939216614 0 0 0 0 2229695.3133850098 18567163.330406189 0 18567163.330406189 -13868296.123832703 0 0 0 0 25125038.411590576 23647145.794915676 0 23647145.794915676 -21411928.226860046 0 0 0 0 842901.39732880448 418715.08148919139 0 418715.08148919139 -110311.9977827454 0 0 0 0 238314981.93217087 85002197.420166016 0 85002197.420166016 26729026.246231079 0 0 0 0 -47554364.419624329 38518444.79583168 0 38518444.79583168 4304709.3508262634 0 0 0 0 829620.43491726927 -134812.24559972924 0 -134812.24559972924 -614796.87396790925 0 0 0 0 1637859.7897577286 16393536.716593742 0 16393536.716593742 -19406885.658309937 0 0 0 0 228939615.06324005 -135042740.47337151 0 -135042740.47337151 -127734694.18224716 0 0 0 0 108038597.1239357 136645698.61035061 0 136645698.61035061 320891613.5504303 0 0 0 0 6550176.3679351807 1447883.6216239929 0 1447883.6216239929 -4413813.6992397308 0 0 0 0 3485875.9970498998 -2067585.1914016642 0 -2067585.1914016642 -3593981.3747855723 0 0 0 0 16129149.750873566 10283185.86876297 0 10283185.86876297 -12933414.138076782 0 0 0 0 7426337.8456714666 4622251.6913175173 0 4622251.6913175173 -2455077.6238191929 0 0 0 0 13089898.783952713 8986311.1498365402 0 8986311.1498365402 -12695170.766391754 0 0 0 0 4840730.2701568604 21850943.820491791 0 21850943.820491791 -19547700.497345388 0 0 0 0 5005822.2754807211 4296504.7218018956 0 4296504.7218018956 -1364223.791792091 0 0 0 0 5620693.3880233765 23495587.391031265 0 23495587.391031265 -16928402.030954361 0 0 0 0 -942552.49062662199 813104.19789078902 0 813104.19789078902 1634837.3166095586 0 0 0 0 -36282051.396294594 95597553.43500638 0 95597553.43500638 -104472843.58244896 0 0 0 0 -42233242.653715134 95014300.510830879 0 95014300.510830879 -133242364.86558533 0 0 0 0 39055642.972221375 -78840578.659106255 0 -78840578.659106255 1939463.4286708832 0 0 0 0 -55373802.195800781 110879758.48177528 0 110879758.48177528 83995311.419658661 0 0 0 0 290162673.90402412 10425250.585240364 0 10425250.585240364 -71904326.700065613 0 0 0 0 -479585.11844926979 366790.51696061902 0 366790.51696061902 776316.42730211001 0 0 0 0 -83141463.011325836 30491703.002946854 0 30491703.002946854 55332157.622268677 0 0 0 0 -39045361.349967003 -16458959.224321365 0 -16458959.224321365 47122612.557819366 0 0 0 0 778681.44432449341 45625580.864322662 0 45625580.864322662 23387348.3686409 0 0 0 0 -59761826.835174561 39586440.843002319 0 39586440.843002319 58447407.762756348 0 0 0 0 1667402.7705455422 85403193.874711156 0 85403193.874711156 -8515495.2384033203 0 0 0 0 114808068.16318512 175742923.28347778 0 175742923.28347778 62735095.440073967 0 0 0 0 107605185.01983643 50572172.313903809 0 50572172.313903809 -17589323.988418579 0 0 0 0 26029130.159343719 24758637.239338875 0 24758637.239338875 1353863.8229217529 0 0 0 0 28308778.490682602 27017274.748454094 0 27017274.748454094 -22877303.12008667 0 0 0 0 -4777698.1492271423 14567254.018164158 0 14567254.018164158 8066299.1625671387 0 0 0 0 1365717.3957519531 30149469.364887238 0 30149469.364887238 13729753.966861725 0 0 0 0 6346466.9209136963 -166338.91728591919 0 -166338.91728591919 -2349009.6774029732 0 0 0 0 5691688.7216858771 767325.63467996102 0 767325.63467996102 -2624907.8711667391 0 0 0 0 5542204.690410614 1156251.4969100952 0 1156251.4969100952 -2752510.2163658142 0 0 0 0 3303849.4676799774 3228863.9101594687 0 3228863.9101594687 -3234858.378616333 0 0 0 0 3559189.9600391388 1250149.1523523331 0 1250149.1523523331 -957970.94722747803 0 0 0 0 4810179.569124491 -1175842.1625660327 0 -1175842.1625660327 -5444150.2207605746 0 0 0 0 7896105.1542739868 -21255064.32519722 0 -21255064.32519722 -29600434.453334808 0 0 0 0 352457009.78500366 70270912.016000748 0 70270912.016000748 -202259179.2274437 0 0 0 0 77949086.832588196 -32095423.803829193 0 -32095423.803829193 -127771006.75921822 0 0 0 0 42037205.065319061 10990183.729660034 0 10990183.729660034 -4224970.3029060364 0 0 0 0 9917378.8221664429 -2729706.4602675438 0 -2729706.4602675438 -7136142.3747171313 0 0 0 0 5597210.4805755615 -1406408.5541782379 0 -1406408.5541782379 -7161859.7685161382 0 0 0 0 10613826.606633663 4557952.7436544299 0 4557952.7436544299 -12949410.448277473 0 0 0 0 36267518.129241943 10701511.574719429 0 10701511.574719429 -7498677.8133745193 0 0 0 0 6378046.0250701904 2839076.2247610092 0 2839076.2247610092 -8973487.3883676529 0 0 0 0 5450400.9925607014 1689394.0808718782 0 1689394.0808718782 -2547259.8508137316 0 0 0 0 3344032.3861999512 1197764.7179918289 0 1197764.7179918289 -3305631.8025693893 0 0 0 0 12292123.918830872 -2119182.6009531021 0 -2119182.6009531021 -3266475.4228301048 0 0 0 0 5388034.4054794312 -830939.87812042236 0 -830939.87812042236 -2581718.9208812714 0 0 0 0 3134364.8954162598 -306235.19826507568 0 -306235.19826507568 -367875.87254428864 0 0 0 0 4465005.7319040336 1808881.9745141561 0 1808881.9745141561 -1924238.7367373558 0 0 0 0 3408452.0658359202 -1517532.4413620597 0 -1517532.4413620597 -1901629.6388447778 0 0 0 0 5833109.1828041077 433414.45864677429 0 433414.45864677429 -3514836.1195640564 0 0 0 0 6012454.4321677685 21165948.55237522 0 21165948.55237522 -7874871.1570329666 0 0 0 0 -13050688.304443359 -2913454.6550140381 0 -2913454.6550140381 3991053.4528439045 0 0 0 0 -6631603.8257904053 -5298932.0785856247 0 -5298932.0785856247 4869806.7397060394 0 0 0 0 -14660064.015411377 -7064468.5089318752 0 -7064468.5089318752 6465105.650510788 0 0 0 0 3381393.9221420288 -12757406.732132316 0 -12757406.732132316 -6848503.8291015625 0 0 0 0 -12471273.236846924 -2003939.5703670979 0 -2003939.5703670979 -541517.4782781601 0 0 0 0 -10246808.719116211 -11511441.466011047 0 -11511441.466011047 10931264.021142006 0 0 0 0 -228703.13446756359 -71947.18210257031 0 -71947.18210257031 21493.349246402737 0 0 0 0 79287336.068470001 29560266.127895236 0 29560266.127895236 -15686827.024010658 0 0 0 0 7689186.9669952393 11908439.672985077 0 11908439.672985077 1434745.7253677845 0 0 0 0 61648090.46118927 -17213692.297630072 0 -17213692.297630072 -17125621.3385849 0 0 0 0 29380032.821014404 12491667.640438318 0 12491667.640438318 -23086044.943864822 0 0 0 0 14653839.88923645 27188833.645787716 0 27188833.645787716 33933076.116408348 0 0 0 0 2829489.3409265429 -3178102.8953086138 0 -3178102.8953086138 -3585632.1272750702 0 0 0 0 5929102.431728363 -12040870.047035933 0 -12040870.047035933 -18298000.864464521 0 0 0 0 -9986031.4995803833 -20286613.780647993 0 -20286613.780647993 6621612.1033639908 0 0 0 0 3878582.1746406555 -8070384.6001703739 0 -8070384.6001703739 -10136990.47708416 0 0 0 0 4705714.0646683946 -4188910.3630007152 0 -4188910.3630007152 -5549857.724340912 0 0 0 0 1303249.1459884644 -7306091.2286592722 0 -7306091.2286592722 -3134019.6202297211 0 0 0 0 3898391.2866020203 -8255253.8201549053 0 -8255253.8201549053 -10789046.17494297 0 0 0 0 3915231.8967437744 -10558401.864522099 0 -10558401.864522099 -14975073.533942699 0 0 0 0 8832854.6900380589 -1163301.1331393635 0 -1163301.1331393635 -5634821.8559322702 0 0 0 0 4454413.4120321274 -8253343.691493243 0 -8253343.691493243 -10795907.203670025 0 0 0 0 4319970.1675815582 -7800408.6050034761 0 -7800408.6050034761 -11064344.238717079 0 0 0 0 17470818.959032059 5491478.696595192 0 5491478.696595192 2510352.3751449585 0 0 0 0 34959468.29845047 -14999311.835143566 0 -14999311.835143566 -18247561.78956604 0 0 0 0 7434639.9023970384 896166.06879772618 0 896166.06879772618 -2316693.8739273222 0 0 0 0 16778736.731975555 6574798.1438503265 0 6574798.1438503265 3892422.1714898944 0 0 0 0 42337830.506186247 -6665548.7462083697 0 -6665548.7462083697 -18258337.574142456 0 0 0 0 42301887.164968252 -5782593.2099192142 0 -5782593.2099192142 -26064353.846908569 0 0 0 0 39292952.092391968 -3145529.7546081543 0 -3145529.7546081543 -22254084.981178284 0 0 0 0 30382706.153251648 4799190.7362365723 0 4799190.7362365723 -20258315.098834991 0 0 0 0 36295481.136167526 8375781.5161428452 0 8375781.5161428452 -22370191.493774414 0 0 0 0 46295971.088310242 5724373.7570991516 0 5724373.7570991516 -21773929.938808441 0 0 0 0 39875315.257194519 -5892875.0061454773 0 -5892875.0061454773 -11019128.31615448 0 0 0 0 38452934.401039124 -2806451.406621933 0 -2806451.406621933 -17092302.112136841 0 0 0 0 39669695.521881104 -3902589.5737113953 0 -3902589.5737113953 -21746444.897987366 0 0 0 0 30867844.062240601 53323.391487121582 0 53323.391487121582 -17332118.719650269 0 0 0 0 37237051.297973633 -5203053.1052246094 0 -5203053.1052246094 -14214034.917648315 0 0 0 0 4167952.4370422363 -499356.89783191681 0 -499356.89783191681 -2318891.9752807617 0 0 0 0 29364252.539367676 -2628040.5360107422 0 -2628040.5360107422 -9533410.3731536865 0 0 0 0 7364485.432002903 -474723.43500426505 0 -474723.43500426505 -5136146.2039395534 0 0 0 0 25661578.742897034 -1473153.5885620117 0 -1473153.5885620117 -9498161.9944953918 0 0 0 0 15894497.782625198 2887195.6136013567 0 2887195.6136013567 -11367578.885410309 0 0 0 0 20461622.541332245 12167939.961322784 0 12167939.961322784 -17914332.833158493 0 0 0 0 21377956.049423218 2476108.7896823883 0 2476108.7896823883 -11065300.289253235 0 0 0 0 3247948.1308288574 699164.44356536865 0 699164.44356536865 -524800.479347229 0 0 0 0 -1466055.5534057617 -4577043.3772315979 0 -4577043.3772315979 -11365839.108539343 0 0 0 0 4095746.8910114756 -1323774.2383092577 0 -1323774.2383092577 -2212338.2025146484 0 0 0 0 40292092.09544754 913135.33440208435 0 913135.33440208435 -1971587.8379211426 0 0 0 0 7493716.7277750392 585900.49250947498 0 585900.49250947498 -3137058.9285167195 0 0 0 0 781176.34458553605 -546939.49837035174 0 -546939.49837035174 -850681.10243917489 0 0 0 0 13271060.197357178 7367374.1096496582 0 7367374.1096496582 1663264.8285293579 0 0 0 0 9010657.6231515333 -1390812.4048109055 0 -1390812.4048109055 -5718853.7418979956 0 0 0 0 3631475.4396972656 437048.38193130493 0 437048.38193130493 -2690061.3523406982 0 0 0 0 4684970.8127861246 -1369500.584521458 0 -1369500.584521458 -4899466.2313943412 0 0 0 0 -17190139.310396194 -248648689.43368697 0 -248648689.43368697 1714744.9690856934 0 0 0 0 414551814.33795929 -108447729.50594521 0 -108447729.50594521 -57703660.356323242 0 0 0 0 111545152.06499481 -121899251.10610485 0 -121899251.10610485 10585968.573484421 0 0 0 0 -36643032.976516724 -20687169.074375153 0 -20687169.074375153 -40835557.499704361 0 0 0 0 357366.73503791913 -631926.26163725741 0 -631926.26163725741 -327120.77574846148 0 0 0 0 547454221.19971085 92444958.573769569 0 92444958.573769569 -40675317.144733429 0 0 0 0 -94848582.97095871 -106274761.69105911 0 -106274761.69105911 -17651973.236164093 0 0 0 0 241647135.11623383 -196892510.72407341 0 -196892510.72407341 -68487591.544095039 0 0 0 0 126798459.57451439 10800024.810534835 0 10800024.810534835 13887705.601722717 0 0 0 0 853084.93787146453 -1413241.6377568329 0 -1413241.6377568329 -804395.27756763389 0 0 0 0 386283111.79491425 -54937358.380622387 0 -54937358.380622387 -77600571.233371973 0 0 0 0 -20438481.720023155 -29629721.277480006 0 -29629721.277480006 1280110.6158256531 0 0 0 0 142355339.7717514 91537508.554606438 0 91537508.554606438 32388194.467017174 0 0 0 0 228603546.89816284 165724644.44399261 0 165724644.44399261 -66552679.615888596 0 0 0 0 642313604.61142731 375680638.51043224 0 375680638.51043224 34623472.324067116 0 0 0 0 728445862.8334465 -60090321.926309586 0 -60090321.926309586 -128381070.64001703 0 0 0 0 227501389.52189636 139959534.01693153 0 139959534.01693153 19136430.017694712 0 0 0 0 226008081.45608521 171517985.03791046 0 171517985.03791046 -20315948.796343803 0 0 0 0 -26138568.690509796 20305381.20635128 0 20305381.20635128 60759679.912168503 0 0 0 0 -448201.02435458452 407373.22914692666 0 407373.22914692666 809937.09567998024 0 0 0 0 334885736.38557959 43523741.824740887 0 43523741.824740887 -184435526.80860519 0 0 0 0 291074828.54038429 304991541.3330729 0 304991541.3330729 143440945.00161552 0 0 0 0 384845249.59990692 291208316.0203228 0 291208316.0203228 23722017.671746492 0 0 0 0 138014029.88280678 73455012.378431797 0 73455012.378431797 140606048.88774776 0 0 0 0 358787938.28866196 222962379.76852226 0 222962379.76852226 127753541.37645674 0 0 0 0 318012921.67646408 318457690.64063311 0 318457690.64063311 97317370.035773277 0 0 0 0 -30335806.45142746 294788155.60384464 0 294788155.60384464 229521582.64319134 0 0 0 0 327529631.29170084 338627897.98636079 0 338627897.98636079 115515028.45390701 0 0 0 0 171287973.70534515 116085737.83517551 0 116085737.83517551 267591976.58967727 0 0 0 0 169525479.15662956 159215655.61914778 0 159215655.61914778 125834566.54255104 0 0 0 0 3481718.4917945862 77658371.56055069 0 77658371.56055069 139566561.32317019 0 0 0 0 3780436.7310562134 142678436.13988686 0 142678436.13988686 -173170831.47091293 0 0 0 0 9877381.911315918 1639243.2940864563 0 1639243.2940864563 -35083486.452257156 0 0 0 0 -30744598.470783234 120073668.54726982 0 120073668.54726982 -134403445.27914429 0 0 0 0 -905265.53014799394 851649.83771592146 0 851649.83771592146 1663314.1685567163 0 0 0 0 -64596164.625917435 100024371.2142477 0 100024371.2142477 29131259.789844513 0 0 0 0 -29089079.503646851 -15782805.062057495 0 -15782805.062057495 13555276.028024673 0 0 0 0 -6040321.7505149841 18277331.898748398 0 18277331.898748398 56844895.150503159 0 0 0 0 1037718.8724630722 386373.84700059518 0 386373.84700059518 199742.39405787643 0 0 0 0 -10044226.321048737 -5224070.8275918961 0 -5224070.8275918961 18463425.899356842 0 0 0 0 -2513167.3101119995 12999113.092338562 0 12999113.092338562 6405651.199300766 0 0 0 0 -6851476.9414100647 10744035.810307503 0 10744035.810307503 8574075.4255981445 0 0 0 0 2744274.2196275261 1846995.3145180382 0 1846995.3145180382 1057280.0041915197 0 0 0 0 18387492.643863678 11058811.873853683 0 11058811.873853683 -8079599.3083515167 0 0 0 0 2119586.8605677104 300140.92468692735 0 300140.92468692735 -1882948.5875923047 0 0 0 0 26210409.870407104 -6353973.2631216049 0 -6353973.2631216049 -11130576.112159729 0 0 0 0 30761820.815839767 24821599.610646248 0 24821599.610646248 47872564.663860321 0 0 0 0 25434665.522155762 -1915038.2752532959 0 -1915038.2752532959 -33135.221778869629 0 0 0 0 22989110.014636993 6208761.5358905792 0 6208761.5358905792 19483671.30891037 0 0 0 0 23710252.874183655 -461088.71139144897 0 -461088.71139144897 -16700986.770492554 0 0 0 0 41995213.721237183 268095.82281017303 0 268095.82281017303 -21712063.682853699 0 0 0 0 43669390.667854309 10872062.201304436 0 10872062.201304436 -29909705.08014679 0 0 0 0 32582837.002056122 9686581.6446886063 0 9686581.6446886063 8288320.9393920898 0 0 0 0 60832432.172447205 8822869.689043045 0 8822869.689043045 8144271.9467988014 0 0 0 0 24089870.593139648 5317496.2253427505 0 5317496.2253427505 93338363.88709259 0 0 0 0 129493940.74427795 64818971.140874863 0 64818971.140874863 76637326.818620682 0 0 0 0 -996303.81965732574 -2924221.7338142395 0 -2924221.7338142395 79858844.120975494 0 0 0 0 44135835.561450958 -20258231.141116142 0 -20258231.141116142 46292358.416563034 0 0 0 0 106990291.02357864 31034118.613372803 0 31034118.613372803 -7735599.21276474 0 0 0 0 85997401.028882027 102286173.97724843 0 102286173.97724843 169028700.05197906 0 0 0 0 313561801.67231083 443955733.61507535 0 443955733.61507535 322902115.0457077 0 0 0 0 45795.253500916995 251794.30062333308 0 251794.30062333308 772839.0840624366 0 0 0 0 -191924119.25591278 -35853686.314611435 0 -35853686.314611435 242830036.93260193 0 0 0 0 2124462581.8240147 206863649.09374332 0 206863649.09374332 52503939.258556366 0 0 0 0 -30447666.395896912 200993363.49922943 0 200993363.49922943 448369040.29149723 0 0 0 0 -14152976.474079132 69677682.901865959 0 69677682.901865959 -19046444.014474869 0 0 0 0 77035683.496707916 21967135.266254425 0 21967135.266254425 -27932943.618629456 0 0 0 0 -103226550.25912476 32329603.859244347 0 32329603.859244347 4002402.9435787201 0 0 0 0 68892.955401676008 1187785.8837248823 0 1187785.8837248823 2430210.4888771186 0 0 0 0 2007913432.7956619 -388083805.16814446 0 -388083805.16814446 -253987268.11214447 0 0 0 0 664755097.42964172 -359741971.66233635 0 -359741971.66233635 412129974.90202332 0 0 0 0 754912899.85032654 -74821028.199932098 0 -74821028.199932098 298853006.59097958 0 0 0 0 1223568450.1468811 197771563.05952644 0 197771563.05952644 46197257.465761185 0 0 0 0 420872268.14888 -21925668.946359634 0 -21925668.946359634 94740569.593864441 0 0 0 0 674991611.53764343 462389835.43556213 0 462389835.43556213 -328635852.05944633 0 0 0 0 427713142.07699013 -78420516.120352268 0 -78420516.120352268 -469472995.87891388 0 0 0 0 -153412500.84120941 162535399.08571434 0 162535399.08571434 63247716.104597926 0 0 0 0 635104371.28914642 308613567.18473339 0 308613567.18473339 157606522.41836357 0 0 0 0 148126593.36274719 -7951621.4864635468 0 -7951621.4864635468 76308996.402078152 0 0 0 0 63655505.214759827 79482561.239532471 0 79482561.239532471 174042889.63019562 0 0 0 0 -182386122.91531372 -153199000.08251381 0 -153199000.08251381 262722237.08817005 0 0 0 0 75519159.458328247 18440116.058279514 0 18440116.058279514 485327435.91847229 0 0 0 0 622786826.13612366 301970710.04888439 0 301970710.04888439 596115309.18148804 0 0 0 0 388456300.69880676 -151817472.00852203 0 -151817472.00852203 233743445.50906944 0 0 0 0 429293778.38263702 -193793605.62012291 0 -193793605.62012291 329950736.76498413 0 0 0 0 104232667.34028625 -227794903.45312977 0 -227794903.45312977 193163848.7754097 0 0 0 0 121665901.04586029 42420525.042443275 0 42420525.042443275 208205491.215271 0 0 0 0 5583424.1639872324 738390.96471374482 0 738390.96471374482 -870156.58697703551 0 0 0 0 9410715.6583480835 108989506.8636536 0 108989506.8636536 -136991837.23270082 0 0 0 0 129633757.32394409 -77228571.680311203 0 -77228571.680311203 120809411.73287034 0 0 0 0 -137170579.38096619 27689742.467578888 0 27689742.467578888 55377569.97925663 0 0 0 0 -21839552.169006348 154729317.52722305 0 154729317.52722305 96844877.402933478 0 0 0 0 105739426.95833588 -251846056.14078951 0 -251846056.14078951 188135169.67328274 0 0 0 0 906640862.427742 -740288538.97127521 0 -740288538.97127521 440392510.30510545 0 0 0 0 1911344900.4220276 -664375715.53689861 0 -664375715.53689861 -378846584.54630107 0 0 0 0 1598736963.7609863 247400000.78834724 0 247400000.78834724 -177047498.71101761 0 0 0 0 1056949552.6527863 -197584128.32827473 0 -197584128.32827473 -326159866.28407454 0 0 0 0 926804334.97804642 -17519904.571153641 0 -17519904.571153641 -20134262.606053352 0 0 0 0 477546006.79594421 -91394886.583640099 0 -91394886.583640099 44234901.392420292 0 0 0 0 859357200.48574829 23923374.748911858 0 23923374.748911858 -75822079.902004242 0 0 0 0 395652447.69616318 -31852476.042659283 0 -31852476.042659283 23113514.08898735 0 0 0 0 858540940.21905613 131483508.79136434 0 131483508.79136434 -20005036.110860825 0 0 0 0 1252698606.1330261 47488171.130683899 0 47488171.130683899 -174511852.33050919 0 0 0 0 825480896.22859192 128279948.58012199 0 128279948.58012199 -89276176.119467735 0 0 0 0 1039054541.9794769 116714440.82990837 0 116714440.82990837 -113235407.23471546 0 0 0 0 845729260.52528 73511796.734001398 0 73511796.734001398 -30436595.75220108 0 0 0 0 453598939.58001709 131508562.92165565 0 131508562.92165565 13687340.987758636 0 0 0 0 166534111.51651001 121657064.45204163 0 121657064.45204163 70826631.39554882 0 0 0 0 376303002.17811203 88003516.95139575 0 88003516.95139575 33415939.137542725 0 0 0 0 30606482.351303101 -81829766.483003616 0 -81829766.483003616 53471654.517463684 0 0 0 0 -64541498.15562439 18757092.744542122 0 18757092.744542122 35382866.931043625 0 0 0 0 -17737154.564125061 91191106.106850147 0 91191106.106850147 85863849.685985565 0 0 0 0 -106430346.01727295 84728612.025490761 0 84728612.025490761 -5146706.4705352783 0 0 0 0 -119955524.90246582 -54698828.745882034 0 -54698828.745882034 -14761621.728386879 0 0 0 0 -105171014.54756165 -5866842.4838066101 0 -5866842.4838066101 72538743.449417114 0 0 0 0 -99899175.14691925 -69671919.35638237 0 -69671919.35638237 -54153691.838964462 0 0 0 0 -78219377.008773804 -118196925.22999763 0 -118196925.22999763 31725898.132340908 0 0 0 0 -88234936.231033325 21364123.304246902 0 21364123.304246902 124176497.63164282 0 0 0 0 -63186289.325652599 104125049.76157349 0 104125049.76157349 124604490.2129631 0 0 0 0 -62108098.21812439 119257942.66286087 0 119257942.66286087 4583160.7477703094 0 0 0 0 -78827706.430381775 11211261.670099258 0 11211261.670099258 87567663.414818764 0 0 0 0 -88954180.710517883 8578984.6657028198 0 8578984.6657028198 179197808.57594681 0 0 0 0 -689786.54511189461 -18814.513005545828 0 -18814.513005545828 519286.4487810072 0 0 0 0 299638704.67822266 127880111.62575722 0 127880111.62575722 137865688.44762534 0 0 0 0 684519535.51661682 193708253.21976471 0 193708253.21976471 -780483344.58881569 0 0 0 0 834734207.82548523 13651665.366998672 0 13651665.366998672 -17613620.129611969 0 0 0 0 395320655.84509277 213130578.02133846 0 213130578.02133846 43778360.205688477 0 0 0 0 75183.780420746654 38034.306215288583 0 38034.306215288583 240124.89085621445 0 0 0 0 780233073.59677124 212338038.17150116 0 212338038.17150116 -12904847.50614357 0 0 0 0 396274559.07143402 -94032901.628363609 0 -94032901.628363609 -168832905.81093025 0 0 0 0 918896929.45909119 142440322.4090929 0 142440322.4090929 22495549.216143131 0 0 0 0 982228252.06054688 -27376768.776834488 0 -27376768.776834488 72632666.83470726 0 0 0 0 925362082.85389709 160446707.95885897 0 160446707.95885897 -23370598.594470978 0 0 0 0 -44459673.042591095 24168340.926512718 0 24168340.926512718 6749884.9995727539 0 0 0 0 1775552920.0039492 79229152.695013285 0 79229152.695013285 -322990751.54678726 0 0 0 0 -59611.026179992128 2606374.2872739928 0 2606374.2872739928 4900922.4122304227 0 0 0 0 1131714387.4139557 606685908.51904297 0 606685908.51904297 -361773971.14144707 0 0 0 0 -3250173.8979797363 18567704.314921379 0 18567704.314921379 -8689301.5126647949 0 0 0 0 -12231945.153137207 32694358.146682739 0 32694358.146682739 -5145332.056180954 0 0 0 0 -2549102.2789382935 22484571.283203125 0 22484571.283203125 -9123429.1603088379 0 0 0 0 -19752359.054138184 5823319.1928443909 0 5823319.1928443909 3863700.3465042114 0 0 0 0 -2590289.5091094971 10477262.871704102 0 10477262.871704102 2371746.6512737274 0 0 0 0 -2671406.0949745178 7821331.1098594666 0 7821331.1098594666 14730993.63269043 0 0 0 0 -5389515.451499939 14948281.536779404 0 14948281.536779404 12122701.993701935 0 0 0 0 466385300.35159302 -391806659.30951262 0 -391806659.30951262 44968709.064223886 0 0 0 0 2715224.3971405178 2188304.8833656348 0 2188304.8833656348 -4546518.9978066273 0 0 0 0 -6346092.7759246826 14771749.863550186 0 14771749.863550186 17045827.106048584 0 0 0 0 845170544.05714798 262778639.56111336 0 262778639.56111336 103656774.21329689 0 0 0 0 -388695.47784317099 4262009.8615637459 0 4262009.8615637459 8194440.0209970251 0 0 0 0 995096610.76605225 228735529.06495476 0 228735529.06495476 43487908.192201614 0 0 0 0 1106452519.5878296 275279088.57617378 0 275279088.57617378 -48981307.184894562 0 0 0 0 1124232143.4908905 353973865.79102898 0 353973865.79102898 101891305.35796165 0 0 0 0 993044387.78633881 427151215.78211451 0 427151215.78211451 286011908.27770805 0 0 0 0 -609636934.12870789 609416282.69816971 0 609416282.69816971 186265361.4645617 0 0 0 0 218949.47607923765 395347.33650659397 0 395347.33650659397 -74481.964246095042 0 0 0 0 -98802973.719085693 -266628291.18443584 0 -266628291.18443584 -700724616.1966362 0 0 0 0 700621969.05053711 43585809.624731839 0 43585809.624731839 -1065215071.7842405 0 0 0 0 1565453455.7602844 503291273.89331627 0 503291273.89331627 -48517515.126022339 0 0 0 0 162622.38749368675 557953.50832434744 0 557953.50832434744 583560.77701820328 0 0 0 0 1263205532.8417969 668938850.47065306 0 668938850.47065306 250718387.95427132 0 0 0 0 2748939256.4692841 623931065.06781673 0 623931065.06781673 -904206142.94629645 0 0 0 0 160856.86833412759 -86659.717103006318 0 -86659.717103006318 554600.41388581553 0 0 0 0 188911592.59568787 -142294842.32527971 0 -142294842.32527971 65043089.573694706 0 0 0 0 -631743120.54423523 381989792.7617408 0 381989792.7617408 -22203677.00684011 0 0 0 0 207209272.76071072 -41542138.264827713 0 -41542138.264827713 16883868.573097229 0 0 0 0 -681941851.04751587 380360866.6767025 0 380360866.6767025 -10386598.390712261 0 0 0 0 -47933861.869445801 8172551.6555914879 0 8172551.6555914879 68414823.877585888 0 0 0 0 -9171776.9547576904 -158030576.5697 0 -158030576.5697 277935390.29804993 0 0 0 0 95270314.431625366 -69912455.439350009 0 -69912455.439350009 59552203.273679972 0 0 0 0 2222487.1555328369 -41161565.582426786 0 -41161565.582426786 107872899.54024649 0 0 0 0 -9768944.6962089539 1975932.8510170579 0 1975932.8510170579 35023473.882844925 0 0 0 0 -6677942.1823883057 -49304223.884197235 0 -49304223.884197235 78496792.700013161 0 0 0 0 -8887333.836227417 -32758337.316938639 0 -32758337.316938639 -125478.85411917791 0 0 0 0 -37893913.685699463 38385829.019490361 0 38385829.019490361 1214922.0006785393 0 0 0 0 -21096165.785705566 7664324.080470562 0 7664324.080470562 55943131.505843163 0 0 0 0 -35547068.7265625 50216143.005351543 0 50216143.005351543 26844117.579641819 0 0 0 0 -32571425.592037201 42651183.964106679 0 42651183.964106679 -18114571.015172482 0 0 0 0 -95187569.700531006 166328406.35025501 0 166328406.35025501 -37906760.203997135 0 0 0 0 -25949556.187721252 26734945.493805885 0 26734945.493805885 84076974.743621826 0 0 0 0 -169744819.3843689 29510379.857739449 0 29510379.857739449 216447122.06984985 0 0 0 0 16478723.048404694 16811538.13139534 0 16811538.13139534 -1686169.6491622925 0 0 0 0 13255021.755025864 21691765.207089424 0 21691765.207089424 -1482929.8670425415 0 0 0 0 5079493.5296134055 1567352.859474346 0 1567352.859474346 -4988236.8917443994 0 0 0 0 4474386.1197128296 27217824.550750732 0 27217824.550750732 -18830331.848491669 0 0 0 0 18058431.028259277 20338152.954445839 0 20338152.954445839 -15843069.228248596 0 0 0 0 21820252.491939545 11896739.947015762 0 11896739.947015762 -3123530.3129730225 0 0 0 0 718248.49510955811 16551259.085403442 0 16551259.085403442 -823512.53873443604 0 0 0 0 16603213.480323792 4050238.0531311035 0 4050238.0531311035 -12943615.766675949 0 0 0 0 19226762.314529419 -969427.3619966507 0 -969427.3619966507 -9540172.7867240906 0 0 0 0 12461375.436824799 5202322.6025394201 0 5202322.6025394201 -2129805.9020047188 0 0 0 0 6339980.9556732178 32973401.048334122 0 32973401.048334122 -102650030.39748526 0 0 0 0 12062644.876922607 10148649.788974285 0 10148649.788974285 6645462.3222260475 0 0 0 0 18102165.651550293 13972459.48538816 0 13972459.48538816 -2685126.9533405304 0 0 0 0 2812187.4327340391 4262466.7650602553 0 4262466.7650602553 1408854.0363073428 0 0 0 0 6635314.9029318504 753727.35328428913 0 753727.35328428913 -4836352.108062271 0 0 0 0 4610569.5734786987 12702498.779354095 0 12702498.779354095 7299557.2428426743 0 0 0 0 5345154.6990631875 8733839.4111827444 0 8733839.4111827444 3889388.9395918641 0 0 0 0 2380535.704208374 17932578.522415161 0 17932578.522415161 8891082.7032661438 0 0 0 0 488492.93803405762 9542281.0828170776 0 9542281.0828170776 6439444.41173172 0 0 0 0 4498031.324930191 13033203.610023499 0 13033203.610023499 7062136.939491272 0 0 0 0 760637.69138336182 8537681.7554207742 0 8537681.7554207742 9459367.8672327995 0 0 0 0 1864291.0427303314 15964869.701750457 0 15964869.701750457 4822593.9244890213 0 0 0 0 7146661.4039530475 9940620.6346729659 0 9940620.6346729659 3498333.532346623 0 0 0 0 -2854926.9168586731 5631488.6409982443 0 5631488.6409982443 -351381.18098640442 0 0 0 0 20645495.437683105 12499236.094616652 0 12499236.094616652 10882244.680060387 0 0 0 0 19715366.823150635 3221372.2786579132 0 3221372.2786579132 8401414.692814827 0 0 0 0 -1328898.1804122925 10071961.842381716 0 10071961.842381716 11852686.955615997 0 0 0 0 1478622.4198340699 2181677.7793306168 0 2181677.7793306168 892964.67864811281 0 0 0 0 -44702395.256828308 36922679.996240616 0 36922679.996240616 11667403.74469471 0 0 0 0 27919836.224815369 4520970.7643539906 0 4520970.7643539906 4637310.2744054794 0 0 0 0 49722998.214126587 45969712.758060992 0 45969712.758060992 16671.244785308838 0 0 0 0 98595402.530227661 -1220655.0065338612 0 -1220655.0065338612 10820657.041415811 0 0 0 0 10242015.950256348 15161642.249840736 0 15161642.249840736 29765975.791073561 0 0 0 0 827509.6385805402 484524.75847971346 0 484524.75847971346 82852.84606977785 0 0 0 0 11350430.895401001 25768928.864166737 0 25768928.864166737 6636898.9613690376 0 0 0 0 738578.01033634692 735910.19240531232 0 735910.19240531232 -99198.970063300221 0 0 0 0 31327478.746261597 -3312359.2997951508 0 -3312359.2997951508 29594068.269124985 0 0 0 0 15046235.581199646 19694233.401145935 0 19694233.401145935 10806044.380927086 0 0 0 0 2053764.9443944693 1580214.2556923544 0 1580214.2556923544 341714.78900812031 0 0 0 0 15139705.398147583 16415031.166432858 0 16415031.166432858 -26891064.99034071 0 0 0 0 3821180.8910241127 -64786650.509358436 0 -64786650.509358436 -56851027.360748291 0 0 0 0 -493207.71257019043 20408265.824248672 0 20408265.824248672 6850929.7937831879 0 0 0 0 5124277.5323638916 21867882.055433273 0 21867882.055433273 7074280.0936056674 0 0 0 0 16474698.267991066 28293133.304009259 0 28293133.304009259 -11632838.640456915 0 0 0 0 37918181.686912537 62263174.139546275 0 62263174.139546275 10660406.108821183 0 0 0 0 80203721.57673645 18694719.579957962 0 18694719.579957962 -10528162.623988867 0 0 0 0 209839310.06201172 -866946.38140726089 0 -866946.38140726089 -96194177.229872823 0 0 0 0 562147.34167060442 515254.04640524928 0 515254.04640524928 197737.55063413363 0 0 0 0 94072872.459791183 58339874.291844845 0 58339874.291844845 -71297906.653389215 0 0 0 0 9935903.4967346191 61328605.113767743 0 61328605.113767743 -31541414.336541712 0 0 0 0 -17643779.633636475 -74276131.921007946 0 -74276131.921007946 53437405.493506193 0 0 0 0 47217708.475402832 16333627.030736983 0 16333627.030736983 22760992.156452298 0 0 0 0 90606796.122051239 141323260.51113808 0 141323260.51113808 -57559893.787610382 0 0 0 0 -1059435.946472168 -10984099.804692388 0 -10984099.804692388 44981576.928282946 0 0 0 0 77104.514485538006 65556.665259227157 0 65556.665259227157 -9158.1957180691534 0 0 0 0 -13616331.650794983 30490798.161958635 0 30490798.161958635 59421564.916229129 0 0 0 0 211594512.26731491 84296423.058715835 0 84296423.058715835 -107564861.56809402 0 0 0 0 231789890.50923157 -40558685.3789111 0 -40558685.3789111 -93218.430460110118 0 0 0 0 549989.27474212646 -88740956.73686406 0 -88740956.73686406 103691284.87814528 0 0 0 0 98532592.75345993 61605337.791775174 0 61605337.791775174 -23035796.427118286 0 0 0 0 251506507.89456177 -31843172.50375551 0 -31843172.50375551 -47737420.398039714 0 0 0 0 203495.13942345604 7535.772853337694 0 7535.772853337694 -22429.604167508078 0 0 0 0 98714322.684112549 -141850814.59436285 0 -141850814.59436285 188327457.77553302 0 0 0 0 51373018.348754883 -71715289.51422888 0 -71715289.51422888 40172562.549392581 0 0 0 0 52300703.253570557 -56002946.78286463 0 -56002946.78286463 40256860.817660213 0 0 0 0 48211112.693466187 -63525085.029776931 0 -63525085.029776931 72164662.417127788 0 0 0 0 553299.31396407634 71653.871910581831 0 71653.871910581831 -40161.488309728498 0 0 0 0 8795700.3211746216 -26732071.332976896 0 -26732071.332976896 71682.042456074254 0 0 0 0 -12259102.16910553 -9847651.4764515404 0 -9847651.4764515404 -7825278.1577227116 0 0 0 0 1030339.3828792712 40465.810413617641 0 40465.810413617641 -57830.839580394808 0 0 0 0 -13605554.527261734 8742622.272985246 0 8742622.272985246 -933361.77676796168 0 0 0 0 1279453.4139062166 -426687.02402119339 0 -426687.02402119339 -141118.76138819574 0 0 0 0 -370385.04907417297 -3286560.4942917768 0 -3286560.4942917768 -3857972.8477558047 0 0 0 0 76557995.373886108 -49886750.276063323 0 -49886750.276063323 26539401.723577976 0 0 0 0 277726.98982514301 180000.87370365486 0 180000.87370365486 58327.54106883856 0 0 0 0 75075187.432380676 -53822587.405685797 0 -53822587.405685797 22698546.226804733 0 0 0 0 30105002.299301147 -74145265.499290466 0 -74145265.499290466 40101846.833087564 0 0 0 0 32819623.434555054 -56019136.558833957 0 -56019136.558833957 40261669.430141717 0 0 0 0 73832854.996047974 -62551521.561272025 0 -62551521.561272025 -27181426.043741941 0 0 0 0 -7927228.6266174316 8178613.1329948902 0 8178613.1329948902 31082520.739258051 0 0 0 0 -68041313.650535583 -46681459.151796401 0 -46681459.151796401 64305415.225003719 0 0 0 0 455834.81781340949 731336.10508376919 0 731336.10508376919 304593.83843513438 0 0 0 0 113270443.86698914 32594614.008337468 0 32594614.008337468 -37637892.870673656 0 0 0 0 34580486.02305603 -35656981.240966916 0 -35656981.240966916 62977623.28525281 0 0 0 0 95085831.965821028 -76981319.097558007 0 -76981319.097558007 24449720.881793499 0 0 0 0 -16496378.859798431 -5999319.4936477244 0 -5999319.4936477244 2892042.6933968067 0 0 0 0 103020.59003035678 90264.83461586386 0 90264.83461586386 6502.4750283820904 0 0 0 0 202867471.54994202 -77983107.407859325 0 -77983107.407859325 -1899961.0678107738 0 0 0 0 52364829.028598785 -81266806.160289884 0 -81266806.160289884 76716227.060656786 0 0 0 0 75489483.922134399 -70326761.966555417 0 -70326761.966555417 46110227.720892668 0 0 0 0 38410543.23526001 28397746.458355665 0 28397746.458355665 -10219000.335469544 0 0 0 0 -6286520.5765991211 676028.56230685115 0 676028.56230685115 5007327.287529707 0 0 0 0 -680747731.59780121 -245105161.03864118 0 -245105161.03864118 481339425.74588424 0 0 0 0 381755579.95852661 1341846336.1321106 0 1341846336.1321106 499393253.59270406 0 0 0 0 1817828130.9725647 -1080910776.9840736 0 -1080910776.9840736 435740978.19241196 0 0 0 0 659391.23679274134 -139119.27926124819 0 -139119.27926124819 484066.15847861848 0 0 0 0 1574750.9295423441 -265461.82929925108 0 -265461.82929925108 -110557.20324690791 0 0 0 0 5590078.3738861084 6563078.5163800009 0 6563078.5163800009 -4387762.0406130105 0 0 0 0 7501539.0866775513 -7181190.6645150147 0 -7181190.6645150147 -2105990.0028738864 0 0 0 0 3290362.0419616699 6994116.957958525 0 6994116.957958525 -10110865.925792957 0 0 0 0 1271162.5393028259 2627441.1860334743 0 2627441.1860334743 -11305109.719540253 0 0 0 0 21800508.709465027 6713960.40928201 0 6713960.40928201 -11721205.134333715 0 0 0 0 2156301.6261901855 16045273.607184293 0 16045273.607184293 17710.9046491103 0 0 0 0 -9927451.1303482056 -17841281.381451383 0 -17841281.381451383 2136613.3849184006 0 0 0 0 17948829.031832695 -9645993.2788221594 0 -9645993.2788221594 -10196915.981592633 0 0 0 0 360552.58469727449 -83665.568598320708 0 -83665.568598320708 106366.0143509529 0 0 0 0 -2041671.1892547607 -8429867.1045425367 0 -8429867.1045425367 -10259507.413245745 0 0 0 0 5965835.5409393311 -402850.05304318666 0 -402850.05304318666 -10898827.441801682 0 0 0 0 374416429.92259979 -230573542.68330377 0 -230573542.68330377 123624410.61062381 0 0 0 0 784698653.25482941 252127098.66036457 0 252127098.66036457 -97123291.677256897 0 0 0 0 716513923.70677185 189078214.62237436 0 189078214.62237436 -145756588.33632094 0 0 0 0 910867789.92573547 243260505.82678562 0 243260505.82678562 -133414730.05958413 0 0 0 0 142010.53733751737 -42694.73768989183 0 -42694.73768989183 51552.76067525275 0 0 0 0 868216761.69032288 174209763.54702872 0 174209763.54702872 -95281955.211307615 0 0 0 0 565935516.25537109 108794918.22092697 0 108794918.22092697 -5599759.0203530435 0 0 0 0 692697209.49730682 135685425.33675605 0 135685425.33675605 -97878682.465068966 0 0 0 0 596555364.7924881 297139656.0096125 0 297139656.0096125 -6343778.7263843156 0 0 0 0 354608924.23252106 98085545.792980731 0 98085545.792980731 -72642332.153336287 0 0 0 0 550607761.32270813 596980815.38583028 0 596980815.38583028 809630644.24859452 0 0 0 0 832282090.67527771 -312937077.63006651 0 -312937077.63006651 113644997.28324656 0 0 0 0 733346.16325275227 128210.7663645912 0 128210.7663645912 45238.959377143168 0 0 0 0 1332046803.0788269 118878969.96962239 0 118878969.96962239 -144189595.80973855 0 0 0 0 1038117099.2360153 839329942.53268671 0 839329942.53268671 -3432567.8287039101 0 0 0 0 777661174.86001587 807221749.96435153 0 807221749.96435153 50169989.030417681 0 0 0 0 2109729.794181861 177693.21183884703 0 177693.21183884703 -305880.1413036522 0 0 0 0 714065694.69885445 1040133975.9580277 0 1040133975.9580277 542957928.56058145 0 0 0 0 280888493.66172028 -169853175.0203917 0 -169853175.0203917 53289605.605434179 0 0 0 0 198917472.71356201 -12001386.794357181 0 -12001386.794357181 -238954036.81631804 0 0 0 0 2818654.8146820068 89165.817774295807 0 89165.817774295807 -2536833.9624910355 0 0 0 0 12263504.381668091 909906.64207983017 0 909906.64207983017 -2561674.7154097557 0 0 0 0 459307.34399414062 -403861.69207620621 0 -403861.69207620621 -1526546.6208939552 0 0 0 0 -454556.71221923828 10770307.209344029 0 10770307.209344029 -4113597.6924724579 0 0 0 0 6165556.5708236694 -1399760.3296425343 0 -1399760.3296425343 -12307745.980791092 0 0 0 0 255096.85137939453 11103722.705320358 0 11103722.705320358 -12834080.38962476 0 0 0 0 3565427.9063949585 12375110.846999645 0 12375110.846999645 -13889330.139755249 0 0 0 0 4817540.8613014221 -632488.36859560013 0 -632488.36859560013 -6362298.7237319946 0 0 0 0 585231.37368011475 6015735.2393569946 0 6015735.2393569946 -586626.24729061127 0 0 0 0 1921809.725708588 -313762.03791617882 0 -313762.03791617882 -1019775.1297334 0 0 0 0 -1336803.8062152863 -2407050.9225138873 0 -2407050.9225138873 -706511.11393141747 0 0 0 0 51849977.315322876 7624536.3997545242 0 7624536.3997545242 -15990127.261126518 0 0 0 0 53933689.446350098 -2724040.8464515209 0 -2724040.8464515209 -2430937.6024947166 0 0 0 0 -1728443.5122833252 -1916363.7770838737 0 -1916363.7770838737 -1262570.5092527866 0 0 0 0 3778680.4931512624 -441737.92855682038 0 -441737.92855682038 -1434457.2306526783 0 0 0 0 -13664035.84576416 -11060905.460930824 0 -11060905.460930824 -6588526.451631546 0 0 0 0 -1727298.617641449 -2117815.5908710361 0 -2117815.5908710361 288909.79372167587 0 0 0 0 -2811509.8757132199 -1367966.6821464458 0 -1367966.6821464458 586972.45083179045 0 0 0 0 -2506493.0590591431 -2754341.8325294256 0 -2754341.8325294256 369583.44498920441 0 0 0 0 -1507858.3028335571 -2974797.6485798359 0 -2974797.6485798359 -1105456.514434576 0 0 0 0 -3513743.5793304443 -4223408.9414505959 0 -4223408.9414505959 -1868555.3964349031 0 0 0 0 -3761904.180103302 -811554.45095424354 0 -811554.45095424354 -2201925.6069879532 0 0 0 0 894754.29848069791 -9889.9248815141618 0 -9889.9248815141618 -338054.68748549582 0 0 0 0 3679111.8529014587 -729304.69415330887 0 -729304.69415330887 -1797895.5339574814 0 0 0 0 31579078.005554199 15876564.741893291 0 15876564.741893291 9271282.3745231628 0 0 0 0 99095716.425537109 10333809.215275764 0 10333809.215275764 -18410823.583626747 0 0 0 0 143843.25644265767 50355.374218260869 0 50355.374218260869 -20887.496499753324 0 0 0 0 2876072.9472670895 211660.21533479728 0 211660.21533479728 -659145.10057580052 0 0 0 0 -5394745.1797599792 -2280718.5600411892 0 -2280718.5600411892 1384260.525135994 0 0 0 0 -7636870.8930435181 1098635.6159315109 0 1098635.6159315109 4584665.9350681305 0 0 0 0 68530628.95262146 10043457.644470453 0 10043457.644470453 -10866388.183317661 0 0 0 0 -720748.63622191455 -232879.55611898936 0 -232879.55611898936 94261.426394423237 0 0 0 0 13740585.513046265 25641657.432304859 0 25641657.432304859 14047538.518033743 0 0 0 0 -10342824.480453491 -1659544.37167871 0 -1659544.37167871 -2463399.1930787563 0 0 0 0 11875193.925662279 -18745550.758587405 0 -18745550.758587405 3022347.2174139023 0 0 0 0 1958486.3133471012 -473244.21485464368 0 -473244.21485464368 -1102392.0066555208 0 0 0 0 -12039106.3829422 3304068.488773644 0 3304068.488773644 -3949483.2356538773 0 0 0 0 42662744.601707458 -7644216.2787549496 0 -7644216.2787549496 -27089349.80395031 0 0 0 0 45383698.778450012 -17448118.813894033 0 -17448118.813894033 5163962.9940786362 0 0 0 0 23243175.799196243 27315095.113754272 0 27315095.113754272 26647563.292721748 0 0 0 0 38346469.033969879 35077349.252698302 0 35077349.252698302 19568962.872966766 0 0 0 0 -3858067.9017028809 34779990.510940075 0 34779990.510940075 -7083061.5807762146 0 0 0 0 18918183.036773682 8873561.495215416 0 8873561.495215416 16242771.82497406 0 0 0 0 46105719.273208618 10896608.813785553 0 10896608.813785553 -3794107.5359492302 0 0 0 0 4147811.153011322 -4909849.9284844398 0 -4909849.9284844398 -8055355.3093757629 0 0 0 0 3664972.6837697923 527140.01145046111 0 527140.01145046111 -817365.66355573898 0 0 0 0 -3139231.3801879883 2143587.1590881348 0 2143587.1590881348 -5383444.321598053 0 0 0 0 -11000156.903015137 -4617850.59126091 0 -4617850.59126091 -10310803.31627655 0 0 0 0 -11092534.129150391 -3965439.9169788361 0 -3965439.9169788361 3493894.1452507973 0 0 0 0 537715.6821858678 -116101.89776283596 0 -116101.89776283596 -433905.88198495621 0 0 0 0 17088034.624969482 -11250744.21510911 0 -11250744.21510911 9795393.4827756882 0 0 0 0 -1163916.3628540039 2545253.3090801239 0 2545253.3090801239 -4509357.6673203707 0 0 0 0 -14955358.268737793 9129384.4018567801 0 9129384.4018567801 10379698.7466259 0 0 0 0 4344933.3892822266 14958108.388102055 0 14958108.388102055 22700696.186071396 0 0 0 0 3984182.6070976257 3531302.2799222469 0 3531302.2799222469 4233058.2199888229 0 0 0 0 571876.40016174316 -3168859.4063105583 0 -3168859.4063105583 -4647775.7573308945 0 0 0 0 3431210.1114959717 -5585636.1602005959 0 -5585636.1602005959 2078200.9095106125 0 0 0 0 34482569.466529846 13506347.726136684 0 13506347.726136684 6165225.4977388382 0 0 0 0 18411395.459899902 12115083.044113874 0 12115083.044113874 2274342.8835773468 0 0 0 0 9341169.2590103149 757760.05196428299 0 757760.05196428299 2237021.6668796539 0 0 0 0 18937136.846252441 -10619107.023976326 0 -10619107.023976326 -3098513.1492490768 0 0 0 0 2643991.6902694702 -5910722.236515522 0 -5910722.236515522 -1464405.5013715029 0 0 0 0 4553300.3578592055 1300110.3768889867 0 1300110.3768889867 -1659436.2669750021 0 0 0 0 18936406.144615173 22598202.094625711 0 22598202.094625711 21281455.855323792 0 0 0 0 -239447.20413473435 -304074.65630611777 0 -304074.65630611777 -73832.465785092907 0 0 0 0 -2397715.7691574097 -1751516.3052153587 0 -1751516.3052153587 -19016.252097129822 0 0 0 0 4508260.711602211 4387262.3103470206 0 4387262.3103470206 2070263.2636003494 0 0 0 0 7474916.6028139796 1290373.870764548 0 1290373.870764548 -5024061.8507295344 0 0 0 0 27820813.361270905 16974388.314163208 0 16974388.314163208 -6092856.2812986374 0 0 0 0 6463684.136932373 -3119944.9779396057 0 -3119944.9779396057 469465.93397760391 0 0 0 0 2708934.4945195578 2071535.3878479544 0 2071535.3878479544 -667496.71560365148 0 0 0 0 4879602.8529205322 4927975.9180812836 0 4927975.9180812836 -1162320.7647023201 0 0 0 0 4802870.9084243774 11036432.757480145 0 11036432.757480145 -6679162.5270872116 0 0 0 0 16837296.466781616 19785985.200841904 0 19785985.200841904 -2519858.546672821 0 0 0 0 19299086.341888428 7836029.7595214844 0 7836029.7595214844 3487022.894826889 0 0 0 0 11558834.668533325 12411747.626927376 0 12411747.626927376 18396179.458215237 0 0 0 0 19886492.043334961 14988640.512234688 0 14988640.512234688 17120830.111707211 0 0 0 0 769910.33015441895 3684856.0085544586 0 3684856.0085544586 18084292.847229004 0 0 0 0 105118.02196894772 135131.29366218112 0 135131.29366218112 -37960.629999201745 0 0 0 0 12850698.271270752 14695031.300949097 0 14695031.300949097 5713490.5110244751 0 0 0 0 13238545.341697693 21602943.201698303 0 21602943.201698303 875805.93989133835 0 0 0 0 26194531.061306 12503507.330514908 0 12503507.330514908 5773914.3437156677 0 0 0 0 3067953.7779006958 5279185.7147607803 0 5279185.7147607803 6352966.6023521423 0 0 0 0 6660071.5677533746 7131092.5982492641 0 7131092.5982492641 -5504933.6288299561 0 0 0 0 258145.85408490337 125371.81291327532 0 125371.81291327532 1047.4806856922805 0 0 0 0 17812358.956481934 14190258.185401917 0 14190258.185401917 3726569.4856472015 0 0 0 0 8203180.6077466216 2947124.6463400749 0 2947124.6463400749 -4068094.4891183777 0 0 0 0 16458145.213569641 19931942.4057827 0 19931942.4057827 5449042.4888490438 0 0 0 0 4337119.9627380371 2871499.7209892273 0 2871499.7209892273 2396731.8184432983 0 0 0 0 1807407.5581817627 274657.99278068542 0 274657.99278068542 -2359729.1460533142 0 0 0 0 456513.59230868705 3435706.4494513245 0 3435706.4494513245 2090862.693303901 0 0 0 0 4860550.871302899 80450.160089764744 0 80450.160089764744 -2782699.8408548394 0 0 0 0 7447244.3568115234 -970449.56157684326 0 -970449.56157684326 -595890.73770523071 0 0 0 0 7401494.9897797666 393113.9281383194 0 393113.9281383194 -4226307.2400173284 0 0 0 0 3293564.0234548263 2074491.0221974226 0 2074491.0221974226 -1681595.9397393467 0 0 0 0 -90357247.701766968 9391171.8074603081 0 9391171.8074603081 -6461263.3765640259 0 0 0 0 2184397.1179227997 2431530.274768047 0 2431530.274768047 -986965.39159576292 0 0 0 0 20930399.435585022 64730641.243844509 0 64730641.243844509 -9575584.6073126495 0 0 0 0 76906630.443435669 -35774968.375113487 0 -35774968.375113487 -24680559.420765877 0 0 0 0 -3820987.7436981201 697237.35137462616 0 697237.35137462616 15544535.112415493 0 0 0 0 -22794835.705200195 11315130.89527607 0 11315130.89527607 13931633.370519638 0 0 0 0 4382621.4777832031 13498033.778485775 0 13498033.778485775 -5117077.004406482 0 0 0 0 21840113.84143579 -41372706.971638612 0 -41372706.971638612 -2922946.5653543472 0 0 0 0 655644.07595123909 -90738.030797447078 0 -90738.030797447078 -393345.95324856485 0 0 0 0 9655288.7235641479 2735046.6830480099 0 2735046.6830480099 -8192626.4142503738 0 0 0 0 6172536.9252510034 2771712.0692266366 0 2771712.0692266366 -2121096.7624886762 0 0 0 0 10107126.32800293 1414372.8130434752 0 1414372.8130434752 -22329856.111979485 0 0 0 0 7221651.5785369873 12412882.241204977 0 12412882.241204977 -9524940.8681724072 0 0 0 0 10042348.005378723 15596259.927266598 0 15596259.927266598 -6409647.8698375225 0 0 0 0 8162184.759552002 12287012.358822823 0 12287012.358822823 -4999130.4138814211 0 0 0 0 11397977.30569458 11695408.926370144 0 11695408.926370144 -17693204.999357224 0 0 0 0 13909099.396011353 5794090.6036911011 0 5794090.6036911011 -2394329.401766777 0 0 0 0 10103109.83007431 16564669.882629275 0 16564669.882629275 13632.232585906982 0 0 0 0 12729254.801841736 15550883.497662067 0 15550883.497662067 -5681202.9944677353 0 0 0 0 1361422.3166351318 11699902.929158688 0 11699902.929158688 564706.67531895638 0 0 0 0 2007040.9823379517 17205823.642822742 0 17205823.642822742 2503987.7523508072 0 0 0 0 3946920.9965209961 20378962.587166786 0 20378962.587166786 -191046.66310739517 0 0 0 0 -8754196.1396484375 26831729.411157608 0 26831729.411157608 -4226968.8895469904 0 0 0 0 5905027.8026046753 9332198.1940357685 0 9332198.1940357685 -8668630.6176681519 0 0 0 0 549255.71250879113 142412.81586274877 0 142412.81586274877 -27247.408230610657 0 0 0 0 6130967.120513916 905406.5515255928 0 905406.5515255928 -3443254.2762548923 0 0 0 0 5700266.8646697998 -1412717.1294007301 0 -1412717.1294007301 -15318881.472730696 0 0 0 0 3058584.7939825896 1303128.5433793161 0 1303128.5433793161 -44780.556240048725 0 0 0 0 6407240.6530990601 947382.76090669632 0 947382.76090669632 -3438525.361481145 0 0 0 0 2167420.7047129925 -286390.38260014076 0 -286390.38260014076 -1348085.0411094511 0 0 0 0 15054618.100074768 -6506363.5785062313 0 -6506363.5785062313 -3207059.0621681213 0 0 0 0 -3091158.2489638329 5770082.6508467933 0 5770082.6508467933 -895620.79274916649 0 0 0 0 4802633.2928764727 2487869.3445445988 0 2487869.3445445988 -889751.78387178597 0 0 0 0 -1886361.0478820801 2128031.1914531589 0 2128031.1914531589 1532012.3619146943 0 0 0 0 1279775.385723114 622434.25658470392 0 622434.25658470392 -1047156.0236532688 0 0 0 0 824696.02318191528 170911.27217614651 0 170911.27217614651 -919804.9473156929 0 0 0 0 1718782.6361679714 11635.775144497864 0 11635.775144497864 -690292.50631392235 0 0 0 0 2949970.343409365 610720.44153100625 0 610720.44153100625 29272.638442937518 0 0 0 0 4860013.7663040161 18285016.839370608 0 18285016.839370608 -6798074.5703737736 0 0 0 0 3448238.7214584351 16322380.558423877 0 16322380.558423877 3370981.1356711388 0 0 0 0 5165038.8561765105 2571985.8267116286 0 2571985.8267116286 -1172132.5101177553 0 0 0 0 2009113.1087112427 12138765.796019793 0 12138765.796019793 -4666242.8427147865 0 0 0 0 2000166.5373458862 12325718.881840944 0 12325718.881840944 -3568117.3751766682 0 0 0 0 -1722382.3202972412 6385541.3013707399 0 6385541.3013707399 -1824218.037299633 0 0 0 0 -3104737.4430379868 5277735.5189063251 0 5277735.5189063251 4547823.8896107674 0 0 0 0 -2411871.5758056641 2185067.8804866076 0 2185067.8804866076 1589112.6679375172 0 0 0 0 -1390062.5148010254 491195.73616808653 0 491195.73616808653 9609367.9969565719 0 0 0 0 -1397761.4810943604 8300704.4634786844 0 8300704.4634786844 8697328.1916794777 0 0 0 0 3282171.0688552856 -4919775.5054958463 0 -4919775.5054958463 14896562.745020628 0 0 0 0 -1352696.898651123 9867883.646674633 0 9867883.646674633 4039079.0709252432 0 0 0 0 -1720956.5453567505 14608437.906031966 0 14608437.906031966 25740294.883901 0 0 0 0 433272.74673461914 667689.28140354156 0 667689.28140354156 1866679.7966829836 0 0 0 0 1286322.4463577271 345846.30707979202 0 345846.30707979202 1964077.2275662422 0 0 0 0 -334586.49363708496 -383732.50983893871 0 -383732.50983893871 1192807.0166595578 0 0 0 0 -2050018.984085083 2753853.8787326813 0 2753853.8787326813 1999971.5576262474 0 0 0 0 -4087633.2352600098 2394024.5258711576 0 2394024.5258711576 2075038.1113028526 0 0 0 0 -2010371.5914001465 1298565.5997304916 0 1298565.5997304916 3202677.5443427563 0 0 0 0 -2460325.5966835022 2712201.1733547449 0 2712201.1733547449 254538.98606348038 0 0 0 0 -542048.4201965332 444823.28528308868 0 444823.28528308868 71244.310286283493 0 0 0 0 -2280056.8081970215 1548385.8219144344 0 1548385.8219144344 -157750.97068881989 0 0 0 0 -172694.65776062012 -136723.07007288933 0 -136723.07007288933 1264952.3516302705 0 0 0 0 -236352.26490211487 347850.28716006875 0 347850.28716006875 521449.50621986389 0 0 0 0 -225005.14939880371 247116.82791683078 0 247116.82791683078 -736789.79880261421 0 0 0 0 107486920.42861938 -201429926.45968562 0 -201429926.45968562 378217649.36366606 0 0 0 0 -81225.569992505014 79360.857030030806 0 79360.857030030806 -77131.74555092887 0 0 0 0 4097448.0644288752 2100986.648655314 0 2100986.648655314 1053957.6179989793 0 0 0 0 -74321488.149421692 92617036.710994363 0 92617036.710994363 -3072644.343694041 0 0 0 0 37274.643981674686 91016.826230362989 0 91016.826230362989 -14080.057838278939 0 0 0 0 1565707.7526702881 665879.33535683155 0 665879.33535683155 -566183.25362877548 0 0 0 0 1215792.8571954295 953828.84320271702 0 953828.84320271702 -159366.37671613917 0 0 0 0 1408456.1496124268 79329.195287406445 0 79329.195287406445 -901709.07141149044 0 0 0 0 1429527.7364578247 1299120.8813865185 0 1299120.8813865185 -2019671.5460685492 0 0 0 0 93398.656347548589 6619.1851700181141 0 6619.1851700181141 -71898.514407343799 0 0 0 0 2905944.5171848629 2506730.9466134049 0 2506730.9466134049 572108.76896472939 0 0 0 0 1278649.7297210693 733477.88092747331 0 733477.88092747331 -866826.8067586422 0 0 0 0 -3379002.4342651367 188580.96361082792 0 188580.96361082792 1161695.9204115868 0 0 0 0 34347.123839367181 152950.14136410994 0 152950.14136410994 -12117.990096693997 0 0 0 0 1390060.3721618652 378584.55288684368 0 378584.55288684368 -65741.275249607861 0 0 0 0 274295.70293426514 267028.80080187973 0 267028.80080187973 209.50812161557323 0 0 0 0 773033.36415078491 322133.69290855958 0 322133.69290855958 -75952.976438035825 0 0 0 0 338419.74694824219 171384.01666935533 0 171384.01666935533 -14804.067604536518 0 0 0 0 1533359.6579742432 699979.8281365633 0 699979.8281365633 -503351.36892044544 0 0 0 0 3658139.4554511718 2187884.4149684925 0 2187884.4149684925 799589.46571710415 0 0 0 0 342831.63186645508 163189.71803675321 0 163189.71803675321 -1180.1202670865362 0 0 0 0 877050.05511147529 109366.84841162385 0 109366.84841162385 -97503.851941047164 0 0 0 0 1102736.2473907471 155674.32448077202 0 155674.32448077202 -88328.492004096508 0 0 0 0 1392092.9365038872 435443.90977251064 0 435443.90977251064 -711233.22585117817 0 0 0 0 316191.83822631836 -188098.52740084595 0 -188098.52740084595 -105904.45678979503 0 0 0 0 1834084.6389923096 346341.86257469654 0 346341.86257469654 -1293267.3039958477 0 0 0 0 2696157.8038069475 1263322.1319545852 0 1263322.1319545852 83296.350839167673 0 0 0 0 58542519.236022949 -148545593.61194345 0 -148545593.61194345 -243276.87613273392 0 0 0 0 1959326.0423583984 -227883.08498257399 0 -227883.08498257399 -1045072.3705087304 0 0 0 0 3396255.805721283 14020664.329504305 0 14020664.329504305 -8545777.8026715219 0 0 0 0 2861437.8009109497 986207.08723139763 0 986207.08723139763 1577403.6803995669 0 0 0 0 1091672.5395228006 914920.03482644819 0 914920.03482644819 29517.343252758474 0 0 0 0 1294496.3503570557 185009.31600622745 0 185009.31600622745 -2118.6994215817299 0 0 0 0 2979585.0410694368 1011866.0686159981 0 1011866.0686159981 201035.2475476602 0 0 0 0 2244714.5338730309 -350237.40412863623 0 -350237.40412863623 -750436.29164140625 0 0 0 0 969415.13691711426 -95373.77527949214 0 -95373.77527949214 -920176.83609431982 0 0 0 0 3108049.5514974371 -995532.75600413047 0 -995532.75600413047 -1623890.8955493593 0 0 0 0 892189.45936584473 -627811.86868822575 0 -627811.86868822575 -1876577.037291646 0 0 0 0 88455643.447570801 -20931170.6294837 0 -20931170.6294837 -72749522.892757416 0 0 0 0 3458061.8691677414 -318566.79561017407 0 -318566.79561017407 -1505149.6841167756 0 0 0 0 1943730.0171099305 915288.82698626071 0 915288.82698626071 52802.253016303221 0 0 0 0 1117961.6327819824 -268714.64669409394 0 -268714.64669409394 -1139163.6522880197 0 0 0 0 1494920.1771736145 -436244.06473371387 0 -436244.06473371387 -1750964.2011534274 0 0 0 0 1921324.074005127 -194173.2989923358 0 -194173.2989923358 -1970128.5868378878 0 0 0 0 952183.92504129559 -132787.86035359418 0 -132787.86035359418 -293218.87862183456 0 0 0 0 1484540.4531154633 568735.77147369459 0 568735.77147369459 -1658112.8335974216 0 0 0 0 1389838.81199646 114548.56125104427 0 114548.56125104427 -1752796.8996160328 0 0 0 0 4165736.2611465454 -1665090.338019371 0 -1665090.338019371 3880212.6070995331 0 0 0 0 -75862.519897460938 8808109.559855938 0 8808109.559855938 1053500.0602693558 0 0 0 0 3950321.0676949266 1005021.3527083024 0 1005021.3527083024 -919728.33473278163 0 0 0 0 -135013.43348095752 -242892.28893428389 0 -242892.28893428389 -94962.930531757185 0 0 0 0 63188832.689388752 118225870.85104051 0 118225870.85104051 -75706439.18523407 0 0 0 0 -10922869.703231812 3387647.9810891151 0 3387647.9810891151 -6828516.2616424561 0 0 0 0 -15998156.701942444 -18578074.01743269 0 -18578074.01743269 78555704.01350975 0 0 0 0 -37484871.023162842 -11333503.675463676 0 -11333503.675463676 13659743.759750366 0 0 0 0 72657524.854095459 -24447552.055885792 0 -24447552.055885792 -9178839.3779783249 0 0 0 0 288005.12897416577 -1895.7046560253948 0 -1895.7046560253948 -108717.89834013511 0 0 0 0 11685181.755249023 19131732.205356598 0 19131732.205356598 -39323706.507810593 0 0 0 0 -12870896.543113708 12810364.814012885 0 12810364.814012885 -3668528.295217514 0 0 0 0 12819081.630064011 17601.041790127754 0 17601.041790127754 -3421126.1713180542 0 0 0 0 1847570.5264396667 7096601.0562562943 0 7096601.0562562943 320797.54996967316 0 0 0 0 4128718.2024765015 -585099.70956802368 0 -585099.70956802368 839187.48357582092 0 0 0 0 -3228589.1702423096 -2716689.1219123937 0 -2716689.1219123937 -1817196.6010168679 0 0 0 0 -8041350.3238830566 -8697021.8600799292 0 -8697021.8600799292 -2170567.877293855 0 0 0 0 -7617952.9635734558 -3981571.0923738796 0 -3981571.0923738796 896530.88345178962 0 0 0 0 -7630259.6754302979 -4564337.6490228176 0 -4564337.6490228176 -9083305.1211414337 0 0 0 0 38125860.205795288 10420275.138195992 0 10420275.138195992 29496718.116746902 0 0 0 0 -16293194.221969604 -14136537.926657677 0 -14136537.926657677 -3873192.5859951973 0 0 0 0 -2598484.4925333746 -1030540.7520852648 0 -1030540.7520852648 540139.07900070678 0 0 0 0 -2292749.9429321289 -1533091.4109945297 0 -1533091.4109945297 -1365963.3702032566 0 0 0 0 1961024.1872659987 -146234.74859080836 0 -146234.74859080836 -952179.30405887926 0 0 0 0 98042940.91583252 -31200859.772634506 0 -31200859.772634506 49394630.567672729 0 0 0 0 3863090.9766869172 -303746.19908213615 0 -303746.19908213615 -1091749.906719848 0 0 0 0 -3125090.3392333984 -2458889.3517332077 0 -2458889.3517332077 1568938.3622569889 0 0 0 0 -6928915.3701782227 -8511575.8517833352 0 -8511575.8517833352 -5511543.276925087 0 0 0 0 -131764.79605429061 -32374.032668954693 0 -32374.032668954693 48188.531513032773 0 0 0 0 -9796636.935965538 -8859169.9017030597 0 -8859169.9017030597 -12768827.991189957 0 0 0 0 4117279.3770346008 -108260.61308352742 0 -108260.61308352742 -891060.64025402302 0 0 0 0 -35699652.053604126 -30790528.918511391 0 -30790528.918511391 -16977194.400657296 0 0 0 0 -3364684.5619812012 -5336988.7064466476 0 -5336988.7064466476 -871807.78154674172 0 0 0 0 -1182980.8838348389 -4552669.6907572672 0 -4552669.6907572672 -2866933.3722428679 0 0 0 0 -1646107.2408475876 144382.70471102325 0 144382.70471102325 504522.88150011003 0 0 0 0 -473868.26474761963 -1426369.7842465229 0 -1426369.7842465229 -356336.39604625106 0 0 0 0 168846.81628799438 165116.56267474592 0 165116.56267474592 -1208428.8200235665 0 0 0 0 72262.049392700195 240745.75756416805 0 240745.75756416805 376060.97532321652 0 0 0 0 443190.36042785645 -944823.37157791853 0 -944823.37157791853 -1238526.3194166292 0 0 0 0 423603.03722914308 -222648.76044193748 0 -222648.76044193748 290749.53971298871 0 0 0 0 127303.74945068359 -594224.71291825175 0 -594224.71291825175 -140908.36570973694 0 0 0 0 628204.41879272461 -1170136.704310542 0 -1170136.704310542 -744042.096993763 0 0 0 0 -740514.27089270949 -990275.3170859915 0 -990275.3170859915 -138514.31906364695 0 0 0 0 781978.22579956055 -994560.49536916614 0 -994560.49536916614 -799620.91513508558 0 0 0 0 108426.31620788574 -796548.69393411279 0 -796548.69393411279 -853349.62530823052 0 0 0 0 343192.83489990234 -127646.10082405806 0 -127646.10082405806 -1140251.8096085815 0 0 0 0 1202047.8198852539 -235501.91856631541 0 -235501.91856631541 -1525247.564631304 0 0 0 0 56277.860800275579 -14253.512600547634 0 -14253.512600547634 -34926.133872539664 0 0 0 0 1118115.3541965485 -4880.8966593634905 0 -4880.8966593634905 -553909.90516410046 0 0 0 0 2724782.8560409546 -40693.590577911353 0 -40693.590577911353 -477362.19870163989 0 0 0 0 1098753.4010848999 -376526.26670699217 0 -376526.26670699217 900.33155914022132 0 0 0 0 523506.97201538086 -1243476.6372577702 0 -1243476.6372577702 -532925.64650923503 0 0 0 0 2944192.7551345825 1530114.4350440996 0 1530114.4350440996 1161071.1925792713 0 0 0 0 11539487.270637512 1258508.9640668673 0 1258508.9640668673 -1155809.5106239596 0 0 0 0 6413171.399105072 -147364.89764978882 0 -147364.89764978882 1385.8069250899741 0 0 0 0 4878140.9433135986 3035372.0599970333 0 3035372.0599970333 1692770.189934202 0 0 0 0 4976094.1464233398 1123358.121607082 0 1123358.121607082 1241501.8361282861 0 0 0 0 1982561.6125106812 -1144562.5974102439 0 -1144562.5974102439 -1338959.4260536251 0 0 0 0 74800.191162109375 -258633.04649963044 0 -258633.04649963044 1508198.6383470716 0 0 0 0 2439125.8713226318 2544393.9571248246 0 2544393.9571248246 900539.26982497983 0 0 0 0 578014.9276971966 -128244.26874599513 0 -128244.26874599513 226327.12149334353 0 0 0 0 4345414.379193306 24470.748002184031 0 24470.748002184031 -282859.42626596219 0 0 0 0 9054228.737487793 -5331208.2747966386 0 -5331208.2747966386 -778467.22812642576 0 0 0 0 11712225.912889481 1529976.3426081231 0 1529976.3426081231 -1709171.6018033831 0 0 0 0 14457668.305030823 -1403241.6529787476 0 -1403241.6529787476 -6038.4977789747618 0 0 0 0 22841776.899337769 1318595.6710644201 0 1318595.6710644201 -2019221.3197468624 0 0 0 0 18619966.302371979 -4322086.2765871109 0 -4322086.2765871109 -676499.46580736199 0 0 0 0 4676700.8048706055 -11632225.166713467 0 -11632225.166713467 5361915.2173948735 0 0 0 0 20748381.877874374 -341019.54653959215 0 -341019.54653959215 5122070.1758039715 0 0 0 0 17655729.359416962 -2962697.7843297543 0 -2962697.7843297543 65334.402637671679 0 0 0 0 37984458.895202637 -7319166.2923522042 0 -7319166.2923522042 972372.02918167925 0 0 0 0 31423752.548080444 13193505.807891276 0 13193505.807891276 5544355.3552036006 0 0 0 0 -65031.95603813231 -82502.329024668783 0 -82502.329024668783 36374.704460757377 0 0 0 0 20877743.41255188 3630884.3886033446 0 3630884.3886033446 38019253.778699473 0 0 0 0 24125643.778793335 -18490317.704236537 0 -18490317.704236537 15595732.715381298 0 0 0 0 40701974.855415344 6402777.5757262809 0 6402777.5757262809 2987335.6631657295 0 0 0 0 23850431.275604248 -2475709.1110896096 0 -2475709.1110896096 -275081.61355949193 0 0 0 0 2456241.1870117188 2073802.1372487396 0 2073802.1372487396 10432308.127446733 0 0 0 0 9808784.8229980469 11066051.732642137 0 11066051.732642137 10386935.813622436 0 0 0 0 7542.8083896748722 2493.2640092000365 0 2493.2640092000365 -325.99230281878681 0 0 0 0 -3907897.2688827515 -665922.67184377462 0 -665922.67184377462 5617694.778572917 0 0 0 0 -748716.38946540654 -667924.21994377067 0 -667924.21994377067 -121274.164768084 0 0 0 0 498555.81979370117 768645.90465317667 0 768645.90465317667 3921454.5197969759 0 0 0 0 5745823.5889892578 2228907.5157860862 0 2228907.5157860862 -153644.83343001828 0 0 0 0 -209939.38191089407 -254298.85153365415 0 -254298.85153365415 115256.56718397437 0 0 0 0 7132905.3550720215 1034615.3686863603 0 1034615.3686863603 -184372.12299818359 0 0 0 0 7675135.4962921143 5794208.995257902 0 5794208.995257902 4086199.8849476557 0 0 0 0 -1467578.0478515625 2312480.7496918701 0 2312480.7496918701 8943570.7976722717 0 0 0 0 -418086.32298278809 -1120097.3886950477 0 -1120097.3886950477 7363969.0713769179 0 0 0 0 -311870.88710021973 478217.32226586575 0 478217.32226586575 30486276.336201113 0 0 0 0 106268.41194152832 -5149234.3868428767 0 -5149234.3868428767 8486216.6919857487 0 0 0 0 3034508.0563812256 -10219180.101857245 0 -10219180.101857245 -2510444.5631523654 0 0 0 0 -3726392.8116455078 -9600767.9010968953 0 -9600767.9010968953 -4280951.3482031357 0 0 0 0 -5458434.6741790771 -6767096.5129418448 0 -6767096.5129418448 7488313.3096355116 0 0 0 0 -739075.01303100586 -428255.22629363462 0 -428255.22629363462 6232246.196649842 0 0 0 0 -4879268.7041168213 -4175434.2368658558 0 -4175434.2368658558 3773167.1002464471 0 0 0 0 -4179203.2306365967 -9341289.7699629515 0 -9341289.7699629515 -4417281.9291151166 0 0 0 0 5774107.4603118896 -5315047.9537073821 0 -5315047.9537073821 -10153433.41096881 0 0 0 0 -381952.21640014648 -8935273.2518692315 0 -8935273.2518692315 -11272538.171444669 0 0 0 0 -966811.82625579834 -2568913.9475033283 0 -2568913.9475033283 -1286174.1688518524 0 0 0 0 3284619.5027770996 2026143.0544986725 0 2026143.0544986725 -3235871.3723473549 0 0 0 0 -1063909.9601516724 720933.69161343575 0 720933.69161343575 -2626944.2467367649 0 0 0 0 503716.33327392116 -46758.260867835954 0 -46758.260867835954 -264146.06549964647 0 0 0 0 1073534.0805323087 -1491108.8947330909 0 -1491108.8947330909 -796466.45370599581 0 0 0 0 -2318301.1002197266 -133755.6555314064 0 -133755.6555314064 -2217288.8638418913 0 0 0 0 -5044099.0591125488 -1250686.4609582424 0 -1250686.4609582424 -2327551.649721384 0 0 0 0 9598251.7531890869 4192768.7689382732 0 4192768.7689382732 -2203134.4914302379 0 0 0 0 441352.6961717885 29325.40675980784 0 29325.40675980784 -89668.252919647697 0 0 0 0 -11693621.406050682 -21316092.683393352 0 -21316092.683393352 -10104835.853724152 0 0 0 0 1165185.7117004395 -7435710.1106128693 0 -7435710.1106128693 -360995.91376429796 0 0 0 0 1378573.0375680923 -1411562.1798782814 0 -1411562.1798782814 -849748.09942642972 0 0 0 0 5234093.5435504913 -20987236.533287749 0 -20987236.533287749 -20601921.291198939 0 0 0 0 -11669880.667617798 -9789178.7262309492 0 -9789178.7262309492 -2521444.8832636252 0 0 0 0 8576206.0169677734 -7961740.2581464648 0 -7961740.2581464648 -21262720.839339353 0 0 0 0 6019307.0419769287 -9294107.07482481 0 -9294107.07482481 -5715117.1309753507 0 0 0 0 24348276.908180237 1026274.365549163 0 1026274.365549163 -7047088.676682055 0 0 0 0 12428046.679382324 -3286956.8532813042 0 -3286956.8532813042 -6749833.8899706686 0 0 0 0 18751200.073699951 -13320056.602851652 0 -13320056.602851652 -4478745.1336823776 0 0 0 0 18305744.114685059 -3233041.9431055859 0 -3233041.9431055859 -12190922.176789269 0 0 0 0 18633624.603637695 -8157062.8663164228 0 -8157062.8663164228 -14292495.037109435 0 0 0 0 1811299.7344741821 -10150730.35049806 0 -10150730.35049806 -10153667.335171759 0 0 0 0 12304302.061462402 5223491.9805026501 0 5223491.9805026501 -2608909.8012354951 0 0 0 0 25708058.322296143 10718257.731790975 0 10718257.731790975 -2985656.951604262 0 0 0 0 15909588.71307373 5378744.7924826443 0 5378744.7924826443 -5945490.4505085796 0 0 0 0 9466665.6417808533 6403277.2534146672 0 6403277.2534146672 321471.03669153899 0 0 0 0 10283746.396133423 3190914.0614601895 0 3190914.0614601895 -4633242.1569010317 0 0 0 0 8383367.2341690063 -573491.1708297953 0 -573491.1708297953 -7101854.8963972926 0 0 0 0 13626355.166152954 3192446.0837406963 0 3192446.0837406963 -8034354.5587389469 0 0 0 0 9160389.5171356201 -171959.51332288235 0 -171959.51332288235 -7095281.5402682871 0 0 0 0 7385083.3428192139 -10350156.762355834 0 -10350156.762355834 -14092027.630370229 0 0 0 0 6857044.3620452881 -3298812.3633146808 0 -3298812.3633146808 -8533011.1206881106 0 0 0 0 4204552.4370117188 -6498428.3388399482 0 -6498428.3388399482 -7944053.7834326923 0 0 0 0 10355737.287136078 -3024679.6050991584 0 -3024679.6050991584 -11374071.076732129 0 0 0 0 2744963.9763565063 -5908943.0254899189 0 -5908943.0254899189 -5463541.5444702506 0 0 0 0 3915881.0819091797 -5068470.0349193066 0 -5068470.0349193066 -12872338.393754363 0 0 0 0 -9216923.2053184509 -5072005.4213095903 0 -5072005.4213095903 -6728040.9385534525 0 0 0 0 -169561.52349552512 -84142.642402340658 0 -84142.642402340658 93117.663498058697 0 0 0 0 1785296.8958028248 -1457133.6229139082 0 -1457133.6229139082 -704432.74744080717 0 0 0 0 841017.67823791504 -16781687.651148081 0 -16781687.651148081 5497790.4665744305 0 0 0 0 1385755.6650390625 -4318614.6539856791 0 -4318614.6539856791 -811606.71431685984 0 0 0 0 3528028.3672485352 -3902369.922450453 0 -3902369.922450453 -3777058.474560082 0 0 0 0 4724551.578338623 -4656541.3461467475 0 -4656541.3461467475 -6612196.5533318818 0 0 0 0 1370535.0047607422 -4026225.9855566323 0 -4026225.9855566323 -3104972.4835114181 0 0 0 0 6176824.8279685974 -1932452.5797626898 0 -1932452.5797626898 -4229959.4394854158 0 0 0 0 4713809.3266601562 -2115364.3267860413 0 -2115364.3267860413 -4252695.8898266926 0 0 0 0 5371564.0847930908 -942119.94831968844 0 -942119.94831968844 -2169762.343297869 0 0 0 0 3798549.4903106689 -1337966.2990102991 0 -1337966.2990102991 -157247.38870710135 0 0 0 0 3934818.6090240479 -1153529.1413093805 0 -1153529.1413093805 -2180538.8813864058 0 0 0 0 -10377305.296286583 735921.38846127689 0 735921.38846127689 -1244502.1431953907 0 0 0 0 2056222.2482748292 -1561476.4263437837 0 -1561476.4263437837 -768492.35157517577 0 0 0 0 3958454.7801361084 -1465635.324624747 0 -1465635.324624747 -1602358.2830132768 0 0 0 0 -2933514.799911499 3229039.3702132702 0 3229039.3702132702 -4794416.3149445057 0 0 0 0 -10302764.954910278 1461855.6500400305 0 1461855.6500400305 2622151.0837609768 0 0 0 0 3443147.8371582031 -1966949.8872340471 0 -1966949.8872340471 -1306386.4136238098 0 0 0 0 -8902088.1370391846 1206690.7924876213 0 1206690.7924876213 -3282932.9407533407 0 0 0 0 -9345223.7327423096 1198847.5727518797 0 1198847.5727518797 1900452.4206390381 0 0 0 0 -8385473.2440032959 2371022.8104782104 0 2371022.8104782104 -2417934.4440300465 0 0 0 0 -3213624.5617370605 -4115565.7072995901 0 -4115565.7072995901 5117366.0762937069 0 0 0 0 -2828957.8436584473 -10633267.855621219 0 -10633267.855621219 16132019.046036832 0 0 0 0 -13214630.249053955 2372220.1425660849 0 2372220.1425660849 2006050.8555424213 0 0 0 0 -568726.52920532227 -8674362.6775345802 0 -8674362.6775345802 1894675.8820493221 0 0 0 0 5929892.9302825928 -11417865.786305785 0 -11417865.786305785 2653969.8946056366 0 0 0 0 5255497.2230529785 -3375664.7214303017 0 -3375664.7214303017 -1891092.3436574936 0 0 0 0 4269617.0378723145 -14067060.722991228 0 -14067060.722991228 -1221635.5356683731 0 0 0 0 -1350299.9350891113 -13904270.687031984 0 -13904270.687031984 8037108.1010878086 0 0 0 0 6472261.2604064941 -18107859.775413752 0 -18107859.775413752 5091572.6897017956 0 0 0 0 4869555.6822967529 -21958086.636901855 0 -21958086.636901855 16659915.661078453 0 0 0 0 22756691.438217163 -18149110.915384352 0 -18149110.915384352 28325856.555286527 0 0 0 0 41363402.999755859 -131102.46037364006 0 -131102.46037364006 -42680149.111864805 0 0 0 0 5939023.380065918 18359609.339486837 0 18359609.339486837 -25187727.554005742 0 0 0 0 38392816.640642166 -25839357.921168476 0 -25839357.921168476 -11682172.464326382 0 0 0 0 17928651.842132568 -29562297.850676298 0 -29562297.850676298 10049851.634762645 0 0 0 0 12968833.21472168 -3811007.3125691414 0 -3811007.3125691414 -22043930.89169848 0 0 0 0 7447046.1076889038 -16231422.655432135 0 -16231422.655432135 -4073509.5585708618 0 0 0 0 3155109.5747680664 -6584613.0884187222 0 -6584613.0884187222 -10247533.012267113 0 0 0 0 14764072.958633423 -14935269.386859417 0 -14935269.386859417 -4601618.4694457054 0 0 0 0 1558561.6308288574 3031324.4716825485 0 3031324.4716825485 -13127911.777063429 0 0 0 0 4863530.1430892944 -3671442.7994202375 0 -3671442.7994202375 -7240556.4683551788 0 0 0 0 -10664308.707595825 11004042.095337749 0 11004042.095337749 -9720675.8937306404 0 0 0 0 10287944.706665039 -563980.89144182205 0 -563980.89144182205 -12301425.386238575 0 0 0 0 -3536566.3364524841 1824781.8327539563 0 1824781.8327539563 -5359105.9954614639 0 0 0 0 -1283564.4597473145 1486735.3629194498 0 1486735.3629194498 -5397073.9976863861 0 0 0 0 -1234360.8561553955 -2066395.895811677 0 -2066395.895811677 -6509919.7025842667 0 0 0 0 165982.69272242859 -15632.143343690783 0 -15632.143343690783 -89963.971335393027 0 0 0 0 6318807.2211151123 7536565.0139686465 0 7536565.0139686465 -4409176.5725873411 0 0 0 0 -195788.85578918457 -9436277.8865138292 0 -9436277.8865138292 -4319629.5622701645 0 0 0 0 6329310.5215454102 -14070166.211099148 0 -14070166.211099148 -1233538.882725507 0 0 0 0 2345921.6130523682 -1927962.576539278 0 -1927962.576539278 379800.9683560729 0 0 0 0 3393573.0415153503 2366588.3036768436 0 2366588.3036768436 -793367.97429227829 0 0 0 0 214934.37286287546 -512485.72672972456 0 -512485.72672972456 -216751.99528067067 0 0 0 0 -2264505.6370544434 -10043821.99875474 0 -10043821.99875474 3714985.8139662743 0 0 0 0 2887239.3111534119 -3598267.1031798124 0 -3598267.1031798124 -5541019.8302738667 0 0 0 0 933168.9026297126 -105538.2474896498 0 -105538.2474896498 -545480.84031316382 0 0 0 0 6421574.9575653076 -1386185.1262135506 0 -1386185.1262135506 -1772076.1198883057 0 0 0 0 3909888.883644104 544530.31682040542 0 544530.31682040542 -2261047.7441438958 0 0 0 0 1767731.2582975775 -323919.93169275811 0 -323919.93169275811 -1089568.2454506999 0 0 0 0 1966306.5265801605 -426831.17916856706 0 -426831.17916856706 -894276.38773939048 0 0 0 0 4124500.4745559692 -655003.61818114296 0 -655003.61818114296 -982062.33789739013 0 0 0 0 4275350.8839569092 -76826.761944338679 0 -76826.761944338679 -1769265.056956023 0 0 0 0 4996042.3883056641 813334.45214129984 0 813334.45214129984 -3702508.3437812366 0 0 0 0 5000596.692527771 -289354.3644635193 0 -289354.3644635193 -3024977.1316400468 0 0 0 0 4947729.5464324951 1086320.683985427 0 1086320.683985427 -2010323.5904651098 0 0 0 0 2139774.644317627 1660010.3212129772 0 1660010.3212129772 -1517144.1774249971 0 0 0 0 5710855.3441772461 2635071.7214813083 0 2635071.7214813083 -3457071.0374681242 0 0 0 0 7619953.7919063568 2233815.9854697743 0 2233815.9854697743 -3407765.5928825736 0 0 0 0 2506625.922454834 1227141.4841789939 0 1227141.4841789939 138687.02633966785 0 0 0 0 4925754.6158161163 4056382.5187205877 0 4056382.5187205877 -547950.21480043232 0 0 0 0 5365125.310295105 3996227.2894420363 0 3996227.2894420363 527817.18316949159 0 0 0 0 -1114757.9403076172 177847.29973631352 0 177847.29973631352 -763191.286043806 0 0 0 0 14978863.90398407 -4392072.3566710353 0 -4392072.3566710353 -8113016.5685315132 0 0 0 0 1327349.1880924208 -427120.59418353811 0 -427120.59418353811 -738441.6715212441 0 0 0 0 1639668.9329032898 2645294.2267574901 0 2645294.2267574901 -1442991.7329341099 0 0 0 0 225589.93384742737 7214525.7659733891 0 7214525.7659733891 -14545485.640801907 0 0 0 0 260003.40335105732 -46453.219029227272 0 -46453.219029227272 -138346.87499600986 0 0 0 0 1200980.7439346313 -10736341.204430938 0 -10736341.204430938 -20829299.810687065 0 0 0 0 3765428.1932983398 -2128483.4813463688 0 -2128483.4813463688 1279642.0889458656 0 0 0 0 -3418326.3258056641 -11414319.819875717 0 -11414319.819875717 2676272.5473529994 0 0 0 0 -4629973.9857730865 -3831328.9381057918 0 -3831328.9381057918 12976703.741122246 0 0 0 0 698880.54706573486 -1805659.5975040197 0 -1805659.5975040197 2786819.5768184662 0 0 0 0 5580647.9974365234 -7522578.6256263256 0 -7522578.6256263256 3943394.4411935806 0 0 0 0 -11398.918844349682 12947.355943106115 0 12947.355943106115 -4951.9455697491439 0 0 0 0 -2672469.9522972107 2596723.4633852504 0 2596723.4633852504 -847085.24270836264 0 0 0 0 -3309761.8997650146 1421772.7322645877 0 1421772.7322645877 -1173876.8066907972 0 0 0 0 957464.32147694379 -408011.34555883147 0 -408011.34555883147 -622435.39743980195 0 0 0 0 -598718.66072845459 1875254.702715422 0 1875254.702715422 -2096614.8862091526 0 0 0 0 -122187.20529937744 563519.97585710231 0 563519.97585710231 -448646.39649738371 0 0 0 0 -458376.25347900391 1641232.6324576512 0 1641232.6324576512 -3425399.221503742 0 0 0 0 -4718017.324798584 1152085.2904598974 0 1152085.2904598974 -3291953.8750854852 0 0 0 0 77194.574264526367 373429.67450584006 0 373429.67450584006 -5455809.3365539461 0 0 0 0 -212505.0074005127 243098.22061838023 0 243098.22061838023 -2359695.8059193715 0 0 0 0 -3025683.0913085938 111439.9632512629 0 111439.9632512629 -2389188.5437642466 0 0 0 0 2243544.0545692444 -1492946.8044665032 0 -1492946.8044665032 -2548959.5408210233 0 0 0 0 725810.28541564941 52761.362492294982 0 52761.362492294982 -1594256.325465776 0 0 0 0 963307.31478881836 -122270.91059311479 0 -122270.91059311479 -3559715.6337889303 0 0 0 0 1868931.3445587158 -64644.819582150318 0 -64644.819582150318 -3192765.9037801707 0 0 0 0 -545981.63623046875 -206699.31338119507 0 -206699.31338119507 -881534.8301551193 0 0 0 0 207303.80116271973 330352.23491411749 0 330352.23491411749 -2647388.752393622 0 0 0 0 454270.73000798002 -636567.52924142219 0 -636567.52924142219 -136423.00678252135 0 0 0 0 -1648534.7632408142 1388601.2961725777 0 1388601.2961725777 -2282885.0474605579 0 0 0 0 -1476052.3211975098 -33166.627113079652 0 -33166.627113079652 -1421936.6078268867 0 0 0 0 -648859.43353271484 1976616.9298874754 0 1976616.9298874754 -1967300.1631773338 0 0 0 0 345214.17961883545 951176.38937177288 0 951176.38937177288 -4789189.4756480521 0 0 0 0 -120085.45193099976 2549486.9039644245 0 2549486.9039644245 -3613927.1754352646 0 0 0 0 -5335342.1573257446 5764589.025566658 0 5764589.025566658 -6393158.1276602447 0 0 0 0 -5660031.9079589844 6246127.6468826458 0 6246127.6468826458 -7005968.7530946564 0 0 0 0 3792.9360815957189 -16608.809357475489 0 -16608.809357475489 11479.161946139046 0 0 0 0 -1328585.6738204956 1123099.5568795372 0 1123099.5568795372 -7331454.4030863717 0 0 0 0 1613008.0479125977 -1906861.9311174359 0 -1906861.9311174359 2480425.8479398321 0 0 0 0 3044904.9388198853 3401010.8729142845 0 3401010.8729142845 6295049.5601605289 0 0 0 0 1600076.9938201904 1446750.0220712498 0 1446750.0220712498 -1497554.3999173716 0 0 0 0 1620912.169128418 1672410.8768119663 0 1672410.8768119663 614872.83235380426 0 0 0 0 2775985.0514678955 -1636429.745732367 0 -1636429.745732367 479884.63268980937 0 0 0 0 1874892.6404724121 -516656.33190665394 0 -516656.33190665394 -1841432.435793031 0 0 0 0 2002948.6859283447 -299815.97460676916 0 -299815.97460676916 -1564784.5715031847 0 0 0 0 1564798.2288894653 -1471548.7329160552 0 -1471548.7329160552 -282692.54221376032 0 0 0 0 3684718.2155532837 -2788213.5455789957 0 -2788213.5455789957 -88691.273804484372 0 0 0 0 2687537.9452362061 -1917813.4151341477 0 -1917813.4151341477 -140939.68264808506 0 0 0 0 4044783.9914252758 -1442750.1708989907 0 -1442750.1708989907 1804640.6131899781 0 0 0 0 11025.537340799347 3381.9679316328838 0 3381.9679316328838 -701.98098621755139 0 0 0 0 3786180.6651916504 -1223297.2199213039 0 -1223297.2199213039 -494179.00215227588 0 0 0 0 1716322.5783615112 -2798925.2427617796 0 -2798925.2427617796 2021427.9823498749 0 0 0 0 4239.8813596107066 745.89677050989121 0 745.89677050989121 -904.04576455412416 0 0 0 0 3015037.1302566528 -545637.88049401296 0 -545637.88049401296 -673871.69989955006 0 0 0 0 7700865.0230226517 -1764693.3768179256 0 -1764693.3768179256 2384.7130292344436 0 0 0 0 619935.70483398438 1336326.6329253777 0 1336326.6329253777 -55116.543847775552 0 0 0 0 2125742.9670257568 -140017.38860236085 0 -140017.38860236085 -358020.03779683157 0 0 0 0 -490721.8966178894 1244845.9443883849 0 1244845.9443883849 83449.845577225555 0 0 0 0 -296013.74709320068 210731.58816123265 0 210731.58816123265 213245.36990406737 0 0 0 0 971910.6061706543 692149.82991281152 0 692149.82991281152 -1375229.9476712616 0 0 0 0 297725.57551574707 681057.62077255547 0 681057.62077255547 -1646379.9063560888 0 0 0 0 2907753.464263916 -561356.80720467283 0 -561356.80720467283 -759020.04590275395 0 0 0 0 1921827.6667251587 -2896468.4443023731 0 -2896468.4443023731 3452424.0440002093 0 0 0 0 679950.49240112305 -1458788.2150791045 0 -1458788.2150791045 -787151.48240607278 0 0 0 0 1258099.8642807007 -1331768.8244258254 0 -1331768.8244258254 1874895.4927283013 0 0 0 0 6620258.370267868 -1130435.3839510237 0 -1130435.3839510237 163151.01983888692 0 0 0 0 5630588.3608551025 -5810393.7753266087 0 -5810393.7753266087 2569809.3991394276 0 0 0 0 5707873.8887939453 -2575259.504070112 0 -2575259.504070112 1118.8075697200043 0 0 0 0 2154405.3558502197 424935.47134575003 0 424935.47134575003 1190563.240985441 0 0 0 0 1495818.2678451538 -439040.85421056504 0 -439040.85421056504 694683.48819831456 0 0 0 0 -317550.30182266235 925187.66952067742 0 925187.66952067742 2163.7157093408568 0 0 0 0 -150084.04388427734 708052.59531584335 0 708052.59531584335 -2294248.4539469983 0 0 0 0 -519413.91777038574 1272900.5992372176 0 1272900.5992372176 -1092074.794723578 0 0 0 0 414247.38362889737 -539864.54504605569 0 -539864.54504605569 -44454.407038793463 0 0 0 0 -722356.20546340942 465245.92896363867 0 465245.92896363867 -516875.16814756324 0 0 0 0 -937676.8317565918 550039.86268987658 0 550039.86268987658 -1559.4316509510836 0 0 0 0 280223.73294514418 -460854.22294565663 0 -460854.22294565663 464035.8303015008 0 0 0 0 84573.438111305237 -289544.17268594558 0 -289544.17268594558 1427613.2220262401 0 0 0 0 94278.796487987041 -324152.13788448833 0 -324152.13788448833 485809.49420646857 0 0 0 0 642908.05589294434 -1324467.1314054625 0 -1324467.1314054625 -210.26720756619966 0 0 0 0 198429.59935760498 -672808.43559316895 0 -672808.43559316895 928159.87294024427 0 0 0 0 448643.07797241211 -2174455.45304295 0 -2174455.45304295 1254159.420443241 0 0 0 0 25715.329540533945 -34922.884638646618 0 -34922.884638646618 -16882.655363082165 0 0 0 0 292795.78109741211 -252848.661799344 0 -252848.661799344 2022298.0900283605 0 0 0 0 -71686001.876667023 2125126.1018004641 0 2125126.1018004641 37201438.164977193 0 0 0 0 336241.90470206551 -666483.00981857441 0 -666483.00981857441 355862.20731078763 0 0 0 0 744057.28178596497 -533664.63675693143 0 -533664.63675693143 201008.46771296114 0 0 0 0 203175.45814398304 -173201.35655197222 0 -173201.35655197222 -39612.717334232264 0 0 0 0 548884.83225250244 -659790.97733020782 0 -659790.97733020782 275828.26697921753 0 0 0 0 352331.19118118286 -847994.76697790623 0 -847994.76697790623 349876.36262798309 0 0 0 0 -159643.11589050293 -661113.81116354465 0 -661113.81116354465 1150639.6658933163 0 0 0 0 353155.50932290405 -555192.30034352653 0 -555192.30034352653 206697.01468790253 0 0 0 0 321199.15483093262 -443055.5527176857 0 -443055.5527176857 292804.62993758917 0 0 0 0 516994.6280670166 -818204.01512539387 0 -818204.01512539387 1001753.7879128456 0 0 0 0 1460389.421661377 -2179229.8916444778 0 -2179229.8916444778 2777401.6497559547 0 0 0 0 638123.98065948486 -640810.2120141089 0 -640810.2120141089 478355.11897325516 0 0 0 0 -28505.182913593948 -71348.074674507603 0 -71348.074674507603 120982.46104109194 0 0 0 0 -1299650.4895553589 -132879.15069329739 0 -132879.15069329739 9098378.096818924 0 0 0 0 1517202.232052803 -3211426.0039387196 0 -3211426.0039387196 6780270.6624760628 0 0 0 0 -1669668.6058731079 1515965.8475072384 0 1515965.8475072384 2756195.12888515 0 0 0 0 768675.27513885498 -1550909.3360259533 0 -1550909.3360259533 2635568.3579654694 0 0 0 0 1128477.9366149902 -1513981.8464751244 0 -1513981.8464751244 617951.14110136032 0 0 0 0 636049.45084381104 -811872.65164852142 0 -811872.65164852142 417830.43063044548 0 0 0 0 -418728.25308227539 -1340393.774657011 0 -1340393.774657011 2075028.7999398708 0 0 0 0 -81284.429429316893 -220131.38951634429 0 -220131.38951634429 365842.70493746293 0 0 0 0 -571911.00045776367 77576196.540920749 0 77576196.540920749 -10102345.184810616 0 0 0 0 35714228.842514038 6715565.010445416 0 6715565.010445416 29406720.994540215 0 0 0 0 239708882.81940079 26854590.861302372 0 26854590.861302372 -8474346.0665223002 0 0 0 0 171655.85214088857 -4603.6251229277113 0 -4603.6251229277113 -4563.1080918037569 0 0 0 0 198131370.32735443 -69303757.999090999 0 -69303757.999090999 6057880.6464460837 0 0 0 0 185682083.45893097 69246029.340868235 0 69246029.340868235 -49631341.534443721 0 0 0 0 376573473.5929184 2885759.6246584379 0 2885759.6246584379 -206066.52487993025 0 0 0 0 353607166.48283005 -73529752.454485148 0 -73529752.454485148 5410540.1776393205 0 0 0 0 408032147.62817383 -15026620.106897786 0 -15026620.106897786 -72199534.13115859 0 0 0 0 232070533.23876953 -5095693.0901403073 0 -5095693.0901403073 -59713858.356983602 0 0 0 0 383981817.56318665 -56737231.665414363 0 -56737231.665414363 -43966804.031328976 0 0 0 0 370290039.2301178 20708461.677383542 0 20708461.677383542 -46256603.403528452 0 0 0 0 171981976.52900887 -42651854.140670478 0 -42651854.140670478 -32274354.149861425 0 0 0 0 198047017.18499756 9223357.1834512129 0 9223357.1834512129 -27309317.715716302 0 0 0 0 199343594.14753723 4106752.4685518593 0 4106752.4685518593 56208020.297214665 0 0 0 0 194691926.84768009 37795666.504450351 0 37795666.504450351 -71478139.177233696 0 0 0 0 126435.37898591906 -257464.68559108768 0 -257464.68559108768 477556.39627121727 0 0 0 0 472455.57836914062 -531930.62649127364 0 -531930.62649127364 1470.0658669873299 0 0 0 0 488257.04182434082 -655076.93296008476 0 -655076.93296008476 913054.82493693079 0 0 0 0 1665065.5261383057 35079121.314061522 0 35079121.314061522 -35991318.137151331 0 0 0 0 1149733.6064529419 33323766.37495245 0 33323766.37495245 25970291.307492912 0 0 0 0 101948075.89474487 -18452340.909156382 0 -18452340.909156382 20318395.009628937 0 0 0 0 -9581104.230342865 52543870.780780703 0 52543870.780780703 34441562.521294832 0 0 0 0 -21741215.140739441 -26009464.972114801 0 -26009464.972114801 -29414018.218770266 0 0 0 0 20124163.374893188 -65716177.721943736 0 -65716177.721943736 8073359.3796228766 0 0 0 0 127849.8969684355 83768.231902684551 0 83768.231902684551 57215.766755984136 0 0 0 0 244246565.7353363 165033185.93667728 0 165033185.93667728 -135800475.79164386 0 0 0 0 -2843923.7422790527 30076290.552386165 0 30076290.552386165 104865792.78940845 0 0 0 0 226426373.81579638 31157186.863127343 0 31157186.863127343 224424912.27504313 0 0 0 0 225265202.39712524 8836905.4832528234 0 8836905.4832528234 29462401.506108761 0 0 0 0 176630851.31923676 87395713.632535666 0 87395713.632535666 70190694.282847404 0 0 0 0 264803851.37726593 18925954.17542246 0 18925954.17542246 -27311048.569187403 0 0 0 0 163140948.12869263 -50556961.678034872 0 -50556961.678034872 6006250.5987428725 0 0 0 0 488351472.13516712 -152290995.03449664 0 -152290995.03449664 25836684.732191205 0 0 0 0 434889155.30070496 141068607.75521797 0 141068607.75521797 60131315.572948456 0 0 0 0 563003106.05734253 -63942878.805707574 0 -63942878.805707574 -3945045.7611978054 0 0 0 0 291113964.21748352 180313202.65695119 0 180313202.65695119 42549743.853948772 0 0 0 0 282343.91933694296 -148421.74518475868 0 -148421.74518475868 14929.566939454962 0 0 0 0 585358092.61066246 24042067.147705227 0 24042067.147705227 62845643.197158575 0 0 0 0 21638487.107192993 25310991.486657411 0 25310991.486657411 -20097456.500389218 0 0 0 0 6792365.3431625366 30295653.789024413 0 30295653.789024413 23030667.674295783 0 0 0 0 21828121.010719299 -82691290.129008532 0 -82691290.129008532 70929632.768244624 0 0 0 0 -5508171.4633636475 15742007.436035335 0 15742007.436035335 67792610.51584816 0 0 0 0 20379810.122329712 -41776507.250258774 0 -41776507.250258774 76956556.232138395 0 0 0 0 135490560.99188995 -10194695.548692837 0 -10194695.548692837 31568594.589119554 0 0 0 0 187028952.86495256 9606133.1611317918 0 9606133.1611317918 -81072859.816474438 0 0 0 0 185472069.12709045 25727807.677681923 0 25727807.677681923 -59905076.695421696 0 0 0 0 76862201.299592972 -5333537.9960155189 0 -5333537.9960155189 -37625371.431200743 0 0 0 0 99635898.80027771 108121227.4021641 0 108121227.4021641 58953974.799189568 0 0 0 0 299461210.03412628 18850543.202127457 0 18850543.202127457 -67900680.461971283 0 0 0 0 509101690.71324158 85561204.227629304 0 85561204.227629304 -80775808.619066715 0 0 0 0 245102827.16696167 47748653.727404833 0 47748653.727404833 -77292731.509528577 0 0 0 0 274567953.89823151 -7234066.4577333927 0 -7234066.4577333927 -50528092.385953426 0 0 0 0 173133858.19373322 -62259411.182477474 0 -62259411.182477474 -2902904.6511490345 0 0 0 0 411551701.83082771 -227836855.85683918 0 -227836855.85683918 98373794.371932507 0 0 0 0 90247603.407150269 -41311709.030387044 0 -41311709.030387044 4822785.0137994289 0 0 0 0 97273776.075485229 -28510320.147241354 0 -28510320.147241354 5970121.2505458593 0 0 0 0 318272.36386409402 157465.364828947 0 157465.364828947 104278.55394638781 0 0 0 0 194781.17755308561 -238471.91117666848 0 -238471.91117666848 33749.856019177474 0 0 0 0 36271557.115943909 -24852245.533680201 0 -24852245.533680201 20678560.666206598 0 0 0 0 106195997.73927307 10643150.578400016 0 10643150.578400016 -11303878.970411301 0 0 0 0 137221647.93816376 -17026221.961256742 0 -17026221.961256742 -4410729.515029192 0 0 0 0 74048.910986782052 -96477.079957453534 0 -96477.079957453534 10799.181961322203 0 0 0 0 12706905.068174362 14864674.832701504 0 14864674.832701504 15597360.305609226 0 0 0 0 75490498.387275696 94467980.810924053 0 94467980.810924053 15828973.411547661 0 0 0 0 37591408.932762146 12092785.969950438 0 12092785.969950438 35132000.674750656 0 0 0 0 161972737.08431625 16960652.003293395 0 16960652.003293395 -54091935.57485342 0 0 0 0 157377694.14837646 10858366.187702537 0 10858366.187702537 33514104.830654144 0 0 0 0 250246664.85926819 45132568.704397649 0 45132568.704397649 -78340242.014986038 0 0 0 0 240843952.86698914 80859630.941877961 0 80859630.941877961 -10837398.243981361 0 0 0 0 161368794.12278748 -6407608.8775136471 0 -6407608.8775136471 77906810.857340336 0 0 0 0 334745733.37257385 41162890.517078876 0 41162890.517078876 -78869235.366679668 0 0 0 0 208608046.44779968 15429720.732620001 0 15429720.732620001 -83943324.121891975 0 0 0 0 180913939.08178711 29955462.119474411 0 29955462.119474411 -67673260.579730511 0 0 0 0 5685968.255563736 -4983199.845208168 0 -4983199.845208168 2792712.5912454128 0 0 0 0 2707.1189484186471 15533.969866451807 0 15533.969866451807 72136.408344251802 0 0 0 0 -5362840.7440032959 -7082081.8244724274 0 -7082081.8244724274 9514946.5503957272 0 0 0 0 -14702720.786361694 -19145020.261387825 0 -19145020.261387825 16529169.321237087 0 0 0 0 9883521.8003845215 -2209468.6638309956 0 -2209468.6638309956 -29360552.364140511 0 0 0 0 -10578013.530602455 15693645.106904894 0 15693645.106904894 -1539491.6364011765 0 0 0 0 -15616998.079864502 -16735652.29758215 0 -16735652.29758215 1330546.6951696873 0 0 0 0 -656214.8074798584 1288334.4726212025 0 1288334.4726212025 10429093.455172777 0 0 0 0 -651319.25616455078 2587752.8744165897 0 2587752.8744165897 3438504.9075796604 0 0 0 0 873795.77503204346 880016.14991164207 0 880016.14991164207 -933205.36109471321 0 0 0 0 1100840.6604232788 180397.29760587215 0 180397.29760587215 1133979.2974075973 0 0 0 0 54190.002755410969 -780.31926645152271 0 -780.31926645152271 178610.08639439335 0 0 0 0 577989.93748474121 -542402.38220369816 0 -542402.38220369816 525821.59814333916 0 0 0 0 -1930077.1244049072 3191039.4754471779 0 3191039.4754471779 6389027.2009568214 0 0 0 0 1215686.4136581421 1969600.5017491579 0 1969600.5017491579 6855083.1712124348 0 0 0 0 -14512948.092697144 -6743137.6577661037 0 -6743137.6577661037 16669555.897366166 0 0 0 0 -520543.90369415283 107785.79668706656 0 107785.79668706656 12832457.738730907 0 0 0 0 -11613244.563858032 -25938412.520563364 0 -25938412.520563364 -9895040.5436403751 0 0 0 0 -12237355.254592896 -17993985.392060399 0 -17993985.392060399 37036608.824599743 0 0 0 0 -2084112.3995437622 -13961349.569068193 0 -13961349.569068193 -4710665.1518208981 0 0 0 0 -4630627.4172897339 -8200351.4944717884 0 -8200351.4944717884 -9119471.7352871895 0 0 0 0 -8578138.0891227722 -16841907.014290035 0 -16841907.014290035 -208929.8401017189 0 0 0 0 407806.69383239746 -7031713.4634463787 0 -7031713.4634463787 7938747.2682743073 0 0 0 0 -294605.84719085693 -12098845.729284048 0 -12098845.729284048 -3061755.0186200142 0 0 0 0 -18179091.847816467 -1884162.0841200352 0 -1884162.0841200352 4070161.6022734642 0 0 0 0 1030036.6963882446 -6588416.4291954041 0 -6588416.4291954041 2318897.4623376131 0 0 0 0 5256867.8116569519 -15737992.395031095 0 -15737992.395031095 -686846.73303890228 0 0 0 0 8481210.2938842773 -5419303.0954492092 0 -5419303.0954492092 -26439731.302513838 0 0 0 0 2721113.965007972 -485055.34958517045 0 -485055.34958517045 -479578.62740069098 0 0 0 0 67746424.936378479 -68002179.947203159 0 -68002179.947203159 -9836365.8155403137 0 0 0 0 -165910.44010381773 -85997.61330117099 0 -85997.61330117099 259548.36962314602 0 0 0 0 -14506106.905212402 -5232796.3778481483 0 -5232796.3778481483 49747668.939611316 0 0 0 0 77680081.891204834 -6314654.2203042507 0 -6314654.2203042507 -9216874.615457058 0 0 0 0 -18524187.112190247 -17117430.026305199 0 -17117430.026305199 55219071.315074682 0 0 0 0 -8909010.8472557068 -13873411.469824016 0 -13873411.469824016 33627905.179543018 0 0 0 0 2497125.4641304016 -14651959.685842872 0 -14651959.685842872 -52685079.670156479 0 0 0 0 2010486.0820592307 -447401.25323824305 0 -447401.25323824305 -276926.94274948951 0 0 0 0 21278763.073505402 -7433387.1889106035 0 -7433387.1889106035 18250753.850677729 0 0 0 0 -13281788.134864807 -21660803.427571058 0 -21660803.427571058 67414939.867927372 0 0 0 0 321613.8421087265 -22428741.658303902 0 -22428741.658303902 -5900016.0621914864 0 0 0 0 -6801109.6446075439 -22689835.572679996 0 -22689835.572679996 15236133.623285174 0 0 0 0 577542.78469617665 -515774.98057584185 0 -515774.98057584185 -259325.92282529289 0 0 0 0 5319823.9566240311 -3155019.2259400338 0 -3155019.2259400338 -28787255.15875721 0 0 0 0 34054851.937759399 -866024.85437011719 0 -866024.85437011719 -194813.54301571846 0 0 0 0 101109601.95622253 29418838.15489912 0 29418838.15489912 -8873681.1742334366 0 0 0 0 17399.786055766046 -28172.81550569227 0 -28172.81550569227 -17473.639263736841 0 0 0 0 4035413.0209197998 -22132299.993091226 0 -22132299.993091226 -21772802.177350044 0 0 0 0 5318643.924659729 -30821603.527769804 0 -30821603.527769804 -41882487.832762241 0 0 0 0 -25630094.218612671 -17052032.661847711 0 -17052032.661847711 -10473230.238926291 0 0 0 0 -313258.5203614831 -270736.95484710857 0 -270736.95484710857 548045.99655346712 0 0 0 0 26605854.277679443 -257013.99155378342 0 -257013.99155378342 -24133282.234139919 0 0 0 0 41941961.465042114 -7868157.6051552296 0 -7868157.6051552296 -51091936.632317543 0 0 0 0 40283449.101104736 12732100.323202133 0 12732100.323202133 -17342908.990400314 0 0 0 0 -16674340.603408813 7145168.6658611298 0 7145168.6658611298 19382297.192938209 0 0 0 0 379201871.93498707 171058377.74259469 0 171058377.74259469 199853386.66544914 0 0 0 0 187614849.97232819 -3519748.8948837519 0 -3519748.8948837519 107900296.90039873 0 0 0 0 286409378.35733795 -128332170.63749337 0 -128332170.63749337 194124063.15482044 0 0 0 0 398269106.24900818 -11082799.379187346 0 -11082799.379187346 -37232460.346729755 0 0 0 0 255333432.63952637 184821490.14117235 0 184821490.14117235 22020972.330360889 0 0 0 0 461677.23671836406 -99686.41355373821 0 -99686.41355373821 -34311.403076986579 0 0 0 0 447421341.83624268 -100367075.93848228 0 -100367075.93848228 -42749333.996220112 0 0 0 0 37506414.082237244 -86300525.706264734 0 -86300525.706264734 265241832.16854548 0 0 0 0 29383145.58808136 13842833.172754645 0 13842833.172754645 77501905.029586077 0 0 0 0 1286318.3265923001 -303238.16116030992 0 -303238.16116030992 -134446.84210766936 0 0 0 0 71871248.081176758 -10395093.020170689 0 -10395093.020170689 -90319346.512724638 0 0 0 0 -39428170.463272095 -19016791.701426029 0 -19016791.701426029 126963686.02324831 0 0 0 0 577587.72274743393 -431508.82584780781 0 -431508.82584780781 -277720.05216310831 0 0 0 0 23818956.421728134 3730086.004232049 0 3730086.004232049 -101208588.10131931 0 0 0 0 38616109.547164917 -101713315.34756386 0 -101713315.34756386 90971132.321252704 0 0 0 0 42289191.562667847 -63396185.348077774 0 -63396185.348077774 15391840.315569878 0 0 0 0 68602653.527393341 -74642350.795669079 0 -74642350.795669079 76787027.628163576 0 0 0 0 -64185048.380714417 -66249195.445492268 0 -66249195.445492268 53352528.688739538 0 0 0 0 161231485.93523407 122212446.20688534 0 122212446.20688534 -192475524.79788637 0 0 0 0 265267.70464489236 -180128.53719712328 0 -180128.53719712328 -126349.31330480671 0 0 0 0 128826652.53288651 -190118069.01637638 0 -190118069.01637638 255428509.28904152 0 0 0 0 352179962.5630188 -20068108.722425222 0 -20068108.722425222 18675788.439016879 0 0 0 0 45162582.636779785 8769236.794065237 0 8769236.794065237 34100867.713778913 0 0 0 0 200558922.34755707 115714039.0838517 0 115714039.0838517 74173293.716384888 0 0 0 0 810338.11263465881 71637937.258284926 0 71637937.258284926 -3079887.5180761814 0 0 0 0 199784040.97725677 101614078.34059632 0 101614078.34059632 -4057601.5248534679 0 0 0 0 69292205.097161293 -75819607.563096896 0 -75819607.563096896 -153287305.18177652 0 0 0 0 121864059.91556168 16532761.018722773 0 16532761.018722773 -76480556.311555147 0 0 0 0 247794.33548733965 -293699.54126996035 0 -293699.54126996035 61309.458943964943 0 0 0 0 -24009561.334144592 -12052998.464937508 0 -12052998.464937508 -36133109.139255121 0 0 0 0 27400413.939704895 25562847.294765949 0 25562847.294765949 -30551657.938193083 0 0 0 0 -42094683.51556015 -88746516.053891301 0 -88746516.053891301 79213123.796145678 0 0 0 0 113429.04055446386 -175252.51428572601 0 -175252.51428572601 39073.762708722919 0 0 0 0 58230663.042751312 -145193471.14452076 0 -145193471.14452076 49360325.178151131 0 0 0 0 200197657.14910889 -114791017.08003306 0 -114791017.08003306 15417503.965406008 0 0 0 0 215677971.46832275 -102858496.22574973 0 -102858496.22574973 -14942680.198144913 0 0 0 0 105608260.76831055 -17099133.04137218 0 -17099133.04137218 -80960912.195118785 0 0 0 0 126628646.89752197 -2618227.6399264336 0 -2618227.6399264336 -26285773.64030242 0 0 0 0 99730290.735870361 -28127982.684913754 0 -28127982.684913754 -43191465.347160876 0 0 0 0 52868709.137046814 -40537350.199115038 0 -40537350.199115038 -27292064.4333992 0 0 0 0 18104330.442150116 -37627303.59669631 0 -37627303.59669631 -28429422.237466455 0 0 0 0 21820329.574897766 -14180709.576397061 0 -14180709.576397061 -51056105.046220198 0 0 0 0 -2843634.3201656342 16677900.111016899 0 16677900.111016899 -30688917.975365043 0 0 0 0 -24031886.215988159 -14261932.413726032 0 -14261932.413726032 -23366321.424848557 0 0 0 0 -5751355.3670578003 -1054607.6298260689 0 -1054607.6298260689 -32018921.278500557 0 0 0 0 -31808519.557376862 -11284132.052537292 0 -11284132.052537292 -25227038.010210991 0 0 0 0 -14625788.229148865 -17018518.888231486 0 -17018518.888231486 -93058646.866153419 0 0 0 0 -1647955.4470214844 8057699.2226200104 0 8057699.2226200104 -57174681.113545179 0 0 0 0 37404227.94960022 -33856193.943857253 0 -33856193.943857253 -21814030.022244215 0 0 0 0 -5799150.4151659012 -650025.20229082555 0 -650025.20229082555 -19226438.782682896 0 0 0 0 9793999.7068595886 -23149437.916594803 0 -23149437.916594803 -9878323.783182621 0 0 0 0 32464470.129524231 -20130390.544355214 0 -20130390.544355214 -30293137.292922854 0 0 0 0 37146681.910697937 6780808.4507929087 0 6780808.4507929087 -23701835.516254544 0 0 0 0 37732949.844470978 944763.46168988943 0 944763.46168988943 -11854457.480902076 0 0 0 0 46540693.655910492 -10068251.806899488 0 -10068251.806899488 -33939470.313875198 0 0 0 0 15127347.588272095 -694516.03300309181 0 -694516.03300309181 -26233140.536397874 0 0 0 0 17027026.054000854 -8273594.871997118 0 -8273594.871997118 -37479233.752261519 0 0 0 0 -32801505.983520508 -29888860.138190985 0 -29888860.138190985 -67434101.908517122 0 0 0 0 5771881.992980957 -8624585.655613184 0 -8624585.655613184 -32005412.515555859 0 0 0 0 -33447988.341705322 -37313061.959210396 0 -37313061.959210396 -41876867.735778809 0 0 0 0 49769.789351150393 -1345.011245816946 0 -1345.011245816946 179301.64063882024 0 0 0 0 -34173992.093734741 -21524033.279358387 0 -21524033.279358387 6561141.3074851632 0 0 0 0 -23783221.772798538 -61332948.311366796 0 -61332948.311366796 -68047734.293683529 0 0 0 0 -14476636.428085327 -35130019.64433527 0 -35130019.64433527 -82714570.378351927 0 0 0 0 -22716268.75466156 -31987126.011536121 0 -31987126.011536121 -27115115.247053146 0 0 0 0 -6607408.864364624 26134049.67274332 0 26134049.67274332 5231258.8863501549 0 0 0 0 209654580.09605408 -123274517.1003027 0 -123274517.1003027 54631237.808527827 0 0 0 0 122887606.94564819 61324304.97339344 0 61324304.97339344 -31593470.273470163 0 0 0 0 1135.6396872047335 -15489.610485115089 0 -15489.610485115089 108509.74342982133 0 0 0 0 -57767938.090606689 -104651476.69063163 0 -104651476.69063163 33632703.424726009 0 0 0 0 60696171.896713257 -158148976.28720927 0 -158148976.28720927 39724620.766082868 0 0 0 0 11565501.584609985 -76687854.594888806 0 -76687854.594888806 1151354.1843400002 0 0 0 0 196099551.56037521 -90709652.5424335 0 -90709652.5424335 -36235968.812021017 0 0 0 0 7247946.3067626953 -16945109.800116062 0 -16945109.800116062 -21595558.159059525 0 0 0 0 -57016266.361596465 -21435031.916971263 0 -21435031.916971263 -22100127.382766724 0 0 0 0 -10514280.05229187 -68279374.314242959 0 -68279374.314242959 23793845.625441313 0 0 0 0 40916355.765750885 -81667949.223127529 0 -81667949.223127529 156338.01516103745 0 0 0 0 58808188.759901047 -26524536.760992721 0 -26524536.760992721 -12640117.940231323 0 0 0 0 65564561.869720459 -88898744.454772472 0 -88898744.454772472 -22043044.557622671 0 0 0 0 56600875.879669189 -72872730.106461406 0 -72872730.106461406 -34474602.20308955 0 0 0 0 111376494.79753876 -63458340.811627463 0 -63458340.811627463 -34539642.7960473 0 0 0 0 130404705.54724884 13104269.142558265 0 13104269.142558265 8172693.8206522465 0 0 0 0 60688124.089782715 -26375145.644933403 0 -26375145.644933403 -13833806.74300611 0 0 0 0 55343305.02626133 19508510.922419604 0 19508510.922419604 15520964.010511875 0 0 0 0 34274000.952457428 -4142457.6074267626 0 -4142457.6074267626 -11018182.028696537 0 0 0 0 49203118.290603638 -19841163.282501385 0 -19841163.282501385 18421155.108100031 0 0 0 0 911567.94515228271 -15707459.0838269 0 -15707459.0838269 13747342.098412216 0 0 0 0 -5228305.0732192993 -8687830.1184110194 0 -8687830.1184110194 7950148.9150700569 0 0 0 0 4780654.7720899582 -1597648.9809383824 0 -1597648.9809383824 -24676775.870369911 0 0 0 0 4851849.0903015137 -3093692.0293660164 0 -3093692.0293660164 -4733582.3787024021 0 0 0 0 25492218.566131592 7595266.2711948156 0 7595266.2711948156 -2945445.8370699883 0 0 0 0 19260394.105903625 -7934988.2190160751 0 -7934988.2190160751 -8235941.7045135498 0 0 0 0 6333837.702041626 6054560.759860158 0 6054560.759860158 -9086989.0776047111 0 0 0 0 2054669.6286315918 2159577.2873291373 0 2159577.2873291373 -6939629.4602930546 0 0 0 0 239847.08786113933 -316636.70803872496 0 -316636.70803872496 -228334.24724101496 0 0 0 0 40240806.466674805 -22816991.342223108 0 -22816991.342223108 13613.220013141632 0 0 0 0 120126.59279325977 -147634.14297933551 0 -147634.14297933551 -107672.30806894272 0 0 0 0 15803577.147987366 -7003024.5901284218 0 -7003024.5901284218 -15328828.24395752 0 0 0 0 8826210.0178146362 -12902132.915006757 0 -12902132.915006757 -17166475.528967619 0 0 0 0 915863.37309265137 9988112.2962076664 0 9988112.2962076664 -39947658.162564158 0 0 0 0 -3591300.4555740356 -5518173.0555517673 0 -5518173.0555517673 -12806805.168861866 0 0 0 0 -4393128.6778793335 6585354.4830098152 0 6585354.4830098152 -9900275.2724933624 0 0 0 0 -50201778.242218018 -8249592.8989892006 0 -8249592.8989892006 -25318002.516747952 0 0 0 0 227100.22033932433 -333274.57020307891 0 -333274.57020307891 -236153.22793832584 0 0 0 0 17063139.199142456 -128529.68734192848 0 -128529.68734192848 -20416777.645198584 0 0 0 0 -5241903.437107563 -25573386.527806193 0 -25573386.527806193 -51882174.820986986 0 0 0 0 -74767850.243213654 -37906571.524291515 0 -37906571.524291515 -15752742.58915174 0 0 0 0 1118985.4948556488 400313.98807973508 0 400313.98807973508 85067.039552206523 0 0 0 0 -7470354.0226974487 -15991109.759126801 0 -15991109.759126801 -11987348.94094459 0 0 0 0 -26825409.880302429 -17343337.27405639 0 -17343337.27405639 -4900841.4409071505 0 0 0 0 3571393.7217538869 1104176.7194771813 0 1104176.7194771813 218435.99425067031 0 0 0 0 -53081064.957069397 -25370631.133986272 0 -25370631.133986272 1046375.216251649 0 0 0 0 -26963051.739057779 -19528858.583995506 0 -19528858.583995506 -18880026.996870875 0 0 0 0 28273998.276508331 8366124.1862040125 0 8366124.1862040125 -3252448.8853146136 0 0 0 0 30651943.685829163 195599.94221118093 0 195599.94221118093 24768757.418845594 0 0 0 0 13039983.107748985 -8762868.0940661579 0 -8762868.0940661579 -21443640.273292303 0 0 0 0 6234697.3858337402 -22526587.359985232 0 -22526587.359985232 -28111079.486201584 0 0 0 0 47217615.376823425 20915517.316373825 0 20915517.316373825 -67213510.825642467 0 0 0 0 68381501.924659729 26983900.304877043 0 26983900.304877043 -34220615.024648666 0 0 0 0 17886379.384723663 -9245050.6316534281 0 -9245050.6316534281 96384.887868881226 0 0 0 0 4336244.2324047089 -4271455.7819414139 0 -4271455.7819414139 7772832.6491527557 0 0 0 0 15562044.500123978 18755871.181455612 0 18755871.181455612 11155366.346585155 0 0 0 0 10229876.672716618 7676208.3817741238 0 7676208.3817741238 -3423681.455796361 0 0 0 0 9069086.7587851025 -2431522.1769901277 0 -2431522.1769901277 -3275318.933489305 0 0 0 0 16397612.433953285 -7357072.2401815057 0 -7357072.2401815057 -11521291.471282482 0 0 0 0 -15635994.586196899 -10684638.130144715 0 -10684638.130144715 4616995.5025698543 0 0 0 0 15779386.377665043 4307354.1230048202 0 4307354.1230048202 10061516.746006012 0 0 0 0 15298744.519180298 6691692.5808975697 0 6691692.5808975697 -3688243.3259263039 0 0 0 0 -789087.55780029297 1230209.1290588379 0 1230209.1290588379 -1188971.0076335669 0 0 0 0 8675886.4637423344 -2025938.3042753246 0 -2025938.3042753246 -3843436.8147530174 0 0 0 0 6878793.8844528198 -13576665.21596384 0 -13576665.21596384 -14793844.484814644 0 0 0 0 11564368.498313904 -8209344.6779497862 0 -8209344.6779497862 -8887343.936229229 0 0 0 0 23623936.673934937 -38356891.076034844 0 -38356891.076034844 -13451187.149825096 0 0 0 0 -12280494.165260315 -29534837.636380434 0 -29534837.636380434 -27270213.811415672 0 0 0 0 -1301938.7179870605 -13350630.846975327 0 -13350630.846975327 -38107088.811590433 0 0 0 0 -23241198.884040833 -11372559.172926843 0 -11372559.172926843 -13519607.613453865 0 0 0 0 1816685.2448272705 -1627766.5417606831 0 -1627766.5417606831 -31113877.456165344 0 0 0 0 6076520.6963233948 -10654048.376429081 0 -10654048.376429081 -15126597.661890984 0 0 0 0 36502226.163894653 -2837499.4491271973 0 -2837499.4491271973 -41858748.451453209 0 0 0 0 27513827.118408203 -8009017.4797790051 0 -8009017.4797790051 28818557.145103276 0 0 0 0 18683968.83039856 6347860.1834380627 0 6347860.1834380627 5494895.2969179153 0 0 0 0 19368288.12071228 7630753.4809529781 0 7630753.4809529781 -8619071.4936709404 0 0 0 0 -18367111.246643066 -39351481.185013294 0 -39351481.185013294 36420021.596094608 0 0 0 0 108154.95489532873 -165483.92417863291 0 -165483.92417863291 -115813.64371294872 0 0 0 0 -5522712.8921813965 -64106488.346477032 0 -64106488.346477032 5530639.1674492359 0 0 0 0 -45496575.172576904 -56062330.246560812 0 -56062330.246560812 4129876.3194048405 0 0 0 0 52863816.847984314 -621235.38221001625 0 -621235.38221001625 -3806406.0398454666 0 0 0 0 188056.71645188052 -75110.690161921084 0 -75110.690161921084 -120583.86544221832 0 0 0 0 -24468440.904266357 -25943678.960543633 0 -25943678.960543633 -16212733.351400852 0 0 0 0 16943550.774108887 -1006561.5350716114 0 -1006561.5350716114 -2602715.3667901456 0 0 0 0 17633329.319458008 -11469997.868076563 0 -11469997.868076563 -6083100.8166031837 0 0 0 0 38427390.175186157 3490167.9933819771 0 3490167.9933819771 -2732228.1050546467 0 0 0 0 25419648.794799805 -11150529.353763819 0 -11150529.353763819 2983976.4570026398 0 0 0 0 23608067.817657471 -5809822.925432682 0 -5809822.925432682 -12587551.077587128 0 0 0 0 12468711.869651794 -8295041.5667302608 0 -8295041.5667302608 -612410.45492076874 0 0 0 0 15196274.582176208 -9435082.511081934 0 -9435082.511081934 -6597783.7455883026 0 0 0 0 25241298.417289734 -5916994.2616449594 0 -5916994.2616449594 -6994754.1019515991 0 0 0 0 16527151.400766373 -12555855.619819343 0 -12555855.619819343 -1861712.3642511368 0 0 0 0 11608071.85684967 -1410663.5279331207 0 -1410663.5279331207 -1707820.9747693539 0 0 0 0 15690267.860824585 -1890255.5546678305 0 -1890255.5546678305 -1670284.8516721725 0 0 0 0 671601.64381095022 -306195.16441213526 0 -306195.16441213526 -470777.88780955679 0 0 0 0 3070184.8679234013 -479053.17016534694 0 -479053.17016534694 -1157295.7385714457 0 0 0 0 3135864.2330932617 -935908.62824690342 0 -935908.62824690342 -1814975.3148907572 0 0 0 0 2210469.1420249939 -1222249.2741137892 0 -1222249.2741137892 -1581207.3010268956 0 0 0 0 2094922.2230873108 69149.577233850956 0 69149.577233850956 -1591697.1870279312 0 0 0 0 2202750.5117950439 398862.37587302923 0 398862.37587302923 -1365508.4548022747 0 0 0 0 3134942.682457516 -781723.07461595815 0 -781723.07461595815 -1364844.7906426163 0 0 0 0 7785496.4103240967 -4857412.3634200096 0 -4857412.3634200096 2543854.8151420355 0 0 0 0 8709364.3683319092 -8045794.8245444298 0 -8045794.8245444298 5339457.2386903763 0 0 0 0 6624613.1284790039 -7770652.5341076851 0 -7770652.5341076851 8120777.7210788727 0 0 0 0 13793829.513931274 -13566811.781075001 0 -13566811.781075001 5908725.8156280518 0 0 0 0 11023882.977218628 -9756504.3389425278 0 -9756504.3389425278 667801.17623472214 0 0 0 0 11387063.983078003 -8924831.2193074226 0 -8924831.2193074226 2067966.568488121 0 0 0 0 -6185170.061088562 -23449840.504621267 0 -23449840.504621267 -27563157.721325099 0 0 0 0 2603643.2019233704 -10944243.627441645 0 -10944243.627441645 -10103127.33658123 0 0 0 0 -28503646.891929626 -10696953.054918885 0 -10696953.054918885 2928273.1038577557 0 0 0 0 130188.59044208191 -86619.593409459107 0 -86619.593409459107 10366.539654290187 0 0 0 0 -782111.68281932082 -1904456.6568596903 0 -1904456.6568596903 307135.47842866322 0 0 0 0 -4809043.4840240479 -5585937.3262932301 0 -5585937.3262932301 -2902210.4388644695 0 0 0 0 -8689348.8704490662 -8306893.4032313824 0 -8306893.4032313824 -459790.22184944153 0 0 0 0 -1761920.2977218628 -11994273.95523572 0 -11994273.95523572 -9808292.7442182899 0 0 0 0 1473896.4541854858 -4280551.5195403099 0 -4280551.5195403099 -478752.00666453596 0 0 0 0 -1220742.7748184204 -8631893.2248589993 0 -8631893.2248589993 -1963406.7663532495 0 0 0 0 -540709.98244426213 -2434791.6152003929 0 -2434791.6152003929 210232.73060062772 0 0 0 0 2259010.8679122925 -1118057.2497331351 0 -1118057.2497331351 -1731107.7922199368 0 0 0 0 215683.92082214355 -4287948.4226256609 0 -4287948.4226256609 -725433.10741245747 0 0 0 0 8492454.8301849365 -1019461.7801449895 0 -1019461.7801449895 -2488346.2635052204 0 0 0 0 -18138194.109130859 9334214.0257964134 0 9334214.0257964134 2341907.9955186844 0 0 0 0 -5547398.9223022461 12105688.852574348 0 12105688.852574348 9684316.4357357025 0 0 0 0 3344.1154420562088 -78077.350421905518 0 -78077.350421905518 -103175.56147670849 0 0 0 0 8600099.8782653809 -6791781.315988183 0 -6791781.315988183 -2467480.6818678379 0 0 0 0 4883578.6902770996 -4065778.45515275 0 -4065778.45515275 -2038039.435488224 0 0 0 0 5487407.6178665161 -7372477.6003067493 0 -7372477.6003067493 -1894290.3453845978 0 0 0 0 12161186.260620117 -4403739.4099562168 0 -4403739.4099562168 -2688801.872171402 0 0 0 0 -2999017.3733062744 -3141855.631647706 0 -3141855.631647706 -1097488.9313989878 0 0 0 0 218721.55774609745 -168113.67637354229 0 -168113.67637354229 -196215.92938776716 0 0 0 0 4117754.3009490967 14693066.086004674 0 14693066.086004674 -6985429.6193840504 0 0 0 0 2189465.5429239869 -574526.013137253 0 -574526.013137253 -1318263.5244451724 0 0 0 0 -24678755.686740875 -16161105.921965837 0 -16161105.921965837 13654164.614086628 0 0 0 0 17528018.580593109 -24320494.169983149 0 -24320494.169983149 -9163027.2344856262 0 0 0 0 2065629.542175293 1272425.4947420359 0 1272425.4947420359 462817.56621086597 0 0 0 0 706133.85931396484 -107980.42944169044 0 -107980.42944169044 -518722.24818730354 0 0 0 0 391932.1928184405 -161729.69168446492 0 -161729.69168446492 -592170.26170182065 0 0 0 0 576277.3215637207 -121071.9187233448 0 -121071.9187233448 -539878.75085306168 0 0 0 0 1555349.7736637816 4440.9021068308502 0 4440.9021068308502 -686641.14329509903 0 0 0 0 772228.93479919434 1064045.8349952698 0 1064045.8349952698 -1541142.9295454025 0 0 0 0 2519897.5018137991 -360055.73204800673 0 -360055.73204800673 -820279.17162681068 0 0 0 0 254784.72464393917 -115540.32472201902 0 -115540.32472201902 -165532.42557032872 0 0 0 0 12471788.535705566 -3754815.3146915436 0 -3754815.3146915436 330477.69408798218 0 0 0 0 -498221.88333892822 -1045640.7579434514 0 -1045640.7579434514 -1594033.6587473154 0 0 0 0 3567714.8926391602 79852.131141483784 0 79852.131141483784 -1665833.1771708727 0 0 0 0 4796553.8950500488 2110696.9477511644 0 2110696.9477511644 266488.73852825165 0 0 0 0 5916957.4497528076 -1875038.5479150414 0 -1875038.5479150414 -2768542.8214755058 0 0 0 0 4787293.7979736328 1239201.959725976 0 1239201.959725976 -628091.340960145 0 0 0 0 -2410574.4996643066 -1033087.6198472977 0 -1033087.6198472977 -5358652.7415595055 0 0 0 0 -35309.369184233248 -270351.27640550752 0 -270351.27640550752 -63467.100114470297 0 0 0 0 -51964.30528748408 -305678.56790000387 0 -305678.56790000387 -248368.29481609183 0 0 0 0 2737556.51953125 -3229034.7365009785 0 -3229034.7365009785 -11157055.201227307 0 0 0 0 -6333721.5791549683 2743562.3358289599 0 2743562.3358289599 -4978270.2783298492 0 0 0 0 12414663.181981087 -750575.50993734226 0 -750575.50993734226 -3323280.1476783752 0 0 0 0 8627118.2351074219 1511388.5366845131 0 1511388.5366845131 -1724335.2912716866 0 0 0 0 26950070.985649109 -19264545.383531272 0 -19264545.383531272 -3480318.3050999641 0 0 0 0 -3195589.8973999023 702167.24369573593 0 702167.24369573593 -2995887.8719506264 0 0 0 0 37883.33704398945 -94647.919420784339 0 -94647.919420784339 -58148.672851157127 0 0 0 0 1977216.9668212757 -676008.40009352833 0 -676008.40009352833 -1077822.7854348256 0 0 0 0 512512.19975555316 -647387.08242649748 0 -647387.08242649748 -798374.87194960599 0 0 0 0 170884.86519622803 -558994.70997405052 0 -558994.70997405052 -1196313.1093599796 0 0 0 0 1948756.9320125673 -475136.82302057371 0 -475136.82302057371 -1147403.6242341006 0 0 0 0 2190282.1434654389 6437.6752722412348 0 6437.6752722412348 -859213.99611669779 0 0 0 0 750542.99674224854 -284130.70777750015 0 -284130.70777750015 -1027480.875191927 0 0 0 0 -173804.10543823242 -2647145.3906617165 0 -2647145.3906617165 -4296646.3878424168 0 0 0 0 749979.07373046875 -180005.91008019447 0 -180005.91008019447 -1126242.9204239845 0 0 0 0 1199762.1340109203 -632801.87176345754 0 -632801.87176345754 -177931.35964232575 0 0 0 0 782298.89519882202 -250242.03701412678 0 -250242.03701412678 -1118453.8662296534 0 0 0 0 132996.134765625 58065.580887794495 0 58065.580887794495 -2328355.5035615563 0 0 0 0 898447.82681274414 -256953.32656794786 0 -256953.32656794786 -279714.93119120598 0 0 0 0 158460.31900024414 -389745.29845476151 0 -389745.29845476151 -2363364.6020657271 0 0 0 0 710420.11779975891 -154768.36801660061 0 -154768.36801660061 -1026619.7384516001 0 0 0 0 1990180.2153664306 -444229.10837607086 0 -444229.10837607086 -1072596.3360433138 0 0 0 0 436505.72159332037 8893.4399695364991 0 8893.4399695364991 -834887.67856446735 0 0 0 0 -2668.6859304867685 -1603.1960432054475 0 -1603.1960432054475 4960.242960311647 0 0 0 0 10651117.809356689 -1843297.5335216522 0 -1843297.5335216522 4732984.254128933 0 0 0 0 2087577.5747028999 353260.19732436538 0 353260.19732436538 -965420.17657194147 0 0 0 0 846487.32148742676 -375162.97279942036 0 -375162.97279942036 -252426.56549096107 0 0 0 0 19881774.332672119 -15177338.244401455 0 -15177338.244401455 13362341.114082336 0 0 0 0 36952881.974090576 -22333370.725097656 0 -22333370.725097656 -9899339.4311170578 0 0 0 0 96205.158456528559 66720.270475341938 0 66720.270475341938 -90889.935967073776 0 0 0 0 7093460.4483337402 -5773006.4558382034 0 -5773006.4558382034 708239.61053943634 0 0 0 0 1211649.6266379207 -1680441.774377781 0 -1680441.774377781 -384939.94350218691 0 0 0 0 608345.09092671424 -166735.87789067067 0 -166735.87789067067 -74283.052239225246 0 0 0 0 -5443582.8027572632 -2882355.1588218212 0 -2882355.1588218212 9276317.9129171371 0 0 0 0 2710725.3074188232 -3568972.4545445442 0 -3568972.4545445442 8203413.3359050751 0 0 0 0 -8625879.3723754883 -5935973.7281122208 0 -5935973.7281122208 14685637.366109848 0 0 0 0 16961999.610229492 -8348681.6113328934 0 -8348681.6113328934 9738130.5251026154 0 0 0 0 868824.65901184082 -213543.28158712387 0 -213543.28158712387 -1369637.4051558971 0 0 0 0 10019669.658638 -5749277.8814884424 0 -5749277.8814884424 1815819.2984743118 0 0 0 0 -1375111.7489013672 -1716986.4667844772 0 -1716986.4667844772 1378196.8319034576 0 0 0 0 78726.918371822685 -1372504.9724473411 0 -1372504.9724473411 -515551.07143324061 0 0 0 0 2929619.5435393211 -311851.05601638556 0 -311851.05601638556 -826613.78818561928 0 0 0 0 1974179.0548706055 106083.80804955959 0 106083.80804955959 -2888379.0423562527 0 0 0 0 347569.14866638184 -338171.72046631575 0 -338171.72046631575 -1090331.1414585114 0 0 0 0 2188400.5154299028 -914986.7244181172 0 -914986.7244181172 -1018734.4642572827 0 0 0 0 3317218.9157021083 -401133.64979893737 0 -401133.64979893737 -770310.23049329035 0 0 0 0 1505073.7570598554 -1242361.5549517646 0 -1242361.5549517646 -1202459.836707758 0 0 0 0 -5596899.7643127441 -6629138.701374054 0 -6629138.701374054 2339994.5689988136 0 0 0 0 14643609.264175415 25196522.171547413 0 25196522.171547413 -44282367.045269489 0 0 0 0 3879560.5472335815 -1647209.7509886026 0 -1647209.7509886026 -6468719.9757902622 0 0 0 0 -8572505.6875610352 70421661.86284256 0 70421661.86284256 8591606.4711437225 0 0 0 0 -33159790.541030884 63307636.943858624 0 63307636.943858624 86045006.55030632 0 0 0 0 -32773794.843719482 -5098927.2045655251 0 -5098927.2045655251 134569709.53454113 0 0 0 0 -13066639.783782959 1827599.3233385086 0 1827599.3233385086 32752479.13717103 0 0 0 0 5915211.0342559814 -26422200.232696056 0 -26422200.232696056 23103776.984439373 0 0 0 0 59664634.533370972 -67818909.10878396 0 -67818909.10878396 65704930.898021936 0 0 0 0 -11238049.156097412 709431.76063680649 0 709431.76063680649 12489525.378825665 0 0 0 0 -16159865.208091736 -1854917.1560502052 0 -1854917.1560502052 48687326.041242599 0 0 0 0 -8777647.9683074951 -7399981.9276604652 0 -7399981.9276604652 22177615.040013313 0 0 0 0 -5637292.8015136719 -13626824.78894043 0 -13626824.78894043 20706454.117774606 0 0 0 0 -2458819.4387588501 -15284920.730093956 0 -15284920.730093956 8426262.5691251755 0 0 0 0 -1145495.8958282471 -16960845.376233578 0 -16960845.376233578 8360219.1327436268 0 0 0 0 10494153.935440063 -17283205.847875834 0 -17283205.847875834 13931051.582331181 0 0 0 0 6294766.5035705566 -2684883.3862462044 0 -2684883.3862462044 -17902517.82888937 0 0 0 0 45736688.287485123 -28763545.393841773 0 -28763545.393841773 -2014766.5525078773 0 0 0 0 18699556.005096436 22615201.51175189 0 22615201.51175189 -72845205.62355566 0 0 0 0 -10957284.883918762 7278144.2686010599 0 7278144.2686010599 -26445147.126720428 0 0 0 0 12634097.345729828 -14355878.568349123 0 -14355878.568349123 -15916310.963666916 0 0 0 0 -5691378.7570590973 -10257015.190178186 0 -10257015.190178186 -12388298.614764214 0 0 0 0 4899027.5755386353 -8551346.7036008835 0 -8551346.7036008835 -28628790.685709 0 0 0 0 2187009.2331314087 -12413069.046167612 0 -12413069.046167612 -12384035.174864769 0 0 0 0 2223044.7631530762 -3859169.8152563572 0 -3859169.8152563572 -5247535.9919383526 0 0 0 0 7030193.5727653503 -13957967.356797695 0 -13957967.356797695 -6958840.3661718369 0 0 0 0 11284797.607498169 -7773797.9572992325 0 -7773797.9572992325 -16504498.637685776 0 0 0 0 11417917.590530396 -12784589.955586433 0 -12784589.955586433 -6013492.3243932724 0 0 0 0 17958559.317810059 -15077990.592688084 0 -15077990.592688084 -7477360.3388640881 0 0 0 0 16806570.544755936 -13704445.863675535 0 -13704445.863675535 -541523.32564067841 0 0 0 0 11186711.247657776 -8780068.1598720551 0 -8780068.1598720551 -598429.55745315552 0 0 0 0 18155646.809415579 -8493788.70381286 0 -8493788.70381286 13158365.98404026 0 0 0 0 16828637.986724854 -15321448.090122223 0 -15321448.090122223 869012.08915174007 0 0 0 0 18407567.388656616 -18832191.374536514 0 -18832191.374536514 7003186.1225328445 0 0 0 0 15521443.240982056 -13413158.366219044 0 -13413158.366219044 -483128.14414405823 0 0 0 0 10132934.305084229 -12115346.039549828 0 -12115346.039549828 16969698.757275581 0 0 0 0 3297518.5012130737 -4785154.5656590462 0 -4785154.5656590462 12490226.337200165 0 0 0 0 117920.92880249023 1150838.6125440598 0 1150838.6125440598 2185586.5074733496 0 0 0 0 26829057.99407959 -25517491.966954708 0 -25517491.966954708 18813002.742037773 0 0 0 0 30518757.872543335 -23342892.424173355 0 -23342892.424173355 19054507.205873966 0 0 0 0 133935.99141348153 -54863.20207240805 0 -54863.20207240805 27991.65561522753 0 0 0 0 19545830.734909058 -9941501.7773768902 0 -9941501.7773768902 9178323.1846542358 0 0 0 0 15408679.310272217 -12697988.055822372 0 -12697988.055822372 9950761.2035388947 0 0 0 0 1387615.0146026611 -8406239.6505756378 0 -8406239.6505756378 12723942.140933037 0 0 0 0 1485121.6120452881 -7794113.8732824326 0 -7794113.8732824326 14804173.434806556 0 0 0 0 -4478586.2170295715 -13037503.336845756 0 -13037503.336845756 10205679.431073189 0 0 0 0 -44592.992767333984 -7522464.9652664661 0 -7522464.9652664661 8481741.7368593216 0 0 0 0 4502847.0102844238 -12659975.738363743 0 -12659975.738363743 -52673.85472536087 0 0 0 0 8082346.0543212891 -6372104.3366839886 0 -6372104.3366839886 10956392.455708504 0 0 0 0 2205959389.3913097 291410564.48313612 0 291410564.48313612 -118946214.76636398 0 0 0 0 1852410437.0296783 76894406.124251276 0 76894406.124251276 -38802861.970309198 0 0 0 0 640476.7927915114 -169682.21325168852 0 -169682.21325168852 -9275.4519581593777 0 0 0 0 2087911198.1534081 190669785.5701552 0 190669785.5701552 -22091349.47902561 0 0 0 0 -113088648.156147 -57256171.015863948 0 -57256171.015863948 57033034.455372125 0 0 0 0 34186126.898490906 12528559.13963294 0 12528559.13963294 -38767286.268346965 0 0 0 0 2016304728.2175293 185448438.25999489 0 185448438.25999489 -10094858.666513525 0 0 0 0 1880035323.4014235 69113801.022066429 0 69113801.022066429 -100296479.66565806 0 0 0 0 25682938.26776886 7174916.9845518172 0 7174916.9845518172 -11410965.845334128 0 0 0 0 1800130.5856411266 -424168.08519113436 0 -424168.08519113436 -26526.623139593925 0 0 0 0 -33289223.259817123 -20844073.22660977 0 -20844073.22660977 -3518288.9100090265 0 0 0 0 1022506311.9893608 -225529977.07010221 0 -225529977.07010221 207366916.16906738 0 0 0 0 2895424.6616700673 -430583.9124285765 0 -430583.9124285765 -222200.52079101544 0 0 0 0 -32533075.854476929 -18963760.761927068 0 -18963760.761927068 10031970.768111706 0 0 0 0 -15345831.563919067 -25709922.538266659 0 -25709922.538266659 -1694855.716473341 0 0 0 0 2002250677.9264984 177462428.18420959 0 177462428.18420959 -181120086.77546093 0 0 0 0 2151450445.9320297 272606007.09773481 0 272606007.09773481 -61021271.564039946 0 0 0 0 2097250194.2117195 90025702.66606614 0 90025702.66606614 -188130584.87368244 0 0 0 0 2026626882.1414137 171207842.16520759 0 171207842.16520759 -94622423.151714817 0 0 0 0 2137362077.2743301 141190004.35440871 0 141190004.35440871 129293482.64294347 0 0 0 0 2203576848.703413 100461548.34332062 0 100461548.34332062 -48337330.134254053 0 0 0 0 2132222643.1483302 84174119.981321126 0 84174119.981321126 510654646.88819683 0 0 0 0 1987520609.1868401 25426487.446343843 0 25426487.446343843 -77744.061959951025 0 0 0 0 1712375527.364212 47353743.565377459 0 47353743.565377459 -82893681.690870315 0 0 0 0 1491882228.9439926 215590346.03924018 0 215590346.03924018 -44358268.648905113 0 0 0 0 7446493.3022251129 805240.28710504936 0 805240.28710504936 -1000104.861178162 0 0 0 0 2813832.579358567 348964.85607725196 0 348964.85607725196 24729.575640500119 0 0 0 0 728986618.47299194 350465140.42380458 0 350465140.42380458 451717159.9183352 0 0 0 0 3028112.5255311197 311435.61915536411 0 311435.61915536411 -205242.48289194657 0 0 0 0 5202569.9172801971 176138.04742869153 0 176138.04742869153 -847260.57186204568 0 0 0 0 4016652.0218200684 630106.57390491571 0 630106.57390491571 -153963.90055617143 0 0 0 0 2432637016.5776062 208910027.72438273 0 208910027.72438273 -207351499.77396721 0 0 0 0 1428982710.6236115 1004727720.1863067 0 1004727720.1863067 412624787.26512682 0 0 0 0 713881.55638277531 127562.53084330181 0 127562.53084330181 5099.3503693399689 0 0 0 0 2215547903.6780362 -717265582.22955739 0 -717265582.22955739 28646019.506566763 0 0 0 0 2340791594.684494 381692004.3782981 0 381692004.3782981 -33593057.618564129 0 0 0 0 9997162.1842651367 6149358.9374241829 0 6149358.9374241829 -12602546.724771023 0 0 0 0 5258031.7175405696 677531.74709923915 0 677531.74709923915 -564415.50997064414 0 0 0 0 -35028237.06414032 -34040525.883788228 0 -34040525.883788228 -38360602.129868984 0 0 0 0 229143706.06336975 6894569.1859853268 0 6894569.1859853268 -72353419.738466263 0 0 0 0 5060867.3603634387 -722663.08669419086 0 -722663.08669419086 -593841.74685807398 0 0 0 0 -24065926.115203857 96259083.600370169 0 96259083.600370169 16242406.916916609 0 0 0 0 -55577651.298549652 4112997.9299671054 0 4112997.9299671054 28309107.920725584 0 0 0 0 -136333808.70874023 -74562775.710624218 0 -74562775.710624218 -47662727.562963009 0 0 0 0 268768.36458167993 35467.059201728553 0 35467.059201728553 -114028.86341654207 0 0 0 0 -11629973.27230835 -51898892.457591444 0 -51898892.457591444 -10907536.542809237 0 0 0 0 2753496.8022689819 -280217.5454632421 0 -280217.5454632421 -1585407.4320551585 0 0 0 0 2279341.0629789084 617482.20531618409 0 617482.20531618409 -418757.12593928038 0 0 0 0 5744059.2181777954 2328698.9074347243 0 2328698.9074347243 -4266356.931235631 0 0 0 0 3962147.4976654053 -585112.79268668499 0 -585112.79268668499 -407234.47652213834 0 0 0 0 4164065.6361465454 -70749.337132803514 0 -70749.337132803514 502528.49668223155 0 0 0 0 3954114.8711013794 464705.6205576089 0 464705.6205576089 -857531.79202533932 0 0 0 0 11009017.28212738 5265598.5775260814 0 5265598.5775260814 -729083.28201420978 0 0 0 0 1641707.3456571847 592810.24491133168 0 592810.24491133168 -74442.98631706684 0 0 0 0 2739463.5529899597 -1073267.6187119544 0 -1073267.6187119544 -262855.18122054683 0 0 0 0 1151790.4593849182 -721147.92003740708 0 -721147.92003740708 -789.05242968516961 0 0 0 0 2793608.6232223511 644560.53410652059 0 644560.53410652059 -462263.08870375407 0 0 0 0 4424897.0942726135 -970714.56284772197 0 -970714.56284772197 1459.1904911394522 0 0 0 0 10239827.77179718 701999.79014291614 0 701999.79014291614 -5730379.1897723582 0 0 0 0 8859935.6508255005 4904035.3637029268 0 4904035.3637029268 68886.495036222754 0 0 0 0 16213129.775859833 9392251.2490504906 0 9392251.2490504906 1320767.4790915856 0 0 0 0 1363230.4003798366 575591.71783749014 0 575591.71783749014 62344.052649601486 0 0 0 0 6631979.3154678345 -471413.30522343889 0 -471413.30522343889 -2323406.6289860411 0 0 0 0 13580350.724159241 2473324.9192650905 0 2473324.9192650905 -13457026.647515159 0 0 0 0 7348001.7245082855 -244724.69698690518 0 -244724.69698690518 -3414636.2693163175 0 0 0 0 6063251.9663963318 -3918761.7929824037 0 -3918761.7929824037 -4181092.7474509701 0 0 0 0 6999178.8325424194 147954.42870314885 0 147954.42870314885 -8302488.2106285505 0 0 0 0 3424070.8924255371 -2029841.6201304924 0 -2029841.6201304924 -3964468.7122317851 0 0 0 0 3022693.6221160889 23625360.673550308 0 23625360.673550308 -26903780.739043675 0 0 0 0 4715841.4923259467 -176247.56379796029 0 -176247.56379796029 -484457.241017983 0 0 0 0 25831567.188753128 3452676.4591938704 0 3452676.4591938704 -10771525.08224225 0 0 0 0 21285471.376365662 -9075448.5287521333 0 -9075448.5287521333 3277842.0008563995 0 0 0 0 4324446.8021942712 27626.893590346117 0 27626.893590346117 -415958.18925514765 0 0 0 0 -148305407.01855469 30369086.718296051 0 30369086.718296051 7606616.2859621048 0 0 0 0 15463778.386749268 -1385567.5444378555 0 -1385567.5444378555 -3491659.2946284115 0 0 0 0 5088679.0820541382 -2603619.4782538544 0 -2603619.4782538544 -4982131.7195779122 0 0 0 0 -22981507.980819389 -23762075.762324359 0 -23762075.762324359 2624647.7644579411 0 0 0 0 158446.74854389206 54374.539748460986 0 54374.539748460986 -126616.32106239808 0 0 0 0 -10900402.858337402 6995109.4690250158 0 6995109.4690250158 98128.382868409157 0 0 0 0 458675.79506063228 -76532.538486853242 0 -76532.538486853242 -71697.373388530104 0 0 0 0 -13027070.105918884 6953069.996042043 0 6953069.996042043 3500349.4159511328 0 0 0 0 16920315.494701385 -5788904.4259252697 0 -5788904.4259252697 1860653.8526959419 0 0 0 0 -10113682.523010254 4951252.5476791263 0 4951252.5476791263 -826539.88365411758 0 0 0 0 -10964234.795845032 6602840.1202649325 0 6602840.1202649325 -1659806.3136783838 0 0 0 0 -14196747.307562828 184348.70872476324 0 184348.70872476324 774283.31521117687 0 0 0 0 228134.26442321576 263157.43794528209 0 263157.43794528209 -117584.01570432642 0 0 0 0 -14651072.00994873 4961789.4317954779 0 4961789.4317954779 1391197.0480067134 0 0 0 0 -11290452.232753754 8657984.8702156991 0 8657984.8702156991 7506754.1367563829 0 0 0 0 12551332.805344582 12848810.114543103 0 12848810.114543103 -14487353.833845615 0 0 0 0 -29239957.286781311 20069178.207980432 0 20069178.207980432 1735032.4354193211 0 0 0 0 -21067.513856481761 47657.617175132968 0 47657.617175132968 115505.63336219359 0 0 0 0 178970927.7878952 6539222.5764994621 0 6539222.5764994621 -43521194.247000754 0 0 0 0 55215119.463348389 -24910549.978174984 0 -24910549.978174984 10396179.274474502 0 0 0 0 32683113.022140503 23547021.792044103 0 23547021.792044103 15293480.17372337 0 0 0 0 25418520.742530823 5392291.0703628957 0 5392291.0703628957 14325341.299887303 0 0 0 0 453336.55533599854 2684108.4826257825 0 2684108.4826257825 8136481.7991732657 0 0 0 0 60726674.478164673 -5114565.3670019507 0 -5114565.3670019507 -9761421.4839738607 0 0 0 0 36372.296850094572 280877.96096002497 0 280877.96096002497 262131.2302055636 0 0 0 0 1095804.8143216241 1157302.2966410778 0 1157302.2966410778 -1643286.7252840074 0 0 0 0 59709671.788188934 25880410.116397724 0 25880410.116397724 -4367431.036151208 0 0 0 0 42392916.044132233 -4459771.6515457258 0 -4459771.6515457258 -3801916.7455778718 0 0 0 0 105557.1558380127 8659451.9825809002 0 8659451.9825809002 5207195.5607476234 0 0 0 0 -2558723.2360191345 -1990240.7204662561 0 -1990240.7204662561 2431157.5138521194 0 0 0 0 -4370404.6337547302 -285978.85277679563 0 -285978.85277679563 1943513.6184327602 0 0 0 0 -1133144.6195305148 873585.98348171264 0 873585.98348171264 2876702.2508918024 0 0 0 0 6335709.4693984985 13277621.906534109 0 13277621.906534109 -987815.42616820335 0 0 0 0 3507672.5600204468 1111208.340233922 0 1111208.340233922 774371.68113791943 0 0 0 0 906010.45340650994 1088534.9863606095 0 1088534.9863606095 1789994.6722543747 0 0 0 0 51711368.974914551 -88986119.026192188 0 -88986119.026192188 140054754.45721054 0 0 0 0 -4943672.5445098877 2058152.4372622371 0 2058152.4372622371 -2714017.2218967676 0 0 0 0 -6900857.0406036377 3196770.2933495045 0 3196770.2933495045 1163789.7648740411 0 0 0 0 -18854595.86479187 18782374.752916664 0 18782374.752916664 4537187.6844556332 0 0 0 0 -8168304.1289978027 5876222.7521169186 0 5876222.7521169186 -3964275.5506254435 0 0 0 0 -6503912.0834655762 3794134.5096530914 0 3794134.5096530914 -2474075.9042803049 0 0 0 0 -4904529.2574310303 -1612132.6145204306 0 -1612132.6145204306 174789.85887771845 0 0 0 0 -9642534.4891052246 -464221.256483078 0 -464221.256483078 665709.4749070704 0 0 0 0 44385985.430480957 44723672.317943573 0 44723672.317943573 42059685.44393158 0 0 0 0 -4334210.3468017578 6640252.4751157761 0 6640252.4751157761 -34101194.961132288 0 0 0 0 1585268.6772001479 -497728.41347228736 0 -497728.41347228736 -821092.93578548357 0 0 0 0 149709797.95438385 99557134.637242556 0 99557134.637242556 131100073.51517868 0 0 0 0 118027797.66433716 28640757.209619522 0 28640757.209619522 5971110.943731308 0 0 0 0 9222469.2119903564 13324755.136582375 0 13324755.136582375 -35803475.155629158 0 0 0 0 75124504.390014648 49601748.768157959 0 49601748.768157959 -3649850.929394722 0 0 0 0 31509440.525680542 -14115727.310343742 0 -14115727.310343742 -17968608.091716766 0 0 0 0 151340479.98587036 69568757.416965485 0 69568757.416965485 -4658097.6451292038 0 0 0 0 188933656.01371765 46381172.002119064 0 46381172.002119064 -34168784.730344772 0 0 0 0 264277859.43389893 78256804.422195435 0 78256804.422195435 -61724474.763973296 0 0 0 0 273728286.30592346 97321901.448890209 0 97321901.448890209 -30551482.556533813 0 0 0 0 221318187.3755188 86370082.079596043 0 86370082.079596043 -7892666.0203151703 0 0 0 0 284991762.51702881 90095037.6547966 0 90095037.6547966 -108903764.9270649 0 0 0 0 261907601.36482239 156630871.61997128 0 156630871.61997128 -36350903.254212379 0 0 0 0 247419858.2285614 162182199.73736668 0 162182199.73736668 83364877.710832596 0 0 0 0 258396133.82711792 120856608.86674595 0 120856608.86674595 -2539172.4696412086 0 0 0 0 258237002.61245728 109218943.66230488 0 109218943.66230488 -39319138.330913544 0 0 0 0 296267595.20549011 278806250.70732641 0 278806250.70732641 159720245.51485384 0 0 0 0 325077432.79899597 -104850734.96250725 0 -104850734.96250725 -7943794.1701896191 0 0 0 0 24010765.395584106 -75035579.032742023 0 -75035579.032742023 -1422876.904168129 0 0 0 0 550551.51224173792 -159772.32330699451 0 -159772.32330699451 -282478.90284825442 0 0 0 0 414521893.34484863 205407718.16434383 0 205407718.16434383 2774587.443572998 0 0 0 0 492740024.45819092 -310069723.43624592 0 -310069723.43624592 73352012.845317841 0 0 0 0 -192947.09582519531 29691040.768631935 0 29691040.768631935 83354.092824935913 0 0 0 0 23014675.877966404 28043512.026213534 0 28043512.026213534 -20109926.942060471 0 0 0 0 9279652.8013000488 -4522933.7416834831 0 -4522933.7416834831 -26914048.736882627 0 0 0 0 -7795245.3140182495 21868412.166508198 0 21868412.166508198 -7220450.1893596649 0 0 0 0 11106.082080561668 -22890.390595247969 0 -22890.390595247969 -35296.264757437864 0 0 0 0 -1638060.7816524506 27256489.90686363 0 27256489.90686363 -1249917.2812824249 0 0 0 0 -2039350.1622772217 12597446.222359419 0 12597446.222359419 13460539.427604437 0 0 0 0 30563657.341178894 -43833206.052740812 0 -43833206.052740812 50574812.260965347 0 0 0 0 -1672586.5018730164 1787557.0919370651 0 1787557.0919370651 864665.20143413544 0 0 0 0 39308268.668663025 -808670.49917674065 0 -808670.49917674065 -9859585.3546476364 0 0 0 0 4949530.0596618652 -3821298.3747463226 0 -3821298.3747463226 -291538.33752417564 0 0 0 0 21618658.607620239 161247.5641143322 0 161247.5641143322 -2707082.8227815628 0 0 0 0 1074130.3062557327 -155982.29681169242 0 -155982.29681169242 -1653016.7338525697 0 0 0 0 88708.056516732089 -21383.74885459803 0 -21383.74885459803 -171068.1064948875 0 0 0 0 628741.61959838867 174212.69252634048 0 174212.69252634048 306343.40185928345 0 0 0 0 -3798294.051399231 -5808708.07934165 0 -5808708.07934165 -7100904.3435587883 0 0 0 0 -12986799.078762054 11972208.801468611 0 11972208.801468611 -17539785.044849396 0 0 0 0 1059506.2973022461 -8330550.6350269318 0 -8330550.6350269318 7325194.8351287842 0 0 0 0 9742.4630416147411 -6763.5028020851314 0 -6763.5028020851314 -95154.308501814026 0 0 0 0 33509708.361602783 -14036194.541022301 0 -14036194.541022301 -29734247.872011185 0 0 0 0 27900193.421081543 -4508621.0165424347 0 -4508621.0165424347 -26347314.791080475 0 0 0 0 -24769780.215698242 -17101169.674510956 0 -17101169.674510956 -18295706.266975403 0 0 0 0 46125692.04006958 -15870670.492173195 0 -15870670.492173195 -29348907.580739975 0 0 0 0 25700782.200439453 -31155981.551923752 0 -31155981.551923752 -48690559.346061707 0 0 0 0 30387657.013401031 4328411.0631395578 0 4328411.0631395578 -2613380.8267669678 0 0 0 0 -35507443.34375 -47838418.772375107 0 -47838418.772375107 -32231075.600576401 0 0 0 0 1092947.499357298 -698871.32947065309 0 -698871.32947065309 -920893.21233658702 0 0 0 0 -72427091.552093506 -32290065.812385559 0 -32290065.812385559 -11286058.452568054 0 0 0 0 1229354.6053924561 -380055.32547676563 0 -380055.32547676563 -264132.6029510498 0 0 0 0 1626529.546800822 -24985.973873319104 0 -24985.973873319104 -1780201.2526629828 0 0 0 0 -26975683.331832886 -29816281.04578042 0 -29816281.04578042 -18579739.061096191 0 0 0 0 2191290.2183663733 -722214.55272382684 0 -722214.55272382684 -1332206.8175636055 0 0 0 0 305855.82144841924 157124.34594979882 0 157124.34594979882 -1054701.504995127 0 0 0 0 1278906.1703926921 -619922.38519545272 0 -619922.38519545272 -391479.28631873336 0 0 0 0 4294988.6852416992 -1863392.6768741906 0 -1863392.6768741906 -2733864.6443912983 0 0 0 0 1879019.3355178833 960142.03278791904 0 960142.03278791904 1895111.3095681667 0 0 0 0 50062646.061828613 739718.41996383667 0 739718.41996383667 -30583071.534603119 0 0 0 0 65882420.235321045 30617921.931650639 0 30617921.931650639 -11805255.385948181 0 0 0 0 340546.20544433594 -1179812.7530136108 0 -1179812.7530136108 -3974384.4597301483 0 0 0 0 2643364.4571533203 -4016124.5825786591 0 -4016124.5825786591 -1554573.8256624341 0 0 0 0 731832.82118433714 92291.067814092152 0 92291.067814092152 -1096763.5587576681 0 0 0 0 249010.00189208984 -536784.14540576935 0 -536784.14540576935 -1349530.3168983459 0 0 0 0 14089865.089248657 2917294.117421627 0 2917294.117421627 -370753.44367480278 0 0 0 0 4018205.2957839966 1831861.5279085636 0 1831861.5279085636 633734.9873046875 0 0 0 0 5150729.2302856445 -1207292.414989233 0 -1207292.414989233 -2317028.6779048443 0 0 0 0 -3138580.2586288452 6528200.5276072025 0 6528200.5276072025 2406340.2131071091 0 0 0 0 8281.4955747388303 4273.0893800957128 0 4273.0893800957128 596.0240720922593 0 0 0 0 -3220499.5983123779 -3910743.0809674263 0 -3910743.0809674263 -6322163.3076734543 0 0 0 0 -39242.780316352844 -3504858.5508266613 0 -3504858.5508266613 -4338227.8138171434 0 0 0 0 -42316.149353027344 -3546822.1130839288 0 -3546822.1130839288 -1615296.1071777344 0 0 0 0 121402.67338562012 -345863.78798007965 0 -345863.78798007965 -1418710.0279735327 0 0 0 0 803323.06019502878 -556487.96437140554 0 -556487.96437140554 -82930.977443741402 0 0 0 0 3478606.5238342285 -915123.11678934097 0 -915123.11678934097 -2637492.1885265782 0 0 0 0 3433234.5546112061 -5212098.1404412985 0 -5212098.1404412985 -3337025.8609433174 0 0 0 0 -3078847.8062744141 -5565207.9173308015 0 -5565207.9173308015 -5672888.7904304862 0 0 0 0 745950.09819143778 -438972.07942811213 0 -438972.07942811213 -1763167.1536363075 0 0 0 0 6885620.9894866943 -4110528.3894765973 0 -4110528.3894765973 -4372527.6979703903 0 0 0 0 34056454.73223877 22313589.917702198 0 22313589.917702198 35893114.206467628 0 0 0 0 8055551.2926940918 -1540172.8274850845 0 -1540172.8274850845 -4525937.1664603949 0 0 0 0 308548.58798618801 230545.00572032295 0 230545.00572032295 132240.06222921819 0 0 0 0 5031599.5179681778 215672.8397063911 0 215672.8397063911 -23138708.780147552 0 0 0 0 89318380.831695557 -69202655.199346542 0 -69202655.199346542 39729116.454437256 0 0 0 0 424283756.87512207 -24962286.543325901 0 -24962286.543325901 -10817176.895318747 0 0 0 0 396822580.92726135 28938857.580613136 0 28938857.580613136 -25206072.996714592 0 0 0 0 239511046.64035034 -52569818.698738098 0 -52569818.698738098 -14873655.345392942 0 0 0 0 221421147.06654358 8903710.8426933289 0 8903710.8426933289 24892161.178384781 0 0 0 0 216614240.37734985 14848672.035316467 0 14848672.035316467 26376228.524705887 0 0 0 0 301452828.60653687 33171759.744958878 0 33171759.744958878 6202011.1510791779 0 0 0 0 24373222.931297302 -3279749.9798952341 0 -3279749.9798952341 70709135.987716675 0 0 0 0 119094565.93814087 -9005526.9644918442 0 -9005526.9644918442 33513316.399008751 0 0 0 0 115737904.72741699 16260807.026140213 0 16260807.026140213 22407145.694494247 0 0 0 0 82243286.77734375 3650198.3606472015 0 3650198.3606472015 22726694.13986975 0 0 0 0 132671539.10353088 33291721.35206604 0 33291721.35206604 -13884832.800024033 0 0 0 0 211561219.15171814 17374793.347754478 0 17374793.347754478 769738.3137178421 0 0 0 0 205857274.41680145 21771157.970128536 0 21771157.970128536 42472890.250486374 0 0 0 0 136959162.19796753 20659632.003534317 0 20659632.003534317 6049506.8744688034 0 0 0 0 207644167.3514328 16804341.856263876 0 16804341.856263876 -21826955.427127838 0 0 0 0 129931610.84448242 38968672.78068924 0 38968672.78068924 -20560192.301784515 0 0 0 0 223876977.96825409 50628230.127188206 0 50628230.127188206 -37967630.710521698 0 0 0 0 236175831.70623779 36319846.828334808 0 36319846.828334808 -38743831.160978317 0 0 0 0 191276962.82315063 59643348.839642525 0 59643348.839642525 -32934344.956837773 0 0 0 0 180676553.2616806 31041751.314028502 0 31041751.314028502 -34719356.967912674 0 0 0 0 74413941.541809082 26502832.587471962 0 26502832.587471962 -7096520.7349653244 0 0 0 0 112692162.34674072 5601299.4031734467 0 5601299.4031734467 -17926794.714588165 0 0 0 0 18601808.294939041 5468022.2230861336 0 5468022.2230861336 204625.93854987621 0 0 0 0 979763.4592701178 779654.5758412797 0 779654.5758412797 1196148.3097921761 0 0 0 0 280080268.41569519 47614126.165607452 0 47614126.165607452 -48745015.441615105 0 0 0 0 273351942.1350708 62633551.155378342 0 62633551.155378342 -76043942.337465286 0 0 0 0 280447007.6244812 42735148.404173851 0 42735148.404173851 -55993424.033229828 0 0 0 0 250886900.99932861 64790938.726736069 0 64790938.726736069 -61273489.16102621 0 0 0 0 272591430.8326416 32402247.947172165 0 32402247.947172165 -31181469.19992733 0 0 0 0 265828644.20963287 21827437.132417679 0 21827437.132417679 38660634.600379944 0 0 0 0 236367729.31396484 39320108.671010017 0 39320108.671010017 -29197498.860528946 0 0 0 0 1370412.8638967071 -107367.83494757675 0 -107367.83494757675 -145769.13644956279 0 0 0 0 7320408.118309021 -212782.41459298134 0 -212782.41459298134 4021.3163662739098 0 0 0 0 1118607.9444600269 620293.3398755528 0 620293.3398755528 673711.73122622294 0 0 0 0 432465086.5663147 134532347.98348141 0 134532347.98348141 -9301454.1333417892 0 0 0 0 361929553.13914871 148777414.6818316 0 148777414.6818316 47862699.82184124 0 0 0 0 253968857.2673645 86130163.589647293 0 86130163.589647293 100357996.30760527 0 0 0 0 7846594.0146255493 1145461.094907105 0 1145461.094907105 -226610.82070064545 0 0 0 0 -23201382.83179161 109579384.60235955 0 109579384.60235955 -21544779.791744232 0 0 0 0 429751918.58293152 126681897.77209044 0 126681897.77209044 26786385.506199837 0 0 0 0 4035173.5894132778 410987.46954646567 0 410987.46954646567 -462847.00101009675 0 0 0 0 7307805.1700744629 1174128.6372030675 0 1174128.6372030675 34465.758106956171 0 0 0 0 -25646393.942176819 63649684.187796593 0 63649684.187796593 17363922.018536091 0 0 0 0 35598.919813438319 11516.08737575449 0 11516.08737575449 151722.43433473178 0 0 0 0 652981264.32502747 86384684.879624605 0 86384684.879624605 -16344773.86207056 0 0 0 0 538499528.22929382 14150022.90623951 0 14150022.90623951 -5222836.9852528572 0 0 0 0 483080227.29905701 292319814.09701908 0 292319814.09701908 126380337.07450867 0 0 0 0 6789.5292049460113 51882.467578119948 0 51882.467578119948 19418.864948141763 0 0 0 0 616763666.9197998 144346581.90237141 0 144346581.90237141 -72379631.977037534 0 0 0 0 550066395.91470337 137682429.53175545 0 137682429.53175545 73310806.05883646 0 0 0 0 1339963.5916784545 -121321.09718075022 0 -121321.09718075022 498468.86216482782 0 0 0 0 4821344.5193710327 -210912.94733252935 0 -210912.94733252935 280128.97576477006 0 0 0 0 531434270.36685181 199082438.50189793 0 199082438.50189793 -49671875.276759565 0 0 0 0 196398368.48178101 158742234.89564514 0 158742234.89564514 56805161.973446608 0 0 0 0 6972928.3404521942 -1046176.4743661806 0 -1046176.4743661806 -561403.84729813784 0 0 0 0 2044275.9393997192 -3623761.3065031986 0 -3623761.3065031986 -3921474.9985175189 0 0 0 0 1053591.1714635622 6894.1668083090335 0 6894.1668083090335 -71100.674914722345 0 0 0 0 8177963.3613357544 1070710.6034933329 0 1070710.6034933329 -974558.34080940485 0 0 0 0 -1610210.2864151001 -9505154.7797111999 0 -9505154.7797111999 -8234787.3389245663 0 0 0 0 12277599.334917068 5890253.7459185719 0 5890253.7459185719 -6497016.8499250039 0 0 0 0 342531.65698478092 6547.5255730319768 0 6547.5255730319768 -22575.300914220839 0 0 0 0 460413.52104072738 -50709.162817681208 0 -50709.162817681208 98211.634379572992 0 0 0 0 -10044619.83767128 -31170402.491788816 0 -31170402.491788816 -19160581.238148011 0 0 0 0 -2696570.1146697998 -7218719.6352469884 0 -7218719.6352469884 -17953466.050014667 0 0 0 0 25676468.504211426 -1629779.7400887311 0 -1629779.7400887311 -22756191.783766083 0 0 0 0 51885173.253860474 8664860.3165382706 0 8664860.3165382706 -155744.30841053967 0 0 0 0 15785042.935878754 -35498486.494763173 0 -35498486.494763173 -35676415.948670395 0 0 0 0 340374375.35610962 -52530009.891022816 0 -52530009.891022816 -48041270.977278404 0 0 0 0 11411223.907287598 6238575.0554108284 0 6238575.0554108284 -9432141.7149005663 0 0 0 0 5383304.4040222168 -3389240.0474287737 0 -3389240.0474287737 468215.01698284515 0 0 0 0 44404308.976436615 -45257778.782169491 0 -45257778.782169491 -32985123.511932537 0 0 0 0 49189561.394561768 -65681827.925622471 0 -65681827.925622471 41577270.448457032 0 0 0 0 -3415940.5127258301 -37251647.147548124 0 -37251647.147548124 221448.24857046612 0 0 0 0 235610398.74139786 186433845.9178378 0 186433845.9178378 165351408.77684942 0 0 0 0 139273.19580729818 -125032.41356586292 0 -125032.41356586292 -278806.20373683149 0 0 0 0 610756238.34763718 125835847.13390984 0 125835847.13390984 -192828056.10703415 0 0 0 0 77407203.519760132 57181008.625586271 0 57181008.625586271 123324999.82287157 0 0 0 0 -60399610.380706787 32951888.669440836 0 32951888.669440836 8771091.521758765 0 0 0 0 28338257.152618408 51142210.35493689 0 51142210.35493689 -47593212.55336795 0 0 0 0 29205792.073872566 35264262.090839051 0 35264262.090839051 39150745.884746604 0 0 0 0 18156711.692752838 14121338.835365601 0 14121338.835365601 -14102946.592588872 0 0 0 0 10625880.157806396 9529011.8500486612 0 9529011.8500486612 -13183503.692809157 0 0 0 0 357057903.13741302 16178935.872956514 0 16178935.872956514 -33059838.582766771 0 0 0 0 56810882.352233887 -92218304.611106634 0 -92218304.611106634 1473716.9454900026 0 0 0 0 423597.63458945905 -316791.97504335642 0 -316791.97504335642 -960007.55657343345 0 0 0 0 -48927515.053440094 -35708529.848201901 0 -35708529.848201901 31740937.692997932 0 0 0 0 3487712.0469388962 6704750.8576226272 0 6704750.8576226272 -5308326.5254358053 0 0 0 0 5372597.0461120605 -7327982.0276379585 0 -7327982.0276379585 -19055253.496167183 0 0 0 0 5708181.5553359985 5928946.0344416499 0 5928946.0344416499 -15650809.12033838 0 0 0 0 7327791.5395584106 3039193.7117060423 0 3039193.7117060423 -11356410.919445038 0 0 0 0 44972.834215939045 -743.67893197573721 0 -743.67893197573721 -95805.8229616147 0 0 0 0 693917.0150838159 -506175.60354572907 0 -506175.60354572907 -169364.32670041121 0 0 0 0 -4467736.2779388428 -12644105.090348303 0 -12644105.090348303 -18563529.879377127 0 0 0 0 -5690011.0874023438 -9132779.2186207175 0 -9132779.2186207175 -9419281.0417267084 0 0 0 0 -3741432.3438415527 1855616.6675281525 0 1855616.6675281525 -6541015.3032215834 0 0 0 0 5144228.7939453125 -2342238.0301403105 0 -2342238.0301403105 -20414361.782142878 0 0 0 0 9631667.1669769287 -10409051.892746508 0 -10409051.892746508 -29890850.589964628 0 0 0 0 -1445682.9466705322 -5164628.3166071177 0 -5164628.3166071177 -25158777.830807805 0 0 0 0 -18491841.082397461 -4483896.9748285413 0 -4483896.9748285413 -23060172.455161929 0 0 0 0 -67454.082244873047 -16377413.960324407 0 -16377413.960324407 -23960228.780872822 0 0 0 0 6864977.8557281494 -1549460.1883968115 0 -1549460.1883968115 -20264386.433132231 0 0 0 0 127632.4408653453 -8391.796284141019 0 -8391.796284141019 -109932.25855130726 0 0 0 0 1613157.419921875 -3881953.0062913895 0 -3881953.0062913895 -1635184.9079200029 0 0 0 0 38884453.224914551 63043288.048322856 0 63043288.048322856 39675396.166893005 0 0 0 0 9877748.3746337891 1276722.0906524658 0 1276722.0906524658 13381244.018291831 0 0 0 0 -11677721.450134277 6615737.6889159679 0 6615737.6889159679 12121021.043623447 0 0 0 0 21620486.54473114 -18008397.406867504 0 -18008397.406867504 2539792.8114626408 0 0 0 0 43645780.746917725 -17912296.4870314 0 -17912296.4870314 1804525.3690237999 0 0 0 0 49752221.78352356 388459.6717416048 0 388459.6717416048 188815.94302648306 0 0 0 0 -25021887.827784538 -48031220.761532485 0 -48031220.761532485 -13941611.164179504 0 0 0 0 369169.51083903573 -293210.42111779563 0 -293210.42111779563 -35353.144743333483 0 0 0 0 -30805240.640289307 -9540373.5191066265 0 -9540373.5191066265 -15850992.697003603 0 0 0 0 855069.57604980469 -45835882.786427125 0 -45835882.786427125 -21784003.781456172 0 0 0 0 13670545.700748444 2373625.0815249234 0 2373625.0815249234 -24250301.651579022 0 0 0 0 -19033621.949142456 -16261588.976753235 0 -16261588.976753235 -20491652.028659105 0 0 0 0 25658108.111297607 -23858377.856934607 0 -23858377.856934607 -22017080.708735853 0 0 0 0 -1765042.4585609436 -29770183.40833848 0 -29770183.40833848 -15138999.679409146 0 0 0 0 13225954.01386261 8767712.312839523 0 8767712.312839523 -18500838.519870341 0 0 0 0 19712949.076934814 8074545.6390842944 0 8074545.6390842944 -18912034.222575754 0 0 0 0 55863868.963821411 -76470894.90250659 0 -76470894.90250659 43017990.580422893 0 0 0 0 51406461.179031372 11695581.957598805 0 11695581.957598805 -21901330.231053293 0 0 0 0 140589257.13136292 -11667666.105590224 0 -11667666.105590224 -16126911.009511758 0 0 0 0 61244498.974502563 -46416155.856107168 0 -46416155.856107168 -10939795.524598908 0 0 0 0 -14591265.235519409 -24156881.671629906 0 -24156881.671629906 -7565230.1135873515 0 0 0 0 -33320213.991714478 -55777673.184527211 0 -55777673.184527211 91475655.821407452 0 0 0 0 -6915103.7532043457 -45125786.200255081 0 -45125786.200255081 36078970.470778584 0 0 0 0 -45185087.260700226 -21048243.290640648 0 -21048243.290640648 54841473.87591818 0 0 0 0 -82406316.191375732 -12163193.076591402 0 -12163193.076591402 53554288.269266658 0 0 0 0 27061598.274394989 3874752.1823442858 0 3874752.1823442858 -27404315.11165075 0 0 0 0 127392.13861263171 -34948.608215282322 0 -34948.608215282322 1904.3020352652643 0 0 0 0 92978284.480270386 -39385566.803350195 0 -39385566.803350195 -106656.54245765613 0 0 0 0 -35412149.544158936 11100234.564739905 0 11100234.564739905 115314.2368604721 0 0 0 0 151141852.49420166 -36860746.219488293 0 -36860746.219488293 -88442989.10870102 0 0 0 0 -25023759.335403442 7507638.8856608709 0 7507638.8856608709 -20354231.916807212 0 0 0 0 298718.99222461879 -42134.619419059716 0 -42134.619419059716 -3854.1129438866324 0 0 0 0 -9885376.2882385254 -12057354.203872215 0 -12057354.203872215 -21889.867240499971 0 0 0 0 114406.9040950276 -95264.24037364684 0 -95264.24037364684 2325.4433302367252 0 0 0 0 -51879937.330360413 12570460.591427036 0 12570460.591427036 47338048.819845259 0 0 0 0 71022.426988034043 -82135.170114122331 0 -82135.170114122331 -18669.725069664215 0 0 0 0 255520696.25976562 -7913719.4982611537 0 -7913719.4982611537 -80420151.209645927 0 0 0 0 176317383.22628784 -144603472.40511242 0 -144603472.40511242 94335921.843450069 0 0 0 0 88913487.234466553 50154422.904735506 0 50154422.904735506 9549536.5449516773 0 0 0 0 42621039.61125946 -50794298.289148331 0 -50794298.289148331 29004789.901287913 0 0 0 0 40704099.636116028 6956958.5039866567 0 6956958.5039866567 41462623.786348343 0 0 0 0 -83888653.678576708 25194866.396314744 0 25194866.396314744 42411514.667818367 0 0 0 0 -96537204.756622314 -117382854.33196369 0 -117382854.33196369 35181674.013520718 0 0 0 0 5240745.2951583862 -84709844.589565009 0 -84709844.589565009 41502237.655211389 0 0 0 0 -132356787.07684326 15068779.551578015 0 15068779.551578015 59535857.162148714 0 0 0 0 26049483.502105713 8422391.9155431986 0 8422391.9155431986 59635680.978064209 0 0 0 0 -36592779.959190369 -45826300.43144542 0 -45826300.43144542 67694235.502941012 0 0 0 0 5209211.0556945801 -19007722.185628772 0 -19007722.185628772 69003847.590380609 0 0 0 0 11667972.072841644 -23480781.626000181 0 -23480781.626000181 5966464.0694503784 0 0 0 0 -469143.79661560059 22611124.333528638 0 22611124.333528638 11440984.795442484 0 0 0 0 49382883.833221436 5926139.2772240043 0 5926139.2772240043 -36787337.985722423 0 0 0 0 67999734.055374146 -23259436.008976698 0 -23259436.008976698 -20366527.060725033 0 0 0 0 62505723.399902344 59300866.12790671 0 59300866.12790671 9841963.8686671257 0 0 0 0 208786.77060966752 -216546.90012932196 0 -216546.90012932196 -128430.12396021798 0 0 0 0 -16383618.613113403 8372890.8794933259 0 8372890.8794933259 707470.24866127968 0 0 0 0 21987089.69103241 -10026301.103890061 0 -10026301.103890061 73438517.517246962 0 0 0 0 70590751.377017975 53598882.503335953 0 53598882.503335953 -28832745.456190109 0 0 0 0 8159266.0494766235 2388037.6216794848 0 2388037.6216794848 15497564.248191833 0 0 0 0 3903900.1368637085 -5367413.4841117859 0 -5367413.4841117859 -33457854.580686361 0 0 0 0 633666.82894383371 -376848.63455783203 0 -376848.63455783203 70118.856289905729 0 0 0 0 3373523.6155500412 3517341.8695018925 0 3517341.8695018925 -2278573.2948493958 0 0 0 0 11919985.376747131 -69965157.665421486 0 -69965157.665421486 -61030487.984055996 0 0 0 0 34024460.157432556 32379119.395677328 0 32379119.395677328 -13835482.742473722 0 0 0 0 363977.69669089373 -343343.43296270072 0 -343343.43296270072 -359949.26878821792 0 0 0 0 767713.37389874086 -512225.67279175855 0 -512225.67279175855 125147.35823022868 0 0 0 0 750259.56192779541 863298.40472260118 0 863298.40472260118 -4632367.1156957746 0 0 0 0 7754750.6176071167 -858316.41848051548 0 -858316.41848051548 3627692.2597446442 0 0 0 0 31772509.177078247 -3672986.821349144 0 -3672986.821349144 -14313132.928484499 0 0 0 0 24108573.731948853 10765431.348685503 0 10765431.348685503 26546371.203463435 0 0 0 0 34073853.856124878 17480796.490540266 0 17480796.490540266 5678770.2205853462 0 0 0 0 306243.33085658029 -68627.196141256019 0 -68627.196141256019 -254543.04443504443 0 0 0 0 20948240.711334229 11059242.306013346 0 11059242.306013346 6209756.3635089397 0 0 0 0 -1718845.1933746338 472450.96380054951 0 472450.96380054951 -2419251.6741764545 0 0 0 0 -206232.59005737305 -1514615.9157431126 0 -1514615.9157431126 -1527405.5127749443 0 0 0 0 24594374.481086731 7624089.6365616918 0 7624089.6365616918 5919325.9892640114 0 0 0 0 565801.78613897972 -64922.331718914211 0 -64922.331718914211 -783682.92401737161 0 0 0 0 22931300.674377441 11978470.1678195 0 11978470.1678195 -1456052.7686502934 0 0 0 0 10423242.167541504 9695209.1620931625 0 9695209.1620931625 6462036.5108711123 0 0 0 0 23219500.545204163 9684663.6406772286 0 9684663.6406772286 1214008.1112470627 0 0 0 0 12755627.250993729 7949391.3135054708 0 7949391.3135054708 613514.84543704987 0 0 0 0 21438089.137321472 9431972.6167320013 0 9431972.6167320013 1461080.6941599846 0 0 0 0 25938915.215438843 6441060.4815282822 0 6441060.4815282822 616759.46255671978 0 0 0 0 27415942.328292847 12443480.641772985 0 12443480.641772985 2807449.175676465 0 0 0 0 1083817.0003967285 -10342141.317295074 0 -10342141.317295074 -88501583.401466846 0 0 0 0 820621.34636896849 -360410.81978295464 0 -360410.81978295464 -213926.11990859767 0 0 0 0 24029526.915786743 10117035.013360143 0 10117035.013360143 782563.57327270508 0 0 0 0 24132162.872077942 9753024.3609633446 0 9753024.3609633446 1481987.8288894892 0 0 0 0 22308473.119888306 20923945.818226516 0 20923945.818226516 15617200.301741123 0 0 0 0 21472689.584823608 9372668.996956706 0 9372668.996956706 7330394.777107954 0 0 0 0 21836094.691589355 12324939.401150858 0 12324939.401150858 744989.75655174255 0 0 0 0 -44102800.956981659 -77272607.047028899 0 -77272607.047028899 -38691264.786648273 0 0 0 0 68145195.189819336 31693602.347845554 0 31693602.347845554 6953872.1844820976 0 0 0 0 475614.35812628083 -195851.53340639081 0 -195851.53340639081 -145242.07677275734 0 0 0 0 -57168268.130741119 -63140717.168939769 0 -63140717.168939769 -3259166.6107172966 0 0 0 0 -51548924.669136047 -94208643.852536917 0 -94208643.852536917 -71399350.725917339 0 0 0 0 -79620101.6173172 -59053005.700336456 0 -59053005.700336456 31504478.94143194 0 0 0 0 51109043.167949677 3143654.2911852002 0 3143654.2911852002 -84721301.976002216 0 0 0 0 48131523.464950562 5790027.6276667118 0 5790027.6276667118 -5480876.4037394524 0 0 0 0 168257738.23022461 -39245613.076499462 0 -39245613.076499462 253966.64033532143 0 0 0 0 18778386.539779663 -16860596.992550611 0 -16860596.992550611 -41085111.47669518 0 0 0 0 97357661.523902893 -77302905.272876501 0 -77302905.272876501 -77450940.75662756 0 0 0 0 -115776477.83602142 -124164067.61004996 0 -124164067.61004996 -87229886.363769054 0 0 0 0 100215.6840992691 -114180.68448313698 0 -114180.68448313698 -111757.76877571922 0 0 0 0 138225077.71990204 83578181.808207035 0 83578181.808207035 81237253.429561257 0 0 0 0 8301559.8559646606 -23793769.863556981 0 -23793769.863556981 162905787.9649682 0 0 0 0 -525967.38122558594 10252490.145440578 0 10252490.145440578 50067915.916594267 0 0 0 0 -30096931.590057373 -38227318.474923611 0 -38227318.474923611 -4727108.7750827074 0 0 0 0 -33979847.666934967 -50414615.047126055 0 -50414615.047126055 23466905.589381218 0 0 0 0 -34766228.713142395 -42044011.225203276 0 -42044011.225203276 -58906377.223585129 0 0 0 0 -46779880.761810303 -10905599.201201439 0 -10905599.201201439 -20088753.353011131 0 0 0 0 -45155781.700241089 -49792291.601595163 0 -49792291.601595163 -3123436.9039096832 0 0 0 0 -50997128.607437134 -17627512.660767555 0 -17627512.660767555 3616480.1097587347 0 0 0 0 -45660218.746429443 -25739650.112871408 0 -25739650.112871408 12377319.988246441 0 0 0 0 -50882275.598397613 -28191026.020450257 0 -28191026.020450257 3093466.0944681168 0 0 0 0 -54808213.84500885 -10351634.15454936 0 -10351634.15454936 34663941.350827217 0 0 0 0 -53546224.171649933 -12435766.354498982 0 -12435766.354498982 13413140.765622139 0 0 0 0 -46446471.679016113 -13056685.205190659 0 -13056685.205190659 12917812.131124973 0 0 0 0 -47333497.566322327 -16309058.482998371 0 -16309058.482998371 75413711.42927742 0 0 0 0 -13456295.97719574 38821833.639015436 0 38821833.639015436 55537404.816758275 0 0 0 0 -25857299.944885254 8734236.7961497307 0 8734236.7961497307 -4465380.2416172028 0 0 0 0 2380175.831615448 52105433.767710447 0 52105433.767710447 30553355.026507854 0 0 0 0 128898.59779028947 25467.832767453045 0 25467.832767453045 -31892.708724650089 0 0 0 0 3559748.2483130097 -3397701.2173814662 0 -3397701.2173814662 -10359194.513814926 0 0 0 0 -41545214.289291382 29997064.947773933 0 29997064.947773933 13385115.583892226 0 0 0 0 -9084529.205657959 27784251.736075282 0 27784251.736075282 -19439174.429616451 0 0 0 0 -1280937.734161377 4718358.0489485264 0 4718358.0489485264 -12624139.782349765 0 0 0 0 70123644.977218628 46197714.426075459 0 46197714.426075459 -84369104.864014089 0 0 0 0 16871709.479949951 -19014701.283704519 0 -19014701.283704519 -95252820.484452277 0 0 0 0 24299987.733978271 26533048.086373568 0 26533048.086373568 20239743.925576687 0 0 0 0 24334023.262593269 29212385.038954973 0 29212385.038954973 88547990.262806892 0 0 0 0 103931173.4981308 105031400.93310976 0 105031400.93310976 15878101.317937374 0 0 0 0 144528014.92583466 49234417.002703667 0 49234417.002703667 8450155.7751408815 0 0 0 0 179946932.22781372 121220102.06668901 0 121220102.06668901 -14322675.869051576 0 0 0 0 152656956.89234924 94444377.942524433 0 94444377.942524433 -31618735.934597015 0 0 0 0 114837685.18421555 125765604.18371624 0 125765604.18371624 86988612.35189867 0 0 0 0 101760.10680750012 75616.967243369669 0 75616.967243369669 -86180.170380442461 0 0 0 0 68438803.757743835 56437614.304918766 0 56437614.304918766 52688313.725699186 0 0 0 0 95819112.773895264 55474885.376564026 0 55474885.376564026 25711649.37602663 0 0 0 0 94565227.288002014 33594231.474552035 0 33594231.474552035 19645113.186773956 0 0 0 0 263596013.53527832 72592619.712327003 0 72592619.712327003 168126821.87776184 0 0 0 0 406898940.59660339 69288125.999399781 0 69288125.999399781 -69727517.195597172 0 0 0 0 85680043.21661377 48868572.737579346 0 48868572.737579346 26885261.36574316 0 0 0 0 -42288.664994936436 40774.192208638415 0 40774.192208638415 89049.603255107882 0 0 0 0 228017745.46117401 157723176.11305082 0 157723176.11305082 -27756158.428719878 0 0 0 0 125911630.79997253 -71918925.52789712 0 -71918925.52789712 -414411.60472255945 0 0 0 0 127080.42087432742 -142755.89200078044 0 -142755.89200078044 31252.908001140386 0 0 0 0 41695859.455787659 -47613175.269246578 0 -47613175.269246578 1765501.4464142323 0 0 0 0 158314237.50946045 10761043.417987168 0 10761043.417987168 -60743040.313719511 0 0 0 0 -96023.115476734936 85768.099121352658 0 85768.099121352658 151835.40897470934 0 0 0 0 122162008.43620682 43282075.744811751 0 43282075.744811751 -43739687.450723648 0 0 0 0 122023238.14949036 41056496.412400961 0 41056496.412400961 -66687111.207692087 0 0 0 0 83742529.807098389 55539750.946897745 0 55539750.946897745 30134683.56791544 0 0 0 0 107094796.99504852 30089531.937500536 0 30089531.937500536 -27175050.986541867 0 0 0 0 76739459.818710327 -256498.03613460064 0 -256498.03613460064 -50404197.781950474 0 0 0 0 85225131.300888062 -6157232.7411310673 0 -6157232.7411310673 -63813763.546132684 0 0 0 0 73705159.808532715 32164513.250301182 0 32164513.250301182 46946608.496990204 0 0 0 0 66981186.21257782 18786813.139871716 0 18786813.139871716 25489275.981848001 0 0 0 0 27403909.870574951 35928787.74617219 0 35928787.74617219 53895702.142854214 0 0 0 0 35317794.100845337 9051153.6820197105 0 9051153.6820197105 22708031.022542536 0 0 0 0 81466728.967651367 31746054.478843093 0 31746054.478843093 31272858.793071449 0 0 0 0 81796413.077091217 43979971.642953217 0 43979971.642953217 19430704.616549492 0 0 0 0 100779938.19364166 59576327.425989032 0 59576327.425989032 22798003.056075573 0 0 0 0 79281822.779296875 51254609.102282047 0 51254609.102282047 23476613.95541048 0 0 0 0 99885939.479568481 39666645.788359404 0 39666645.788359404 27466153.945004225 0 0 0 0 87738791.623664856 53437940.756817818 0 53437940.756817818 20860137.647375107 0 0 0 0 78326335.741668701 43306456.517348528 0 43306456.517348528 21481860.904400468 0 0 0 0 77601170.989395142 46320112.210209012 0 46320112.210209012 12206712.586629391 0 0 0 0 43138598.067626953 32032460.431358814 0 32032460.431358814 15916267.57185936 0 0 0 0 48756786.491973877 3304545.2481350899 0 3304545.2481350899 -3985088.4299445152 0 0 0 0 62632996.353317261 29192893.039663076 0 29192893.039663076 11852416.016808033 0 0 0 0 76534463.351898193 34221969.096770048 0 34221969.096770048 -522663.80913066864 0 0 0 0 69360515.219314575 44069481.436270952 0 44069481.436270952 21575466.186310768 0 0 0 0 74266070.65776062 47672659.365338683 0 47672659.365338683 48473163.586719275 0 0 0 0 -23770420.062834024 -9059476.0725366231 0 -9059476.0725366231 30375271.726516724 0 0 0 0 121263850.56802368 26916583.770607471 0 26916583.770607471 4247132.9884414673 0 0 0 0 -56217.096818113729 85281.12973895669 0 85281.12973895669 16082.288170573884 0 0 0 0 108253921.5512085 56654503.433289528 0 56654503.433289528 13633196.399549961 0 0 0 0 -797438.01830374636 230899.97447262146 0 230899.97447262146 173941.46408323385 0 0 0 0 99796012.285400391 29862129.718400955 0 29862129.718400955 -45453496.725240707 0 0 0 0 -12690.036126157269 8404.798335429281 0 8404.798335429281 -5344.2741020267713 0 0 0 0 522965.26043635263 204712.0760083776 0 204712.0760083776 -530804.0987000505 0 0 0 0 473045.38284170628 20560.895958077163 0 20560.895958077163 -226564.11102771759 0 0 0 0 56581440.10067749 30053787.543033242 0 30053787.543033242 18166719.267259985 0 0 0 0 13170489.633224487 20540168.313638091 0 20540168.313638091 24165471.658296585 0 0 0 0 1386162.87892849 84936.405868574977 0 84936.405868574977 -665056.36767726333 0 0 0 0 38861072.693084717 39447376.164624691 0 39447376.164624691 19972669.208138943 0 0 0 0 61720827.816497803 29678974.556474686 0 29678974.556474686 11114087.202825785 0 0 0 0 71716285.66494751 43607252.565902948 0 43607252.565902948 23165999.225589097 0 0 0 0 60006789.516487122 36046154.921829998 0 36046154.921829998 20230419.756013393 0 0 0 0 72662336.626068115 42891723.911141872 0 42891723.911141872 20918034.294038296 0 0 0 0 56156243.454467773 27971079.661953449 0 27971079.661953449 25536671.677955449 0 0 0 0 55121199.595275879 40268660.711282969 0 40268660.711282969 38081431.296681404 0 0 0 0 83560804.859107971 53425398.46724683 0 53425398.46724683 27504710.333096504 0 0 0 0 3752921.1578602791 383151.6051398553 0 383151.6051398553 108036.31366920471 0 0 0 0 408461.45641529019 32669.12683683075 0 32669.12683683075 -89754.102130406885 0 0 0 0 428709.10484022647 272033.59344860353 0 272033.59344860353 -386384.50642753695 0 0 0 0 -1352140.7444229722 6152637.6167424638 0 6152637.6167424638 -10919373.260230064 0 0 0 0 895652.31753261574 587260.4504126953 0 587260.4504126953 -625317.3450837381 0 0 0 0 1602723.1706390381 -339156.29074811935 0 -339156.29074811935 660418.97545450926 0 0 0 0 3039024.6628723145 53571.357680082321 0 53571.357680082321 645296.43599151075 0 0 0 0 4332515.4331512451 4934216.0783063173 0 4934216.0783063173 4068943.4175495505 0 0 0 0 -3799995.1119232178 -947806.12934625149 0 -947806.12934625149 7761813.5848407745 0 0 0 0 387112.88072967529 -5970045.346960783 0 -5970045.346960783 6339246.9066467285 0 0 0 0 31996814.294891357 15406457.719825506 0 15406457.719825506 -15681384.816427231 0 0 0 0 6213882.4529266357 -28363062.044841766 0 -28363062.044841766 -19676012.743183136 0 0 0 0 -45896473.318466187 -11140898.752295494 0 -11140898.752295494 7128860.3801879883 0 0 0 0 -20458329.465625763 46634088.382677913 0 46634088.382677913 -27934664.212548256 0 0 0 0 -774941.94374847412 -10159860.015326917 0 -10159860.015326917 787263.47795200348 0 0 0 0 2710674.1139831543 -443038.60216903687 0 -443038.60216903687 61493.598489761353 0 0 0 0 2372236.1869506836 910623.06054353714 0 910623.06054353714 -193791.07033061981 0 0 0 0 2956418.0739898682 -346001.76881361008 0 -346001.76881361008 -288055.86629009247 0 0 0 0 2219915.4923400879 174198.51187896729 0 174198.51187896729 203053.58570384979 0 0 0 0 66828.170255264267 -11992.420978169888 0 -11992.420978169888 -32897.510708178743 0 0 0 0 31369935.912261963 5769869.4394493103 0 5769869.4394493103 -2304157.8964139223 0 0 0 0 1304143.9956802689 265011.57600782067 0 265011.57600782067 -504900.89637690037 0 0 0 0 352365.69813930243 1177421.9734013518 0 1177421.9734013518 -619540.92909737676 0 0 0 0 900080.83953857422 240973.60317075253 0 240973.60317075253 -466997.20602226257 0 0 0 0 -233561.1281435471 850025.48382229917 0 850025.48382229917 -258379.84209746332 0 0 0 0 -4322492.3442382812 13088085.917341471 0 13088085.917341471 -2859479.8018965721 0 0 0 0 286312.46178245544 -6106350.9919010997 0 -6106350.9919010997 -15548223.730792522 0 0 0 0 4982974.7854003906 16742372.084584713 0 16742372.084584713 -1718783.2180399895 0 0 0 0 13072615.375801086 20430306.441572323 0 20430306.441572323 39328079.5635885 0 0 0 0 3478522.4368896484 27600687.846146822 0 27600687.846146822 60528708.301326036 0 0 0 0 2172864.2512111664 4911949.5386675 0 4911949.5386675 29893432.007863998 0 0 0 0 -5376800.800994873 3723947.2744703889 0 3723947.2744703889 52916196.219387054 0 0 0 0 510299.64135742188 8274512.8088340759 0 8274512.8088340759 28733699.941453695 0 0 0 0 12558204.324493408 14756944.677039146 0 14756944.677039146 -5582981.7713308334 0 0 0 0 2599749.3270547669 1022364.4313294515 0 1022364.4313294515 -1647986.9788731721 0 0 0 0 -12150.157255508006 77215.363158799708 0 77215.363158799708 -196846.13338729995 0 0 0 0 -102876381.07328796 -1244335.647439003 0 -1244335.647439003 -801977.81342673302 0 0 0 0 -125044072.98110962 61133110.6735816 0 61133110.6735816 -35049304.883360863 0 0 0 0 -182099007.20011139 100454223.05676818 0 100454223.05676818 -19711923.728226662 0 0 0 0 -93448914.683059692 -170196288.19643974 0 -170196288.19643974 46495811.099943161 0 0 0 0 16521348.332839966 -124286065.84137058 0 -124286065.84137058 1495705.5637836456 0 0 0 0 -237548199.86250305 -3519081.2486824989 0 -3519081.2486824989 129622189.05665207 0 0 0 0 75366311.8177948 -72385902.487895966 0 -72385902.487895966 -11251762.662179351 0 0 0 0 36568852.658905029 6479557.5244992971 0 6479557.5244992971 26815430.359189034 0 0 0 0 2169065.6420898438 -992597.31779170036 0 -992597.31779170036 37557155.392689943 0 0 0 0 20937527.411121368 12464025.475496233 0 12464025.475496233 47057992.189491749 0 0 0 0 786867.96179199219 12542894.924014091 0 12542894.924014091 62213688.016371965 0 0 0 0 -3889797.7952880859 -2915774.89972651 0 -2915774.89972651 72853945.17198956 0 0 0 0 265127114.44426727 195926261.49962616 0 195926261.49962616 65658206.57467556 0 0 0 0 63301152.976993561 78747787.911464334 0 78747787.911464334 26538226.57718277 0 0 0 0 168220861.19039917 110717983.84788704 0 110717983.84788704 -2237127.9955983162 0 0 0 0 152647887.72749329 -52485455.960021973 0 -52485455.960021973 -49950474.793576717 0 0 0 0 92431007.529621124 -238966211.9224472 0 -238966211.9224472 131596926.97441196 0 0 0 0 434603341.22029114 -41402612.120285034 0 -41402612.120285034 -51696590.39259541 0 0 0 0 954237947.32180405 -150727581.3527143 0 -150727581.3527143 -221814653.57397032 0 0 0 0 156177735.31674194 203169139.69821692 0 203169139.69821692 394180625.33257604 0 0 0 0 63464027.888313293 -10506459.613847494 0 -10506459.613847494 -98264919.494843006 0 0 0 0 -217228881.18711853 104844890.77253008 0 104844890.77253008 204682939.66852188 0 0 0 0 -114967.62011481263 49344.419336004183 0 49344.419336004183 546159.94925820245 0 0 0 0 -136863269.58271027 63694291.086564898 0 63694291.086564898 60647673.545235157 0 0 0 0 23879340.467735291 138296177.30748034 0 138296177.30748034 91305923.03603363 0 0 0 0 -25937835.423492432 33957438.040639877 0 33957438.040639877 -29835954.335885167 0 0 0 0 280446071.94720459 129990137.81001091 0 129990137.81001091 68750087.35604167 0 0 0 0 -47825816.584686279 68193644.852626801 0 68193644.852626801 -38675035.260581017 0 0 0 0 122180.93429903802 46815.371048757806 0 46815.371048757806 -265764.99003376183 0 0 0 0 -216579859.15909576 80384399.670201063 0 80384399.670201063 145730675.68452168 0 0 0 0 368921706.87509918 98096059.656218529 0 98096059.656218529 -390106028.21683884 0 0 0 0 282123222.17977905 -207291122.51617908 0 -207291122.51617908 130477105.4962616 0 0 0 0 93468258.917961121 88266339.54716444 0 88266339.54716444 -23679658.256310463 0 0 0 0 102002688.88641357 -71729260.368499279 0 -71729260.368499279 -46665189.307509422 0 0 0 0 372573.18981767492 225276.90335110761 0 225276.90335110761 -878994.00073741283 0 0 0 0 -87507001.19921875 20922441.258939028 0 20922441.258939028 49142433.693545341 0 0 0 0 258756949.79763031 -20788878.4372015 0 -20788878.4372015 -35062153.425349236 0 0 0 0 508600608.39904785 -115773695.00145888 0 -115773695.00145888 -55702355.317793846 0 0 0 0 -221824.59756790567 395668.82344825193 0 395668.82344825193 1637096.8865070038 0 0 0 0 -61622240.471839905 41738065.396702886 0 41738065.396702886 -81333096.828625202 0 0 0 0 219542240.17959595 -60760855.297620773 0 -60760855.297620773 67803809.823121071 0 0 0 0 234708865.08239746 11240979.203030586 0 11240979.203030586 18023443.221376896 0 0 0 0 217941153.94792175 -17413442.59557128 0 -17413442.59557128 -29244077.020721436 0 0 0 0 227464501.21055603 5114443.8447799683 0 5114443.8447799683 -32631241.504430294 0 0 0 0 235489754.56805992 -26901287.312279522 0 -26901287.312279522 -41620561.865976334 0 0 0 0 122667889.64802551 -28206046.499277115 0 -28206046.499277115 3578216.7810096741 0 0 0 0 248619676.48265457 -26138023.994152546 0 -26138023.994152546 -41616175.789394379 0 0 0 0 213786928.88899231 -70575535.495220423 0 -70575535.495220423 15424282.001701355 0 0 0 0 449453.25149105862 720366.10830081347 0 720366.10830081347 -112502.34903940861 0 0 0 0 -4055375.5874900818 -7100119.4809615612 0 -7100119.4809615612 -19872917.003350258 0 0 0 0 107522519.80317402 30790197.16672641 0 30790197.16672641 -16610886.723360062 0 0 0 0 90699181.173858643 -18287531.599525452 0 -18287531.599525452 -23035346.238778114 0 0 0 0 157346872.66905212 43429265.220828056 0 43429265.220828056 -14330322.060954332 0 0 0 0 1057483.8749907576 912992.68352415226 0 912992.68352415226 -466525.53529495897 0 0 0 0 3060504.7351989746 -1492954.6215801239 0 -1492954.6215801239 -985292.88009500504 0 0 0 0 1102600.5833129883 -3123907.5807669163 0 -3123907.5807669163 -1502796.6516628861 0 0 0 0 2601556.1122970581 630250.87170124054 0 630250.87170124054 977990.22050523758 0 0 0 0 242955.71453094482 -800936.01171517372 0 -800936.01171517372 803349.61497986317 0 0 0 0 -10874969.645118713 23778155.343268275 0 23778155.343268275 -26573238.308968067 0 0 0 0 9104923.3258666992 355717.68960380554 0 355717.68960380554 -9085675.9468817711 0 0 0 0 886875.52361070272 558505.66469414905 0 558505.66469414905 -1411503.3703569837 0 0 0 0 82803915.247634888 -89273162.215387344 0 -89273162.215387344 96762135.450827122 0 0 0 0 71821494.385406494 19587622.599832773 0 19587622.599832773 -70208121.240025997 0 0 0 0 -3757967.2137527466 -15326301.300261974 0 -15326301.300261974 -27313268.639676332 0 0 0 0 -12024313.986915588 490818.40564322472 0 490818.40564322472 -9403748.422904253 0 0 0 0 -32100490.924667358 -32482636.675971031 0 -32482636.675971031 1106610.5579141378 0 0 0 0 52923497.051989555 -52235028.288447082 0 -52235028.288447082 -4718757.0960469246 0 0 0 0 -44135687.238327026 -28985327.4575243 0 -28985327.4575243 122288.88311076164 0 0 0 0 150689.56326764822 -56224.84700911399 0 -56224.84700911399 -54497.503680919297 0 0 0 0 -12270065.110214233 99394727.150068283 0 99394727.150068283 62633472.215015411 0 0 0 0 33299895.870178223 57914202.877631187 0 57914202.877631187 17579921.145387888 0 0 0 0 2054935.7982139587 5522998.4984072149 0 5522998.4984072149 45921260.019394875 0 0 0 0 64619997.618835449 66553425.092878819 0 66553425.092878819 -1345053.1085767746 0 0 0 0 889886.88784553553 265785.32518048398 0 265785.32518048398 -1439721.6524707361 0 0 0 0 51904714.473999023 23252524.027517796 0 23252524.027517796 -23801764.135421395 0 0 0 0 -30244253.252578735 -10830578.803680956 0 -10830578.803680956 46119747.508348465 0 0 0 0 25501930.852584839 -13535533.114671707 0 -13535533.114671707 2491162.5144935548 0 0 0 0 29909061.916460037 2984748.4563965797 0 2984748.4563965797 9366203.0375595093 0 0 0 0 323367781.63993835 57119634.325116634 0 57119634.325116634 -547540.01148271561 0 0 0 0 502271209.72840881 -10064271.717424393 0 -10064271.717424393 -127727958.33503342 0 0 0 0 354995358.24874878 64566775.310454369 0 64566775.310454369 -155523692.1028862 0 0 0 0 31697815.832824707 70309165.171719551 0 70309165.171719551 29850894.573875427 0 0 0 0 365893984.92432404 -146254254.89770031 0 -146254254.89770031 -22731028.945871115 0 0 0 0 -5632897.5954055786 46845292.04935503 0 46845292.04935503 18461903.987009048 0 0 0 0 184456.14583675936 245744.24891002476 0 245744.24891002476 -51665.799235126236 0 0 0 0 6517246.3334503174 -9890603.0453443527 0 -9890603.0453443527 -20525181.902162552 0 0 0 0 53663335.485900879 14576791.609080791 0 14576791.609080791 -11901605.487703323 0 0 0 0 -10591146.557762146 272447.91897511482 0 272447.91897511482 2149775.8756055832 0 0 0 0 335405949.64252138 97573287.302278101 0 97573287.302278101 -45829974.136078835 0 0 0 0 832071.24668117519 1788564.4720383743 0 1788564.4720383743 2144197.3387167249 0 0 0 0 -181079320.65324402 17331312.332004309 0 17331312.332004309 117358148.7408371 0 0 0 0 89006842.455932617 -114002795.27208614 0 -114002795.27208614 99182138.402436256 0 0 0 0 294404195.80931091 263453569.34640026 0 263453569.34640026 -189240102.69223833 0 0 0 0 -1733005.2699841019 97346.126933362335 0 97346.126933362335 2962542.7084950646 0 0 0 0 -3521806.1048660278 2796019.215233326 0 2796019.215233326 2895133.5930677801 0 0 0 0 -9109240.7106437683 5475520.8053679466 0 5475520.8053679466 6080897.6143131256 0 0 0 0 -4266720.3312759399 1276017.4504780769 0 1276017.4504780769 4616495.2493107617 0 0 0 0 10966989.252708435 8898379.3825616837 0 8898379.3825616837 3364824.6834926605 0 0 0 0 11629393.236776114 17722124.323951975 0 17722124.323951975 5174131.3865966797 0 0 0 0 1448492.9144436903 496478.30387075618 0 496478.30387075618 -1574651.7654680018 0 0 0 0 15913037.182876587 5315750.9823873043 0 5315750.9823873043 -1223952.8032903671 0 0 0 0 4032110.4425773621 14925814.668513775 0 14925814.668513775 7635129.608361721 0 0 0 0 -9421166.1952362061 8259788.1071763039 0 8259788.1071763039 3466955.205262661 0 0 0 0 -1648861.8480529785 4257736.2456159592 0 4257736.2456159592 3246865.1822906733 0 0 0 0 -13833509.626922607 8084254.9834042788 0 8084254.9834042788 -1926715.5064423084 0 0 0 0 -9784802.3966140747 4168230.1407324076 0 4168230.1407324076 1025778.0131917 0 0 0 0 -2545852.7738761902 20026601.22566551 0 20026601.22566551 -12333588.153974533 0 0 0 0 27334587.513839722 17947776.172317743 0 17947776.172317743 -14398934.712216288 0 0 0 0 -38750226.241481781 -2687562.1057867408 0 -2687562.1057867408 -5061179.1231870651 0 0 0 0 -15159941.529695511 41857532.730293736 0 41857532.730293736 -10480886.039974451 0 0 0 0 13804046.679542542 -1356780.1640327573 0 -1356780.1640327573 -39432033.442451954 0 0 0 0 -5530286.766784668 -5607552.1410474777 0 -5607552.1410474777 -364407.16527485847 0 0 0 0 4923519.4095306396 13677824.052041054 0 13677824.052041054 3029749.6803865433 0 0 0 0 -20895700.822135925 1722769.7838619947 0 1722769.7838619947 4024244.1473642588 0 0 0 0 449266.8510546349 831212.06071144994 0 831212.06071144994 -278262.97271994711 0 0 0 0 -434170.52586568147 1503978.3539662138 0 1503978.3539662138 4184924.9230376841 0 0 0 0 34662391.870849609 73124855.975888729 0 73124855.975888729 15640879.756803513 0 0 0 0 261840545.2831192 -12792198.396779776 0 -12792198.396779776 -35425926.151795387 0 0 0 0 -290577.20445821155 936252.99109084811 0 936252.99109084811 2887203.4115519924 0 0 0 0 -16266854.974914551 4468529.1001827717 0 4468529.1001827717 12627643.681427836 0 0 0 0 -17269682.631576538 8565838.1243162155 0 8565838.1243162155 -3688241.9681186676 0 0 0 0 -11934677.764373779 16941683.341741204 0 16941683.341741204 5643904.6494312286 0 0 0 0 -66605513.841522217 68951977.401418507 0 68951977.401418507 -23376302.111639917 0 0 0 0 27833323.069519043 64763171.680264592 0 64763171.680264592 -65483654.462484479 0 0 0 0 -12185842.173778534 20483382.862753719 0 20483382.862753719 -39881890.908762455 0 0 0 0 5774746.2064447403 -35573184.2524416 0 -35573184.2524416 -72541607.073092818 0 0 0 0 310346.04367793165 31697.021748895757 0 31697.021748895757 -279413.92752163287 0 0 0 0 77901165.0574646 49894797.163931847 0 49894797.163931847 -77553369.351108789 0 0 0 0 11717404.268615723 18115083.321781337 0 18115083.321781337 -80093339.73638165 0 0 0 0 146179149.81842041 -19241783.749452353 0 -19241783.749452353 -182751228.16976309 0 0 0 0 7769805.7836151123 4421067.8923273087 0 4421067.8923273087 10314433.125496864 0 0 0 0 -5581577.5245285034 16342510.301449776 0 16342510.301449776 1177827.7514357567 0 0 0 0 6578326.6482620239 2121754.8352588415 0 2121754.8352588415 6311744.9498343468 0 0 0 0 372725.21057023853 802853.02239262173 0 802853.02239262173 -220171.6140410993 0 0 0 0 -17084556.994354248 14723307.247971058 0 14723307.247971058 17148328.474139929 0 0 0 0 -47175428.999176025 43063907.869951725 0 43063907.869951725 -10187335.879389763 0 0 0 0 -26106776.103012085 18026496.003407001 0 18026496.003407001 16954260.746826649 0 0 0 0 -26735287.128112793 7359865.6867470741 0 7359865.6867470741 11511755.868850231 0 0 0 0 -3225149.0180664062 14862199.718489647 0 14862199.718489647 10896318.516728878 0 0 0 0 -3711817.0623443127 1952305.9972706512 0 1952305.9972706512 12236959.168142796 0 0 0 0 -45404825.005619049 18171837.208327413 0 18171837.208327413 50295068.536138535 0 0 0 0 5889047.7865004539 6387685.9823710769 0 6387685.9823710769 13359763.877651215 0 0 0 0 6711947.2972335815 18600324.985438824 0 18600324.985438824 32696820.122380257 0 0 0 0 14268368.715953827 20128745.307656765 0 20128745.307656765 24174296.131212234 0 0 0 0 13322297.717666626 20903576.721372604 0 20903576.721372604 24013632.335943222 0 0 0 0 16702696.191444397 43258412.924417973 0 43258412.924417973 30793380.843053818 0 0 0 0 25525354.079032898 27441759.190104008 0 27441759.190104008 23487326.896644592 0 0 0 0 58225460.920198441 89229587.362762392 0 89229587.362762392 77672871.617176056 0 0 0 0 8342021.7862472534 12593294.033799648 0 12593294.033799648 10593480.29061985 0 0 0 0 5640993.3924643993 4741570.4665984362 0 4741570.4665984362 5676075.3393983841 0 0 0 0 10935835.313545227 11285078.765706062 0 11285078.765706062 12675711.937890053 0 0 0 0 6259777.9644699097 13223809.429584503 0 13223809.429584503 12713718.893924713 0 0 0 0 4789902.8148422241 9428648.7657549381 0 9428648.7657549381 1537022.7799680233 0 0 0 0 7473962.6097335815 4595775.2128450871 0 4595775.2128450871 7486707.5180559158 0 0 0 0 9373521.2624511719 7948072.5266194344 0 7948072.5266194344 6774318.5326557159 0 0 0 0 -4807901.2853851318 4533687.6646401882 0 4533687.6646401882 8184447.3150067329 0 0 0 0 35276488.626529694 -6908608.0670554042 0 -6908608.0670554042 -4710800.2449178696 0 0 0 0 1047019.9551252518 1945936.8898179065 0 1945936.8898179065 -374152.55447846185 0 0 0 0 9279820.6669692993 3523108.3886940479 0 3523108.3886940479 -1855814.1793541908 0 0 0 0 28766524.489906311 11547551.868536055 0 11547551.868536055 -56056672.38192004 0 0 0 0 -179866662.85917664 -44096805.867590547 0 -44096805.867590547 86279026.191160083 0 0 0 0 -91681787.399330139 5310796.2896406054 0 5310796.2896406054 11794331.447108865 0 0 0 0 -52061765.852518082 60707475.147098407 0 60707475.147098407 -42170121.914516568 0 0 0 0 10476905.430839539 3603921.8809630573 0 3603921.8809630573 1440118.6928417683 0 0 0 0 43199151.012649536 25439016.303833425 0 25439016.303833425 -41720724.191770315 0 0 0 0 32036381.331932068 10314706.87568295 0 10314706.87568295 -29421422.228798628 0 0 0 0 481500.15949556045 384556.05525199138 0 384556.05525199138 -243903.42503564717 0 0 0 0 24926136.169578552 24113980.85075736 0 24113980.85075736 23983632.11630857 0 0 0 0 162418411.798172 61152393.428991452 0 61152393.428991452 -14767118.921195045 0 0 0 0 37825117.443527222 -15302873.61565733 0 -15302873.61565733 -45314750.24013111 0 0 0 0 5162264.2488632202 1852554.6215572357 0 1852554.6215572357 -743693.24255764484 0 0 0 0 1222319.8398298062 993018.64092126209 0 993018.64092126209 -491882.30637343891 0 0 0 0 918936.38286018372 11681235.31902352 0 11681235.31902352 6856783.7450037003 0 0 0 0 5418319.8466949463 1147835.2810492516 0 1147835.2810492516 -209591.06422805786 0 0 0 0 16385370.480522156 -2589411.9352581501 0 -2589411.9352581501 2414684.6781914234 0 0 0 0 6895880.9303665161 3075744.2406383157 0 3075744.2406383157 -200580.89449930191 0 0 0 0 -2090494.1112365723 8656826.7991881371 0 8656826.7991881371 -2914346.0097608566 0 0 0 0 1897822.9964366015 3040754.9498650059 0 3040754.9498650059 -399031.9691223242 0 0 0 0 1526543.266494751 -421394.47098350525 0 -421394.47098350525 -1673395.6146700382 0 0 0 0 165324.08735032193 86948.746808074415 0 86948.746808074415 12383.755795534002 0 0 0 0 4768338.3959655762 1306045.0032968521 0 1306045.0032968521 277531.44246721268 0 0 0 0 2971068.5466391798 1029757.5195132606 0 1029757.5195132606 1161491.2429941664 0 0 0 0 4629838.847155571 -8746792.8672382012 0 -8746792.8672382012 12412791.440251589 0 0 0 0 4503615.0583267212 7903586.4656329155 0 7903586.4656329155 53201200.590042718 0 0 0 0 5622948.6907577515 4275665.611166954 0 4275665.611166954 1144633.0194411278 0 0 0 0 -3063289.1160230637 2356124.4965089858 0 2356124.4965089858 4963334.9400815964 0 0 0 0 1731720216.0907593 -718530662.11222649 0 -718530662.11222649 40981735.271150112 0 0 0 0 1234667770.5942116 -795058271.04018927 0 -795058271.04018927 254403712.63536829 0 0 0 0 1572920510.7873154 -597591247.18117964 0 -597591247.18117964 -49625118.255486488 0 0 0 0 520597.35907970276 -27458.079601904377 0 -27458.079601904377 -305799.57941793109 0 0 0 0 9585135.1127052307 9792275.55006814 0 9792275.55006814 1168751.391420722 0 0 0 0 1165500492.7856903 -617398310.14614701 0 -617398310.14614701 93228063.168638662 0 0 0 0 16269365.108207703 -4711138.8929210305 0 -4711138.8929210305 -3773402.2425897121 0 0 0 0 4152874.4400511235 162457.47272485076 0 162457.47272485076 -30055.782887365145 0 0 0 0 4005746.2116546631 1321153.3048014641 0 1321153.3048014641 287028.48066389561 0 0 0 0 -8299217.1740112305 461634.77759838104 0 461634.77759838104 -87936.084661483765 0 0 0 0 4214466.3327636719 1543878.7755489349 0 1543878.7755489349 175457.08638477325 0 0 0 0 4451816.9767456055 2401427.8291730881 0 2401427.8291730881 1308231.9235396385 0 0 0 0 1995622.603843689 1496307.8588733673 0 1496307.8588733673 1074691.1585757732 0 0 0 0 689691.23115429655 934628.20798152965 0 934628.20798152965 1438424.0129642601 0 0 0 0 675398009.50091553 -516774854.36953878 0 -516774854.36953878 803204697.34318948 0 0 0 0 1204959.1841468811 2599044.9887099266 0 2599044.9887099266 2364670.6241788864 0 0 0 0 2202496178.1705666 -1335297902.5606465 0 -1335297902.5606465 293313989.28821915 0 0 0 0 1065013501.2807159 -1094952499.5188956 0 -1094952499.5188956 494986841.90355849 0 0 0 0 1593694702.4666595 -1040236209.8137889 0 -1040236209.8137889 418740968.93923986 0 0 0 0 1100618.1162879923 -64599.777408155613 0 -64599.777408155613 -645030.82251478464 0 0 0 0 561076515.86250114 -1227892865.0012465 0 -1227892865.0012465 1747176555.8138978 0 0 0 0 2883721.906811567 2318414.5345264557 0 2318414.5345264557 -467590.35888762673 0 0 0 0 2198354025.7997513 86352.12312171013 0 86352.12312171013 -1655586.570071354 0 0 0 0 2839792.3449287415 28157393.962400168 0 28157393.962400168 949929788.89484251 0 0 0 0 1250778.5110121453 95500.07671028655 0 95500.07671028655 101512.30049153362 0 0 0 0 604386801.03447723 1028571181.0523813 0 1028571181.0523813 895017519.14305973 0 0 0 0 1549864.5729171522 1596535.4401063239 0 1596535.4401063239 -571018.69417518214 0 0 0 0 2623584.1122055054 3333935.1580986977 0 3333935.1580986977 2460436.7012607455 0 0 0 0 5012635.3357391357 2192178.2946999073 0 2192178.2946999073 328650.3553314805 0 0 0 0 4780063.3736877441 2794144.7777802944 0 2794144.7777802944 978251.63405060768 0 0 0 0 2202098610.7338295 1038198521.9848627 0 1038198521.9848627 -43327487.778148808 0 0 0 0 1871930533.0938339 643186090.07719338 0 643186090.07719338 37392418.576314092 0 0 0 0 664306.13889519684 -10510.287480833009 0 -10510.287480833009 -512099.20468781871 0 0 0 0 -2746816.3188705444 -24858973.653090477 0 -24858973.653090477 -32914596.445836425 0 0 0 0 24306891.848608017 9703748.5439206213 0 9703748.5439206213 -29083475.140761256 0 0 0 0 22808987.887817383 1642169.7448700666 0 1642169.7448700666 -10092507.076092482 0 0 0 0 1396522.9425368309 103386.16496124677 0 103386.16496124677 -1190859.5440270365 0 0 0 0 19605730.028587341 10315134.414239407 0 10315134.414239407 -10826043.994317234 0 0 0 0 1307914712.1307497 261580485.21048814 0 261580485.21048814 -10785606.7825564 0 0 0 0 206692230.49288988 -176549831.11819589 0 -176549831.11819589 29088049.459498763 0 0 0 0 211508208.26806259 72074099.258814469 0 72074099.258814469 21378183.601039518 0 0 0 0 1020873532.3549271 280114599.79750019 0 280114599.79750019 -11963774.8472667 0 0 0 0 1233597597.0469246 54138201.300307244 0 54138201.300307244 -29734083.217630923 0 0 0 0 1346480313.450511 344901633.06061381 0 344901633.06061381 -97083540.268517628 0 0 0 0 1941607923.8965507 437320318.48734593 0 437320318.48734593 -123513899.65228625 0 0 0 0 1690339912.9851875 398303989.15927541 0 398303989.15927541 -95321836.537889525 0 0 0 0 922437.31230163574 -416081884.69967902 0 -416081884.69967902 615926682.03849077 0 0 0 0 554181.79086401418 430570.64018072933 0 430570.64018072933 -262733.56579724106 0 0 0 0 1489544141.617836 -746026855.35083354 0 -746026855.35083354 91174949.526779175 0 0 0 0 1372681652.6448555 -1230178771.4084284 0 -1230178771.4084284 711247985.43003118 0 0 0 0 159839588.13157654 -212903304.40448451 0 -212903304.40448451 468895672.74362612 0 0 0 0 944809431.84647751 -262040770.34396303 0 -262040770.34396303 -135065140.32909226 0 0 0 0 278308242.07828522 -446936069.6930567 0 -446936069.6930567 122440194.16206837 0 0 0 0 207598911.55535889 -376074693.16916323 0 -376074693.16916323 723105313.61733425 0 0 0 0 603807305.61585999 -815940799.57949364 0 -815940799.57949364 826224908.27210093 0 0 0 0 565965212.1920433 -788485091.02233434 0 -788485091.02233434 942745523.85501099 0 0 0 0 491891582.54417419 -878629833.0579648 0 -878629833.0579648 1007438202.4048142 0 0 0 0 1454889265.5614433 -1641376869.7655213 0 -1641376869.7655213 1482745504.7111702 0 0 0 0 1902671893.6450958 -1358535869.4594967 0 -1358535869.4594967 657674324.9751066 0 0 0 0 2253843759.816124 -1853204688.3290761 0 -1853204688.3290761 807225739.24988317 0 0 0 0 2206212769.0988102 -1200099865.5479612 0 -1200099865.5479612 720551224.26604235 0 0 0 0 2957199989.2114983 -543738071.84712684 0 -543738071.84712684 1283762979.0574613 0 0 0 0 2100834613.4258747 -1172030468.8503151 0 -1172030468.8503151 967599280.53960395 0 0 0 0 1985892053.7729397 -1454136561.0095682 0 -1454136561.0095682 453237971.22506261 0 0 0 0 1804057089.3588886 -1256497683.6951444 0 -1256497683.6951444 1172830135.2997987 0 0 0 0 2506606256.8015327 -1209459410.4139977 0 -1209459410.4139977 626406081.32301402 0 0 0 0 1595481166.4931965 -1440498214.0722911 0 -1440498214.0722911 1173119948.7954619 0 0 0 0 2052088452.1653137 -1201654494.9251254 0 -1201654494.9251254 -38483368.742153734 0 0 0 0 1030015920.8730927 -238584613.56835318 0 -238584613.56835318 33813491.874901533 0 0 0 0 398615459.94699764 618522212.04427075 0 618522212.04427075 1187858296.8618765 0 0 0 0 691696.69227788248 -30621.916834126925 0 -30621.916834126925 1894113.7546807553 0 0 0 0 397343890.21495438 686823896.16846204 0 686823896.16846204 487173642.55305481 0 0 0 0 158736501.83905029 299993820.67715263 0 299993820.67715263 313747189.07981586 0 0 0 0 360323657.76100349 151025793.48378181 0 151025793.48378181 -196993167.09638023 0 0 0 0 450879566.7707386 452972187.74613261 0 452972187.74613261 143928633.54093933 0 0 0 0 -92552708.212738991 650678563.04148531 0 650678563.04148531 1369951672.0243063 0 0 0 0 55359720.838466644 450026803.8407135 0 450026803.8407135 565155455.12908173 0 0 0 0 205447072.06633377 358383784.26722622 0 358383784.26722622 284475667.7010231 0 0 0 0 -212966003.44766617 266237065.56900358 0 266237065.56900358 785849498.9005537 0 0 0 0 -214069494.63920689 279563572.35548878 0 279563572.35548878 770211484.92944765 0 0 0 0 -84446210.328374863 126424033.62924957 0 126424033.62924957 292202521.46070099 0 0 0 0 2290473.9235515594 122948726.69071198 0 122948726.69071198 180482830.43069458 0 0 0 0 -10207255.574731827 243531911.96891785 0 243531911.96891785 474203906.58620262 0 0 0 0 62858808.804346085 108346125.03397131 0 108346125.03397131 170701860.57185364 0 0 0 0 8702133.6525211334 2909293.9045391083 0 2909293.9045391083 60931435.495285034 0 0 0 0 -16312329.743749619 -14938072.401861191 0 -14938072.401861191 100299922.72898102 0 0 0 0 -8938276.4580974579 80105588.121908188 0 80105588.121908188 302203368.25560141 0 0 0 0 2087046.6502885818 -8554275.2452209666 0 -8554275.2452209666 22692223.757049233 0 0 0 0 54802762.718318939 97790919.461225092 0 97790919.461225092 60785507.656117737 0 0 0 0 2137445.2379924683 -403149.90404882957 0 -403149.90404882957 4850260.7000637706 0 0 0 0 -276596426.39504623 -68835876.947237015 0 -68835876.947237015 109106958.42324448 0 0 0 0 -829639.53655433655 -157607752.18072891 0 -157607752.18072891 -45763470.453005791 0 0 0 0 -80191352.477184296 -82676107.699220657 0 -82676107.699220657 -28185828.825458527 0 0 0 0 3910893.0394129492 -1247380.8437514971 0 -1247380.8437514971 6822092.3026607428 0 0 0 0 26916703.161394119 20671225.629803076 0 20671225.629803076 -8211772.6536460072 0 0 0 0 -56021409.013341904 14218419.026838303 0 14218419.026838303 -33039330.428443909 0 0 0 0 -27282614.162191391 -77107332.945396423 0 -77107332.945396423 -53485815.759824276 0 0 0 0 -19112333.921398878 -19139688.540926218 0 -19139688.540926218 101378539.6356926 0 0 0 0 -59604533.637307644 4517561.4649848938 0 4517561.4649848938 85228383.874824524 0 0 0 0 -36801030.743570328 -85315693.078529358 0 -85315693.078529358 14296954.998882294 0 0 0 0 13338113.125740064 -2035856.8253239298 0 -2035856.8253239298 2846142.1370679438 0 0 0 0 22756079.382217407 17349990.330438614 0 17349990.330438614 -10949124.816562653 0 0 0 0 9645375.2764834166 -57113855.805797577 0 -57113855.805797577 -114465564.83818817 0 0 0 0 8949186.8722667694 3463746.6159438193 0 3463746.6159438193 6323036.3970651627 0 0 0 0 2618482.7221532818 467267.88422934758 0 467267.88422934758 1486017.1432490954 0 0 0 0 2763187.2020613663 729948.54268162558 0 729948.54268162558 2166976.1803942928 0 0 0 0 -6069346.7372131348 -40049353.196784973 0 -40049353.196784973 -25155568.699981689 0 0 0 0 6671150.6611703224 -2364718.0324960365 0 -2364718.0324960365 3907509.2265245761 0 0 0 0 627814.23260498047 -267673.88303852081 0 -267673.88303852081 -1049410.2554473877 0 0 0 0 4946212.064883044 -869385.54797761049 0 -869385.54797761049 -157580.31155246543 0 0 0 0 5760781.3598384503 1561779.5726131545 0 1561779.5726131545 2978110.5684099104 0 0 0 0 -976153.41369628906 -1209892.8548736572 0 -1209892.8548736572 678020.67420959473 0 0 0 0 5094029.9982256107 -294235.69090796867 0 -294235.69090796867 5403174.67607179 0 0 0 0 -871024.49192428589 -1564677.0101233721 0 -1564677.0101233721 528019.80339431763 0 0 0 0 312070623.50475311 169713346.01262054 0 169713346.01262054 -14880856.273618247 0 0 0 0 2233297.080480108 1985494.3055475829 0 1985494.3055475829 6366449.7367172493 0 0 0 0 62428777.610351562 15435823.036987454 0 15435823.036987454 -29791521.941963147 0 0 0 0 -40489582.305603027 25144701.969925676 0 25144701.969925676 14112902.03997761 0 0 0 0 1697446.380313955 1312556.2835696349 0 1312556.2835696349 -1048399.7700737502 0 0 0 0 2782884.126790286 -385834.27590445988 0 -385834.27590445988 930406.21395207138 0 0 0 0 -90882239.815542221 162189252.36553049 0 162189252.36553049 -242546919.67003131 0 0 0 0 35315295.781433105 -54540960.339555986 0 -54540960.339555986 8938688.9888121672 0 0 0 0 2400664.6114749908 -9311971.4504656792 0 -9311971.4504656792 225651540.87142465 0 0 0 0 -127706005.18526459 114961209.50919652 0 114961209.50919652 642787874.04016876 0 0 0 0 140719975.62464333 364850651.05570817 0 364850651.05570817 -75401121.228691101 0 0 0 0 2202635414.2214546 -628190747.30003679 0 -628190747.30003679 -155097620.26516303 0 0 0 0 2351573272.772419 -1160338596.2820258 0 -1160338596.2820258 1450554013.960928 0 0 0 0 2361747169.8970757 21849388.949510112 0 21849388.949510112 -120422651.70230025 0 0 0 0 995441.78885791637 -251733.13842364727 0 -251733.13842364727 462986.80603240954 0 0 0 0 294825546.39845276 -701129874.86800718 0 -701129874.86800718 1414330275.5713673 0 0 0 0 926280.63521080744 1723318.1130279684 0 1723318.1130279684 6101933.0251800055 0 0 0 0 1645393211.0148582 -1021786288.2384094 0 -1021786288.2384094 392244709.12615508 0 0 0 0 169030196.52427483 142170968.72189575 0 142170968.72189575 106615483.53349887 0 0 0 0 705028331.12009811 1189563307.7474401 0 1189563307.7474401 1269477153.4894278 0 0 0 0 2201284927.36549 953338996.31590486 0 953338996.31590486 -105619430.8340674 0 0 0 0 33984301.524040222 59377254.462579489 0 59377254.462579489 190260780.28259635 0 0 0 0 294853924.13003731 125868789.49085945 0 125868789.49085945 164393908.27085733 0 0 0 0 513062682.81301117 445320435.79687959 0 445320435.79687959 343044981.8914696 0 0 0 0 441648226.62962103 -14948255.434294716 0 -14948255.434294716 -84846054.975182772 0 0 0 0 1313610248.7340851 408464928.03661698 0 408464928.03661698 -158269654.92297202 0 0 0 0 654292288.88183212 293310632.28433537 0 293310632.28433537 -75608671.744184613 0 0 0 0 765446238.50362587 148918226.73133138 0 148918226.73133138 -150914546.51945895 0 0 0 0 2205164146.4525299 373319053.09892374 0 373319053.09892374 -482255489.4976458 0 0 0 0 1309028868.3797836 518365882.13499296 0 518365882.13499296 -292973241.14710069 0 0 0 0 1379968554.323349 -59239241.432510659 0 -59239241.432510659 -448728568.56045568 0 0 0 0 850185420.34365463 -134820959.5582566 0 -134820959.5582566 -145940628.04171133 0 0 0 0 1289848968.9306335 239170395.17433926 0 239170395.17433926 -206275093.5822773 0 0 0 0 1251344008.5274582 -623613039.38270259 0 -623613039.38270259 90015032.449595377 0 0 0 0 586202003.80711365 28686170.658333734 0 28686170.658333734 1557177.1595857143 0 0 0 0 2204403304.938324 -244159403.98949075 0 -244159403.98949075 -435509156.74863583 0 0 0 0 1303230260.4352226 -509652040.69534159 0 -509652040.69534159 -59055736.093586177 0 0 0 0 3995309.1180343628 4923972.0383741856 0 4923972.0383741856 6616200.4482355118 0 0 0 0 13989320.079734802 12820904.963706255 0 12820904.963706255 6966569.4833011627 0 0 0 0 3045972.9799838541 1194446.7108993819 0 1194446.7108993819 2541750.3260234566 0 0 0 0 1447537.0008049011 4503477.6411232948 0 4503477.6411232948 6814976.6054115295 0 0 0 0 344492098.94234085 -180518343.57999355 0 -180518343.57999355 60810906.428897962 0 0 0 0 8074880.2408828735 4618819.0889310837 0 4618819.0889310837 1762102.5840015411 0 0 0 0 17361421.504981995 11957491.762880325 0 11957491.762880325 5183916.4911899567 0 0 0 0 18233771.659209251 12319848.232892036 0 12319848.232892036 3932541.5881729126 0 0 0 0 28212856.769096375 19642560.51496315 0 19642560.51496315 8953593.1437778473 0 0 0 0 3937523.3186340332 827554.09286022186 0 827554.09286022186 7577937.7723636627 0 0 0 0 280672078.85341644 73275123.386030287 0 73275123.386030287 104755558.81414288 0 0 0 0 3483535.3182384525 1274148.7042931402 0 1274148.7042931402 3649762.7765577007 0 0 0 0 36711279.834541321 -5498598.9715528488 0 -5498598.9715528488 -150249.4974822998 0 0 0 0 18560367.249237061 8139222.6364555359 0 8139222.6364555359 4700392.9719792902 0 0 0 0 1079514.7528460319 620596.17593277153 0 620596.17593277153 183829.96000541188 0 0 0 0 11080868.509819031 15701316.437609673 0 15701316.437609673 12407848.989456177 0 0 0 0 26675388.590339661 5366024.8156909943 0 5366024.8156909943 -1195146.3230441213 0 0 0 0 4296323.7669561785 1478933.8954395326 0 1478933.8954395326 4369950.7534922846 0 0 0 0 4355086.1234411672 2304470.6491174945 0 2304470.6491174945 -1209627.6874963124 0 0 0 0 18874451.885140896 5809584.8868464828 0 5809584.8868464828 7500884.8170204163 0 0 0 0 16618689.147796631 12600416.389911652 0 12600416.389911652 16049396.286767006 0 0 0 0 1482175.8015030138 768180.86891656928 0 768180.86891656928 -465075.86582694063 0 0 0 0 -3450541.4430084229 5092197.4869480133 0 5092197.4869480133 9879589.6034858227 0 0 0 0 34903912.640640259 45841799.226128578 0 45841799.226128578 15905350.584603548 0 0 0 0 22528511.172633171 7903757.1222963333 0 7903757.1222963333 -2441754.9568958282 0 0 0 0 9262801.7255325317 22667103.165043831 0 22667103.165043831 -13954264.775148392 0 0 0 0 17238799.534248352 32862036.694253922 0 32862036.694253922 14514926.537817001 0 0 0 0 15605806.912944794 9091550.6267945766 0 9091550.6267945766 5410854.6622543335 0 0 0 0 17887677.46643877 14864830.821514189 0 14864830.821514189 5774387.429813385 0 0 0 0 25665445.042304993 19011828.146003723 0 19011828.146003723 7044945.9085617065 0 0 0 0 13437225.97743988 12890516.453264713 0 12890516.453264713 8428240.8363932371 0 0 0 0 26818513.581594467 28929825.662224412 0 28929825.662224412 13864586.490697861 0 0 0 0 17736899.088447571 22227045.156857491 0 22227045.156857491 12565586.87648654 0 0 0 0 12306963.949090958 20596675.195832014 0 20596675.195832014 22401322.803323746 0 0 0 0 19163812.58297348 22854397.88239193 0 22854397.88239193 11892514.851361275 0 0 0 0 9489032.4465732574 12175864.535819769 0 12175864.535819769 9420474.0563087463 0 0 0 0 20203302.866016388 20364603.100156307 0 20364603.100156307 11948633.119688034 0 0 0 0 54872332.57849884 31827700.85519886 0 31827700.85519886 12230277.683626175 0 0 0 0 36581035.074584961 31728986.154100418 0 31728986.154100418 12542640.988742828 0 0 0 0 84484048.11680603 65086456.468028069 0 65086456.468028069 28966474.150013387 0 0 0 0 35677398.50944519 31412670.348705292 0 31412670.348705292 20600733.070669651 0 0 0 0 19171117.012724727 25128884.358431324 0 25128884.358431324 22317746.488470078 0 0 0 0 28550647.303016663 26399016.451985359 0 26399016.451985359 14583103.693226933 0 0 0 0 36068773.873809814 18643813.801020622 0 18643813.801020622 15754165.461698532 0 0 0 0 82546813.637016296 9784897.7682847977 0 9784897.7682847977 714948.83909320831 0 0 0 0 77930167.872505188 14110821.265692711 0 14110821.265692711 -1319538.3269805908 0 0 0 0 38187979.266265869 -774102.94375705719 0 -774102.94375705719 15495273.930891037 0 0 0 0 63839316.078674316 3089298.3524122238 0 3089298.3524122238 1026929.5533351898 0 0 0 0 29616636.102516174 19121945.838797569 0 19121945.838797569 4396482.7680530548 0 0 0 0 16314246.560890198 17193422.001102448 0 17193422.001102448 7674327.1989107132 0 0 0 0 10861745.254989624 -260820.09943294525 0 -260820.09943294525 -36133863.421639442 0 0 0 0 20504919.152175903 30858049.35770607 0 30858049.35770607 -5639491.2294883728 0 0 0 0 30304712.493152618 2191390.5141253471 0 2191390.5141253471 -28532798.405071259 0 0 0 0 2355734.0957565308 15475109.96856308 0 15475109.96856308 -30325214.841321945 0 0 0 0 -54427716.694958687 86687764.881129265 0 86687764.881129265 -83314114.722002029 0 0 0 0 170109216.99282265 184179771.38703346 0 184179771.38703346 61896669.534513474 0 0 0 0 89119978.943611145 62710957.830078125 0 62710957.830078125 -81263726.583124161 0 0 0 0 280588111.93511486 -40937342.63517189 0 -40937342.63517189 -117798077.42157555 0 0 0 0 -50219198.511992931 51447199.904184341 0 51447199.904184341 -110368351.69753265 0 0 0 0 125430006.96989536 -84757696.672486901 0 -84757696.672486901 75211223.1157341 0 0 0 0 182360224.4739058 11351647.302497864 0 11351647.302497864 -456065187.96870613 0 0 0 0 19826864.956429891 -1162654.1882751458 0 -1162654.1882751458 -245698.57917591522 0 0 0 0 31721580.05324173 16280855.420731544 0 16280855.420731544 -75546681.204948425 0 0 0 0 16747883.090585448 -1693657.7584709581 0 -1693657.7584709581 1190702.1820076078 0 0 0 0 35621716.218729973 -199850596.23997688 0 -199850596.23997688 -105960272.16999245 0 0 0 0 34191967.343078613 9289103.0874538422 0 9289103.0874538422 -50276410.881105423 0 0 0 0 108283895.0345071 -35633316.110572815 0 -35633316.110572815 -363386418.61854184 0 0 0 0 -42497930.102291644 -91280769.017513275 0 -91280769.017513275 -26257846.154497147 0 0 0 0 34826922.364317894 -81925051.331159592 0 -81925051.331159592 -26407375.401542813 0 0 0 0 -49159723.550343513 -150108446.20705795 0 -150108446.20705795 215275627.10715866 0 0 0 0 76044264.664905787 -90731554.463348389 0 -90731554.463348389 -65357495.435241699 0 0 0 0 20674939.59173584 -171651996.39984989 0 -171651996.39984989 192121911.2884903 0 0 0 0 150129081.08431053 -211725565.11553574 0 -211725565.11553574 190210229.13204193 0 0 0 0 -91878158.768276617 -202322681.33018374 0 -202322681.33018374 586043527.08038712 0 0 0 0 -87584010.355954289 -167694042.76757491 0 -167694042.76757491 492340877.8637886 0 0 0 0 65277963.850378036 -317521492.20549583 0 -317521492.20549583 560706974.26812744 0 0 0 0 -67922881.945655107 -46108295.280752182 0 -46108295.280752182 254873515.8333478 0 0 0 0 -70762186.739208817 -19117085.27709341 0 -19117085.27709341 390216842.59072495 0 0 0 0 -265006859.22579598 -78994645.494865417 0 -78994645.494865417 590750687.71489596 0 0 0 0 -103033353.51155931 150085800.86674619 0 150085800.86674619 517589500.18002319 0 0 0 0 -414149531.73926306 234593432.21379185 0 234593432.21379185 1014762439.9375629 0 0 0 0 -280651228.80728674 81924449.327425003 0 81924449.327425003 627670379.31254387 0 0 0 0 -270499199.19334626 31091203.831309557 0 31091203.831309557 879646369.89562988 0 0 0 0 -550102018.71118736 70233267.987848282 0 70233267.987848282 875675799.18351483 0 0 0 0 -362751712.04220486 -115502162.00972366 0 -115502162.00972366 920252761.15220928 0 0 0 0 -191954454.21529841 -258634694.29285812 0 -258634694.29285812 984473276.68910599 0 0 0 0 -443090308.83941352 -101306070.07352495 0 -101306070.07352495 1029421002.8882236 0 0 0 0 -349499953.22306859 -270072884.54678416 0 -270072884.54678416 1385582211.3505402 0 0 0 0 1216339702.3709812 -121352474.95492268 0 -121352474.95492268 154589982.870224 0 0 0 0 -82514363.274274826 -555975423.97872257 0 -555975423.97872257 1690553940.1901226 0 0 0 0 618286214.80228043 -957812482.14195061 0 -957812482.14195061 1220739236.3382435 0 0 0 0 374783504.63940048 -610119009.29531288 0 -610119009.29531288 733844254.28893852 0 0 0 0 176709434.14157104 268804624.32091951 0 268804624.32091951 267169691.55482864 0 0 0 0 515766752.64002228 -1123446526.9185238 0 -1123446526.9185238 -305891313.0223217 0 0 0 0 229087170.61807442 91636480.516325951 0 91636480.516325951 230677341.14593697 0 0 0 0 232210049.71613693 43629471.364409447 0 43629471.364409447 91422471.410507202 0 0 0 0 592570071.13923264 -23037286.669927597 0 -23037286.669927597 68579407.710978508 0 0 0 0 279467330.40551758 -392845177.32168007 0 -392845177.32168007 437426735.86240959 0 0 0 0 61865035.502283573 -304335457.25474453 0 -304335457.25474453 549114073.34050369 0 0 0 0 -79969016.054040909 19095765.970298767 0 19095765.970298767 39317487.479280472 0 0 0 0 -41366077.522304535 26814426.388505936 0 26814426.388505936 13347898.877300262 0 0 0 0 25976031.654872894 201972150.4864645 0 201972150.4864645 235829762.27423096 0 0 0 0 -144701974.92660332 54686108.283172607 0 54686108.283172607 109372406.06858563 0 0 0 0 -112699678.22801113 -135267120.95822144 0 -135267120.95822144 -111511651.62606049 0 0 0 0 1710185.275005254 1186155.9308281671 0 1186155.9308281671 -362255.41851055133 0 0 0 0 -288143204.2789135 -55875489.887712479 0 -55875489.887712479 250731111.56369287 0 0 0 0 -41411498.609565735 -10336588.169818878 0 -10336588.169818878 47295402.326685429 0 0 0 0 2960299.3430782733 4527766.2914665947 0 4527766.2914665947 -1538761.8369112029 0 0 0 0 -39139515.945451736 -6728182.1386044025 0 -6728182.1386044025 -4608762.1031970978 0 0 0 0 310342628.25772095 58582922.845516205 0 58582922.845516205 -334255180.39573431 0 0 0 0 10268976.4204216 -15255452.265977859 0 -15255452.265977859 -12595173.669107437 0 0 0 0 141418218.79935837 -65362945.404200554 0 -65362945.404200554 -230554256.49861908 0 0 0 0 -91095648.910625458 -119218520.20927811 0 -119218520.20927811 -115407528.69100952 0 0 0 0 927690.8288664727 -165146.76941614831 0 -165146.76941614831 -224354.3260000525 0 0 0 0 262066632.03623199 -241554918.84498787 0 -241554918.84498787 -277035527.23389626 0 0 0 0 -747038.99525693059 -1843271.748995143 0 -1843271.748995143 653985.82547219761 0 0 0 0 64620351.676132679 -411411076.14466012 0 -411411076.14466012 267416470.32448578 0 0 0 0 -172047612.86124039 28814729.614203453 0 28814729.614203453 253141907.99943924 0 0 0 0 15442235.320333125 -2404286.7847512504 0 -2404286.7847512504 -41832.596113904379 0 0 0 0 461120093.24827385 820397531.49234104 0 820397531.49234104 917091403.90386963 0 0 0 0 300573370.15200043 347216155.70277786 0 347216155.70277786 122075220.7304306 0 0 0 0 -14104949.489189148 9889530.8630256653 0 9889530.8630256653 6220600.490568161 0 0 0 0 -6934340.8173847198 13932261.046513557 0 13932261.046513557 1247391.357749939 0 0 0 0 -15838717.905921936 19439391.976082802 0 19439391.976082802 5254817.791759491 0 0 0 0 -30689444.663318634 10970128.077474594 0 10970128.077474594 7645951.4360561371 0 0 0 0 20647883.723637566 -3832609.9474443737 0 -3832609.9474443737 -2182006.7650053971 0 0 0 0 -24132647.93396759 23547000.951334 0 23547000.951334 3986760.1145582199 0 0 0 0 18270212.558736801 18605748.045552254 0 18605748.045552254 -26817580.473999023 0 0 0 0 -228485626.89069939 -171373654.687572 0 -171373654.687572 -84819311.694906235 0 0 0 0 311615422.14391136 133669690.31936312 0 133669690.31936312 -144971566.65504456 0 0 0 0 756205516.67147827 353300707.65515518 0 353300707.65515518 -274363046.74246979 0 0 0 0 273512970.43238068 -3326304.401638031 0 -3326304.401638031 -385408010.43526268 0 0 0 0 108227321.23342896 -456711582.0808754 0 -456711582.0808754 -448765237.16665363 0 0 0 0 1000293704.0376282 -196461194.98872185 0 -196461194.98872185 -849080299.14398956 0 0 0 0 101537163.63264084 24412594.117584229 0 24412594.117584229 -174308736.28379059 0 0 0 0 194897816.90412903 -24413042.103068352 0 -24413042.103068352 -209546024.76985359 0 0 0 0 196849219.63205051 -36322311.308434486 0 -36322311.308434486 -234567442.08522797 0 0 0 0 3012954.1538340673 -698240.27003790787 0 -698240.27003790787 -1626380.1446727025 0 0 0 0 50601333.819887161 -45864213.263726234 0 -45864213.263726234 -192616179.76483917 0 0 0 0 -7738419.3199501038 5530851.2378649712 0 5530851.2378649712 6890230.1627426147 0 0 0 0 14034913.024200946 -1268162.8042187868 0 -1268162.8042187868 -1378096.906236391 0 0 0 0 18748384.870165005 2524548.0954197468 0 2524548.0954197468 -3377627.4081576709 0 0 0 0 4884559.3904190063 1501724.8009550571 0 1501724.8009550571 -3705292.9489534125 0 0 0 0 24949921.662702981 865772.7363814665 0 865772.7363814665 -3183972.4918964179 0 0 0 0 25297674.15411377 -10689336.889202118 0 -10689336.889202118 -43482577.68205446 0 0 0 0 1466002.6013059616 40992961.70963192 0 40992961.70963192 -55904619.052804947 0 0 0 0 24092321.240845338 -5510049.8977450933 0 -5510049.8977450933 -4389177.4770143144 0 0 0 0 -28799090.355335236 47053327.303949356 0 47053327.303949356 -13489384.11220932 0 0 0 0 -22241256.242557526 30830590.705957413 0 30830590.705957413 13400157.723941654 0 0 0 0 -13227126.136026382 173039454.34956169 0 173039454.34956169 88177468.706457376 0 0 0 0 -26467441.309347153 67433884.018719196 0 67433884.018719196 -61462458.136489868 0 0 0 0 22506368.886736933 -392720.03262007376 0 -392720.03262007376 -1638452.6611944502 0 0 0 0 45350335.100738525 -7777999.3561229706 0 -7777999.3561229706 -87159379.591934353 0 0 0 0 68553066.081226349 113065725.24064445 0 113065725.24064445 -246478959.78676564 0 0 0 0 29897609.697219849 12807439.851725578 0 12807439.851725578 -43657957.863128662 0 0 0 0 53360745.15763855 -24666559.932146072 0 -24666559.932146072 -23627065.576283455 0 0 0 0 22328979.769538879 -33468338.246043205 0 -33468338.246043205 -16430941.455688477 0 0 0 0 17152256.810096741 -30271618.467295647 0 -30271618.467295647 -9351974.3512039185 0 0 0 0 21876484.105621338 -23443968.107796669 0 -23443968.107796669 -3702545.6036596298 0 0 0 0 2160987.6702575684 -19905688.67486763 0 -19905688.67486763 41454661.610272408 0 0 0 0 46926971.912231445 -50826726.984460831 0 -50826726.984460831 16556873.330555916 0 0 0 0 -185621.14384318329 -77681.425875347108 0 -77681.425875347108 -4664.0475048366934 0 0 0 0 34870979.98135376 4457215.5894886255 0 4457215.5894886255 -6699487.4911708832 0 0 0 0 8075050.0869082231 -3917574.8671771055 0 -3917574.8671771055 -2788915.9388386938 0 0 0 0 66396321.671966553 -806775.61578941345 0 -806775.61578941345 3237375.1893482208 0 0 0 0 115447416.69633484 -44055040.799821854 0 -44055040.799821854 16687835.615634918 0 0 0 0 91072333.221755981 -51399919.314767838 0 -51399919.314767838 39274038.137904167 0 0 0 0 62632344.955200195 2433662.3312978745 0 2433662.3312978745 1891171.441652298 0 0 0 0 128709675.29550171 -31340959.677598 0 -31340959.677598 15048888.236362457 0 0 0 0 3352731.5022277832 17685083.91960907 0 17685083.91960907 -51674244.567806244 0 0 0 0 123242966.16417122 -54759697.05349946 0 -54759697.05349946 14978908.675895691 0 0 0 0 678244.65710954741 -77158.878770026378 0 -77158.878770026378 -461214.33379009552 0 0 0 0 57493215.594459534 4905301.2491408587 0 4905301.2491408587 -7874303.7432935238 0 0 0 0 5023780.9335459173 1200084.1621236028 0 1200084.1621236028 -4587270.1952975588 0 0 0 0 -8189610.6364746094 -48895414.931097746 0 -48895414.931097746 -58912235.141080856 0 0 0 0 66928112.887634277 -34601633.101992607 0 -34601633.101992607 -92693524.825716019 0 0 0 0 6489278.6658477783 20122723.695641279 0 20122723.695641279 -58666730.124883652 0 0 0 0 102283687.49810028 55640585.839712858 0 55640585.839712858 -47433395.971115112 0 0 0 0 124674646.86785126 19231920.450621128 0 19231920.450621128 -33998502.209223747 0 0 0 0 112028357.25634766 40676760.416732788 0 40676760.416732788 -69978493.887108803 0 0 0 0 63301447.495914459 12776700.191328011 0 12776700.191328011 -40130752.781143963 0 0 0 0 -271063.44653320312 55959364.039219558 0 55959364.039219558 -40370237.542124271 0 0 0 0 45546769.767959595 -16001054.14498961 0 -16001054.14498961 -7529013.5462195873 0 0 0 0 1830022.2955438253 -453001.00656044111 0 -453001.00656044111 -69697.309434546012 0 0 0 0 27728531.386928558 35933367.408749253 0 35933367.408749253 -108814658.37899661 0 0 0 0 3461669.380349569 1184313.5388600202 0 1184313.5388600202 -2914857.0292435959 0 0 0 0 3328039.0942907333 87402232.450919509 0 87402232.450919509 -86548208.642303467 0 0 0 0 -2383393.8669433594 119383538.76484895 0 119383538.76484895 -154127400.49540949 0 0 0 0 -73665193.025756836 71868077.768728599 0 71868077.768728599 -17652532.412219092 0 0 0 0 39517556.099960327 -1754730.3199040592 0 -1754730.3199040592 60566470.173875213 0 0 0 0 56656686.245744705 -9698554.8629311472 0 -9698554.8629311472 -7754648.7479400635 0 0 0 0 8718873.4734954834 31135171.591944709 0 31135171.591944709 -33342898.326082259 0 0 0 0 -12727773.684474945 15769462.012999788 0 15769462.012999788 -14562585.83935833 0 0 0 0 10442633.199176788 13784921.712619588 0 13784921.712619588 -16052584.864258409 0 0 0 0 12161802.927368164 10993853.754379869 0 10993853.754379869 -15844074.760331377 0 0 0 0 14698319.076141357 12212456.821576238 0 12212456.821576238 -17211683.899435997 0 0 0 0 5739747.4809011165 -1657352.24040634 0 -1657352.24040634 -145484.68965099979 0 0 0 0 31787996.823596954 -14903924.623251975 0 -14903924.623251975 -574129.66564142704 0 0 0 0 32335216.977355003 -12889542.233439878 0 -12889542.233439878 -7911364.8745176792 0 0 0 0 22336481.05456543 -26227330.337093353 0 -26227330.337093353 1362584.1548080444 0 0 0 0 11071764.511706615 -5009003.7077352284 0 -5009003.7077352284 -4953558.1974139642 0 0 0 0 26259759.161830902 -27286246.487723827 0 -27286246.487723827 -14047515.44701004 0 0 0 0 7060984.4446792603 -18476765.091961622 0 -18476765.091961622 1831016.0039749146 0 0 0 0 -338014.1715143621 -590344.68187878025 0 -590344.68187878025 129969.51962064067 0 0 0 0 4157374.3272705078 25561274.157676674 0 25561274.157676674 -2167989.0940502137 0 0 0 0 12527439.257408142 13265032.325359583 0 13265032.325359583 -16519598.487989545 0 0 0 0 6105949.624637235 6409324.1283260696 0 6409324.1283260696 -4236117.0794072105 0 0 0 0 32093824.735671997 3599205.9415421933 0 3599205.9415421933 -50641625.132897124 0 0 0 0 22959767.105312347 21846705.703809142 0 21846705.703809142 -27329117.421970367 0 0 0 0 -81496.274055480957 45582998.591615856 0 45582998.591615856 34688505.00074473 0 0 0 0 36482751.159866333 -1167631.5624861121 0 -1167631.5624861121 -48574759.911421895 0 0 0 0 3036828.9891235642 2835544.4943133178 0 2835544.4943133178 -1913212.3437169229 0 0 0 0 2507871.0678939819 -8997577.5136697441 0 -8997577.5136697441 -26620796.096599013 0 0 0 0 53786270.671875 -49277633.286523022 0 -49277633.286523022 -56449490.588005513 0 0 0 0 34128742.340278625 -55822472.569838881 0 -55822472.569838881 -49380913.344636142 0 0 0 0 -64943.20920836553 54663.59754761681 0 54663.59754761681 77634.792949139024 0 0 0 0 109453512.15628815 69397420.470716849 0 69397420.470716849 23659708.488111872 0 0 0 0 103369178.99173737 42235646.29239364 0 42235646.29239364 -22019667.779366568 0 0 0 0 85329986.229217529 -2400040.9560355544 0 -2400040.9560355544 -81116941.272647709 0 0 0 0 149741238.70108032 -12219425.789697185 0 -12219425.789697185 -80562695.091580838 0 0 0 0 40133782.219451904 -12093471.74743782 0 -12093471.74743782 -58554730.783341072 0 0 0 0 39246345.845666885 -36926838.475088619 0 -36926838.475088619 -49698369.63594383 0 0 0 0 82469848.26700592 -10410627.718580425 0 -10410627.718580425 -39629068.614817984 0 0 0 0 91162948.924545288 -35588513.877154537 0 -35588513.877154537 -64432896.272749938 0 0 0 0 80392942.372146606 -26582849.314598359 0 -26582849.314598359 -51224194.940945335 0 0 0 0 1479136.9757156372 46617386.177339017 0 46617386.177339017 -39776900.892795309 0 0 0 0 241820833.56253052 -67645874.665509582 0 -67645874.665509582 -57778173.49568373 0 0 0 0 215954402.17469788 98227448.129676849 0 98227448.129676849 -30715445.373001069 0 0 0 0 228713156.37400246 -202823073.44910312 0 -202823073.44910312 -165032140.9769876 0 0 0 0 284705646.03071594 47126646.812730134 0 47126646.812730134 -19831018.941127062 0 0 0 0 926647.98784870654 806616.39465404069 0 806616.39465404069 -546941.32098768582 0 0 0 0 61100062.81029129 -74926684.96485576 0 -74926684.96485576 4132325.8728001118 0 0 0 0 91064529.425292969 170018401.26001111 0 170018401.26001111 191600742.31311068 0 0 0 0 5574033.7529907227 42566494.64156878 0 42566494.64156878 117174694.97459033 0 0 0 0 74548281.905532837 79540891.851506889 0 79540891.851506889 -54838846.710760951 0 0 0 0 -16240076.192749023 -1923549.0881303549 0 -1923549.0881303549 -89697947.00955689 0 0 0 0 -32822496.974571228 -240817394.98062962 0 -240817394.98062962 -66392849.148888886 0 0 0 0 6265811.2170774769 2999009.1798751163 0 2999009.1798751163 -2840555.5465195747 0 0 0 0 -109471512.60848999 -29663760.190816641 0 -29663760.190816641 -34743014.862015963 0 0 0 0 6162617.3677445259 1097828.4527232768 0 1097828.4527232768 -2505163.4395464975 0 0 0 0 18076115.66569519 -86002981.643072069 0 -86002981.643072069 -73354893.068100244 0 0 0 0 21743443.829467218 -5388055.003976848 0 -5388055.003976848 -268780.34175659693 0 0 0 0 17905966.987349272 -21542878.605788946 0 -21542878.605788946 42095846.316577911 0 0 0 0 17510942.017051697 -3477306.1005665064 0 -3477306.1005665064 -43047114.59196949 0 0 0 0 -18754181.080963135 32458737.995309114 0 32458737.995309114 -268587070.55241871 0 0 0 0 15583843.97002843 8723205.1838935353 0 8723205.1838935353 -9122881.1211758759 0 0 0 0 34531396.884777069 8210133.1181325912 0 8210133.1181325912 87657642.146244049 0 0 0 0 35051539.687016487 20532192.34305954 0 20532192.34305954 -49118971.65325737 0 0 0 0 7296800.6107280254 227484.25521421432 0 227484.25521421432 25746958.072921753 0 0 0 0 -9752106.8531303406 40243656.087516785 0 40243656.087516785 -43859589.276191235 0 0 0 0 35723934.97543335 -10229263.845052719 0 -10229263.845052719 4813775.9762153625 0 0 0 0 25270068.361068726 36625180.800224543 0 36625180.800224543 -14132808.981880188 0 0 0 0 31248678.482690811 26029215.184586525 0 26029215.184586525 -42478239.984191895 0 0 0 0 -9981367.8046035767 20943637.856397629 0 20943637.856397629 -50234.169109344482 0 0 0 0 23895241.246361867 3681052.2537479056 0 3681052.2537479056 -2005822.7660094737 0 0 0 0 44433841.453863144 -913791.49818515778 0 -913791.49818515778 14350159.726445198 0 0 0 0 29328517.340515137 41895622.415165901 0 41895622.415165901 7837655.3397254944 0 0 0 0 58068173.744190216 48557992.038239419 0 48557992.038239419 -130745746.29753172 0 0 0 0 71945205.580684662 -25436685.381252289 0 -25436685.381252289 6418912.8919379711 0 0 0 0 75328501.964839935 15805611.346893311 0 15805611.346893311 -7584772.9740219116 0 0 0 0 1499012.7309321295 797373.69970095297 0 797373.69970095297 -1129552.2042156993 0 0 0 0 4350797.4946403503 28740184.424324036 0 28740184.424324036 23470316.210570812 0 0 0 0 41591585.069801331 37268301.143836021 0 37268301.143836021 -14531736.931869507 0 0 0 0 25303271.614044372 -127827.7351161422 0 -127827.7351161422 -1950655.6659507526 0 0 0 0 53526101.289794922 -15713943.609308243 0 -15713943.609308243 -51985026.107355654 0 0 0 0 50635794.816677094 41506677.628232956 0 41506677.628232956 -96387055.164545059 0 0 0 0 20900867.267040253 24831098.365956843 0 24831098.365956843 -52775777.244062304 0 0 0 0 20485357.623342514 103989292.94644547 0 103989292.94644547 12695373.06247139 0 0 0 0 114102518.98691559 83486603.535017014 0 83486603.535017014 -68889274.141448975 0 0 0 0 108865319.40885162 112868682.50584412 0 112868682.50584412 -74562912.941115379 0 0 0 0 114106610.62149048 147824231.61384773 0 147824231.61384773 -63355649.989528656 0 0 0 0 4959583.9667778015 59938308.764169693 0 59938308.764169693 -27196482.583406448 0 0 0 0 -41847068.799133301 44310549.380178452 0 44310549.380178452 -31533081.754951477 0 0 0 0 2782078.7935831072 1367814.1448890944 0 1367814.1448890944 -514906.81483113649 0 0 0 0 17909530.565519333 31868097.1679039 0 31868097.1679039 -98822892.750453949 0 0 0 0 37871818.707888603 45897983.129223824 0 45897983.129223824 -177969110.09432697 0 0 0 0 -104732862.49225998 -11959840.901439667 0 -11959840.901439667 -4152303.3058605194 0 0 0 0 857416.79201528989 565287.40957608051 0 565287.40957608051 -79002.534567858558 0 0 0 0 -49287182.500812531 -113997395.54273319 0 -113997395.54273319 177657551.99774933 0 0 0 0 89282967.493408203 172070383.44784927 0 172070383.44784927 164648650.08450127 0 0 0 0 133852646.93024826 -62074911.071264267 0 -62074911.071264267 -71420086.452070236 0 0 0 0 130136233.29246521 -28178226.083220482 0 -28178226.083220482 -33600240.929872513 0 0 0 0 116011341.97393942 -71097907.619657993 0 -71097907.619657993 3881547.2291488647 0 0 0 0 43688685.800868988 -23675125.999361992 0 -23675125.999361992 -27120877.289984703 0 0 0 0 4889670.9664738905 1758520.5833222633 0 1758520.5833222633 -1330753.3870170088 0 0 0 0 16185901.927358627 1546540.2936639786 0 1546540.2936639786 -27260696.575962067 0 0 0 0 21631808.011404037 33502683.094890594 0 33502683.094890594 -134453518.04323769 0 0 0 0 37110223.408256531 -1008172.8796806335 0 -1008172.8796806335 -76341514.952323914 0 0 0 0 -19142665.502216339 5392486.4504528046 0 5392486.4504528046 -76624677.844394684 0 0 0 0 -15011575.695131302 68519859.82003212 0 68519859.82003212 -95979714.215946198 0 0 0 0 62771365.046329498 21942552.796169281 0 21942552.796169281 -14179345.827198982 0 0 0 0 17341376.385913849 17814359.286373138 0 17814359.286373138 941705.81181240082 0 0 0 0 4357545.0496711731 9586495.9270915985 0 9586495.9270915985 88811.118192672729 0 0 0 0 17458704.22416687 5355088.0652675629 0 5355088.0652675629 -8259079.9618911743 0 0 0 0 3891049.989071846 5475533.519792676 0 5475533.519792676 -9707563.0505485535 0 0 0 0 27376412.765481949 14442054.506398201 0 14442054.506398201 -12898918.218389511 0 0 0 0 30826754.756320953 3303998.442530632 0 3303998.442530632 -14816784.003299713 0 0 0 0 132081633.47328949 4003704.2928533554 0 4003704.2928533554 -52412883.161514282 0 0 0 0 124596246.75392151 -10098581.052397728 0 -10098581.052397728 -32062532.451982498 0 0 0 0 144462829.13418961 8275907.5222072601 0 8275907.5222072601 -122801180.3117733 0 0 0 0 117522758.56326294 30808299.266116142 0 30808299.266116142 -37672953.593505859 0 0 0 0 127093276.78650665 -10908173.245145798 0 -10908173.245145798 11952004.842882156 0 0 0 0 129541741.4252882 18622643.372927189 0 18622643.372927189 -42080860.085933685 0 0 0 0 166135138.4825592 8579368.8932704926 0 8579368.8932704926 -20432105.718730927 0 0 0 0 116165570.29607773 -21607753.103045464 0 -21607753.103045464 3681153.0549058914 0 0 0 0 65415190.361739159 4430420.5852707624 0 4430420.5852707624 -22102602.933773041 0 0 0 0 125259946.98406982 2696402.5459785461 0 2696402.5459785461 -11581457.615711212 0 0 0 0 123769959.29365921 28944485.241706848 0 28944485.241706848 -19071623.694076538 0 0 0 0 70322625.438991547 16164592.652896881 0 16164592.652896881 5350757.9384765625 0 0 0 0 157962401.66038132 44767416.58513546 0 44767416.58513546 -6581955.2966785431 0 0 0 0 197039845.58120346 -28554199.924860477 0 -28554199.924860477 11977309.420295715 0 0 0 0 86120650.900039673 -17448193.679574966 0 -17448193.679574966 43628743.68039608 0 0 0 0 178635589.73504448 -262977704.38103104 0 -262977704.38103104 39254877.46411705 0 0 0 0 311008877.9888916 -126209401.17904282 0 -126209401.17904282 9028133.9779415131 0 0 0 0 162587971.00113678 -62440219.078714371 0 -62440219.078714371 38771653.367790222 0 0 0 0 239614420.64517593 -31706880.599247932 0 -31706880.599247932 -68334299.857049942 0 0 0 0 867109.41034350544 753985.69366878644 0 753985.69366878644 487794.28007079707 0 0 0 0 418460369.02972221 -288009373.26708317 0 -288009373.26708317 18039944.596868515 0 0 0 0 139593456.29483414 164787811.79931617 0 164787811.79931617 417135993.26969147 0 0 0 0 633236920.48173904 -76240975.84035778 0 -76240975.84035778 -66194990.014931679 0 0 0 0 169350289.51324463 -93133550.877544403 0 -93133550.877544403 76683120.416026115 0 0 0 0 291178816.88375473 313157066.18946457 0 313157066.18946457 79971557.600646973 0 0 0 0 200171.49368319008 -224570.55135839526 0 -224570.55135839526 -146643.74645187962 0 0 0 0 112071188.99889374 -411086246.2750721 0 -411086246.2750721 645867545.40401697 0 0 0 0 80951602.017208099 11139925.471926689 0 11139925.471926689 -29933870.52135849 0 0 0 0 -327512.34867030941 -2104618.177945639 0 -2104618.177945639 -795208.24731374148 0 0 0 0 1431449.6798116071 1027725.1922545512 0 1027725.1922545512 -739332.35162837058 0 0 0 0 344875.08213043213 -1086268.6441144943 0 -1086268.6441144943 -3136627.3707019091 0 0 0 0 -5074256.4635162354 21351960.003052711 0 21351960.003052711 12488271.865683556 0 0 0 0 67739223.49979353 26552937.507381558 0 26552937.507381558 -7915947.0783901215 0 0 0 0 -5536864.9820022583 -14826634.855740547 0 -14826634.855740547 -31707424.723403931 0 0 0 0 1199491.7153706132 774374.69381814939 0 774374.69381814939 -1271570.8743392052 0 0 0 0 -7804020.6922302246 -9480709.2885859013 0 -9480709.2885859013 -13778063.262710571 0 0 0 0 -4069298.8845100403 5811558.651966095 0 5811558.651966095 283824.62599563599 0 0 0 0 -10233886.582863331 -19373613.062561572 0 -19373613.062561572 -22384179.137519836 0 0 0 0 892010.69640731812 -1010825.8357980251 0 -1010825.8357980251 -3182313.7323708534 0 0 0 0 -134853.74841308594 -619002.50319713354 0 -619002.50319713354 -2072834.500082016 0 0 0 0 549738.02219285443 -2109467.6600311128 0 -2109467.6600311128 -1330402.9522813992 0 0 0 0 42156934.253087997 5444958.6144202948 0 5444958.6144202948 52293202.002342224 0 0 0 0 -21709956.087142944 -24524349.510858536 0 -24524349.510858536 175295348.47100449 0 0 0 0 11657122.09244442 -64778610.824903488 0 -64778610.824903488 183262627.01957321 0 0 0 0 251327891.18583679 38457382.918743134 0 38457382.918743134 225638887.96680164 0 0 0 0 85166803.728049755 -162458091.69018757 0 -162458091.69018757 447784993.81507778 0 0 0 0 51956783.739883423 -58234785.380869389 0 -58234785.380869389 175172943.84085989 0 0 0 0 -13779370.157875061 -95776715.421159267 0 -95776715.421159267 176781660.51281548 0 0 0 0 -1089016.3776741028 -109009251.65583253 0 -109009251.65583253 228521228.7280786 0 0 0 0 244115676.24708176 -183451553.14189816 0 -183451553.14189816 74515734.046150923 0 0 0 0 242152576.59796524 -149623359.35347819 0 -149623359.35347819 28553531.480221272 0 0 0 0 79887740.470177531 -85988620.026209563 0 -85988620.026209563 8063850.0561904907 0 0 0 0 342396830.15415192 -26736657.299023628 0 -26736657.299023628 5785065.9980880022 0 0 0 0 362614280.90809751 -201337524.33296788 0 -201337524.33296788 -23372028.024606705 0 0 0 0 451263774.42022324 -318755995.34984016 0 -318755995.34984016 145768813.12771368 0 0 0 0 249199188.82288742 -182629962.34573102 0 -182629962.34573102 119993285.22880673 0 0 0 0 452454385.29195982 54135040.277772725 0 54135040.277772725 387789085.03467369 0 0 0 0 410403.85269504134 319179.40082791541 0 319179.40082791541 144861.25885770703 0 0 0 0 504986005.04970741 -510604007.38418508 0 -510604007.38418508 349333193.66189384 0 0 0 0 372967529.07818127 -62706824.233006477 0 -62706824.233006477 -24504701.76121521 0 0 0 0 328579009.47819138 -261386995.79170609 0 -261386995.79170609 -66258124.852331161 0 0 0 0 60864399.179824829 -211485516.08206654 0 -211485516.08206654 179155488.36946869 0 0 0 0 469190807.07145691 -405788025.17901468 0 -405788025.17901468 38257322.418664932 0 0 0 0 869945911.50336647 -508703902.91185832 0 -508703902.91185832 119630720.09377861 0 0 0 0 350787127.60253525 -316337877.30420446 0 -316337877.30420446 281053479.1154561 0 0 0 0 -315763856.14948463 15753543.736938715 0 15753543.736938715 378884574.52416801 0 0 0 0 124318.91934459184 219348.39294623118 0 219348.39294623118 846561.60488761892 0 0 0 0 344238.70777703397 268008.02257907856 0 268008.02257907856 1934591.9801746586 0 0 0 0 -16101726.018974304 -82915804.822715998 0 -82915804.822715998 280735981.84637904 0 0 0 0 457953551.45520401 -205187208.97414255 0 -205187208.97414255 -20654191.328212738 0 0 0 0 272444165.00337052 -17471868.128161907 0 -17471868.128161907 -74833653.193056107 0 0 0 0 881178038.58057785 -467413167.64460999 0 -467413167.64460999 -167985231.35964471 0 0 0 0 -320989805.50549185 -61717.698425134644 0 -61717.698425134644 404867684.90061945 0 0 0 0 293932725.24653244 -582270715.66191816 0 -582270715.66191816 533247751.53196651 0 0 0 0 625856.58422623272 33835.48223859584 0 33835.48223859584 1660389.6202620091 0 0 0 0 121444442.25620651 17801128.00741373 0 17801128.00741373 4952824.7977781296 0 0 0 0 -78562350.478218079 1363332.4350140095 0 1363332.4350140095 63782401.886241436 0 0 0 0 -22779997.560272217 44599918.849413395 0 44599918.849413395 55039672.262684822 0 0 0 0 129018575.88786316 51881764.280283451 0 51881764.280283451 5792413.3687224388 0 0 0 0 1014987.5912116831 -1000130.3501345908 0 -1000130.3501345908 -27267.21362983749 0 0 0 0 1646786747.0879564 -993081726.31993151 0 -993081726.31993151 593676958.0757941 0 0 0 0 776238209.07577133 98519573.028276324 0 98519573.028276324 -383289317.79549253 0 0 0 0 1201358893.5309677 -1206520183.9456947 0 -1206520183.9456947 655553082.00489402 0 0 0 0 931047217.82756042 -252541556.44409245 0 -252541556.44409245 680795572.23779917 0 0 0 0 1215915830.4884186 -25480244.911063015 0 -25480244.911063015 384095278.04353654 0 0 0 0 1525005190.5049934 -1055442054.2471396 0 -1055442054.2471396 724190496.95685244 0 0 0 0 603771259.18241119 -322021746.28167188 0 -322021746.28167188 289562548.24039626 0 0 0 0 694408800.45771217 -106410776.57833946 0 -106410776.57833946 -144359131.77055216 0 0 0 0 173282172.11365128 186704121.0532074 0 186704121.0532074 16366701.376601219 0 0 0 0 958383941.85783577 -270202430.45975876 0 -270202430.45975876 16721527.614799738 0 0 0 0 467518278.92052174 -260385864.30533946 0 -260385864.30533946 56885714.828168869 0 0 0 0 395854151.42260456 -328029162.5986948 0 -328029162.5986948 95431675.953022003 0 0 0 0 537100610.97916031 -316973823.29891801 0 -316973823.29891801 95810480.923946559 0 0 0 0 400931939.69746876 -311288840.87233329 0 -311288840.87233329 145016612.95835495 0 0 0 0 244038852.81869888 -326586354.94357967 0 -326586354.94357967 143770415.96077561 0 0 0 0 199567152.56051826 -258273821.43647575 0 -258273821.43647575 211905844.83971977 0 0 0 0 213398315.02632141 -296651728.51881123 0 -296651728.51881123 220351086.75564885 0 0 0 0 261546966.12412262 -203375965.57138824 0 -203375965.57138824 136689298.94429016 0 0 0 0 535714186.56256676 -163145294.30692196 0 -163145294.30692196 142444402.38080406 0 0 0 0 198882759.29755783 -323869380.08176517 0 -323869380.08176517 551004071.62063456 0 0 0 0 330608350.77249146 -719087130.522542 0 -719087130.522542 479935422.92979813 0 0 0 0 128485071.03316879 -292509518.23319912 0 -292509518.23319912 306586164.8764782 0 0 0 0 196346815.83534622 294809494.79503632 0 294809494.79503632 252506007.2395587 0 0 0 0 123717499.44753075 -201676308.85371423 0 -201676308.85371423 136340481.26722145 0 0 0 0 897390.41801722161 759139.2503298074 0 759139.2503298074 373540.07402775995 0 0 0 0 383475675.22585487 -366903913.22273016 0 -366903913.22273016 108813475.25472546 0 0 0 0 331532705.33549881 -215954226.13436794 0 -215954226.13436794 -90686714.817982674 0 0 0 0 443162.77533282433 327846.01654231176 0 327846.01654231176 25485.425119251478 0 0 0 0 353919097.02583027 -409348994.13781857 0 -409348994.13781857 124809200.74797058 0 0 0 0 55578735.449262619 -1060011.3127574921 0 -1060011.3127574921 33729054.017837524 0 0 0 0 103395540.30908394 -91070974.616981804 0 -91070974.616981804 190366372.12516022 0 0 0 0 155975344.34468079 -40916664.015348434 0 -40916664.015348434 100225489.8787384 0 0 0 0 -28121170.83562088 -1740841.58198452 0 -1740841.58198452 138560437.82413101 0 0 0 0 117031479.27327919 42851933.43266058 0 42851933.43266058 -160577745.06393051 0 0 0 0 -160408638.59492493 173276104.4294014 0 173276104.4294014 -47789181.887741089 0 0 0 0 86741110.102365971 10386803.762116671 0 10386803.762116671 -490267222.19972229 0 0 0 0 85220489.123943329 14101877.018714905 0 14101877.018714905 -96685300.991359711 0 0 0 0 -152819094.22814396 -302891980.32697076 0 -302891980.32697076 259338351.24509621 0 0 0 0 -87036380.050111532 215401054.7325635 0 215401054.7325635 -130842029.42640114 0 0 0 0 59035459.374519348 -267383542.44061184 0 -267383542.44061184 -23518831.974703789 0 0 0 0 118769365.94522858 -125731166.28145027 0 -125731166.28145027 253355600.3278729 0 0 0 0 -101243163.70212936 -174159664.02552462 0 -174159664.02552462 253586323.11433601 0 0 0 0 35396070.781360626 -91477819.597998619 0 -91477819.597998619 209178512.85015297 0 0 0 0 -15433849.193575859 -212139274.27678323 0 -212139274.27678323 632668701.86617279 0 0 0 0 194006969.40678596 -393375771.59681654 0 -393375771.59681654 170956177.79351044 0 0 0 0 130945806.54547119 -356795819.6307354 0 -356795819.6307354 369899705.34137154 0 0 0 0 368267070.59645653 -422328660.0328927 0 -422328660.0328927 173995938.84990883 0 0 0 0 247787504.47232819 -315557533.96188545 0 -315557533.96188545 175382480.68341827 0 0 0 0 47880248.913764954 -208065041.43404007 0 -208065041.43404007 194367915.94762421 0 0 0 0 -290817927.40872669 76197703.720205307 0 76197703.720205307 -170556925.83851814 0 0 0 0 583454155.25177574 -494338474.84824562 0 -494338474.84824562 -78336515.492525101 0 0 0 0 385672464.30980682 -317570290.4240365 0 -317570290.4240365 11449015.007100105 0 0 0 0 447915139.91945648 -696761196.08130264 0 -696761196.08130264 532873724.91825867 0 0 0 0 57469433.425927162 -589629319.97071266 0 -589629319.97071266 1479109450.3124657 0 0 0 0 833659726.14985847 -1033067122.3305235 0 -1033067122.3305235 482253854.69369125 0 0 0 0 586343.42848669877 45434.15621499531 0 45434.15621499531 15992.539405921474 0 0 0 0 698075089.75875318 -393336959.00544715 0 -393336959.00544715 -629904244.02569962 0 0 0 0 -218943.22419532831 -771234.12962657982 0 -771234.12962657982 1615118.5736510567 0 0 0 0 492367082.6780113 -1174180988.3048711 0 -1174180988.3048711 238009450.08922577 0 0 0 0 -479489375.42155159 325494097.23041344 0 325494097.23041344 903780111.74247742 0 0 0 0 -419557981.32474637 83549754.380809784 0 83549754.380809784 1426655004.6574943 0 0 0 0 -307032357.25230932 61301990.134849548 0 61301990.134849548 -17688055.440552846 0 0 0 0 -490625444.53071928 -71679369.349912405 0 -71679369.349912405 990710574.15152264 0 0 0 0 -203217.14406922285 -1608698.7110599228 0 -1608698.7110599228 3079205.0808171784 0 0 0 0 -726386792.26027155 -912149294.92837262 0 -912149294.92837262 -37470532.606364891 0 0 0 0 -594921654.99449289 -533314903.6950103 0 -533314903.6950103 -45467345.578085899 0 0 0 0 -91170865.495972633 -301217720.84757185 0 -301217720.84757185 -88346230.295073926 0 0 0 0 -336557023.87637079 -50410538.950469732 0 -50410538.950469732 480800987.6193018 0 0 0 0 -252504828.12046146 -623633443.55135536 0 -623633443.55135536 1024199471.6325253 0 0 0 0 176018280.04931164 -402643318.16501379 0 -402643318.16501379 416574812.77748346 0 0 0 0 -181268470.97698331 -94671736.335596919 0 -94671736.335596919 201491574.44851589 0 0 0 0 408703281.09712219 -250491427.84156799 0 -250491427.84156799 -83368932.228123665 0 0 0 0 429941756.69951963 -364824823.22304559 0 -364824823.22304559 61887167.817314148 0 0 0 0 400800954.85014725 -319168704.3402915 0 -319168704.3402915 58508190.678450763 0 0 0 0 174565198.76453733 -382077793.86752182 0 -382077793.86752182 198475954.66512012 0 0 0 0 407312232.6027565 -501622079.84665871 0 -501622079.84665871 257871433.26853156 0 0 0 0 638299728.2411623 -722131968.76931775 0 -722131968.76931775 224133991.04963136 0 0 0 0 353784586.75336456 -559930053.68130755 0 -559930053.68130755 224968908.83004802 0 0 0 0 189346440.81409287 -731614031.49205613 0 -731614031.49205613 556381685.77546799 0 0 0 0 -111622500.16795635 -685473634.85425031 0 -685473634.85425031 598049388.23827839 0 0 0 0 1349401846.0289059 -830519989.36000788 0 -830519989.36000788 190917579.49576688 0 0 0 0 419246716.28611565 -1173271751.427352 0 -1173271751.427352 777074874.92415774 0 0 0 0 -299472422.85617256 -229531850.57174683 0 -229531850.57174683 825031560.17351997 0 0 0 0 82147705.845501423 -345353284.62126637 0 -345353284.62126637 -452622716.13030148 0 0 0 0 1437490.8116542399 -3754596.439314059 0 -3754596.439314059 704081.3272837596 0 0 0 0 263869.52016231138 -698744.71485783951 0 -698744.71485783951 677235.47923915088 0 0 0 0 172479564.82208872 -449737948.43433547 0 -449737948.43433547 -1063002681.3836416 0 0 0 0 2161392.399354774 -3292154.9730391419 0 -3292154.9730391419 313231.94047950173 0 0 0 0 -192638179.34051275 -266321560.57932866 0 -266321560.57932866 127431631.31931257 0 0 0 0 -88733083.013516366 -840054551.70327401 0 -840054551.70327401 613385286.68718266 0 0 0 0 -7592124.40858078 -715858949.99405575 0 -715858949.99405575 79906541.249462664 0 0 0 0 -240815255.91126347 -495994678.29360801 0 -495994678.29360801 459639405.57173419 0 0 0 0 -71039936.21963191 -753349373.98426223 0 -753349373.98426223 614029020.34466028 0 0 0 0 166520061.84400487 -1254089662.3969872 0 -1254089662.3969872 1376744719.0282655 0 0 0 0 1201347700.7836573 -179256314.72381634 0 -179256314.72381634 267751144.02530003 0 0 0 0 1108624567.2364929 -1081857310.3097773 0 -1081857310.3097773 448348526.53121519 0 0 0 0 1339600229.4855428 -456845443.00937426 0 -456845443.00937426 -87022164.275671899 0 0 0 0 188184574.17648709 -465147185.67630565 0 -465147185.67630565 38196216.046575665 0 0 0 0 -157611741.90906429 -71585115.750659883 0 -71585115.750659883 -687670760.04568458 0 0 0 0 475569027.02641129 -735597855.11840236 0 -735597855.11840236 -354180777.79014897 0 0 0 0 295648976.86793506 115276835.53282472 0 115276835.53282472 -398823192.1956377 0 0 0 0 932335316.67490053 -95960396.720917463 0 -95960396.720917463 -798496206.9591341 0 0 0 0 -484308356.07931352 139966910.27746838 0 139966910.27746838 -809681944.08591938 0 0 0 0 382983197.21446609 -478908691.88228858 0 -478908691.88228858 -1919306937.7786407 0 0 0 0 2286582.9239004091 -2285622.0558953104 0 -2285622.0558953104 53879.601645434697 0 0 0 0 2114088659.3525772 -193896544.97035363 0 -193896544.97035363 -596731603.56919134 0 0 0 0 2118622335.1690841 40229492.97772795 0 40229492.97772795 -1389946205.4657483 0 0 0 0 1214613874.3989711 662245029.5484724 0 662245029.5484724 -1811427399.2386904 0 0 0 0 1085625.1739285288 -811322.71097566863 0 -811322.71097566863 -19810.210720039238 0 0 0 0 258492582.62867641 -363571649.59789395 0 -363571649.59789395 424360440.95567322 0 0 0 0 1016215637.7970273 584280693.77243829 0 584280693.77243829 -1027728559.1196529 0 0 0 0 1908138527.4847429 35244503.518332958 0 35244503.518332958 -714485703.34866714 0 0 0 0 2205292103.5665131 149511994.15776399 0 149511994.15776399 -1060453964.9583691 0 0 0 0 1477250899.5725055 219574206.62331006 0 219574206.62331006 -542618647.63787901 0 0 0 0 2204083411.4626288 -351339270.13481462 0 -351339270.13481462 -132315577.83680584 0 0 0 0 1590575818.2069407 -223705430.09865803 0 -223705430.09865803 220711576.22896802 0 0 0 0 2205167384.5402346 -619640894.79798079 0 -619640894.79798079 400462190.42717695 0 0 0 0 1720094448.7834711 -778950496.79260516 0 -778950496.79260516 641560200.32017314 0 0 0 0 1387595248.9203324 -590096960.08077049 0 -590096960.08077049 833883678.55740166 0 0 0 0 1287773720.8682234 -1153618927.7270267 0 -1153618927.7270267 753368792.26763177 0 0 0 0 1303387523.0866804 -868707640.80661464 0 -868707640.80661464 -829618493.66522706 0 0 0 0 -451465280.22238445 -333348920.14803779 0 -333348920.14803779 1790261037.1530998 0 0 0 0 -94789.909388665343 -825791.51098892849 0 -825791.51098892849 1595146.7149229615 0 0 0 0 1761972284.6814413 -863906617.94716144 0 -863906617.94716144 779671390.47416282 0 0 0 0 2264554891.8559208 -846089738.80362737 0 -846089738.80362737 94984341.542182565 0 0 0 0 -745453932.26666248 -268912416.94115001 0 -268912416.94115001 920050609.6256969 0 0 0 0 416546676.83168864 -377006128.16790736 0 -377006128.16790736 1210687817.0633526 0 0 0 0 -29917764.666941643 188868789.69591379 0 188868789.69591379 583965752.86320782 0 0 0 0 144760732.10012245 -740665375.44614661 0 -740665375.44614661 2907562398.7701912 0 0 0 0 1584311031.1719513 -1330692952.4319603 0 -1330692952.4319603 2223821999.1563759 0 0 0 0 2085619489.0188875 -364711697.80802596 0 -364711697.80802596 1693417686.4948838 0 0 0 0 2203969920.8710384 -922404103.95882428 0 -922404103.95882428 1351903494.4537256 0 0 0 0 1806414862.430191 -1252342292.206356 0 -1252342292.206356 1104800151.5398414 0 0 0 0 2120970132.4180641 -601734552.72845972 0 -601734552.72845972 670555108.25772452 0 0 0 0 20688675.427749634 -13612653.93967247 0 -13612653.93967247 29343105.691261947 0 0 0 0 19762593.70275116 -18641121.598237038 0 -18641121.598237038 22137000.732692719 0 0 0 0 10463768.308662415 -20521480.356362343 0 -20521480.356362343 22184438.074604303 0 0 0 0 40439786.617164612 -19784831.107372284 0 -19784831.107372284 11123698.038751602 0 0 0 0 44155503.582078934 -11876508.145665169 0 -11876508.145665169 13631414.818439484 0 0 0 0 45251027.800216675 -15734677.58660984 0 -15734677.58660984 12125681.585775375 0 0 0 0 37051587.253025055 -12764250.3148489 0 -12764250.3148489 14228496.193490982 0 0 0 0 31678787.595993042 -15306559.493593216 0 -15306559.493593216 21136750.690475464 0 0 0 0 20776458.148258865 -21212569.686629884 0 -21212569.686629884 18360800.231472015 0 0 0 0 41471287.090011597 -12053247.513866425 0 -12053247.513866425 12680483.644659996 0 0 0 0 -2235762.2137260437 5074587.0866336823 0 5074587.0866336823 10809968.957450867 0 0 0 0 15322394.6845285 -1791120.4432023373 0 -1791120.4432023373 -3567466.3582836604 0 0 0 0 32926677.098648071 -10601317.848829269 0 -10601317.848829269 13552218.474471092 0 0 0 0 15472020.758285522 -12105511.408622742 0 -12105511.408622742 -4209503.8465080261 0 0 0 0 7726567.3212127686 428909.81424331665 0 428909.81424331665 -13966851.960220337 0 0 0 0 -15251025.791397095 43842877.864940643 0 43842877.864940643 -13219101.629277706 0 0 0 0 -10568123.02589035 -12769762.323964119 0 -12769762.323964119 -7031539.305765152 0 0 0 0 -9152305.0511627197 -7292929.4309129715 0 -7292929.4309129715 -57499159.941589355 0 0 0 0 -13954731.355770111 -13559335.379906654 0 -13559335.379906654 -62689346.721336365 0 0 0 0 6863821.7561389208 -41453435.682327986 0 -41453435.682327986 -9100933.3119783401 0 0 0 0 6798871.7235794067 -30706763.362228394 0 -30706763.362228394 -136471602.2381897 0 0 0 0 4349666.4065475464 62021435.794828415 0 62021435.794828415 -45174973.704832077 0 0 0 0 34270671.025657654 50144202.034212112 0 50144202.034212112 -109329165.68528938 0 0 0 0 26049777.251342773 -4494027.1242961884 0 -4494027.1242961884 29574029.181714594 0 0 0 0 23467568.340263367 -10343717.978755951 0 -10343717.978755951 18440240.273191452 0 0 0 0 15104212.636763278 -6186730.2662206441 0 -6186730.2662206441 -4354713.9900517203 0 0 0 0 5862046.3475456238 -8581534.0221905708 0 -8581534.0221905708 58226166.99646759 0 0 0 0 20168893.470523916 -480911.16433685459 0 -480911.16433685459 -4181765.8835749831 0 0 0 0 16892477.640367508 -2225161.8938541412 0 -2225161.8938541412 -23144675.872394562 0 0 0 0 30787403.12134552 -27756514.345400393 0 -27756514.345400393 -60402168.484757185 0 0 0 0 13338875.279585566 -8826667.4970599301 0 -8826667.4970599301 -2668451.3047167221 0 0 0 0 22697011.756067652 829444.00854971528 0 829444.00854971528 -8327982.3001062004 0 0 0 0 10848770.672136068 49206728.87597838 0 49206728.87597838 85746659.13466835 0 0 0 0 4601546.06798172 -27946160.287463188 0 -27946160.287463188 32847610.992526054 0 0 0 0 4847610.0704421997 -18647943.607536316 0 -18647943.607536316 50927774.673945427 0 0 0 0 18280541.819458008 -18777907.704021454 0 -18777907.704021454 12657461.228807449 0 0 0 0 -21867177.389549255 -32083484.007045269 0 -32083484.007045269 9959071.7791290283 0 0 0 0 -117808398.70675087 57193374.672413349 0 57193374.672413349 12043248.278165817 0 0 0 0 43486568.970954895 5683245.366191864 0 5683245.366191864 22233955.376954079 0 0 0 0 42351801.407329559 42757734.929149151 0 42757734.929149151 -173103376.24386692 0 0 0 0 17915582.960044861 3118676.6492576599 0 3118676.6492576599 -126957328.22520304 0 0 0 0 -61791421.656826019 -94066581.71680963 0 -94066581.71680963 -82287242.178726196 0 0 0 0 16152993.307319641 4483266.659116745 0 4483266.659116745 -28043644.067573547 0 0 0 0 41410199.191379547 -27770948.847413063 0 -27770948.847413063 -66722196.826338768 0 0 0 0 23483623.973594666 -34065727.225319386 0 -34065727.225319386 192177.66832733154 0 0 0 0 54304688.606723785 -21997670.889638901 0 -21997670.889638901 -17152238.496334076 0 0 0 0 43367355.623048782 -16352525.09288764 0 -16352525.09288764 -11517949.624275208 0 0 0 0 64050901.733787537 -21048152.249534607 0 -21048152.249534607 -23660137.722553253 0 0 0 0 77434397.332267761 6772285.9618406296 0 6772285.9618406296 -1354386.1229891777 0 0 0 0 65972063.033187866 27782353.223341942 0 27782353.223341942 9381664.5602097511 0 0 0 0 26215653.856975555 2645812.3192796707 0 2645812.3192796707 4182307.8370704651 0 0 0 0 57015934.413824081 -5072985.5134196281 0 -5072985.5134196281 -221061.39956855774 0 0 0 0 7003481.0166003294 -59079.869606880471 0 -59079.869606880471 -827207.89450577646 0 0 0 0 54411002.923343658 -9029895.0132198334 0 -9029895.0132198334 -6227099.6246571541 0 0 0 0 58527241.380609512 -12691635.194792271 0 -12691635.194792271 -3791968.0435695648 0 0 0 0 8024933.3213942545 7243540.744328036 0 7243540.744328036 2032525.9927052939 0 0 0 0 126109.19194793701 65831229.811897278 0 65831229.811897278 35395134.010089874 0 0 0 0 57302428.003082275 -17347139.130064964 0 -17347139.130064964 -31840072.430650711 0 0 0 0 68067301.823851585 -30337951.602612734 0 -30337951.602612734 -28981393.775323868 0 0 0 0 3111729.5481631234 197217.87498812005 0 197217.87498812005 -1191434.4560836921 0 0 0 0 -8721042.8075065613 22063432.331451416 0 22063432.331451416 -3630214.6831169128 0 0 0 0 -6812641.4667320251 14873406.501883507 0 14873406.501883507 -7788002.1205368042 0 0 0 0 -7368807.76030159 15595544.659584999 0 15595544.659584999 6540902.7754135132 0 0 0 0 -15646353.220024109 11419264.343062401 0 11419264.343062401 8411524.9585037231 0 0 0 0 -7362884.7804336548 4240707.7920475006 0 4240707.7920475006 19410628.5965271 0 0 0 0 -6828993.9335975647 11331614.773686409 0 11331614.773686409 4948638.0677452087 0 0 0 0 8711658.1536799837 6967628.0888018552 0 6967628.0888018552 1489252.456981861 0 0 0 0 21267504.450187683 7063985.2633132935 0 7063985.2633132935 5928085.2193470001 0 0 0 0 -16000028.901089072 15207333.370981246 0 15207333.370981246 6951572.3862934113 0 0 0 0 6416648.5948753357 10827968.232944489 0 10827968.232944489 -5512956.4447498322 0 0 0 0 -152743.88335566316 5612842.7355740657 0 5612842.7355740657 580020.07805682707 0 0 0 0 -11843875.452793121 14225364.452758789 0 14225364.452758789 3962576.7947444916 0 0 0 0 8560167.8846893311 7156640.9187998772 0 7156640.9187998772 -1779886.1507225037 0 0 0 0 6928272.7196998596 9908063.4966583252 0 9908063.4966583252 -4534295.3392524719 0 0 0 0 5773592.5931930542 10935710.013132095 0 10935710.013132095 -4418831.6520895958 0 0 0 0 6355481.0282859802 8075985.3849182129 0 8075985.3849182129 -25939852.511100769 0 0 0 0 35344750.855190277 -360958.34792780876 0 -360958.34792780876 -681509.99814414978 0 0 0 0 19730859.293685913 -8041538.1339321136 0 -8041538.1339321136 9465496.0929822922 0 0 0 0 47860982.666702271 -11392465.120521069 0 -11392465.120521069 11848929.127510071 0 0 0 0 2051674.0260652201 79734.312622979749 0 79734.312622979749 -877286.89636489842 0 0 0 0 47198695.744274139 -22675941.508050442 0 -22675941.508050442 12768759.215145111 0 0 0 0 62585809.746650696 -16740876.209159851 0 -16740876.209159851 -4781096.0669546127 0 0 0 0 8852347.9576167744 -1694338.1657259604 0 -1694338.1657259604 -304742.87951140618 0 0 0 0 21599669.915557861 3992567.9123096466 0 3992567.9123096466 6870639.1059627533 0 0 0 0 28985169.000930786 1219901.0034885406 0 1219901.0034885406 -1037203.8667602539 0 0 0 0 10306853.258724535 2915771.4855317306 0 2915771.4855317306 -1027788.4344039746 0 0 0 0 3046720.1030845642 678756.10341453552 0 678756.10341453552 -1357909.9641933441 0 0 0 0 6985189.7211951204 2087860.276267933 0 2087860.276267933 -180902.56737679197 0 0 0 0 2901612.2333550453 -685142.56874084473 0 -685142.56874084473 -2179243.2162442207 0 0 0 0 2866245.9098864794 500253.88673973083 0 500253.88673973083 -3082079.4505520761 0 0 0 0 3506587.6282616854 1580270.0297307968 0 1580270.0297307968 -3567515.5593175888 0 0 0 0 3815473.3204071522 824301.61790847778 0 824301.61790847778 -4812381.9755134583 0 0 0 0 2335480.6975134136 -680828.81313233078 0 -680828.81313233078 -835095.8667440383 0 0 0 0 9798430.1847525295 8810618.9457453713 0 8810618.9457453713 -2485932.1997849885 0 0 0 0 3416871.6050878763 1946287.0335102081 0 1946287.0335102081 -2625972.8674012423 0 0 0 0 23562420.132368088 -7040719.5368237495 0 -7040719.5368237495 10685974.470039368 0 0 0 0 8302637.524552512 -806894.7190566964 0 -806894.7190566964 -2633900.7133085188 0 0 0 0 10333819.148971714 -1859677.737760674 0 -1859677.737760674 -3637764.1766847949 0 0 0 0 24281723.830635071 378437.97171497345 0 378437.97171497345 -5090177.5829086304 0 0 0 0 2198111.9776086807 -553368.47798442841 0 -553368.47798442841 -2403138.0557174683 0 0 0 0 6628689.1571488343 -735074.10320660798 0 -735074.10320660798 -97208.400954504497 0 0 0 0 23935828.127700806 -12438118.346271515 0 -12438118.346271515 -5372977.1010513306 0 0 0 0 32862232.287194252 -16797667.104934454 0 -16797667.104934454 -16623579.885669708 0 0 0 0 16902687.32774353 1598811.4857997894 0 1598811.4857997894 -1971190.3165531158 0 0 0 0 31677617.318531036 -21452524.224627495 0 -21452524.224627495 -7133225.3598041534 0 0 0 0 4102882.3280724529 -49845.559733657632 0 -49845.559733657632 -1496765.5449428679 0 0 0 0 13188962.535598755 397391.08338546753 0 397391.08338546753 -2027935.7071793079 0 0 0 0 16864085.18660745 -452084.71201413125 0 -452084.71201413125 -860120.11143302917 0 0 0 0 8376063.7239985876 -500396.14877696568 0 -500396.14877696568 -881745.51380994637 0 0 0 0 8418975.4636671543 1922990.4679185743 0 1922990.4679185743 -1578004.1210518386 0 0 0 0 32199861.607303619 -7383276.3345909119 0 -7383276.3345909119 -4055608.8833942413 0 0 0 0 907295.36083972664 113635.09841860505 0 113635.09841860505 -356989.86197693553 0 0 0 0 27917690.131349564 -6204187.4895362854 0 -6204187.4895362854 -12096075.587621689 0 0 0 0 15044586.355792046 274955.33438634872 0 274955.33438634872 -13814227.741266251 0 0 0 0 6552889.8200187683 -4364860.5144958496 0 -4364860.5144958496 3371478.0015525818 0 0 0 0 40359535.157007217 -16780451.741936684 0 -16780451.741936684 -8251428.981300354 0 0 0 0 40397762.72649765 2634665.4801435471 0 2634665.4801435471 -27347551.362630844 0 0 0 0 23209641.416603088 2800039.2684431076 0 2800039.2684431076 -25394027.300998688 0 0 0 0 16853216.616575241 11126495.232789516 0 11126495.232789516 -34605800.992803574 0 0 0 0 3865079.3593711853 10937966.892352581 0 10937966.892352581 -12077521.563091278 0 0 0 0 22730308.699924469 5222756.5405550003 0 5222756.5405550003 -16841540.267028809 0 0 0 0 22526241.064041138 -186191.1917181015 0 -186191.1917181015 -16046282.292829514 0 0 0 0 -2933428.8043327332 12033929.01745224 0 12033929.01745224 12854312.659442902 0 0 0 0 1543570.3896713257 14924491.201812744 0 14924491.201812744 -7400.9904155731201 0 0 0 0 2977264.3235054016 15579349.54471302 0 15579349.54471302 -6308408.8387899399 0 0 0 0 -2288916.1480751038 9885220.8696279526 0 9885220.8696279526 2793366.1346569061 0 0 0 0 2500112.9406166077 7258767.7335395813 0 7258767.7335395813 484803.88114261627 0 0 0 0 3847992.3614692688 8332282.5759315491 0 8332282.5759315491 -335345.94412612915 0 0 0 0 3041732.1295547485 10507848.473443031 0 10507848.473443031 2520188.4438505173 0 0 0 0 3917178.6973743439 13053371.08642292 0 13053371.08642292 125910.83616638184 0 0 0 0 -3850939.1110610962 2206119.9181241989 0 2206119.9181241989 3895436.7603788376 0 0 0 0 1630596.929353714 7875490.3807201385 0 7875490.3807201385 3274721.4794712067 0 0 0 0 6659447.0463455245 1855524.6789105241 0 1855524.6789105241 -896609.44166409969 0 0 0 0 -2434289.5808258057 1678744.7450790405 0 1678744.7450790405 7742371.4578361511 0 0 0 0 -1357975.1312656403 4632677.6744318008 0 4632677.6744318008 5240722.0283823013 0 0 0 0 -2141664.1750845909 11161533.501794696 0 11161533.501794696 13815302.515802383 0 0 0 0 -59645612.170585632 21223957.556404114 0 21223957.556404114 -15331406.820163727 0 0 0 0 -1081160.8485214077 2108062.9307946451 0 2108062.9307946451 1126842.7032408982 0 0 0 0 -14345087.47070694 52432293.007662296 0 52432293.007662296 -38444839.561794281 0 0 0 0 6664482.8666629791 -3997164.5031714439 0 -3997164.5031714439 -49098526.06064415 0 0 0 0 4018971.9683017731 -9053468.2270565033 0 -9053468.2270565033 -372004.60127639771 0 0 0 0 8956023.1850643158 3467505.5265755653 0 3467505.5265755653 -25312008.848171234 0 0 0 0 421871.97174109891 51953.305072966032 0 51953.305072966032 -181813.58370322268 0 0 0 0 897733.96365258936 -1132613.4973352184 0 -1132613.4973352184 -668785.84355205088 0 0 0 0 -7493300.0870895386 4594485.6621665955 0 4594485.6621665955 10362624.084722519 0 0 0 0 -21481819.015289307 26168045.1875 0 26168045.1875 -16680498.100059509 0 0 0 0 12753590.655235291 -9380438.2763385773 0 -9380438.2763385773 138570.1152908802 0 0 0 0 -24688827.754858255 -27991782.314354241 0 -27991782.314354241 -1021799.7639369965 0 0 0 0 -4307705.1662139893 15986995.734107018 0 15986995.734107018 -49422897.514095306 0 0 0 0 -12708379.994831324 -18484280.081595242 0 -18484280.081595242 -25406359.260808945 0 0 0 0 123147076.18627167 -9463282.8547391891 0 -9463282.8547391891 -31352562.62701416 0 0 0 0 81662390.428344727 81625909.327306747 0 81625909.327306747 -21708212.660656929 0 0 0 0 -6831133.957025528 35595807.526563168 0 35595807.526563168 13394765.679428101 0 0 0 0 41606224.09721756 -15006767.810502052 0 -15006767.810502052 -11655069.580501556 0 0 0 0 14273530.135704041 -17416085.336872101 0 -17416085.336872101 9325069.2851657867 0 0 0 0 54862337.2081604 -55668122.702345371 0 -55668122.702345371 40071340.452575684 0 0 0 0 265050.21489201672 -316566.18108972686 0 -316566.18108972686 -184989.26713951293 0 0 0 0 15405705.990875244 -966301.34917497635 0 -966301.34917497635 -24232932.759100914 0 0 0 0 19549249.994771957 22470677.096077919 0 22470677.096077919 -20165801.857135773 0 0 0 0 80756265.400428772 -25158005.205099106 0 -25158005.205099106 -9973986.8401679993 0 0 0 0 9672238.2226853929 -2820586.8165714433 0 -2820586.8165714433 -2796486.158063761 0 0 0 0 16015862.231750488 -11644487.753055617 0 -11644487.753055617 3100976.4508713186 0 0 0 0 22321388.005614281 19040465.097647987 0 19040465.097647987 9278753.4868586063 0 0 0 0 53583706.142837524 13309758.370340362 0 13309758.370340362 -6045375.4070281982 0 0 0 0 -32517557.902336121 -13075501.786723331 0 -13075501.786723331 -11585050.530914962 0 0 0 0 -27325617.839384079 -26187229.01089748 0 -26187229.01089748 5385864.3376039118 0 0 0 0 -22217656.356971741 -20933170.092796922 0 -20933170.092796922 -6806162.3633188009 0 0 0 0 -10204377.178993225 -23807390.654164411 0 -23807390.654164411 -10213503.36683882 0 0 0 0 10481675.039915314 -3121121.8803984742 0 -3121121.8803984742 -2491977.6738501587 0 0 0 0 -26584056.950523376 -24515032.258881569 0 -24515032.258881569 -2887911.989028573 0 0 0 0 33274160.129951477 2764717.6813980341 0 2764717.6813980341 -3916572.2973908782 0 0 0 0 -37518305.9400177 -1394112.8579864502 0 -1394112.8579864502 -30123542.721832275 0 0 0 0 6562797.4673521593 1801247.8760368032 0 1801247.8760368032 342160.4434640453 0 0 0 0 4044273.9800642133 17803433.527777836 0 17803433.527777836 -22161714.357545853 0 0 0 0 -20971905.904003143 -32703691.945581436 0 -32703691.945581436 10375758.255951881 0 0 0 0 1224288.9238709942 -76466.106741490075 0 -76466.106741490075 -386272.61945924256 0 0 0 0 2558513.3224899932 340182.63658765284 0 340182.63658765284 -149660.42675095238 0 0 0 0 2171839.4967384338 -34062538.515006542 0 -34062538.515006542 2825856.3485794067 0 0 0 0 -20990843.577968597 -50485721.398634911 0 -50485721.398634911 13682117.811500549 0 0 0 0 -4872410.8822364807 -31012812.248918205 0 -31012812.248918205 -17539119.233091056 0 0 0 0 16738910.342168791 -835128.92052968219 0 -835128.92052968219 -2533713.6836288255 0 0 0 0 23701131.495823383 3820890.858550787 0 3820890.858550787 -682437.95659828186 0 0 0 0 30699817.504522324 13859096.552755833 0 13859096.552755833 -4411991.2848873138 0 0 0 0 -67157697.997203827 -55431058.289796829 0 -55431058.289796829 -40903364.019470215 0 0 0 0 849375.79767480842 87890.971084869001 0 87890.971084869001 -59520.951281496324 0 0 0 0 -60212529.81053257 -30440628.774678707 0 -30440628.774678707 1047162.2952003479 0 0 0 0 25842647.762145996 -9060425.1718616486 0 -9060425.1718616486 -18588124.36059761 0 0 0 0 -16018806.648862839 -24787415.047898293 0 -24787415.047898293 17168825.271600723 0 0 0 0 -17926616.828712463 -15741126.232665062 0 -15741126.232665062 -12427119.498625755 0 0 0 0 12923141.648265839 -26658804.158124328 0 -26658804.158124328 -37653585.588852644 0 0 0 0 20777669.934181213 -39722389.228585303 0 -39722389.228585303 -34645512.094372734 0 0 0 0 -4414188.3188400269 -29133896.920244545 0 -29133896.920244545 -12650872.708566397 0 0 0 0 10445725.139105797 -34412147.994359359 0 -34412147.994359359 13445790.987865806 0 0 0 0 10632769.656112671 -34930069.600395545 0 -34930069.600395545 -10863455.044250771 0 0 0 0 -9995520.7566738129 -26202536.531113178 0 -26202536.531113178 12309413.051566094 0 0 0 0 9050245.2813644409 -14121029.871537521 0 -14121029.871537521 -2189438.2950475812 0 0 0 0 13630359.480865479 -21562029.95309259 0 -21562029.95309259 4900425.9531709999 0 0 0 0 23280525.843330383 -3981733.2426229306 0 -3981733.2426229306 32519529.313832358 0 0 0 0 52664908.315319061 -42383171.420910984 0 -42383171.420910984 -2029313.4363485575 0 0 0 0 26532709.361373901 -47864850.662753344 0 -47864850.662753344 24687017.798992276 0 0 0 0 44528230.122299194 -10621915.573290169 0 -10621915.573290169 30836237.142703235 0 0 0 0 170255680.57248688 -35018980.635431528 0 -35018980.635431528 23522818.461130828 0 0 0 0 54666765.100528717 140609.11102843657 0 140609.11102843657 90708555.81037578 0 0 0 0 226781.24650127068 65650.714041997679 0 65650.714041997679 112213.36813097927 0 0 0 0 159917086.43064117 109977898.13563225 0 109977898.13563225 93139915.885416627 0 0 0 0 14868861.958072662 -93021508.640849888 0 -93021508.640849888 -22122115.252899647 0 0 0 0 47583766.207433701 63011988.226692356 0 63011988.226692356 52944682.539250731 0 0 0 0 30024476.210830688 27920805.763563514 0 27920805.763563514 52699288.774933845 0 0 0 0 109764721.41579437 -14937637.122776747 0 -14937637.122776747 -21867291.584081352 0 0 0 0 14559811.091758728 -28923098.27729404 0 -28923098.27729404 -53158046.783219934 0 0 0 0 51535984.451477051 -39981046.133550584 0 -39981046.133550584 -57133093.077579439 0 0 0 0 36853316.052619934 -29569242.011269212 0 -29569242.011269212 -12413809.608707428 0 0 0 0 17891282.554599762 -38821481.331418633 0 -38821481.331418633 -14047416.687920094 0 0 0 0 29471317.757080078 2939930.96311903 0 2939930.96311903 -25828164.901347101 0 0 0 0 -203161164.54988098 -125315944.52819774 0 -125315944.52819774 3409645.7189615294 0 0 0 0 -8756046.4315276146 -21930140.642888401 0 -21930140.642888401 -72378508.115418717 0 0 0 0 41816753.771888733 -21653629.650859728 0 -21653629.650859728 -72070292.177235499 0 0 0 0 -94123714.797996521 -92069147.90416716 0 -92069147.90416716 -87000601.311555341 0 0 0 0 -47904311.146644592 -2069026.7317710109 0 -2069026.7317710109 -50655641.911019653 0 0 0 0 20997496.701469421 -23064164.666738421 0 -23064164.666738421 -65179443.145729363 0 0 0 0 36737524.980262756 60654888.318625152 0 60654888.318625152 28589934.878006577 0 0 0 0 33727391.95866394 -36870793.883492947 0 -36870793.883492947 -59825495.157009661 0 0 0 0 704856.69489324838 264482.62568214536 0 264482.62568214536 -82385.505000655859 0 0 0 0 852984.90582024865 305495.40757289436 0 305495.40757289436 151977.63395993377 0 0 0 0 35125968.349609375 4881649.9215682149 0 4881649.9215682149 -5564611.6130396128 0 0 0 0 1965674.1543807983 25782090.358830035 0 25782090.358830035 -14481715.205601037 0 0 0 0 43146844.473831177 4881904.5214592814 0 4881904.5214592814 -12704452.564185023 0 0 0 0 -6810556.9110641479 26128641.402349949 0 26128641.402349949 -20381899.542585433 0 0 0 0 21552058.330020905 65210506.310868166 0 65210506.310868166 58042621.409001708 0 0 0 0 1856866.884888567 778491.97344630398 0 778491.97344630398 -158329.52783401439 0 0 0 0 2695255.4540794566 738618.30342540052 0 738618.30342540052 -684345.88411648828 0 0 0 0 41513765.492959023 59715747.525959685 0 59715747.525959685 -10657111.207831621 0 0 0 0 3579324.4131280407 1643830.5541230226 0 1643830.5541230226 -1069703.1501887711 0 0 0 0 19657968.801856995 59895703.699512646 0 59895703.699512646 20104831.633857608 0 0 0 0 -7061872.3511047363 -13956667.087811947 0 -13956667.087811947 3021996.3192027509 0 0 0 0 35691285.736557007 -34264359.193718433 0 -34264359.193718433 -9955389.4442923069 0 0 0 0 21971081.394042969 29708547.120940566 0 29708547.120940566 -7529086.3274343014 0 0 0 0 -112884923.50584412 91461929.267349005 0 91461929.267349005 157004453.614108 0 0 0 0 34853110.213009 -4204870.9427237511 0 -4204870.9427237511 -43878582.491685867 0 0 0 0 26711176.297142029 30544509.884745181 0 30544509.884745181 -33447774.280899405 0 0 0 0 11732254.085853696 -2511910.9299311638 0 -2511910.9299311638 30940923.177330971 0 0 0 0 46926616.009017944 15917887.472954214 0 15917887.472954214 -92100512.276006937 0 0 0 0 20067426.612185299 -2948053.1667653369 0 -2948053.1667653369 -474504.39079269557 0 0 0 0 15154309.815808773 -23594050.197973251 0 -23594050.197973251 -3212900.2859840393 0 0 0 0 17603381.270109117 -20106741.610619068 0 -20106741.610619068 4960335.0622472763 0 0 0 0 43649617.755096436 2974349.6465082765 0 2974349.6465082765 -116737703.49547017 0 0 0 0 18404877.605707463 -2216346.1815516818 0 -2216346.1815516818 -776699.41233318765 0 0 0 0 18626939.787455082 -4541147.7169723511 0 -4541147.7169723511 -13910136.289967537 0 0 0 0 21797233.245919228 -5940402.0191287994 0 -5940402.0191287994 -30918173.301996231 0 0 0 0 14145943.329778194 -16875702.006686687 0 -16875702.006686687 -17396101.369044304 0 0 0 0 16847770.76675427 -2334060.6895799637 0 -2334060.6895799637 -26284324.357648849 0 0 0 0 16425593.308015347 -1836298.2121067047 0 -1836298.2121067047 -26866264.921751022 0 0 0 0 20116266.612065554 5678883.0598363876 0 5678883.0598363876 -58291157.258516312 0 0 0 0 13955716.709804773 4515441.0910563469 0 4515441.0910563469 -55707125.982419968 0 0 0 0 34030365.522209167 -11334501.628495216 0 -11334501.628495216 -38356961.25163269 0 0 0 0 11127763.442999363 -1145573.8944911957 0 -1145573.8944911957 -35236818.478138924 0 0 0 0 20514933.507719994 -3652414.9782962799 0 -3652414.9782962799 -69089093.294067383 0 0 0 0 22351342.402784109 6719626.5077466965 0 6719626.5077466965 -79333324.144226074 0 0 0 0 -2088461.9962348938 14709368.493766785 0 14709368.493766785 -53476296.596366882 0 0 0 0 3459921.0962674618 26693158.55065918 0 26693158.55065918 -77330615.004249573 0 0 0 0 23056305.470574379 25047166.614578247 0 25047166.614578247 -106267488.44663811 0 0 0 0 7224412.301695277 1608963.7035409522 0 1608963.7035409522 -2697904.2478368888 0 0 0 0 3087271.9629926682 12211292.412054062 0 12211292.412054062 -40910756.06551075 0 0 0 0 37950.093845367432 -9182743.9254875183 0 -9182743.9254875183 -74441749.223245621 0 0 0 0 6361789.0787067413 -11564654.919799805 0 -11564654.919799805 -21654122.509050846 0 0 0 0 5778485.9285411835 -7285443.3989439011 0 -7285443.3989439011 -20840814.459380865 0 0 0 0 1798527.8993358612 -11520849.656707287 0 -11520849.656707287 -23317730.196333885 0 0 0 0 9363810.0576477051 -18639470.223489285 0 -18639470.223489285 -54797368.92684032 0 0 0 0 9210347.1253566742 -10260920.517158508 0 -10260920.517158508 -18674973.433141708 0 0 0 0 15016415.423242414 -4554314.0894138981 0 -4554314.0894138981 -1792711.2652788525 0 0 0 0 49511267.855911255 -15209577.467947423 0 -15209577.467947423 -115997072.04335582 0 0 0 0 54365206.3022995 4751761.6763553619 0 4751761.6763553619 -117102047.53578472 0 0 0 0 16720205.883271851 -2686969.6687998744 0 -2686969.6687998744 -1196833.3921693508 0 0 0 0 17965536.839146137 -13491614.634730339 0 -13491614.634730339 -10724622.658203542 0 0 0 0 15079414.744965553 -7101945.4075956345 0 -7101945.4075956345 -19323500.72066021 0 0 0 0 15312871.202582359 -8225141.0093798637 0 -8225141.0093798637 -21794897.912603378 0 0 0 0 19134329.996780396 -9596803.2932605743 0 -9596803.2932605743 -20732059.49153471 0 0 0 0 16395713.449342728 -2775524.2590179443 0 -2775524.2590179443 -17389728.025323868 0 0 0 0 14151985.764339447 -7370977.3873825073 0 -7370977.3873825073 -21142464.114147186 0 0 0 0 17173079.177333388 1378861.1298163007 0 1378861.1298163007 -6819262.5032616518 0 0 0 0 128000428.20681 14071473.784962654 0 14071473.784962654 -21319101.235078812 0 0 0 0 8475160.4136486053 -7630391.5570993423 0 -7630391.5570993423 -19490641.917738914 0 0 0 0 13986899.508591652 -7662462.8092443943 0 -7662462.8092443943 -20228731.102958679 0 0 0 0 74107743.314662933 139487151.47492695 0 139487151.47492695 38523029.294374466 0 0 0 0 19071601.653288484 953834.1869404926 0 953834.1869404926 -7140916.5928186942 0 0 0 0 123293870.71750641 40913709.825262547 0 40913709.825262547 -114463628.42984581 0 0 0 0 34116118.641338348 14542044.73469162 0 14542044.73469162 14475412.144545794 0 0 0 0 -52930051.93482399 98220693.460559368 0 98220693.460559368 31669218.564588547 0 0 0 0 35075269.594802856 722398.64579868317 0 722398.64579868317 -60509138.469293594 0 0 0 0 26254860.658546448 18490028.728037834 0 18490028.728037834 -37092984.878623962 0 0 0 0 -98216651.161628723 -193571341.07427359 0 -193571341.07427359 18279782.998806477 0 0 0 0 666683.77049552836 203136.99527525809 0 203136.99527525809 -1000811.789758353 0 0 0 0 43628218.524436951 -40740393.904349327 0 -40740393.904349327 -155825406.21518421 0 0 0 0 43440866.481005669 -61745181.588108778 0 -61745181.588108778 259848548.71516418 0 0 0 0 214017285.91062164 77467643.15131855 0 77467643.15131855 -38300085.19048807 0 0 0 0 185260823.25952911 -141296033.03150272 0 -141296033.03150272 -22611198.269281387 0 0 0 0 4107942.7395744324 -33331066.062011242 0 -33331066.062011242 -34127659.992882729 0 0 0 0 224880260.07105088 -164002783.27330709 0 -164002783.27330709 756869.88475036621 0 0 0 0 240485694.13052368 112552863.32278347 0 112552863.32278347 -15932648.558496475 0 0 0 0 17310989.899827957 2921397.098526001 0 2921397.098526001 -19637553.691892624 0 0 0 0 877780.89852471463 -1496269.0440855538 0 -1496269.0440855538 -1338058.3206479796 0 0 0 0 16379447.898040157 2130150.1867027269 0 2130150.1867027269 -6844653.2948421072 0 0 0 0 5287386.2611999512 -17614820.189990044 0 -17614820.189990044 -10807470.342601776 0 0 0 0 18011926.025071025 2710668.0583319664 0 2710668.0583319664 -29035343.702493668 0 0 0 0 -8689598.5735645294 -14705786.888496876 0 -14705786.888496876 -18206156.019548416 0 0 0 0 211999.58249437995 -1806935.8558587516 0 -1806935.8558587516 -1883040.5084183929 0 0 0 0 10435917.473351749 4363996.0518776514 0 4363996.0518776514 -3814459.2470567366 0 0 0 0 18710719.047271729 -5799483.0979337692 0 -5799483.0979337692 -16088729.202787399 0 0 0 0 28419067.031670094 -14665035.250560582 0 -14665035.250560582 -8152040.0302753448 0 0 0 0 94734825.142494202 115196635.94491196 0 115196635.94491196 82406742.271587372 0 0 0 0 -86998677.207763672 -6606830.4397659302 0 -6606830.4397659302 -12084794.741740465 0 0 0 0 52116973.813919067 9053092.1889095306 0 9053092.1889095306 -68880047.681459427 0 0 0 0 158150.97696591169 -465380.36978652549 0 -465380.36978652549 -662506.82365160808 0 0 0 0 33495907.79434967 36121144.007911682 0 36121144.007911682 10595458.951525688 0 0 0 0 105458711.26039886 58694852.235370636 0 58694852.235370636 -14931287.548474312 0 0 0 0 102773254.20969009 33978493.936062813 0 33978493.936062813 -42991010.046638489 0 0 0 0 70952605.444355011 -26869523.039580107 0 -26869523.039580107 274377.25848770142 0 0 0 0 108019173.97023773 16853941.253472328 0 16853941.253472328 -20890752.9581604 0 0 0 0 14747481.033782959 9018971.1847219467 0 9018971.1847219467 -41135583.90891552 0 0 0 0 3527650.1856378838 -98535.236547621898 0 -98535.236547621898 -3527064.2375204857 0 0 0 0 11557251.88345623 4185538.8940463066 0 4185538.8940463066 -13010876.75431633 0 0 0 0 9648975.4581985474 -591308.09045124054 0 -591308.09045124054 1238664.0850276947 0 0 0 0 54881316.705085754 306557903.61533928 0 306557903.61533928 -200280534.840734 0 0 0 0 -78873207.052047729 -28268055.451412916 0 -28268055.451412916 39547026.291173935 0 0 0 0 269257.27439950779 -448848.09596546809 0 -448848.09596546809 -639540.521753354 0 0 0 0 46659455.28742981 42446023.345414162 0 42446023.345414162 36021484.956277847 0 0 0 0 108242425.90655816 47386985.936734334 0 47386985.936734334 -31724167.485696793 0 0 0 0 199708336.09576416 37299652.298937798 0 37299652.298937798 -44689409.051621437 0 0 0 0 163239755.3657074 173159232.65901375 0 173159232.65901375 2068420.5705051422 0 0 0 0 163324006.12444305 -54132949.478107452 0 -54132949.478107452 -6346262.3779360056 0 0 0 0 960853.31144979224 -8337.5044087860733 0 -8337.5044087860733 -935945.22070262767 0 0 0 0 49267005.740249634 37427953.316444397 0 37427953.316444397 -20403451.048923492 0 0 0 0 59075696.534194946 19049157.727245331 0 19049157.727245331 -72111213.537367821 0 0 0 0 80531797.8256073 -47126117.652647018 0 -47126117.652647018 59227030.01385498 0 0 0 0 98475895.580154419 97949812.92772007 0 97949812.92772007 68685671.883468628 0 0 0 0 1064623.8779577902 567929.05145630613 0 567929.05145630613 -1786587.6736742891 0 0 0 0 -46066786.368682861 6249385.9152531624 0 6249385.9152531624 49407749.50260067 0 0 0 0 -45601339.402179718 -61554453.147601604 0 -61554453.147601604 -19621662.918802261 0 0 0 0 9522711.4057769775 1906876.988951087 0 1906876.988951087 -3106508.7114963531 0 0 0 0 60940098.56165123 -10117871.284135818 0 -10117871.284135818 -36345956.633872986 0 0 0 0 1115154.3797874451 -5911442.1444778442 0 -5911442.1444778442 6170630.5056762695 0 0 0 0 6385282.7335853577 -6309800.5380420685 0 -6309800.5380420685 306245.73464584351 0 0 0 0 3989187.1871299744 -3252999.4101281166 0 -3252999.4101281166 -3132220.5164661407 0 0 0 0 3888836.0894851685 7192358.4551782608 0 7192358.4551782608 8609479.2180716991 0 0 0 0 -96873260.315559387 -22404422.096052647 0 -22404422.096052647 9450568.6913518906 0 0 0 0 20677765.003131866 65823518.902864933 0 65823518.902864933 -84788255.606689453 0 0 0 0 110075705.51045609 61081507.079411983 0 61081507.079411983 -62712590.970083237 0 0 0 0 44609005.520088196 27685284.102719307 0 27685284.102719307 -36766606.144646704 0 0 0 0 54839563.308021545 5737417.6634178162 0 5737417.6634178162 -54497191.18155098 0 0 0 0 58664669.997673035 1398266.4635648727 0 1398266.4635648727 -132060966.34959793 0 0 0 0 2033899.748462677 3033967.9071750641 0 3033967.9071750641 -12498406.54302597 0 0 0 0 -2854213.8472137451 302980.42026901245 0 302980.42026901245 -4822038.5300140381 0 0 0 0 -1177064.8499269485 -3360564.9407026768 0 -3360564.9407026768 -18544780.375225067 0 0 0 0 373698.41272354126 3316311.9361114502 0 3316311.9361114502 -10645907.840803146 0 0 0 0 1165761.1848182678 13045966.473118305 0 13045966.473118305 -8627326.461233139 0 0 0 0 469715.4833984375 10900452.671710014 0 10900452.671710014 -13173316.823234081 0 0 0 0 -10266620.98853302 12801915.331748962 0 12801915.331748962 -15667299.225411117 0 0 0 0 -1270296.6581420898 -11433324.250022173 0 -11433324.250022173 -8585720.9219169617 0 0 0 0 6513575.2596359253 8981385.5960645676 0 8981385.5960645676 -15736792.380796432 0 0 0 0 2320719.8182945251 2569220.751786232 0 2569220.751786232 -31384648.136201859 0 0 0 0 -2900086.7338447571 -7860661.6599664688 0 -7860661.6599664688 -16206985.336853981 0 0 0 0 562198.57207953092 814505.14259412093 0 814505.14259412093 -611307.7545608473 0 0 0 0 87530.346382141113 7861310.5140781403 0 7861310.5140781403 -9349537.2396707535 0 0 0 0 -9845664.1639595032 19784460.718290329 0 19784460.718290329 -16171198.756608009 0 0 0 0 12454727.460330009 160907.98561513424 0 160907.98561513424 -14788975.208675385 0 0 0 0 7136184.2753448486 14655457.934150696 0 14655457.934150696 -27216400.56247139 0 0 0 0 6177407.9738668017 4862613.7940003946 0 4862613.7940003946 -1240835.789855453 0 0 0 0 3538584.0408668518 2802008.2626128197 0 2802008.2626128197 -10044514.440881729 0 0 0 0 5841054.626156955 -1424439.0172756193 0 -1424439.0172756193 -4453595.7198645733 0 0 0 0 -17872993.102026939 -9579580.7916269302 0 -9579580.7916269302 -6538806.0107498169 0 0 0 0 10011166.540797094 3199162.0704236813 0 3199162.0704236813 -3559189.4137117714 0 0 0 0 1476368.2806015015 1025625.9481003284 0 1025625.9481003284 -4951193.787317276 0 0 0 0 4515726.6408996582 2938908.2749767303 0 2938908.2749767303 -8557963.931885004 0 0 0 0 5695024.111243302 -1367074.6857721754 0 -1367074.6857721754 -5406987.3841413241 0 0 0 0 4864592.2956237793 -422230.33931779861 0 -422230.33931779861 -5968105.4974994659 0 0 0 0 5449099.8711624146 1732351.6474454403 0 1732351.6474454403 -7939498.0539219379 0 0 0 0 5491347.9166214298 1836075.0837107082 0 1836075.0837107082 -2904931.2354610623 0 0 0 0 11034629.836229324 -10553960.695273876 0 -10553960.695273876 -9690263.7139205933 0 0 0 0 1988565.8142547607 1299663.4849452972 0 1299663.4849452972 -1558867.6135368347 0 0 0 0 684510.85329280421 -1888156.8224748331 0 -1888156.8224748331 -2151286.093830199 0 0 0 0 72433276.457855225 -52729887.132863045 0 -52729887.132863045 -425945443.58988428 0 0 0 0 -74454295.565879822 423031779.64883375 0 423031779.64883375 193202304.72307301 0 0 0 0 578487006.60192108 -426661016.07238865 0 -426661016.07238865 -224719941.18744278 0 0 0 0 -345497885.59555817 -224018729.72609711 0 -224018729.72609711 465724355.67964077 0 0 0 0 -420907592.86032867 -15396100.132502556 0 -15396100.132502556 105292563.35845947 0 0 0 0 1525044.0085639954 -362697.8326394558 0 -362697.8326394558 -1465822.9705805779 0 0 0 0 3625188.3397773388 -1615755.5828753207 0 -1615755.5828753207 -3464395.3537773429 0 0 0 0 -93218202.750427246 -37449664.363666534 0 -37449664.363666534 -133688207.0146637 0 0 0 0 285065.60696315765 -385160.80044585466 0 -385160.80044585466 -1881521.0547924042 0 0 0 0 3215336.1693157377 204795.72310678661 0 204795.72310678661 -1481577.2663553059 0 0 0 0 937766.63955688477 27461.767497062683 0 27461.767497062683 -1018396.9224851131 0 0 0 0 772529.65415043011 -276590.88007274858 0 -276590.88007274858 -2441721.5804726314 0 0 0 0 2551695.2178115249 442635.25564127741 0 442635.25564127741 -2130819.4180495716 0 0 0 0 2827411.0469395295 733984.16728682909 0 733984.16728682909 -1289460.2968348728 0 0 0 0 1917610.5454711914 1324626.8669013977 0 1324626.8669013977 -1539580.2104158401 0 0 0 0 2000727.0994186401 1295215.2818102837 0 1295215.2818102837 -1558130.9821295738 0 0 0 0 1452908.1418201337 2704506.890620851 0 2704506.890620851 -3098825.2595093786 0 0 0 0 2158994.0193634033 1051223.7348370552 0 1051223.7348370552 -1232705.2555599213 0 0 0 0 712933.84904200584 -700397.36906665168 0 -700397.36906665168 -1865364.8839176644 0 0 0 0 750233.69628324918 917316.67216054583 0 917316.67216054583 -1128752.8694472755 0 0 0 0 560423.46711444855 -294740.23328763247 0 -294740.23328763247 -1676073.700647831 0 0 0 0 -2063192.8245925903 -1680131.3410921097 0 -1680131.3410921097 -10101095.625240326 0 0 0 0 962351.78738021851 -467630.83929538727 0 -467630.83929538727 -2685382.1647640467 0 0 0 0 1142348.4849924482 107328.43844555179 0 107328.43844555179 -833240.94203127909 0 0 0 0 467346.88530731201 -641015.51075559855 0 -641015.51075559855 -2005585.7149596214 0 0 0 0 141143.65944726951 -314502.70519884792 0 -314502.70519884792 -469243.50753587601 0 0 0 0 2111730.1177406311 -3845560.4388427734 0 -3845560.4388427734 -18597053.83439064 0 0 0 0 1603004.5201950073 -6632429.4876022339 0 -6632429.4876022339 -28862402.961612701 0 0 0 0 -35753572.71862793 -83619237.62189579 0 -83619237.62189579 199782637.58700848 0 0 0 0 -19263455.705909729 -104162216.80967474 0 -104162216.80967474 110690290.03410339 0 0 0 0 -6392275.0544776917 -17716970.023804903 0 -17716970.023804903 28865603.045516968 0 0 0 0 11572049.044525146 -18452288.504343033 0 -18452288.504343033 23824639.345617294 0 0 0 0 1288066.054605443 -1999481.2137624086 0 -1999481.2137624086 -1896962.7943232954 0 0 0 0 -14528869.67514801 -70823969.688300133 0 -70823969.688300133 115529758.1746273 0 0 0 0 16179154.419914246 -27288838.803792 0 -27288838.803792 -3421594.5678710938 0 0 0 0 -42542634.956855774 -45211676.48413372 0 -45211676.48413372 -8819980.1145324707 0 0 0 0 281514.22554927692 -45684.681137629785 0 -45684.681137629785 -381713.85786711378 0 0 0 0 6520500.4282302856 -32777947.364849091 0 -32777947.364849091 21841227.649522781 0 0 0 0 132721384.35079956 -82605359.909139633 0 -82605359.909139633 31331181.939828873 0 0 0 0 7186690.2405738831 -131947828.13911629 0 -131947828.13911629 120319167.68311501 0 0 0 0 134767684.65021515 -205655092.31128979 0 -205655092.31128979 141262290.0628438 0 0 0 0 33978418.049480438 22499193.700329304 0 22499193.700329304 64392501.47075367 0 0 0 0 -13773242.392650604 -11746489.378230095 0 -11746489.378230095 39924795.192457676 0 0 0 0 37355571.917125702 7754794.9386301041 0 7754794.9386301041 -47381458.511388779 0 0 0 0 1865781.5120400432 -2366854.6106214118 0 -2366854.6106214118 -2807489.8055349174 0 0 0 0 73334458.054130554 -8687973.3278212547 0 -8687973.3278212547 -41238019.852672577 0 0 0 0 942165094.35340881 450372752.87381554 0 450372752.87381554 -462559136.30226803 0 0 0 0 18813742.512134552 -2750718.9779877663 0 -2750718.9779877663 -9359268.7971683741 0 0 0 0 2416293.2239595223 -1807446.068754076 0 -1807446.068754076 -1754860.7461088963 0 0 0 0 8495327.4681510925 6353323.849468708 0 6353323.849468708 26946184.235761642 0 0 0 0 2331647.2922318298 -1974933.596072509 0 -1974933.596072509 -5629753.7789491005 0 0 0 0 1498979.7638229495 -1651490.7979341634 0 -1651490.7979341634 -4401657.2821109612 0 0 0 0 93262849.475255966 -27131127.573598862 0 -27131127.573598862 -41254553.468493462 0 0 0 0 82654699.667636871 -139649144.21233916 0 -139649144.21233916 85066016.550860405 0 0 0 0 165276372.55049515 -154326433.31549287 0 -154326433.31549287 73714864.689194202 0 0 0 0 155410224.55566406 -95869121.805847883 0 -95869121.805847883 -56947928.810481548 0 0 0 0 185029471.06369019 10164642.998924255 0 10164642.998924255 53690565.137143612 0 0 0 0 107335402.18199158 -187114785.20336509 0 -187114785.20336509 175968767.65796375 0 0 0 0 -59376921.420860291 -193741118.05885124 0 -193741118.05885124 245854551.06909847 0 0 0 0 -238997.94664089475 65793.170346115716 0 65793.170346115716 520358.22002896317 0 0 0 0 -238551797.15180206 -120523117.44198751 0 -120523117.44198751 219570647.36485147 0 0 0 0 231263473.2788372 -188625576.35821104 0 -188625576.35821104 5464208.4349341393 0 0 0 0 80707238.12090683 -96886877.680905581 0 -96886877.680905581 -102774332.61378169 0 0 0 0 -145196509.03882217 25421885.537120342 0 25421885.537120342 64583125.798653126 0 0 0 0 -122206589.47567749 -88642223.126419067 0 -88642223.126419067 205339112.22353625 0 0 0 0 -5508038.7700333595 -80527634.730666041 0 -80527634.730666041 143561837.00736523 0 0 0 0 -23170653.983192444 42329089.025979519 0 42329089.025979519 -43791285.370932579 0 0 0 0 -31807502.29549408 9418528.919989109 0 9418528.919989109 -3363376.7967662811 0 0 0 0 358088.98818057403 392650.23769945581 0 392650.23769945581 -478281.63441555155 0 0 0 0 1450696.2308126148 9466.0452615087852 0 9466.0452615087852 -40046.350605150452 0 0 0 0 896516.58684539795 510960.72317695618 0 510960.72317695618 -1938028.2553606033 0 0 0 0 541129.21055603027 506825.22252368927 0 506825.22252368927 -1262306.3785400391 0 0 0 0 956391.32416725159 242230.28617346287 0 242230.28617346287 -1431131.1610374451 0 0 0 0 778905.09739685059 -60936.977051258087 0 -60936.977051258087 -347974.0317735672 0 0 0 0 1684764.7315213587 -521522.98831061309 0 -521522.98831061309 -310082.98627499177 0 0 0 0 1060904.3664550781 -220831.39456939697 0 -220831.39456939697 -1057592.4952600002 0 0 0 0 336328.04971313477 21506.145341873169 0 21506.145341873169 -746329.24447441101 0 0 0 0 1741870.2267913241 -236300.03835284791 0 -236300.03835284791 -454749.20139210462 0 0 0 0 403957.11724853516 -7855.381534576416 0 -7855.381534576416 -1522807.4507675171 0 0 0 0 -84831.130523681641 729380.64834308624 0 729380.64834308624 -1863579.8539505005 0 0 0 0 1344674.9201049805 -251959.30113983154 0 -251959.30113983154 -2224205.3034238815 0 0 0 0 18611.806262269616 -7592.3985514631495 0 -7592.3985514631495 -12450.928850881755 0 0 0 0 65611744.579864502 -17568278.564910889 0 -17568278.564910889 -80170935.885522366 0 0 0 0 502384.01678466797 1159758.0408053398 0 1159758.0408053398 -2510211.5714664459 0 0 0 0 480767.85137557983 1021813.7550263405 0 1021813.7550263405 -2510219.4385585785 0 0 0 0 2092621.0520542804 -246611.98862999864 0 -246611.98862999864 -105671.65123702772 0 0 0 0 976212.31884151325 1671112.1280966906 0 1671112.1280966906 -1003464.568216552 0 0 0 0 34745318.631767273 34333625.53890419 0 34333625.53890419 -39986867.626464844 0 0 0 0 38461129.715362549 -10054517.106522083 0 -10054517.106522083 -20519154.057785034 0 0 0 0 -167511263.751091 11342697.216642618 0 11342697.216642618 85253475.171077728 0 0 0 0 -432015783.44174194 491516973.45635414 0 491516973.45635414 -335145404.33902264 0 0 0 0 -55247.650941304862 100338.46105342277 0 100338.46105342277 -42030.759980583796 0 0 0 0 244387710.00549316 158411142.52066612 0 158411142.52066612 70225859.68876791 0 0 0 0 -212215312.58219528 -385158545.30558443 0 -385158545.30558443 20029815.505922318 0 0 0 0 652990917.89630127 -171211256.42931366 0 -171211256.42931366 16963191.390693665 0 0 0 0 -114960901.05014801 95806117.157081127 0 95806117.157081127 283585347.61565292 0 0 0 0 41095613.577514648 -87429449.520057678 0 -87429449.520057678 202481269.69643402 0 0 0 0 905935.33770141751 -572596.68904951913 0 -572596.68904951913 -571622.45291516697 0 0 0 0 1047847.7037154771 620829.29159208387 0 620829.29159208387 -22595.888369785855 0 0 0 0 44984878.041351318 5794491.5266838074 0 5794491.5266838074 17441983.777887344 0 0 0 0 -633660723.93046951 -1355348262.4413702 0 -1355348262.4413702 743257747.04642487 0 0 0 0 827256282.78806305 -118055897.92948294 0 -118055897.92948294 -55018194.416936874 0 0 0 0 71334851.515670776 98628073.585900307 0 98628073.585900307 72101229.983470917 0 0 0 0 124122011.48390198 9423739.6828155518 0 9423739.6828155518 -21277935.63036108 0 0 0 0 274513504.12863922 31247373.897536278 0 31247373.897536278 -53933057.996326447 0 0 0 0 119648763.05363464 -82805305.334515572 0 -82805305.334515572 -54833383.890104771 0 0 0 0 126379500.99940491 -25343460.186236382 0 -25343460.186236382 -69667121.565664291 0 0 0 0 118852096.3296814 -5203563.6255130768 0 -5203563.6255130768 -57256755.459389627 0 0 0 0 -9371751.7771759033 51581745.614127159 0 51581745.614127159 -57936324.588104248 0 0 0 0 46093873.841773987 -23875413.28399992 0 -23875413.28399992 -42208549.027191162 0 0 0 0 85368226.127023697 -20875322.281813622 0 -20875322.281813622 -45300894.835513115 0 0 0 0 82344652.975143433 -39403715.23484993 0 -39403715.23484993 -44007918.954898775 0 0 0 0 90531062.591766357 -12204997.615013123 0 -12204997.615013123 -67073820.42954731 0 0 0 0 81164438.478805542 -70366088.159387589 0 -70366088.159387589 -76050647.515395761 0 0 0 0 92210189.037914276 -38092507.576550484 0 -38092507.576550484 -8050249.9208564758 0 0 0 0 39319422.797649384 -27778103.167886019 0 -27778103.167886019 12863910.097252727 0 0 0 0 58841214.965997696 1022092.5483628511 0 1022092.5483628511 -9057294.2177276611 0 0 0 0 44364816.678857327 18906174.084718123 0 18906174.084718123 -152028662.79520035 0 0 0 0 -42575695.279670715 -77867045.078871727 0 -77867045.078871727 -70178916.017225266 0 0 0 0 19545244.933927536 45240206.283992052 0 45240206.283992052 -141744118.32114792 0 0 0 0 -5177808.9985399246 49485263.731924772 0 49485263.731924772 -97507232.57171917 0 0 0 0 50213331.870765686 -34617307.615691662 0 -34617307.615691662 -216659542.36766434 0 0 0 0 78879878.628128052 110922083.46090436 0 110922083.46090436 94725484.177174717 0 0 0 0 104331883.75905609 58207692.19350791 0 58207692.19350791 31501343.916217089 0 0 0 0 31319601.191990852 41530062.204697669 0 41530062.204697669 101381643.43046379 0 0 0 0 39435145.651062012 -27253554.352058411 0 -27253554.352058411 -21433755.648794174 0 0 0 0 6394552.3296585083 -3221885.985411644 0 -3221885.985411644 -8412552.6914029121 0 0 0 0 4266555.893661499 1712397.4971017838 0 1712397.4971017838 -6667818.741024971 0 0 0 0 -409927.40270233154 -5759395.4298233986 0 -5759395.4298233986 -6253355.8163928986 0 0 0 0 97594502.347846985 -88285511.009936333 0 -88285511.009936333 -7056451.813955307 0 0 0 0 1570576.9969203919 -317262.21751777455 0 -317262.21751777455 -643272.56413719058 0 0 0 0 109553209.16415405 85158563.705299377 0 85158563.705299377 66954089.508636475 0 0 0 0 -12721589.573944092 -724143.97133922577 0 -724143.97133922577 -56895894.206388474 0 0 0 0 122250119.79440308 47737065.692556381 0 47737065.692556381 -70448014.948997498 0 0 0 0 22438.327362654731 -34035.759733349551 0 -34035.759733349551 17709.791623686964 0 0 0 0 211646452.36682129 -210875194.84016776 0 -210875194.84016776 118143338.93808556 0 0 0 0 -25604608.771392822 114435419.39598179 0 114435419.39598179 -142856212.41990566 0 0 0 0 -31436848.620773315 258139491.14671326 0 258139491.14671326 -145130418.92957306 0 0 0 0 91225077.548324585 -41504620.523706913 0 -41504620.523706913 -65767162.020062447 0 0 0 0 136060753.7663269 31460423.304907799 0 31460423.304907799 -219886405.4779911 0 0 0 0 109850424.71418762 44499393.696382523 0 44499393.696382523 -56574718.205666542 0 0 0 0 107629467.8340683 116978177.03293037 0 116978177.03293037 14193814.64679718 0 0 0 0 96457237.021621704 75474999.857162952 0 75474999.857162952 39131589.573936462 0 0 0 0 123410670.86184692 93605937.605657578 0 93605937.605657578 -41103041.092576981 0 0 0 0 10955685.183036804 5285154.4737234116 0 5285154.4737234116 -2317853.7291710377 0 0 0 0 2012666.080789566 2930485.8361644745 0 2930485.8361644745 273646.37117481232 0 0 0 0 1883995.4409332275 -1056474.6430740356 0 -1056474.6430740356 -842278.53936576843 0 0 0 0 3818248.3354034424 -1061810.8312606812 0 -1061810.8312606812 -6256623.5237231255 0 0 0 0 -40394726.563476562 46224503.92962265 0 46224503.92962265 -47462459.532310963 0 0 0 0 3351024.8293228149 -1945213.8270564079 0 -1945213.8270564079 -3795457.3107461929 0 0 0 0 1724511.7500561606 118577.75532975222 0 118577.75532975222 -458538.00008458062 0 0 0 0 1921954.4840450287 820721.72166073322 0 820721.72166073322 -4040744.4203968048 0 0 0 0 224060.71339670941 93144.379466441926 0 93144.379466441926 -341075.63939697575 0 0 0 0 801192.87464611232 662073.29575342732 0 662073.29575342732 -1722297.8689166149 0 0 0 0 4110634.546353817 2257707.1662648022 0 2257707.1662648022 -2848156.613992691 0 0 0 0 29374461.434074402 3842681.3037776947 0 3842681.3037776947 -993140.67261123657 0 0 0 0 2024384.1066795029 39681.625398957753 0 39681.625398957753 -449480.08916427405 0 0 0 0 34201224.051849365 -32412658.478422165 0 -32412658.478422165 -210585804.56311417 0 0 0 0 43080551.010658264 -1706008.6861314774 0 -1706008.6861314774 -210976475.56407928 0 0 0 0 68058595.114700317 -10435661.169506073 0 -10435661.169506073 -208602696.08927727 0 0 0 0 54075942.373580933 9726741.4595508575 0 9726741.4595508575 -303103799.8731842 0 0 0 0 69334471.11857605 -30598886.902269363 0 -30598886.902269363 -227924732.64614868 0 0 0 0 48019047.734535217 8000237.4018983841 0 8000237.4018983841 -112420357.04800797 0 0 0 0 46689659.65637207 -45058606.751908302 0 -45058606.751908302 -228352841.02010727 0 0 0 0 -34030996.05846405 -64436033.384327888 0 -64436033.384327888 -110654111.89818192 0 0 0 0 43988442.053352356 -4735242.4412083626 0 -4735242.4412083626 -239515929.35428619 0 0 0 0 6008502.1507415771 -96869384.463569641 0 -96869384.463569641 -193203467.81143379 0 0 0 0 63629018.027267456 55255551.848567009 0 55255551.848567009 -240043440.87254524 0 0 0 0 -44960058.342323303 107537570.29218674 0 107537570.29218674 -84350389.526054382 0 0 0 0 137637409.41341019 47459390.994647503 0 47459390.994647503 -64694972.92848587 0 0 0 0 31290791.015457153 -51352756.314193249 0 -51352756.314193249 114594017.20589828 0 0 0 0 22217503.5675354 31987023.591030121 0 31987023.591030121 -26895789.817895889 0 0 0 0 108104250.35651398 143918213.68564987 0 143918213.68564987 58241684.04315567 0 0 0 0 -31872272.44562149 138140810.65810394 0 138140810.65810394 248136821.32421017 0 0 0 0 27801412.669815063 -16185653.410268784 0 -16185653.410268784 -92571425.624635696 0 0 0 0 -6463772.704498291 42119719.931484222 0 42119719.931484222 77453564.826728821 0 0 0 0 -7263268.6173706055 125361454.47870445 0 125361454.47870445 94469039.468128681 0 0 0 0 50173953.994827271 146881939.74725914 0 146881939.74725914 -7665935.3206486702 0 0 0 0 7147382.7303504944 22957784.714125156 0 22957784.714125156 -22889066.354682922 0 0 0 0 10059365.788162231 80181786.149173737 0 80181786.149173737 -109893448.254426 0 0 0 0 156737.58662402444 -264394.1984671168 0 -264394.1984671168 -138516.87314566784 0 0 0 0 -47995504.571838379 93041931.641956329 0 93041931.641956329 -27473749.74307251 0 0 0 0 618229.0072016716 -20998.274128139019 0 -20998.274128139019 -666988.7074546814 0 0 0 0 2038153.1315503828 354464.50959256524 0 354464.50959256524 -923157.72787821991 0 0 0 0 131194.77890827134 -146644.86951811379 0 -146644.86951811379 -13684.480886081932 0 0 0 0 -61027986.852394104 -870365.50384140015 0 -870365.50384140015 -288284.20831012726 0 0 0 0 29080217.895233154 64374175.746365547 0 64374175.746365547 -103835200.70012283 0 0 0 0 43396431.846105576 -35724704.825447559 0 -35724704.825447559 -6558969.6880397797 0 0 0 0 60709238.376037598 7425623.5525188446 0 7425623.5525188446 30972087.870656461 0 0 0 0 51890312.551177979 66322254.549982071 0 66322254.549982071 -50084377.138338089 0 0 0 0 115678807.30309486 -22546617.046913624 0 -22546617.046913624 -138331628.05825424 0 0 0 0 55279423.128843307 126231966.37240171 0 126231966.37240171 28620358.569462776 0 0 0 0 778394.84437977895 -57587.806971426588 0 -57587.806971426588 -410908.2191755427 0 0 0 0 -1165970.453704834 -98224.68808555603 0 -98224.68808555603 2064317.9112854004 0 0 0 0 346636.45727920532 -1506450.1048336029 0 -1506450.1048336029 -3605746.480222702 0 0 0 0 -781618.16226196289 -2574666.7900810242 0 -2574666.7900810242 2362483.5110578537 0 0 0 0 1664961.7872331436 -727160.84266143572 0 -727160.84266143572 -257617.90735540539 0 0 0 0 1004586.4333992004 -79137.492288589478 0 -79137.492288589478 -898659.86838626862 0 0 0 0 324162.87384033203 454971.79463911057 0 454971.79463911057 -1364872.1931915283 0 0 0 0 -2402176.2069244385 -2198772.9204931259 0 -2198772.9204931259 2357068.6339530945 0 0 0 0 4088959.3752613068 1020546.1328761578 0 1020546.1328761578 -8144450.4582386017 0 0 0 0 495852.7166071455 -291531.69278383348 0 -291531.69278383348 26319.600467973389 0 0 0 0 164676.74099319289 -88837.891518387012 0 -88837.891518387012 5395.1682397192344 0 0 0 0 -8100114.6465911865 14693184.398741722 0 14693184.398741722 -17336559.35159111 0 0 0 0 -8415453.734703064 10628276.357223511 0 10628276.357223511 -5176520.0633764267 0 0 0 0 -6820977.564781189 7070199.5090427399 0 7070199.5090427399 -2971660.1846551895 0 0 0 0 3397996.5140686035 15278373.839877129 0 15278373.839877129 -14069166.688287735 0 0 0 0 -6082839.4371871948 14283999.337313175 0 14283999.337313175 -12532200.30235672 0 0 0 0 -2691409.3599472046 9657965.7544250488 0 9657965.7544250488 -9288723.5532026291 0 0 0 0 -3122759.102771759 11483810.479031563 0 11483810.479031563 -16047294.84138298 0 0 0 0 1733631.0635421015 329006.84331133519 0 329006.84331133519 -565583.3627578083 0 0 0 0 -1617096.7994766235 6548445.8447856903 0 6548445.8447856903 -10857536.936306953 0 0 0 0 -1425253.5844192505 5508141.1192426682 0 5508141.1192426682 -11727188.919946671 0 0 0 0 1218956.020866394 -3779629.0942249298 0 -3779629.0942249298 -4228579.2496471405 0 0 0 0 -652383.99119567871 -5432630.585603714 0 -5432630.585603714 210998.38415622711 0 0 0 0 1088689.7526226528 207753.61987818847 0 207753.61987818847 -322641.63928769343 0 0 0 0 6131203.2127304077 4956225.6242613792 0 4956225.6242613792 -10176975.940299988 0 0 0 0 560006.2327041626 -6386932.6370792389 0 -6386932.6370792389 -12469035.315671921 0 0 0 0 -6518382.9822769165 2878507.984454155 0 2878507.984454155 5463471.1173858643 0 0 0 0 25411263.709152222 566190.41400146484 0 566190.41400146484 -46867331.212887764 0 0 0 0 330420.71830563992 100024.16648463486 0 100024.16648463486 -257358.0448848235 0 0 0 0 -24488459.53704834 -18932485.460071564 0 -18932485.460071564 12657674.574069977 0 0 0 0 16264146.294380188 6779748.0343723297 0 6779748.0343723297 -23866080.795888424 0 0 0 0 48290481.27671051 -15137295.383069038 0 -15137295.383069038 -30724837.980007172 0 0 0 0 -16338149.696868896 -3309857.9463262558 0 -3309857.9463262558 -32888427.009784698 0 0 0 0 16570938.880512238 10507582.535216331 0 10507582.535216331 -26097680.411518097 0 0 0 0 9311111.6059570312 -1777438.1981315613 0 -1777438.1981315613 -38032587.587104797 0 0 0 0 -2656987.103477478 3070598.9076499939 0 3070598.9076499939 -20531498.860736847 0 0 0 0 7097448.6632537842 9954854.2568511963 0 9954854.2568511963 -25605870.436015129 0 0 0 0 2913738.7618255615 23220547.986575603 0 23220547.986575603 -5147110.8143405914 0 0 0 0 18328979.848083496 17202600.86842823 0 17202600.86842823 -20952191.175287247 0 0 0 0 -2018403.3682975769 18112087.0991745 0 18112087.0991745 -5502113.5607738495 0 0 0 0 58322808.731063843 28477390.656774521 0 28477390.656774521 -17974424.501800537 0 0 0 0 36057678.664262772 -384518.0006415844 0 -384518.0006415844 -3885044.4346809387 0 0 0 0 67479483.578651428 14270189.219650269 0 14270189.219650269 -21875466.637241364 0 0 0 0 25172890.833057404 25424150.470741987 0 25424150.470741987 -42670360.50519371 0 0 0 0 -16068388.916435242 46413473.46349144 0 46413473.46349144 -60387462.529358864 0 0 0 0 -163252459.71024323 -107402413.80878973 0 -107402413.80878973 -87104983.388031244 0 0 0 0 -40158503.914558411 15881412.81817627 0 15881412.81817627 16572816.483863831 0 0 0 0 -42273372.243878841 30299558.972503066 0 30299558.972503066 -1112269.842300415 0 0 0 0 228071.36069759633 36570.519062786363 0 36570.519062786363 -312327.33783190139 0 0 0 0 5449810.4342422485 -28733363.19716835 0 -28733363.19716835 13303087.35682857 0 0 0 0 -10942058.626880646 -1271153.8078014851 0 -1271153.8078014851 -28096172.265953064 0 0 0 0 -8304224.2979049683 6855948.0220866203 0 6855948.0220866203 -8505950.6733341217 0 0 0 0 -6783700.9631347656 9788629.447763443 0 9788629.447763443 -16502399.422844887 0 0 0 0 -6825922.6189880371 14794524.589904785 0 14794524.589904785 -11240248.809660912 0 0 0 0 92303326.815532684 19217167.700893402 0 19217167.700893402 -44337129.141821861 0 0 0 0 72717579.971906662 66601524.013681889 0 66601524.013681889 3757488.21185112 0 0 0 0 88391571.869598389 20691754.032486916 0 20691754.032486916 -44884106.117551804 0 0 0 0 7881854.7800064087 25355360.171863556 0 25355360.171863556 -18491214.355089188 0 0 0 0 9513878.9369888306 36685693.546099663 0 36685693.546099663 -33069268.648898602 0 0 0 0 56877686.350601196 33003152.651835442 0 33003152.651835442 -32861435.780526161 0 0 0 0 -43172579.686153412 52794149.768333912 0 52794149.768333912 -14560049.135850906 0 0 0 0 -22834214.896694183 -72048.257604837418 0 -72048.257604837418 -17040998.343265533 0 0 0 0 86385690.598688126 22854344.541028976 0 22854344.541028976 -43681847.499040604 0 0 0 0 67835233.608089447 7818504.4743380547 0 7818504.4743380547 -42934214.948684692 0 0 0 0 100419197.01210022 -4447348.3451757431 0 -4447348.3451757431 -33772741.773036957 0 0 0 0 3850443.6628673337 93210.93885706272 0 93210.93885706272 -440409.99313113932 0 0 0 0 39722705.354204178 -4543471.4148283005 0 -4543471.4148283005 -28280102.89276886 0 0 0 0 117584752.39497471 6156306.1962358952 0 6156306.1962358952 -18421649.063644409 0 0 0 0 74339657.003570557 -1621391.2096099854 0 -1621391.2096099854 10629538.237830162 0 0 0 0 1230012.0802594782 47571.872464817017 0 47571.872464817017 -143644.60288423393 0 0 0 0 76765484.571354866 -28340637.020749688 0 -28340637.020749688 -44649187.55891037 0 0 0 0 155441154.8024826 39956770.133642197 0 39956770.133642197 -20174179.893259525 0 0 0 0 -39142348.511623383 -85877489.952476978 0 -85877489.952476978 -34909692.164702415 0 0 0 0 170200043.51182938 115550286.07368326 0 115550286.07368326 69077964.830696106 0 0 0 0 248246528.74970436 -83821111.748941183 0 -83821111.748941183 -113779882.6915741 0 0 0 0 -12078933.238189697 -57961071.80034256 0 -57961071.80034256 13666258.238782883 0 0 0 0 -4912567.1777954102 -29839436.177915573 0 -29839436.177915573 20282348.714834213 0 0 0 0 12300258.449478149 -38713758.080513 0 -38713758.080513 -45274239.251785874 0 0 0 0 66283643.489486694 121783058.1628685 0 121783058.1628685 236479518.42919922 0 0 0 0 387900.18108787015 92345.738047575112 0 92345.738047575112 -108756.10826150991 0 0 0 0 75907935.084159851 134291032.40655041 0 134291032.40655041 243520406.87816238 0 0 0 0 72414839.274253845 51110934.618766308 0 51110934.618766308 99215420.87922287 0 0 0 0 48325590.060409546 73358897.24041748 0 73358897.24041748 256666440.99613285 0 0 0 0 106390519.51158142 13817562.381917 0 13817562.381917 119238974.37841415 0 0 0 0 258129762.2764473 13944624.146328926 0 13944624.146328926 35828739.91819191 0 0 0 0 146340993.67266846 -104156349.36746502 0 -104156349.36746502 73028494.501955032 0 0 0 0 128042776.42498779 134861067.33282948 0 134861067.33282948 193101490.01003456 0 0 0 0 122947852.81759644 -44639933.045221806 0 -44639933.045221806 -55316619.678352356 0 0 0 0 98971340.88445282 -38118882.602131844 0 -38118882.602131844 36299397.745895863 0 0 0 0 70371194.797264099 -17459909.489069939 0 -17459909.489069939 180226995.42958736 0 0 0 0 65717518.063788414 12854600.896613598 0 12854600.896613598 13035263.262731552 0 0 0 0 22977034.062156677 13053179.938434601 0 13053179.938434601 41723061.167679787 0 0 0 0 3827717.7944755554 46317957.762479782 0 46317957.762479782 14783030.581087112 0 0 0 0 -11510613.723358154 26904189.657354355 0 26904189.657354355 4993872.8197345734 0 0 0 0 -6211307.4629592896 12633837.483400345 0 12633837.483400345 28911359.148363113 0 0 0 0 7540587.3987846375 24543727.65333128 0 24543727.65333128 -8283865.9812793732 0 0 0 0 59947170.849586487 20239086.337593555 0 20239086.337593555 -15651524.35039711 0 0 0 0 181170827.27965927 41014005.718080521 0 41014005.718080521 -15381152.241643429 0 0 0 0 8391873.5094909668 104440309.2932415 0 104440309.2932415 68054606.289201736 0 0 0 0 178769417.91902924 -73425494.600693703 0 -73425494.600693703 -192761789.31914902 0 0 0 0 193279388.14142609 -19786033.678848267 0 -19786033.678848267 -49927806.654901743 0 0 0 0 410227.11126507074 326073.750755082 0 326073.750755082 -273528.73619563726 0 0 0 0 105021177.80887604 227467968.13259888 0 227467968.13259888 347407758.43163013 0 0 0 0 312374403.52187204 183513061.48117101 0 183513061.48117101 46824712.018281937 0 0 0 0 271455264.04959869 -40470866.525918007 0 -40470866.525918007 -15873826.504293442 0 0 0 0 38718834.166732788 16116737.646198273 0 16116737.646198273 -34032049.004766464 0 0 0 0 -28098257.227737427 -45043030.049510956 0 -45043030.049510956 41040906.80083847 0 0 0 0 73361387.749412537 -62827867.330918312 0 -62827867.330918312 106077408.67594528 0 0 0 0 33402905.187911987 5581952.0104103088 0 5581952.0104103088 -146155226.74542046 0 0 0 0 -26233690.77305603 61711571.207026482 0 61711571.207026482 -31737414.913089752 0 0 0 0 79063944.653991699 86862682.288125992 0 86862682.288125992 24440432.276193619 0 0 0 0 66266776.394618034 29392083.292100549 0 29392083.292100549 -20445867.173564911 0 0 0 0 25919823.829139709 23566278.996908188 0 23566278.996908188 102451449.29605842 0 0 0 0 52115609.207023621 29867200.473958969 0 29867200.473958969 -148662513.98430252 0 0 0 0 15705035.947616577 -67115119.524160385 0 -67115119.524160385 -107693798.34798336 0 0 0 0 110554465.80905914 18534841.811622143 0 18534841.811622143 -63674129.289291382 0 0 0 0 32640496.751464844 -53007185.968296051 0 -53007185.968296051 20761392.734679461 0 0 0 0 31311577.06287384 -170371013.05192661 0 -170371013.05192661 -250780048.04088402 0 0 0 0 43567113.506127119 31013364.912485182 0 31013364.912485182 -218398695.21280098 0 0 0 0 1095213.7299448363 870536.36266819749 0 870536.36266819749 -776498.11624439678 0 0 0 0 3497229.2041473389 5274434.3597068787 0 5274434.3597068787 -358362781.11931336 0 0 0 0 52223997.097854614 -63310448.977572441 0 -63310448.977572441 -360543938.60215187 0 0 0 0 52152421.756332397 82323284.697340012 0 82323284.697340012 81645989.717259407 0 0 0 0 -111557374.66123962 15031150.359594345 0 15031150.359594345 -217810941.29560852 0 0 0 0 -26977848.498291016 -72717548.101287842 0 -72717548.101287842 -231998687.25293541 0 0 0 0 133042.87720588315 -4018.7660736558028 0 -4018.7660736558028 -142632.43755476549 0 0 0 0 -87142672.357559204 -192951537.76314163 0 -192951537.76314163 -445277880.50344849 0 0 0 0 -23813492.239616394 -12244089.120578766 0 -12244089.120578766 -210793642.8192749 0 0 0 0 -11912344.757843018 54443415.055164337 0 54443415.055164337 -409568385.68970394 0 0 0 0 4126849.7215118408 -47139606.513744354 0 -47139606.513744354 -185155812.14428711 0 0 0 0 -55364345.398101807 81448392.244426727 0 81448392.244426727 -209044675.9719429 0 0 0 0 39779434.236069679 65498290.475907087 0 65498290.475907087 66404070.387702942 0 0 0 0 59834063.427879333 65075190.66615963 0 65075190.66615963 37688386.399845123 0 0 0 0 98794747.041679382 87935218.831591606 0 87935218.831591606 20706475.563236713 0 0 0 0 92084189.975021362 97421973.010448933 0 97421973.010448933 9685780.4132642746 0 0 0 0 73185576.915039062 84233096.384785652 0 84233096.384785652 62666540.71500206 0 0 0 0 64577754.200839996 91502795.28539753 0 91502795.28539753 84113560.219877243 0 0 0 0 113094749.82583237 132266102.59407616 0 132266102.59407616 58055725.10675621 0 0 0 0 93653537.506465912 79993003.169549942 0 79993003.169549942 60770460.718951225 0 0 0 0 106042193.48732758 90418532.91549921 0 90418532.91549921 11702817.386631012 0 0 0 0 94147966.896160126 90155641.69884181 0 90155641.69884181 55140102.95484066 0 0 0 0 112613987.59663391 91772942.239595413 0 91772942.239595413 6135281.4042930603 0 0 0 0 70697397.331802368 72947691.552291393 0 72947691.552291393 19633667.03575325 0 0 0 0 39881766.881034851 -44554050.413208008 0 -44554050.413208008 -17884954.330813408 0 0 0 0 30935375.79183197 14005090.535168648 0 14005090.535168648 -87895943.101037025 0 0 0 0 37262002.978637695 -47033276.193775177 0 -47033276.193775177 -18397557.333060265 0 0 0 0 9980636.2286453247 -73285624.985422134 0 -73285624.985422134 4869652.5256576538 0 0 0 0 40046634.473861694 -82259456.867790222 0 -82259456.867790222 5583169.2251758575 0 0 0 0 67745577.905963898 -59724778.729891777 0 -59724778.729891777 -16740081.780281067 0 0 0 0 55379141.151790619 -38461327.049091578 0 -38461327.049091578 31590657.330234528 0 0 0 0 24606044.507095337 89232211.043129921 0 89232211.043129921 58320617.802857518 0 0 0 0 146611399.64780426 120165009.11732578 0 120165009.11732578 -46288378.046819687 0 0 0 0 103971380.3961792 -55394979.416108131 0 -55394979.416108131 -34510160.73756218 0 0 0 0 -578011.97436526045 342516.34564211871 0 342516.34564211871 301279.62343084998 0 0 0 0 50814011.363121986 48175204.247628331 0 48175204.247628331 -2081696.4497184753 0 0 0 0 67918397.945980072 32934103.183760643 0 32934103.183760643 -22532469.639943123 0 0 0 0 1145648.8324544486 6569623.4226008337 0 6569623.4226008337 -5489813.9562150519 0 0 0 0 -33228854.365463257 27034899.238612175 0 27034899.238612175 -8472386.5062999725 0 0 0 0 -4587440.5921401978 83662400.80330658 0 83662400.80330658 64768020.655105114 0 0 0 0 47075561.05926609 94814692.815340042 0 94814692.815340042 66007625.581832886 0 0 0 0 560743.20251900703 7334683.375295585 0 7334683.375295585 -5093103.4629172226 0 0 0 0 18804811.680171967 55948664.952415466 0 55948664.952415466 99873918.562667847 0 0 0 0 50690444.919904232 49705389.549797416 0 49705389.549797416 -16795762.288459778 0 0 0 0 29196241.352539062 -39020381.671779633 0 -39020381.671779633 -12052897.930814266 0 0 0 0 14953652.154792786 104296113.8972187 0 104296113.8972187 -51184420.685077667 0 0 0 0 74892608.976861238 47530932.988727331 0 47530932.988727331 -88884665.169542313 0 0 0 0 18504043.540678978 -10080825.993998051 0 -10080825.993998051 -7892108.2571563721 0 0 0 0 41178390.04542923 24467896.73645401 0 24467896.73645401 -16771650.140907288 0 0 0 0 82181748.0219841 8440105.6364040375 0 8440105.6364040375 -19882138.473117828 0 0 0 0 53166396.430686951 19269266.995971203 0 19269266.995971203 -3303176.8290481567 0 0 0 0 58388830.594383717 -60387.029414176941 0 -60387.029414176941 -26385573.864685059 0 0 0 0 93435005.110533714 -13977718.277531624 0 -13977718.277531624 -52195348.439378738 0 0 0 0 50867206.200811386 -21504509.454819679 0 -21504509.454819679 60435275.052480698 0 0 0 0 86360998.310897827 67244855.184040308 0 67244855.184040308 133588990.17547607 0 0 0 0 120025355.12019348 83923191.032279015 0 83923191.032279015 56639040.826450825 0 0 0 0 53880451.160301208 -55031688.484965801 0 -55031688.484965801 73385691.948964119 0 0 0 0 191216.05377959833 3234707.8873565779 0 3234707.8873565779 -5687950.23691025 0 0 0 0 98840240.640289307 104116252.86357355 0 104116252.86357355 69566004.417629123 0 0 0 0 3273690.3614719473 1270268.8992508261 0 1270268.8992508261 -2511885.9615265261 0 0 0 0 23353114.843132019 40316710.355480194 0 40316710.355480194 22577896.124300003 0 0 0 0 -103249649.77696991 -21039444.020005226 0 -21039444.020005226 180157192.2555933 0 0 0 0 -471906649.31850433 72417846.908406258 0 72417846.908406258 159153967.57862449 0 0 0 0 210003598.73059845 2842987.0935492516 0 2842987.0935492516 92609434.318760872 0 0 0 0 -185348433.25976944 177642655.74690294 0 177642655.74690294 53432871.843675613 0 0 0 0 -509232300.76564217 -273640580.45501781 0 -273640580.45501781 384285253.83511829 0 0 0 0 231781805.34659576 -31555384.836711168 0 -31555384.836711168 -128933309.88937378 0 0 0 0 318362732.70729065 27179083.022158623 0 27179083.022158623 -268891579.92730129 0 0 0 0 -140658043.11302185 366971172.61842632 0 366971172.61842632 -229899743.32291508 0 0 0 0 267241.40110754408 2112844.2869091067 0 2112844.2869091067 -4640905.2453877125 0 0 0 0 -39680032.432739258 350525470.06868792 0 350525470.06868792 -751418770.27796745 0 0 0 0 -5282025.7535591125 -369555.82305145264 0 -369555.82305145264 43299622.763710022 0 0 0 0 45224724.839874268 22045660.151643753 0 22045660.151643753 11083322.663251877 0 0 0 0 59146842.800823212 87307744.430128098 0 87307744.430128098 72206554.197242737 0 0 0 0 36374481.6366539 108890604.35196638 0 108890604.35196638 159107928.84314728 0 0 0 0 66592548.274997711 106651154.81833172 0 106651154.81833172 119081366.37674713 0 0 0 0 83306062.939979553 108958810.28224564 0 108958810.28224564 67433980.403450012 0 0 0 0 85187068.072570801 105044137.27056885 0 105044137.27056885 53948931.453756332 0 0 0 0 -576352864.17776489 -121925051.62188864 0 -121925051.62188864 137349439.34732437 0 0 0 0 -59740.823345835321 276664.80496895127 0 276664.80496895127 -726650.90015293588 0 0 0 0 224941.52633288549 1137347.6832800666 0 1137347.6832800666 -2938900.8111710306 0 0 0 0 81323039.90574789 91381507.514070749 0 91381507.514070749 102624917.6077652 0 0 0 0 42885009.837620974 119743854.21593356 0 119743854.21593356 267033402.45163155 0 0 0 0 69824170.610671997 43657347.114843369 0 43657347.114843369 121539770.66047668 0 0 0 0 54825459.935474396 59147741.083236694 0 59147741.083236694 108763654.35804081 0 0 0 0 33904455.731781006 15927658.242413521 0 15927658.242413521 63013242.629753113 0 0 0 0 40071661.215361834 71162106.855660439 0 71162106.855660439 115830797.36595154 0 0 0 0 62008866.0258255 149227177.23259354 0 149227177.23259354 180079428.15362597 0 0 0 0 40467092.101638794 95898280.864046335 0 95898280.864046335 216698782.89743042 0 0 0 0 46345666.524429321 82524050.783210754 0 82524050.783210754 106225456.78044701 0 0 0 0 64173003.206027031 120483515.91756821 0 120483515.91756821 307355407.83802986 0 0 0 0 105539582.51366806 254589308.54239893 0 254589308.54239893 244960181.36884308 0 0 0 0 118326756.16603374 230544715.74428725 0 230544715.74428725 107313330.21482944 0 0 0 0 75387662.876220703 202960576.10518646 0 202960576.10518646 166700428.94917393 0 0 0 0 70762715.113372803 213665302.79588556 0 213665302.79588556 167917704.79484165 0 0 0 0 83203316.4217062 209046293.6867764 0 209046293.6867764 106553872.58354473 0 0 0 0 50732494.976305008 140867666.06670046 0 140867666.06670046 194242172.75264931 0 0 0 0 64806533.933002472 141121590.12151718 0 141121590.12151718 144433125.70501471 0 0 0 0 61933208.696777344 135519938.87574053 0 135519938.87574053 134351738.50148392 0 0 0 0 94639082.878265381 120407333.58788872 0 120407333.58788872 121948030.61528921 0 0 0 0 108047840.51500702 155620108.06214809 0 155620108.06214809 143111027.53019333 0 0 0 0 90163145.473999023 111115603.05322933 0 111115603.05322933 116990262.89573669 0 0 0 0 120241322.1812439 75411581.745761871 0 75411581.745761871 107004758.1264801 0 0 0 0 167168290.21389771 69893680.595956802 0 69893680.595956802 104902766.72209072 0 0 0 0 151420653.60276794 114052021.82732391 0 114052021.82732391 112336156.75529194 0 0 0 0 107884330.87844849 142954511.33968163 0 142954511.33968163 93417066.60291481 0 0 0 0 273499041.43981171 109405321.73955727 0 109405321.73955727 38540487.051347733 0 0 0 0 269515657.19694924 217642662.78279844 0 217642662.78279844 -50723403.523118973 0 0 0 0 194667282.53559113 228821152.83228302 0 228821152.83228302 15811553.744854927 0 0 0 0 185461382.01063538 160807025.8152473 0 160807025.8152473 72177042.798622131 0 0 0 0 133591678.29309845 215045369.64974403 0 215045369.64974403 35625155.472780228 0 0 0 0 178387252.64903259 188994446.56492805 0 188994446.56492805 -27000033.670272827 0 0 0 0 174328969.3918457 240325778.87398529 0 240325778.87398529 27286878.134290695 0 0 0 0 79283688.691558838 318924982.08627892 0 318924982.08627892 16750326.061372995 0 0 0 0 196415203.61501002 316033895.38735867 0 316033895.38735867 -164054362.17988586 0 0 0 0 95949048.100072861 217328566.30239606 0 217328566.30239606 111541867.94870758 0 0 0 0 94919968.455848694 193624394.40699673 0 193624394.40699673 113522671.67365551 0 0 0 0 136898498.44091797 201691231.63595009 0 201691231.63595009 82452831.86769104 0 0 0 0 87576571.737098694 236486730.03050423 0 236486730.03050423 69026226.691568375 0 0 0 0 60844312.789117813 242255974.03936505 0 242255974.03936505 145855218.70350718 0 0 0 0 64185195.223567963 227849476.81367922 0 227849476.81367922 108645141.39856243 0 0 0 0 26074178.262187958 276891711.59472704 0 276891711.59472704 115721739.86028308 0 0 0 0 15303420.402867794 205409296.64875007 0 205409296.64875007 267319831.09763622 0 0 0 0 85332712.399028778 346858171.83450031 0 346858171.83450031 138390116.20606422 0 0 0 0 104905135.34421921 265567953.08397913 0 265567953.08397913 116413259.39382553 0 0 0 0 51779530.625766754 157438121.8915731 0 157438121.8915731 48917092.56087105 0 0 0 0 32536990.574497223 172933622.38136131 0 172933622.38136131 191836151.40903446 0 0 0 0 89450030.294082642 199047965.01646709 0 199047965.01646709 -1851284.4723438025 0 0 0 0 72039366.213230133 114478515.23875666 0 114478515.23875666 37560552.971688092 0 0 0 0 58306999.339314461 216251454.63087273 0 216251454.63087273 104044408.9136734 0 0 0 0 88063084.419519424 209805929.14633322 0 209805929.14633322 117768363.70768356 0 0 0 0 293527727.76869583 156113229.19799122 0 156113229.19799122 33335380.110927582 0 0 0 0 334340002.09895134 168583690.30560991 0 168583690.30560991 -8312173.690956831 0 0 0 0 301520718.86249542 146065598.4197306 0 146065598.4197306 -11857103.961025178 0 0 0 0 277611869.59496307 97184424.169043064 0 97184424.169043064 7885175.0827485919 0 0 0 0 278042203.83985901 50378733.037013769 0 50378733.037013769 -60816839.324300766 0 0 0 0 327438811.3974762 91980085.112668991 0 91980085.112668991 -42024807.926775753 0 0 0 0 324560983.77221107 20381208.292030886 0 20381208.292030886 -114344726.08012342 0 0 0 0 349510359.17012024 105450585.87023616 0 105450585.87023616 -70595270.406295419 0 0 0 0 422278981.06163025 154809347.795809 0 154809347.795809 -40242306.611728728 0 0 0 0 374479077.98834991 168659195.40851903 0 168659195.40851903 -12593738.398435354 0 0 0 0 383258389.58434296 69468858.747972488 0 69468858.747972488 -67777095.655930281 0 0 0 0 463726884.67769623 175315826.36909926 0 175315826.36909926 100801538.06833082 0 0 0 0 500648391.46246338 108969990.08019681 0 108969990.08019681 -2210063.1489022672 0 0 0 0 437127734.69010925 139402287.86714339 0 139402287.86714339 -16722629.917134643 0 0 0 0 511338242.84146118 186551214.70816448 0 186551214.70816448 -10279972.763840877 0 0 0 0 268127781.44384813 165469373.2322818 0 165469373.2322818 34462372.171056151 0 0 0 0 459327298.31576538 247385018.55898368 0 247385018.55898368 27449488.495175462 0 0 0 0 -105107.92449188232 155409905.76842409 0 155409905.76842409 169894252.56231457 0 0 0 0 271926154.44275665 247263979.97781098 0 247263979.97781098 40733643.577721715 0 0 0 0 386366768.3154335 188136706.22874841 0 188136706.22874841 -14353004.699967384 0 0 0 0 530199042.60598755 194337915.45362148 0 194337915.45362148 200030211.07456905 0 0 0 0 275012.92586950865 39130.95307717938 0 39130.95307717938 -929856.49372376327 0 0 0 0 222372719.81658173 86446210.484142303 0 86446210.484142303 219851124.11225796 0 0 0 0 100507206.43451691 130597636.41954413 0 130597636.41954413 296975392.96862966 0 0 0 0 140122708.99788666 226748296.58516598 0 226748296.58516598 243101244.59023309 0 0 0 0 589643196.16730118 265617796.04642296 0 265617796.04642296 58367573.939292908 0 0 0 0 397604254.69072342 -166045359.49000692 0 -166045359.49000692 -215249070.41341972 0 0 0 0 -198995487.53919983 346815667.25432968 0 346815667.25432968 184690000.79394341 0 0 0 0 280175.71306511946 438713.12498892099 0 438713.12498892099 -2214219.1187139936 0 0 0 0 299691426.65224361 182990114.44147402 0 182990114.44147402 68657625.126832485 0 0 0 0 296403034.14208221 152565483.51660061 0 152565483.51660061 22622000.521424055 0 0 0 0 237683981.94200134 126038638.15972948 0 126038638.15972948 75414024.592348099 0 0 0 0 258735247.91859055 125914588.92319888 0 125914588.92319888 120897697.60941935 0 0 0 0 258972926.81058502 137160891.41467142 0 137160891.41467142 45440494.95933485 0 0 0 0 -1365450505.5795212 411408933.55554104 0 411408933.55554104 759772464.61724281 0 0 0 0 -1158657935.1154709 -1050098206.9588165 0 -1050098206.9588165 -387226442.20770264 0 0 0 0 -8856512.7230453491 515886354.45255089 0 515886354.45255089 -65033156.102968216 0 0 0 0 12965044.16860199 77995279.410203934 0 77995279.410203934 -311660728.21427917 0 0 0 0 138296.57162705623 292731.0372016998 0 292731.0372016998 -1003608.663675664 0 0 0 0 351686612.45281696 182911416.22596693 0 182911416.22596693 20850541.978153229 0 0 0 0 -27512.220441210084 665559.80940354522 0 665559.80940354522 -2026584.6262279376 0 0 0 0 318851067.36476898 97696912.538809299 0 97696912.538809299 42998765.193713188 0 0 0 0 222145864.89884949 115972559.70948362 0 115972559.70948362 23258105.206043243 0 0 0 0 235122327.18904114 93952533.257198334 0 93952533.257198334 60195645.614788413 0 0 0 0 280249911.06357574 138443147.9460547 0 138443147.9460547 15337596.920049667 0 0 0 0 227807406.30584717 108990103.03898048 0 108990103.03898048 20961269.008426309 0 0 0 0 234719551.72150421 109511878.28128934 0 109511878.28128934 -20795203.630637169 0 0 0 0 175638720.23847961 84537530.624941349 0 84537530.624941349 15738440.535960913 0 0 0 0 147136784.16659546 81880779.764135838 0 81880779.764135838 15471192.009478569 0 0 0 0 180503621.7537384 73515657.163749695 0 73515657.163749695 -26687855.01941967 0 0 0 0 126580533.07261658 58360053.333327293 0 58360053.333327293 18213028.602333307 0 0 0 0 147157259.06716919 41145866.148175716 0 41145866.148175716 -32580626.751345634 0 0 0 0 213314443.47917175 46387188.397805691 0 46387188.397805691 19861271.550004959 0 0 0 0 208884344.49678612 69047592.649484098 0 69047592.649484098 14761132.465592384 0 0 0 0 264157048.06047821 94840066.326604366 0 94840066.326604366 20194179.684636831 0 0 0 0 178605380.43301392 66821482.061313391 0 66821482.061313391 42306808.381476164 0 0 0 0 284812508.07149506 -8790152.0442575216 0 -8790152.0442575216 -29676050.641278505 0 0 0 0 285782726.07378387 37730233.005965471 0 37730233.005965471 -42301900.611954689 0 0 0 0 207610041.97357178 -22271602.185515642 0 -22271602.185515642 28894782.661448956 0 0 0 0 137188104.4367981 -12258647.894869328 0 -12258647.894869328 27472060.653384089 0 0 0 0 146066453.18482208 7391868.1485042572 0 7391868.1485042572 -21363610.603508949 0 0 0 0 196651372.25858879 -189864225.35651708 0 -189864225.35651708 37493399.415189743 0 0 0 0 67558710.000648499 60044604.59626317 0 60044604.59626317 -237475268.77587032 0 0 0 0 -131608011.37419891 -12847339.007400274 0 -12847339.007400274 1113532.5294084549 0 0 0 0 86805076.932479858 -93819199.263088703 0 -93819199.263088703 -303856812.29233837 0 0 0 0 57529100.350906372 -43216416.559113503 0 -43216416.559113503 -48351821.645998001 0 0 0 0 88689576.312286377 19158394.246031761 0 19158394.246031761 -24195052.070841074 0 0 0 0 110764769.08384323 37763121.26801765 0 37763121.26801765 -123797287.96674728 0 0 0 0 170988502.53416443 67899796.081710815 0 67899796.081710815 -84235854.51830864 0 0 0 0 104942432.60574341 75206633.612999439 0 75206633.612999439 -25811325.052122951 0 0 0 0 59189165.107276917 20564620.135604382 0 20564620.135604382 -65757715.39922905 0 0 0 0 99857959.034439087 4871431.2802753448 0 4871431.2802753448 -148261915.88612843 0 0 0 0 -7092518.3105163574 -38139923.372382164 0 -38139923.372382164 -101094991.47601795 0 0 0 0 -63726987.722000122 -31671059.059487343 0 -31671059.059487343 -105175266.01728106 0 0 0 0 52655734.124732971 -30578772.72069788 0 -30578772.72069788 -156775284.67956781 0 0 0 0 748017.34032310545 238025.19798151753 0 238025.19798151753 -226783.2271040646 0 0 0 0 -89012194.2550354 -193107649.10283232 0 -193107649.10283232 -196900289.65570784 0 0 0 0 -7880200.3067550659 4947051.8021016121 0 4947051.8021016121 14672864.712776661 0 0 0 0 11160244.832649231 639948.18561768532 0 639948.18561768532 -1893041.7206492424 0 0 0 0 573488.82318388671 359423.60108356702 0 359423.60108356702 -275566.78756502131 0 0 0 0 193815.559564244 118068.56885744166 0 118068.56885744166 -422227.91653755307 0 0 0 0 239018719.14647675 35030125.896184444 0 35030125.896184444 -35865520.314303398 0 0 0 0 306526917.36086082 42441218.218275905 0 42441218.218275905 -137798042.10912323 0 0 0 0 248772976.55360413 79490228.348940849 0 79490228.348940849 54523732.272297382 0 0 0 0 249460211.92616272 158156312.65168285 0 158156312.65168285 82140812.241524696 0 0 0 0 320894153.2273407 83814271.527812958 0 83814271.527812958 -81228239.708461761 0 0 0 0 265697895.90415192 101113505.31928015 0 101113505.31928015 -69794799.005000114 0 0 0 0 138745279.54321289 85775088.439842701 0 85775088.439842701 -47630705.16388917 0 0 0 0 233131682.10591125 114415988.52977943 0 114415988.52977943 -60731158.77818203 0 0 0 0 280208921.11713409 132973725.33664489 0 132973725.33664489 -20360249.102536201 0 0 0 0 239147543.99350357 94595505.960999966 0 94595505.960999966 -3001717.861869812 0 0 0 0 152567397.13624573 80986162.961363316 0 80986162.961363316 -12532533.893367887 0 0 0 0 156264382.9236145 76403385.660942554 0 76403385.660942554 -76683253.784448624 0 0 0 0 -2759339.0788040161 -28002849.377067566 0 -28002849.377067566 -55791829.615388989 0 0 0 0 82152482.568344116 123887475.51517057 0 123887475.51517057 20710326.270067692 0 0 0 0 288174444.89369965 173747459.04635477 0 173747459.04635477 -51878595.387864113 0 0 0 0 307610589.86293793 284892864.2217629 0 284892864.2217629 123707681.00528812 0 0 0 0 345217434.36216736 103961492.5330205 0 103961492.5330205 -115167330.36170197 0 0 0 0 349086404.69322205 103812839.51540232 0 103812839.51540232 -140525610.34101295 0 0 0 0 555758580.074646 47218355.138522148 0 47218355.138522148 -258002546.45911312 0 0 0 0 544410039.41286469 205387006.60444546 0 205387006.60444546 -137887942.89056787 0 0 0 0 320073005.34591675 8185272.2775874138 0 8185272.2775874138 -147289033.92201233 0 0 0 0 387867801.33792114 67413428.177761078 0 67413428.177761078 -143747169.39167404 0 0 0 0 342292.83711695299 136057.79641230282 0 136057.79641230282 -97192.360248243262 0 0 0 0 1034499.1259953044 403989.85765009234 0 403989.85765009234 -779611.20747047884 0 0 0 0 295734075.82254028 109590795.98153973 0 109590795.98153973 -217501384.58955193 0 0 0 0 539133111.5849762 10502293.02479744 0 10502293.02479744 -227705897.92406702 0 0 0 0 281521951.4468689 328416963.04324436 0 328416963.04324436 210707394.23455048 0 0 0 0 554007873.50637054 162775662.6635704 0 162775662.6635704 -13610510.412067413 0 0 0 0 -117922935.66516495 13770597.197378635 0 13770597.197378635 77344442.58111763 0 0 0 0 217181039.42093658 -217063983.6183362 0 -217063983.6183362 -37512389.954216957 0 0 0 0 219039801.32543945 -19638083.135829926 0 -19638083.135829926 -33981869.653568268 0 0 0 0 11137093.479667664 -83316677.011508942 0 -83316677.011508942 8697073.3427734375 0 0 0 0 773881.12087410688 416526.06343337242 0 416526.06343337242 -1356241.0748773888 0 0 0 0 183810828.02546692 227835275.82512093 0 227835275.82512093 240390220.67119408 0 0 0 0 125982470.51845551 8367263.9654407501 0 8367263.9654407501 43641307.819156885 0 0 0 0 88113173.2631073 121701257.86151028 0 121701257.86151028 84748917.815723419 0 0 0 0 3549414.7030639648 5182646.4144601822 0 5182646.4144601822 9523184.215297699 0 0 0 0 4068845.3035812378 16859330.147286415 0 16859330.147286415 -19851632.620070934 0 0 0 0 6631868.6185264587 12836805.03422904 0 12836805.03422904 -651373.37665605545 0 0 0 0 721583.21216137148 298965.25433563441 0 298965.25433563441 -1080399.0775017808 0 0 0 0 -108868580.86444855 24610533.698962688 0 24610533.698962688 -6715812.4316567183 0 0 0 0 7233310.7057437897 -1952384.9452997446 0 -1952384.9452997446 -2991521.52825737 0 0 0 0 1939069.1393661499 -157862.25888299942 0 -157862.25888299942 1788202.9246931076 0 0 0 0 725271.95886230469 2007594.7776215076 0 2007594.7776215076 -1984920.9373202324 0 0 0 0 -1144918.0017466545 -9400177.2542483509 0 -9400177.2542483509 -25899119.967899799 0 0 0 0 1008661.5663668904 -140306.63597256225 0 -140306.63597256225 -519520.77233397192 0 0 0 0 -5843428.7640914917 25237961.173669577 0 25237961.173669577 15093459.767231464 0 0 0 0 -6377087.7654190063 340136.85593414307 0 340136.85593414307 28792668.229890585 0 0 0 0 274771989.2115097 57898427.01328969 0 57898427.01328969 35540778.387268066 0 0 0 0 8366054.359377861 -68879929.717094481 0 -68879929.717094481 5577340.0476522446 0 0 0 0 387462.83946727961 -45221.43321828451 0 -45221.43321828451 -215278.40416431089 0 0 0 0 87194634.625984192 12986160.144717216 0 12986160.144717216 44506839.363298893 0 0 0 0 107795763.65127563 -69781835.72584939 0 -69781835.72584939 -10326421.798933744 0 0 0 0 32812746.534606934 -68558284.177682877 0 -68558284.177682877 34039389.46604538 0 0 0 0 1034093.2334298911 -1213622.8856800906 0 -1213622.8856800906 -3336636.6404607287 0 0 0 0 125930635.29462433 -70036285.050082922 0 -70036285.050082922 21959763.878116131 0 0 0 0 187227029.00979614 6243963.34395504 0 6243963.34395504 -24211168.955616474 0 0 0 0 1042606.1056556702 20430218.737564802 0 20430218.737564802 100042839.2585032 0 0 0 0 769062.08188913204 -693466.02344880439 0 -693466.02344880439 -2234053.9729328128 0 0 0 0 411673826.44701767 -160128423.77474475 0 -160128423.77474475 -30641116.131989956 0 0 0 0 401031010.96292496 -99067699.09097445 0 -99067699.09097445 -5776196.7325382233 0 0 0 0 515508.15280284733 -264549.18801134732 0 -264549.18801134732 -1092927.207057202 0 0 0 0 295915850.99526405 30072667.99099642 0 30072667.99099642 -20009200.027134895 0 0 0 0 121207606.64465332 44313570.633607626 0 44313570.633607626 -13919427.802269459 0 0 0 0 134262205.14833069 33009871.984991789 0 33009871.984991789 -47857571.135705948 0 0 0 0 141999257.4921608 22680921.398532629 0 22680921.398532629 -56725452.216775894 0 0 0 0 75238131.700180054 -32924342.859165192 0 -32924342.859165192 -38683515.193458557 0 0 0 0 110876561.63609314 -146032768.78849399 0 -146032768.78849399 -99450184.256260872 0 0 0 0 243495177.99669647 -96986512.968280315 0 -96986512.968280315 -84133377.511767626 0 0 0 0 52524959.137634277 -120528726.73348522 0 -120528726.73348522 -101101477.56535566 0 0 0 0 46655738.979934692 -251286701.29999685 0 -251286701.29999685 -187268438.01313591 0 0 0 0 132061212.53791809 -268295349.48880482 0 -268295349.48880482 -262065767.42414308 0 0 0 0 92038217.539680481 -280160332.93707275 0 -280160332.93707275 -180261232.66812325 0 0 0 0 112502357.14187622 -126759363.00684357 0 -126759363.00684357 -343980389.58760071 0 0 0 0 112580558.33062744 -119257808.53483009 0 -119257808.53483009 -93569623.650371075 0 0 0 0 191961.80374810658 116128.2091830126 0 116128.2091830126 -87887.388702135591 0 0 0 0 3336054.6392631531 -41726516.566615224 0 -41726516.566615224 160464284.47308636 0 0 0 0 43601804.202903748 20270930.338182926 0 20270930.338182926 21227006.692346096 0 0 0 0 117048345.04787445 -178702477.16299033 0 -178702477.16299033 10677404.225228786 0 0 0 0 14618034.723304749 -506911.82846260071 0 -506911.82846260071 -74172913.75208807 0 0 0 0 217136590.46459198 -96760320.150184155 0 -96760320.150184155 7239443.1517416835 0 0 0 0 187519851.92094061 -63085908.439707957 0 -63085908.439707957 121018024.05661583 0 0 0 0 207469231.2251358 17833830.062962532 0 17833830.062962532 -21487211.618690014 0 0 0 0 -101538961.45538712 -117470412.34119391 0 -117470412.34119391 -16464131.830701828 0 0 0 0 -388253.99548836425 79630.15205074288 0 79630.15205074288 922405.16200389713 0 0 0 0 -131348211.96474838 -196164296.53474176 0 -196164296.53474176 -11756291.765320301 0 0 0 0 -51351323.499500275 -46581738.851293921 0 -46581738.851293921 9040144.95175457 0 0 0 0 -47118309.355754852 -58655764.187191248 0 -58655764.187191248 -36509999.243350923 0 0 0 0 105289605.44589996 -72152806.495972276 0 -72152806.495972276 -52764155.344621181 0 0 0 0 103300579.1307106 -131719745.68489516 0 -131719745.68489516 79294610.410041809 0 0 0 0 253045470.75678253 -108150358.83530855 0 -108150358.83530855 -38181173.871668816 0 0 0 0 301434803.43138504 -196959238.93965054 0 -196959238.93965054 45839746.057188034 0 0 0 0 292358156.51597977 -54733401.601840019 0 -54733401.601840019 19821958.377157331 0 0 0 0 242619808.68660355 -149359908.93518442 0 -149359908.93518442 -58440794.256249905 0 0 0 0 194683647.95724678 -51727452.129609942 0 -51727452.129609942 -8135113.3265945911 0 0 0 0 260421922.47533035 -179017866.65598309 0 -179017866.65598309 50509183.131689772 0 0 0 0 250210.16132083663 142699.03360114992 0 142699.03360114992 -97019.693417162925 0 0 0 0 38101943.086303711 -46523878.615636945 0 -46523878.615636945 56907347.707656384 0 0 0 0 -4147630.7713165283 -11832327.044051468 0 -11832327.044051468 -19780196.814270675 0 0 0 0 -37642544.912976503 -53560741.800604723 0 -53560741.800604723 -54433214.086748362 0 0 0 0 86859.388740578899 121374.26669261325 0 121374.26669261325 -31454.079372972483 0 0 0 0 180281999.6346283 -73080558.277800798 0 -73080558.277800798 17432360.170444489 0 0 0 0 -35192500.340049744 -108692438.76582778 0 -108692438.76582778 -21947896.734020233 0 0 0 0 -1395397.519490242 -42112706.982779369 0 -42112706.982779369 -123506204.84497547 0 0 0 0 -11118823.854927063 -13260197.642405214 0 -13260197.642405214 -16619137.964393171 0 0 0 0 1128851.8988809809 -1013654.2536822413 0 -1013654.2536822413 -519013.73540411907 0 0 0 0 140160771.32940674 -69062893.745602608 0 -69062893.745602608 74534540.329295874 0 0 0 0 -130972363.94506073 -142970009.55946755 0 -142970009.55946755 -180540167.46280563 0 0 0 0 -172005201.65097809 -118073359.68357062 0 -118073359.68357062 -53396686.92800045 0 0 0 0 323966761.90280533 -238203964.7945579 0 -238203964.7945579 177289148.48086756 0 0 0 0 349419567.31572151 -216374664.12669474 0 -216374664.12669474 83133412.714687109 0 0 0 0 297817776.40410614 -261161721.56253994 0 -261161721.56253994 169570237.64193797 0 0 0 0 26948058.22108078 -98061321.715655923 0 -98061321.715655923 130906684.11406815 0 0 0 0 88929941.254677773 5478085.4250374138 0 5478085.4250374138 -34812561.034671068 0 0 0 0 1148567.4398557767 -1433455.6486441556 0 -1433455.6486441556 -689792.6554169748 0 0 0 0 -15170349.530082703 -28065323.482339859 0 -28065323.482339859 107948285.68189907 0 0 0 0 855034.51910053019 -351473.14411332551 0 -351473.14411332551 -843182.03449950507 0 0 0 0 -26240045.907673359 -26011186.3809347 0 -26011186.3809347 -23497952.282905817 0 0 0 0 102262724.00283813 -107954055.76151764 0 -107954055.76151764 71590334.647779852 0 0 0 0 2038166.3470250107 -366857.77772084484 0 -366857.77772084484 -566432.50613785093 0 0 0 0 141977146.90255737 -69538990.632740617 0 -69538990.632740617 38918946.409508467 0 0 0 0 12294813.803192139 -54836204.337633491 0 -54836204.337633491 -10146295.026946306 0 0 0 0 171171838.95330811 -28850742.90610981 0 -28850742.90610981 -35593214.865569055 0 0 0 0 -158307811.35786939 -78201399.222286791 0 -78201399.222286791 -6168672.4770909548 0 0 0 0 147228232.43487167 -161710575.2866261 0 -161710575.2866261 -57106120.762436152 0 0 0 0 554506.15281277325 -396955.71862476319 0 -396955.71862476319 -196944.9991224042 0 0 0 0 179041961.2481997 -143697277.20245814 0 -143697277.20245814 138609291.43506622 0 0 0 0 281101419.22171402 -266655262.83624372 0 -266655262.83624372 181735129.00746199 0 0 0 0 219214574.6803093 -59878379.759575933 0 -59878379.759575933 -13327786.183577746 0 0 0 0 488458187.81153107 -212865921.76873273 0 -212865921.76873273 38281037.52831611 0 0 0 0 512760901.92425156 -419710965.92961746 0 -419710965.92961746 202017914.12734449 0 0 0 0 356788342.49488068 -213338162.28189799 0 -213338162.28189799 185076349.20564789 0 0 0 0 -37506620.761192322 -158644429.18162847 0 -158644429.18162847 -178593395.67990381 0 0 0 0 -93913526.960418701 -77412175.152962208 0 -77412175.152962208 -140242418.35752094 0 0 0 0 240264266.13732529 39702032.697834611 0 39702032.697834611 -22004138.045897961 0 0 0 0 111461042.03971863 25139754.516812205 0 25139754.516812205 -22155318.489398539 0 0 0 0 -237629878.31149292 -409326880.52860343 0 -409326880.52860343 -150042095.86069396 0 0 0 0 439589310.78086853 22539346.34555763 0 22539346.34555763 -52673361.407785177 0 0 0 0 215057.36722756736 -191784.73763691634 0 -191784.73763691634 -49121.559161804151 0 0 0 0 -301791495.6371994 -197586534.23840177 0 -197586534.23840177 1126439.2165193558 0 0 0 0 -111940618.23066711 -231007430.2636137 0 -231007430.2636137 -135872459.26790953 0 0 0 0 -3720942.2456207275 -57609533.994366288 0 -57609533.994366288 -61618503.797182083 0 0 0 0 -252376207.22066498 -107676641.66963601 0 -107676641.66963601 -21153834.966882706 0 0 0 0 -6448485.6404266357 -53550820.327410698 0 -53550820.327410698 -65623517.004798442 0 0 0 0 86451845.412734985 61744180.503641129 0 61744180.503641129 34896523.647088051 0 0 0 0 -89448433.772155762 -108622996.87119544 0 -108622996.87119544 44700443.685371399 0 0 0 0 141765615.317276 160178567.59869003 0 160178567.59869003 32577055.684126794 0 0 0 0 503977975.52024078 -449967465.09353256 0 -449967465.09353256 362544131.4057672 0 0 0 0 734238.09395214729 -136554.63906805031 0 -136554.63906805031 -190660.47004583277 0 0 0 0 1023719602.8769073 105939360.2915175 0 105939360.2915175 -314120566.28879285 0 0 0 0 174514887.77294159 -44492924.798317194 0 -44492924.798317194 -169666621.85120708 0 0 0 0 625554326.23448181 74274228.943449736 0 74274228.943449736 -138418958.5412271 0 0 0 0 -35920242.386749268 -169926362.99574924 0 -169926362.99574924 -99501948.523856521 0 0 0 0 132388648.27554512 -48411398.216449022 0 -48411398.216449022 -58843303.814146757 0 0 0 0 485002581.10663605 -592745839.07382941 0 -592745839.07382941 464771684.59762216 0 0 0 0 161952.9931143038 -81541.45590537414 0 -81541.45590537414 -236935.4711281737 0 0 0 0 431579291.07490444 -210710290.50890419 0 -210710290.50890419 -274623567.0849483 0 0 0 0 -74943175.025772095 -201428974.96616554 0 -201428974.96616554 -55733086.502275176 0 0 0 0 440982492.69098282 -170144807.29307005 0 -170144807.29307005 -133136817.37999403 0 0 0 0 504655625.13365555 -328266994.29810858 0 -328266994.29810858 -61084393.801880509 0 0 0 0 150490865.26333237 -120694990.37456463 0 -120694990.37456463 -97170028.960645139 0 0 0 0 563410670.24006271 42468316.474438272 0 42468316.474438272 -47815259.22304979 0 0 0 0 -217000286.4213874 -423699816.68025398 0 -423699816.68025398 27836874.864371359 0 0 0 0 187749.42904619779 -175325.80888155382 0 -175325.80888155382 -11003.766362648035 0 0 0 0 -214336447.84597778 15376541.388319165 0 15376541.388319165 22832229.257888436 0 0 0 0 -144041191.2106781 -59742485.696193993 0 -59742485.696193993 31385831.270550936 0 0 0 0 133989141.55222702 -152834822.02966088 0 -152834822.02966088 23206609.214150846 0 0 0 0 -21928774.051071167 80552965.784670055 0 80552965.784670055 -197852502.11597061 0 0 0 0 166900721.43174744 -76349973.759868324 0 -76349973.759868324 -103072084.20301127 0 0 0 0 398500.85435479507 -364870.28090844583 0 -364870.28090844583 -56049.660866916995 0 0 0 0 170399763.94928741 -52620237.21394515 0 -52620237.21394515 -234058851.10614821 0 0 0 0 17903978.660564423 -140794661.36670309 0 -140794661.36670309 -107069767.97037721 0 0 0 0 -36935542.44493103 -130409638.52700293 0 -130409638.52700293 -229609921.44683504 0 0 0 0 275119016.85221863 35523956.747938633 0 35523956.747938633 -103632106.93058112 0 0 0 0 247909974.14778137 -13859038.648557365 0 -13859038.648557365 -97450885.634777784 0 0 0 0 153743215.84877014 -75083277.972366214 0 -75083277.972366214 -126660157.83157969 0 0 0 0 295045474.01211548 4921271.2941297293 0 4921271.2941297293 -163016639.71504563 0 0 0 0 376484524.73783875 85790268.952751279 0 85790268.952751279 -99715680.88254945 0 0 0 0 283017112.1802597 -3651893.0693297386 0 -3651893.0693297386 -100583891.44907236 0 0 0 0 360335413.32450867 73444508.579407632 0 73444508.579407632 -74463920.375322402 0 0 0 0 172878783.82142019 8668384.2013111189 0 8668384.2013111189 -89117378.51194787 0 0 0 0 321209236.93945312 74301682.807286471 0 74301682.807286471 -43034439.863150552 0 0 0 0 282336517.09680176 -34071894.720905721 0 -34071894.720905721 -88026517.575221539 0 0 0 0 385152998.91798401 37984602.585788101 0 37984602.585788101 -33314219.641059279 0 0 0 0 460023900.04151917 111112661.95924297 0 111112661.95924297 -5100930.6989287436 0 0 0 0 550392868.80799103 159305875.43215072 0 159305875.43215072 105238175.98871195 0 0 0 0 429797980.74619293 67087026.003195822 0 67087026.003195822 174719543.42747211 0 0 0 0 456121137.28433228 76346905.358579397 0 76346905.358579397 69808746.280243084 0 0 0 0 337256034.05595398 21852128.424736187 0 21852128.424736187 66398667.580640435 0 0 0 0 466535650.75397491 15747749.065693989 0 15747749.065693989 214314397.63094604 0 0 0 0 296064300.3667984 57544054.967891134 0 57544054.967891134 213032932.46674579 0 0 0 0 638292260.30825806 152129823.56819788 0 152129823.56819788 174374888.29725644 0 0 0 0 613880085.25476837 135665812.39591151 0 135665812.39591151 393156733.02828795 0 0 0 0 563116974.45199585 197473387.99392313 0 197473387.99392313 318269361.18159795 0 0 0 0 507203569.92398071 -73803696.40900141 0 -73803696.40900141 175556624.47887349 0 0 0 0 367166438.2458992 -7144085.0809985623 0 -7144085.0809985623 351787971.41656935 0 0 0 0 190518566.35071945 -64946645.860025018 0 -64946645.860025018 212220867.51398927 0 0 0 0 373078215.47366905 -53212225.416642733 0 -53212225.416642733 38605411.209600866 0 0 0 0 289614037.68621063 -280270169.14476526 0 -280270169.14476526 -72257545.042716414 0 0 0 0 156041518.92564774 -47880752.095940173 0 -47880752.095940173 69921482.304414704 0 0 0 0 332149144.99090195 -198702698.15247947 0 -198702698.15247947 76738664.173117876 0 0 0 0 403528135.00212097 -94226812.71441406 0 -94226812.71441406 -18103369.498178959 0 0 0 0 406510496.40826797 84706365.990013659 0 84706365.990013659 186526717.23916018 0 0 0 0 418904298.38848877 118026928.15480697 0 118026928.15480697 99757140.442986429 0 0 0 0 250950956.14303207 -8118376.257584691 0 -8118376.257584691 181303158.2414732 0 0 0 0 469206507.25335312 -13041386.548577547 0 -13041386.548577547 80382141.579613686 0 0 0 0 639274642.11531067 241624730.52759063 0 241624730.52759063 191711036.57560596 0 0 0 0 692421961.73534203 268473696.83069968 0 268473696.83069968 84264203.445376635 0 0 0 0 709290800.9934082 301070384.59102273 0 301070384.59102273 133426663.30853701 0 0 0 0 1045915761.4194641 597443117.00686085 0 597443117.00686085 313870005.54500765 0 0 0 0 1247052682.9078369 75491284.071012497 0 75491284.071012497 392816166.22941291 0 0 0 0 537855388.43346024 214016668.19962794 0 214016668.19962794 687408395.43447649 0 0 0 0 597977141.43442535 225024898.92244798 0 225024898.92244798 280579107.93589836 0 0 0 0 623625229.07079697 -442755308.63041222 0 -442755308.63041222 148970134.16583651 0 0 0 0 501985011.0885973 -420774406.56027919 0 -420774406.56027919 152147588.51977253 0 0 0 0 453835957.82933044 -385876386.15516031 0 -385876386.15516031 208412658.68104887 0 0 0 0 595123511.1370163 -326390736.83578312 0 -326390736.83578312 115950734.51413304 0 0 0 0 123512.81696950458 -61447.911678255536 0 -61447.911678255536 84679.879917234473 0 0 0 0 630667513.81206131 -323951958.25565296 0 -323951958.25565296 115057541.73266923 0 0 0 0 331526.00811179978 -268428.09686903283 0 -268428.09686903283 113405.81060174742 0 0 0 0 -447393842.48023224 -85211118.246851236 0 -85211118.246851236 80499928.336083919 0 0 0 0 -698930018.52209091 -111284532.81048304 0 -111284532.81048304 140618879.90191638 0 0 0 0 97526753.556224823 -222515197.24280655 0 -222515197.24280655 -89052116.865279198 0 0 0 0 405244941.29468441 -331367767.32944322 0 -331367767.32944322 14583808.783550501 0 0 0 0 502984741.64361572 -273753155.74125886 0 -273753155.74125886 41367509.872931004 0 0 0 0 506428817.7904892 -376742151.21011901 0 -376742151.21011901 26173155.468517542 0 0 0 0 1387909859.1534309 -516517319.96254075 0 -516517319.96254075 16555466.351997375 0 0 0 0 564652354.71822739 -547287306.91148877 0 -547287306.91148877 148509739.05280483 0 0 0 0 512903590.95701981 -369190601.58272564 0 -369190601.58272564 31496802.775540352 0 0 0 0 492553315.4655838 -284788045.46311092 0 -284788045.46311092 -241966247.55937982 0 0 0 0 313975237.51131821 -413377109.69433999 0 -413377109.69433999 -21382011.678628683 0 0 0 0 553412055.25040507 -330311630.03495967 0 -330311630.03495967 -10933287.15076828 0 0 0 0 395319886.47054291 -470013340.05722535 0 -470013340.05722535 202778232.78987253 0 0 0 0 14421698.138072968 -6793241.3626722097 0 -6793241.3626722097 1605351.7898406982 0 0 0 0 650056.94546896126 -45724.474991546944 0 -45724.474991546944 -71511.012980654603 0 0 0 0 12589420.409379005 -2413195.8598484397 0 -2413195.8598484397 11845609.276328087 0 0 0 0 338194887.86446667 -44172512.770509601 0 -44172512.770509601 -5055067.4142827988 0 0 0 0 295878290.73238373 -178386813.15797663 0 -178386813.15797663 -35416324.611339569 0 0 0 0 524629472.85432243 -373354689.66473734 0 -373354689.66473734 -34994798.178795815 0 0 0 0 392882319.5771637 -272306977.94745898 0 -272306977.94745898 54577908.149218082 0 0 0 0 454831868.52571106 -249192781.68161917 0 -249192781.68161917 -40404515.932873264 0 0 0 0 208653178.49682617 -187944523.10818529 0 -187944523.10818529 136985277.85777426 0 0 0 0 484627883.67175198 -346141273.942532 0 -346141273.942532 76727806.821769238 0 0 0 0 648145042.12348175 -292823294.67512846 0 -292823294.67512846 64146425.169919074 0 0 0 0 612568209.01190948 -336839825.03937304 0 -336839825.03937304 -5112661.3270666599 0 0 0 0 710026789.33687592 -251292948.9125278 0 -251292948.9125278 24001366.254252195 0 0 0 0 612575070.19678915 -279015237.71595663 0 -279015237.71595663 46775050.630308151 0 0 0 0 997738568.66608429 -271629160.10383511 0 -271629160.10383511 26538209.235693932 0 0 0 0 660583510.84102917 -338564911.34550321 0 -338564911.34550321 110345855.59810162 0 0 0 0 1621788957.4985733 -375535083.82451844 0 -375535083.82451844 66585606.588496685 0 0 0 0 1418968.5405613296 -379468.28255925956 0 -379468.28255925956 -172163.07825760753 0 0 0 0 395773164.41261673 -609618659.32135153 0 -609618659.32135153 667554100.35051298 0 0 0 0 357284300.36182785 -395475937.51284933 0 -395475937.51284933 240787871.36533785 0 0 0 0 2529415.0884048976 140038.04204504192 0 140038.04204504192 -1430246.9273306739 0 0 0 0 1218416.3402633667 368602.77533459663 0 368602.77533459663 -756215.70717906952 0 0 0 0 2282249.5873670923 -448154.30656068493 0 -448154.30656068493 -918787.18099509808 0 0 0 0 2500862.7521915436 -633383.81961470842 0 -633383.81961470842 -2518661.0657587051 0 0 0 0 136947740.90731812 9711388.1750087738 0 9711388.1750087738 166338733.17810583 0 0 0 0 1740115.6651916504 -929779.41767406464 0 -929779.41767406464 -2032821.0836319923 0 0 0 0 1976551.9105701447 -281599.8768517971 0 -281599.8768517971 -1339202.314699173 0 0 0 0 2362059.6822433472 -1018727.7820657492 0 -1018727.7820657492 -962125.8592145443 0 0 0 0 3207833.052599607 152108.45503868069 0 152108.45503868069 -1600390.6620768758 0 0 0 0 532038100.48623276 174704765.52134705 0 174704765.52134705 71517614.141385794 0 0 0 0 781658801.9884758 331944534.14676559 0 331944534.14676559 38351626.239128828 0 0 0 0 756730043.12776756 263199157.1761415 0 263199157.1761415 -17445661.692697525 0 0 0 0 749628864.59672165 255715362.86029202 0 255715362.86029202 84409072.102267981 0 0 0 0 710657630.46136296 25168248.070192691 0 25168248.070192691 83521781.511068344 0 0 0 0 860564068.27803802 35335933.554889202 0 35335933.554889202 28396563.052976131 0 0 0 0 1053476762.1414948 80423764.256145954 0 80423764.256145954 36165641.590053082 0 0 0 0 979480910.61633301 193758282.32172632 0 193758282.32172632 59645727.970491201 0 0 0 0 726770990.10004807 232791999.68978167 0 232791999.68978167 61821927.58174324 0 0 0 0 888027287.58475304 95947633.806867123 0 95947633.806867123 110214462.92931557 0 0 0 0 1255316477.8467789 143280394.4957633 0 143280394.4957633 116128694.35960722 0 0 0 0 1364632811.2751064 354277754.62469327 0 354277754.62469327 490947434.37277699 0 0 0 0 1094361656.6260223 -120294474.19695282 0 -120294474.19695282 1091178324.487411 0 0 0 0 914465260.72498512 167886336.57297567 0 167886336.57297567 123847753.06477451 0 0 0 0 1086905803.203064 -13112851.167690754 0 -13112851.167690754 254201333.12859726 0 0 0 0 903394165.53858185 115242021.00086069 0 115242021.00086069 522248537.31376839 0 0 0 0 802677577.83651733 43048841.849751472 0 43048841.849751472 307040513.80817509 0 0 0 0 734179291.62634277 165670039.95239496 0 165670039.95239496 150662057.39151192 0 0 0 0 737383349.88599396 202377116.66322231 0 202377116.66322231 236897751.04335785 0 0 0 0 737605469.80992913 199289946.60000369 0 199289946.60000369 5849040.7277464867 0 0 0 0 842740.83109170292 497866.5106152324 0 497866.5106152324 2621603.5010169554 0 0 0 0 448420599.06040192 132807913.38071251 0 132807913.38071251 178854841.57003498 0 0 0 0 819008276.33066559 223822885.15753269 0 223822885.15753269 -43197777.403778076 0 0 0 0 173938.80851364136 1011652.0325797796 0 1011652.0325797796 1301606.8980715275 0 0 0 0 1317252.9643592834 354100.93590937555 0 354100.93590937555 1656814.3395035267 0 0 0 0 1290165.5221481323 545775.33441472054 0 545775.33441472054 515826.73354387283 0 0 0 0 1867330.9161911011 761665.15232932568 0 761665.15232932568 420706.11614465714 0 0 0 0 2860163.1987762451 1074340.4529982805 0 1074340.4529982805 -1271262.8727095127 0 0 0 0 2316399.3236236572 1161619.5959864855 0 1161619.5959864855 24761.589755058289 0 0 0 0 1760830.1401824951 1896047.9250794649 0 1896047.9250794649 1398223.3883979321 0 0 0 0 5408943.9076366425 11902163.062829614 0 11902163.062829614 681185.6189391613 0 0 0 0 -6276894.2404403687 1455082.7974555492 0 1455082.7974555492 3373287.5376206636 0 0 0 0 905870.89642508514 866630.34496434685 0 866630.34496434685 2398322.4071556614 0 0 0 0 9285262.6370315552 -9898184.5046710968 0 -9898184.5046710968 4726999.955925703 0 0 0 0 217824.16096835304 36808.782266295515 0 36808.782266295515 -48432.108523214352 0 0 0 0 14516029.989969254 -1482121.4383081198 0 -1482121.4383081198 -1118398.1535429955 0 0 0 0 14314442.909618378 14990004.665526628 0 14990004.665526628 -9726580.5071471334 0 0 0 0 1034760.167256685 1397501.0693137292 0 1397501.0693137292 2024479.3840841337 0 0 0 0 -8670226.3239517212 -10730961.334395409 0 -10730961.334395409 9711038.4758740067 0 0 0 0 1396648.4245041981 3231561.9029183732 0 3231561.9029183732 3514201.8120217081 0 0 0 0 2348244.1726455688 13449217.585399628 0 13449217.585399628 -45840792.766751885 0 0 0 0 -12301410.517723083 3563573.9145823717 0 3563573.9145823717 10343306.499181747 0 0 0 0 -7026744.7708587646 -8973735.5552902222 0 -8973735.5552902222 12846407.55136466 0 0 0 0 -7044452.6805763245 8843423.1754958034 0 8843423.1754958034 -396166.42644166946 0 0 0 0 6288195.4400787354 3622637.6992692947 0 3622637.6992692947 1639198.0102927685 0 0 0 0 -5177233.4043426514 3028929.7878408432 0 3028929.7878408432 6045001.5702564716 0 0 0 0 -6379045.2300033569 128446.5981502533 0 128446.5981502533 2609314.590505302 0 0 0 0 306190.5877451878 170210.87580186687 0 170210.87580186687 69859.445327736204 0 0 0 0 4423241.9794921875 3116982.7822666764 0 3116982.7822666764 -1381201.8253178596 0 0 0 0 8160873.0574524403 1854606.4923019428 0 1854606.4923019428 433576.37993618351 0 0 0 0 9098921.1879653931 -6836686.544641614 0 -6836686.544641614 475349.69080162048 0 0 0 0 65827078.876647949 -40358356.020023108 0 -40358356.020023108 2061455.4324303865 0 0 0 0 -9321703.3780517578 16926196.957267523 0 16926196.957267523 -712240.91354373097 0 0 0 0 -5114423.7138519287 -11418276.08012414 0 -11418276.08012414 -4466156.8780941963 0 0 0 0 6976347.4835461453 1433552.8037739014 0 1433552.8037739014 842841.57396123232 0 0 0 0 48458528.885177612 42763512.749798536 0 42763512.749798536 -18391240.471855164 0 0 0 0 -4044063.0094451904 21653554.179185152 0 21653554.179185152 7870885.4110927582 0 0 0 0 3743556.9134292603 -29864.509645283222 0 -29864.509645283222 -335707.34136366844 0 0 0 0 10783252.73462677 -2728902.0993058681 0 -2728902.0993058681 -6577691.4913504124 0 0 0 0 737725.03046850674 168177.2025666507 0 168177.2025666507 -211314.44990991137 0 0 0 0 1284038.0253019147 1082892.6339963255 0 1082892.6339963255 1676556.9233412927 0 0 0 0 1131616.7418632507 -439582.67313411832 0 -439582.67313411832 -893236.80703639984 0 0 0 0 1800500.6962966919 -212857.79458415508 0 -212857.79458415508 -173785.96440458298 0 0 0 0 4112283.8685308956 -1446848.440890044 0 -1446848.440890044 -2362552.9895194187 0 0 0 0 45835413.023895264 10889331.100108147 0 10889331.100108147 -11636893.770741105 0 0 0 0 47417547.474712372 20270383.68368458 0 20270383.68368458 -12087714.552947998 0 0 0 0 47851306.98930788 10651033.604524158 0 10651033.604524158 -11881135.685458183 0 0 0 0 10630254.257232666 2059324.4866240025 0 2059324.4866240025 -3292888.8726380467 0 0 0 0 6869184.3924560547 -11285730.898813605 0 -11285730.898813605 -1685912.8892621994 0 0 0 0 -3188366.8837585449 676251.87815952301 0 676251.87815952301 1007610.0089390278 0 0 0 0 1435210.7213439941 -20767312.020341396 0 -20767312.020341396 3052251.6355888844 0 0 0 0 20236060.560462952 -9474446.9270293713 0 -9474446.9270293713 -5980071.0784678459 0 0 0 0 15175061.39263916 -8232612.2466547489 0 -8232612.2466547489 -5672974.9010219574 0 0 0 0 53070106.410339355 -939109.29500603676 0 -939109.29500603676 -28343392.581178665 0 0 0 0 79110970.806030273 -4798882.0424132347 0 -4798882.0424132347 -31145673.769180298 0 0 0 0 84987373.752441406 -23615626.947083473 0 -23615626.947083473 -44864091.7298069 0 0 0 0 54099215.235748291 -34226920.056758881 0 -34226920.056758881 2468816.0168190002 0 0 0 0 92525160.183380127 7426874.4515473843 0 7426874.4515473843 -44587145.959358215 0 0 0 0 7988338.4625549316 -27626092.082057953 0 -27626092.082057953 -37702265.84698844 0 0 0 0 94228322.562550545 31370467.056806684 0 31370467.056806684 -24392675.213885307 0 0 0 0 757815.45900478214 385637.16822554916 0 385637.16822554916 110449.43405583978 0 0 0 0 116850538.44851685 -92738510.116578102 0 -92738510.116578102 -41106640.386127234 0 0 0 0 87498346.941131592 -22183634.320522308 0 -22183634.320522308 -73318020.784039497 0 0 0 0 80789134.900390625 -6099439.8582081795 0 -6099439.8582081795 -57660781.88777113 0 0 0 0 75243182.346572876 21198579.096081018 0 21198579.096081018 -16653571.68814373 0 0 0 0 20122468.558158875 1152132.4451420307 0 1152132.4451420307 -12233574.343209743 0 0 0 0 69590223.267730713 5013917.3612642288 0 5013917.3612642288 -66819192.752676249 0 0 0 0 34092207.90737915 23774902.170347691 0 23774902.170347691 5102675.6962742805 0 0 0 0 12962094.890594482 8163235.0546759367 0 8163235.0546759367 -8022885.2725174427 0 0 0 0 21756135.048591614 17917541.274356365 0 17917541.274356365 1168867.678044796 0 0 0 0 30162211.411026001 10349527.024739027 0 10349527.024739027 -24018810.153403282 0 0 0 0 11687105.047584534 8259778.4980106354 0 8259778.4980106354 -6117582.4035643339 0 0 0 0 16399133.943768501 6873720.8156579286 0 6873720.8156579286 -7539254.3520569801 0 0 0 0 15992020.711151123 3570271.4882233143 0 3570271.4882233143 -7277102.3604474068 0 0 0 0 16910857.207515717 3821220.781483531 0 3821220.781483531 -7558572.177216053 0 0 0 0 2282034.2014701441 1217841.9002491878 0 1217841.9002491878 384034.97226507566 0 0 0 0 30489863.172294617 -2547312.3048522472 0 -2547312.3048522472 15955035.468024492 0 0 0 0 1259284.7273961008 762700.63640980981 0 762700.63640980981 -324987.53169650363 0 0 0 0 70967326.984130859 7684824.4951746464 0 7684824.4951746464 -4192871.3861284256 0 0 0 0 69324692.046295166 7335989.2349385023 0 7335989.2349385023 9848238.8450965881 0 0 0 0 71095033.977203369 29425535.542274475 0 29425535.542274475 -18037968.806999207 0 0 0 0 71504107.837814331 25808815.77172482 0 25808815.77172482 7169218.4498152733 0 0 0 0 2653476.5508041382 5946499.9557147026 0 5946499.9557147026 1131255.3480298519 0 0 0 0 -684803.19017219543 9211600.8513674736 0 9211600.8513674736 -2472971.4614434242 0 0 0 0 2525301.1093101501 4189212.7455385923 0 4189212.7455385923 -320993.03713226318 0 0 0 0 5056932.2985056117 2556533.4047904359 0 2556533.4047904359 1359379.5957776585 0 0 0 0 -134827.20165920258 14274256.128723428 0 14274256.128723428 5189938.3233532906 0 0 0 0 6828339.4440977313 2496891.0094914678 0 2496891.0094914678 772932.82065496943 0 0 0 0 1698507.8270263672 5452548.9769272804 0 5452548.9769272804 7967273.9979438782 0 0 0 0 -20451.84228515625 1977552.389298439 0 1977552.389298439 2111122.1731380224 0 0 0 0 -4759616.1703796387 -1210038.6696286201 0 -1210038.6696286201 7844401.7519741058 0 0 0 0 -1951783.4826889038 -2888100.337146759 0 -2888100.337146759 1298481.031703949 0 0 0 0 -1971033.1722793579 -2829560.9361972809 0 -2829560.9361972809 1841005.2591953278 0 0 0 0 -21144.896964073181 -562508.40045487881 0 -562508.40045487881 -505652.53747367859 0 0 0 0 153584.36668014526 1182164.9903612137 0 1182164.9903612137 4230610.6701316833 0 0 0 0 -1083591.6222343445 -4102724.3314466476 0 -4102724.3314466476 75148.27805519104 0 0 0 0 34720041.007484436 24448084.374954224 0 24448084.374954224 489254.88400650024 0 0 0 0 2033541.7250530459 828503.45272603771 0 828503.45272603771 -615722.40748899849 0 0 0 0 9354711.1351360828 1203762.8709236314 0 1203762.8709236314 -376555.83907446172 0 0 0 0 -2167476.72215271 -3269112.4921369553 0 -3269112.4921369553 1704990.5925016403 0 0 0 0 -8192221.1607971191 -21253604.887992859 0 -21253604.887992859 -14862224.091704845 0 0 0 0 -2187757.3335952759 -3232581.8947477341 0 -3232581.8947477341 2211235.8203811646 0 0 0 0 7173022.7590221576 -422269.63251350913 0 -422269.63251350913 -1026369.0686984292 0 0 0 0 11629271.947105408 3303191.5620651245 0 3303191.5620651245 810023.0786857605 0 0 0 0 15391736.226745605 2209657.193666935 0 2209657.193666935 10537168.844128985 0 0 0 0 8975680.1913719177 6396752.2164974213 0 6396752.2164974213 5656983.5827713013 0 0 0 0 3765584.7043380737 38800011.677382708 0 38800011.677382708 10894204.981440544 0 0 0 0 7685561.6988056898 1971582.6584842401 0 1971582.6584842401 -1075021.0739771887 0 0 0 0 11403467.45211792 2716228.1958167553 0 2716228.1958167553 855429.92302656174 0 0 0 0 6420825.7841140833 716133.10540144704 0 716133.10540144704 -1594790.3819849449 0 0 0 0 13695659.243286133 8268017.2843823433 0 8268017.2843823433 5065539.2282886505 0 0 0 0 13933510.609260559 5557058.4251117706 0 5557058.4251117706 5338836.5703544617 0 0 0 0 1644386.50503207 2689665.6315299943 0 2689665.6315299943 1954863.1239261155 0 0 0 0 1626159.6180267334 115487.78486633301 0 115487.78486633301 -796855.70151519775 0 0 0 0 4893898.924194688 2375355.5581542659 0 2375355.5581542659 2764003.9855354731 0 0 0 0 4135547.9199853577 2627163.1587126646 0 2627163.1587126646 2392069.7331262906 0 0 0 0 3561915.3145487197 430314.8007968748 0 430314.8007968748 -135020.50834286772 0 0 0 0 12581051.358200073 7166970.7419395447 0 7166970.7419395447 5600681.4747619629 0 0 0 0 22590585.276992798 6298019.8665599823 0 6298019.8665599823 5671980.6443481445 0 0 0 0 473302.43237855844 43765.7537434306 0 43765.7537434306 -384095.28072934831 0 0 0 0 14399283.40852356 8177418.0133972168 0 8177418.0133972168 8871167.1599063873 0 0 0 0 32700948.922149658 13340855.577753067 0 13340855.577753067 1911655.3024215698 0 0 0 0 2348566.9714355469 -130361.97041702271 0 -130361.97041702271 -1269446.4162025452 0 0 0 0 2667503.0230896072 2117696.5154231526 0 2117696.5154231526 1987300.6753053968 0 0 0 0 7244728.9724640306 826816.65501333587 0 826816.65501333587 -2365036.2957874737 0 0 0 0 4118017.1667964701 1925132.2047005412 0 1925132.2047005412 -708747.62134022964 0 0 0 0 11689007.472194672 5751330.9003868103 0 5751330.9003868103 5658502.2462530136 0 0 0 0 11444999.64981842 6718087.4017515182 0 6718087.4017515182 4763271.4755020142 0 0 0 0 4021917.8438434601 -14955759.552335173 0 -14955759.552335173 -41608809.632411957 0 0 0 0 16776523.148273468 16240328.347567558 0 16240328.347567558 8492018.9966201782 0 0 0 0 21291329.101074219 8648806.8025970459 0 8648806.8025970459 1771473.1742353439 0 0 0 0 -19810480.627799988 -1176669.4935097694 0 -1176669.4935097694 -6862517.0380067825 0 0 0 0 18854727.805925369 -10361143.091762066 0 -10361143.091762066 -47355522.462757111 0 0 0 0 33804447.443904877 4500068.2079401016 0 4500068.2079401016 18903463.524180889 0 0 0 0 25901081.442710876 19350281.623500824 0 19350281.623500824 5225217.3257064819 0 0 0 0 31992320.632961273 9627011.4558162689 0 9627011.4558162689 9062205.7536931038 0 0 0 0 32870526.36116147 15858892.711492777 0 15858892.711492777 5385106.5710754395 0 0 0 0 3750493.7790044788 644514.63039633632 0 644514.63039633632 -1589900.0708696172 0 0 0 0 24016659.598426819 -10090750.742886543 0 -10090750.742886543 -47173482.344954967 0 0 0 0 -33009177.270874023 -68707191.996954441 0 -68707191.996954441 -4881892.4509143829 0 0 0 0 7251957.6416893005 -25759897.572422981 0 -25759897.572422981 76122128.762046814 0 0 0 0 42068137.91271019 7532624.4649498463 0 7532624.4649498463 31590946.060308456 0 0 0 0 11052788.333496094 -32258435.542386532 0 -32258435.542386532 21995946.949715614 0 0 0 0 33587938.094261169 15284625.554463387 0 15284625.554463387 -5623406.788403511 0 0 0 0 10107781.590794161 -335056.05622581765 0 -335056.05622581765 -326564.06675129803 0 0 0 0 12259918.067584991 -9703011.5261663198 0 -9703011.5261663198 671330.28135299683 0 0 0 0 23181711.052505493 7785533.9250235558 0 7785533.9250235558 4150820.1485652924 0 0 0 0 40898971.199752808 13732593.88452816 0 13732593.88452816 6024832.3111329079 0 0 0 0 1321291.8358835918 -45071.544238083065 0 -45071.544238083065 -219168.5182097475 0 0 0 0 56110887.904174805 41860675.540755868 0 41860675.540755868 1450813.1086578369 0 0 0 0 46962777.264717102 15818157.72765398 0 15818157.72765398 -111719.72670602798 0 0 0 0 45637121.862220764 12331740.558104992 0 12331740.558104992 -2972658.3114190102 0 0 0 0 40342201.194350004 8955578.5166016817 0 8955578.5166016817 -484291.28335380554 0 0 0 0 36868877.83036232 12944651.220813036 0 12944651.220813036 -16375007.415791512 0 0 0 0 40174700.833426476 26006005.462490976 0 26006005.462490976 17052254.473671913 0 0 0 0 29313894.1731987 38752985.277970552 0 38752985.277970552 10725047.055778503 0 0 0 0 38132310.769041061 29740344.068320751 0 29740344.068320751 18822269.014593124 0 0 0 0 2822762.9666561736 -1196.0942786443047 0 -1196.0942786443047 -1619882.818921458 0 0 0 0 62664712.311958313 32721728.033917904 0 32721728.033917904 1762785.1829764843 0 0 0 0 65661156.918296814 19289709.946106791 0 19289709.946106791 20691409.622757077 0 0 0 0 70002487.037398815 105088289.46088141 0 105088289.46088141 107271835.63296473 0 0 0 0 1185566.1991865672 -124499.30755956285 0 -124499.30755956285 -806213.86814094323 0 0 0 0 5684646.1798667908 68342264.739243209 0 68342264.739243209 4094770.5434721708 0 0 0 0 15067442.356468201 18849014.078547478 0 18849014.078547478 175563183.2359665 0 0 0 0 10474789.201305389 58153418.093049049 0 58153418.093049049 81292515.364339828 0 0 0 0 -37283385.117034912 4869521.5570092201 0 4869521.5570092201 88631023.660078049 0 0 0 0 -24626646.706916809 50008376.453179359 0 50008376.453179359 47760507.520059109 0 0 0 0 -1211237.7967100143 14269934.715434849 0 14269934.715434849 98990060.504343987 0 0 0 0 16792392.969978333 87440505.701300234 0 87440505.701300234 141358818.23863155 0 0 0 0 12040443.429992676 38237734.108367249 0 38237734.108367249 53870258.693389371 0 0 0 0 35826361.799175262 158288476.35339463 0 158288476.35339463 161734742.358729 0 0 0 0 35667169.588411823 183169356.98460379 0 183169356.98460379 264143856.5898881 0 0 0 0 -2855190.8978157043 83611724.411716342 0 83611724.411716342 191470094.34425128 0 0 0 0 28332880.831932068 103857945.78974348 0 103857945.78974348 174611756.78592068 0 0 0 0 34293006.272750854 67741132.692732841 0 67741132.692732841 261794591.5661028 0 0 0 0 188945280.27796555 220261872.40345329 0 220261872.40345329 273223630.92376447 0 0 0 0 76657753.965248108 107803803.33137321 0 107803803.33137321 370277721.48966384 0 0 0 0 98823683.690822601 108689670.95271468 0 108689670.95271468 234465709.96624374 0 0 0 0 46970259.782745361 24275607.502853394 0 24275607.502853394 237796419.56369287 0 0 0 0 44373182.187179565 75519968.653525829 0 75519968.653525829 330737132.75807476 0 0 0 0 144041612.4515419 137991410.16809392 0 137991410.16809392 292728322.3813138 0 0 0 0 88929866.095775604 68249002.319657326 0 68249002.319657326 200797958.49305725 0 0 0 0 90168575.661132812 -7306834.2916946411 0 -7306834.2916946411 141300939.91930103 0 0 0 0 46857612.675144196 59372736.493912458 0 59372736.493912458 141921203.65066338 0 0 0 0 -985481.92213439941 -63397370.93296051 0 -63397370.93296051 360794870.84461403 0 0 0 0 84403179.092918396 -62788477.447761536 0 -62788477.447761536 96102420.584373474 0 0 0 0 46410729.86630249 7783340.932015419 0 7783340.932015419 246139149.36707211 0 0 0 0 65383632.68862915 47480726.030543804 0 47480726.030543804 271512231.08116436 0 0 0 0 59741744.983840942 201643023.28970122 0 201643023.28970122 481878098.70446873 0 0 0 0 -10833018.609481812 6979442.6549768448 0 6979442.6549768448 419784572.63662624 0 0 0 0 -182079022.11964417 5517305.7922267914 0 5517305.7922267914 617645352.57718754 0 0 0 0 18449112.373847961 55454372.063122272 0 55454372.063122272 423213986.0685358 0 0 0 0 -54649188.802124023 281330735.07617033 0 281330735.07617033 882268454.1514616 0 0 0 0 -1017964.3041687012 583618242.62273836 0 583618242.62273836 564324313.67969465 0 0 0 0 139932374.39338684 460206237.73746991 0 460206237.73746991 502643887.75398505 0 0 0 0 612057055.66657066 537652344.89977217 0 537652344.89977217 325781448.80708444 0 0 0 0 330868139.08546448 289579065.25594693 0 289579065.25594693 355931219.75636333 0 0 0 0 48429323.299751282 179823483.30274618 0 179823483.30274618 443903724.53388357 0 0 0 0 167820698.83673859 251827053.62819988 0 251827053.62819988 413601015.53164959 0 0 0 0 150315830.32989502 457000737.80190253 0 457000737.80190253 256193239.17189294 0 0 0 0 805390651.52619934 553110276.86124718 0 553110276.86124718 43874621.914958239 0 0 0 0 496758461.52235413 204531719.70210052 0 204531719.70210052 524902012.61200166 0 0 0 0 563973451.06765747 352146993.40438962 0 352146993.40438962 623574865.56293726 0 0 0 0 1305729015.5483093 -45548686.546542168 0 -45548686.546542168 210307414.5622797 0 0 0 0 150748017.36651611 968133052.09586263 0 968133052.09586263 1380309871.7516465 0 0 0 0 537522922.12608337 233103764.33982497 0 233103764.33982497 252848380.28076962 0 0 0 0 425381138.01177216 96241560.3739568 0 96241560.3739568 101584452.02189305 0 0 0 0 431753551.55443192 194198454.51782879 0 194198454.51782879 111965808.92845511 0 0 0 0 516805600.86602783 120459937.79207668 0 120459937.79207668 128539285.69478975 0 0 0 0 561264708.73974609 262106671.63716453 0 262106671.63716453 147352113.79555622 0 0 0 0 620788083.71977234 389594324.12358952 0 389594324.12358952 502195920.81313419 0 0 0 0 569885576.56385803 304263606.11726719 0 304263606.11726719 487498535.57449234 0 0 0 0 551898382.92452621 137528629.40088469 0 137528629.40088469 237164925.52294484 0 0 0 0 538611080.94668579 250505021.96713829 0 250505021.96713829 580274829.2784189 0 0 0 0 537623260.30215263 155250653.6690442 0 155250653.6690442 378705533.74991047 0 0 0 0 570082159.1881218 287629240.09719807 0 287629240.09719807 348743587.52637732 0 0 0 0 500416231.39532471 133414333.24733914 0 133414333.24733914 228811252.56851906 0 0 0 0 729275904.24370575 688202415.51862478 0 688202415.51862478 356437644.93506569 0 0 0 0 552160746.87194061 276178827.69053185 0 276178827.69053185 371687298.50999039 0 0 0 0 953446220.08961487 518770873.05945259 0 518770873.05945259 460655756.28640705 0 0 0 0 506180290.00619507 424935924.48884904 0 424935924.48884904 916733420.70046687 0 0 0 0 745480662.04989624 809242410.97745621 0 809242410.97745621 639281060.14392865 0 0 0 0 158082.56810686272 -295918.59297798388 0 -295918.59297798388 820020.27113063529 0 0 0 0 778035825.69126892 959426993.13253188 0 959426993.13253188 1071685685.6326784 0 0 0 0 -276095734.33581543 -228274774.20518851 0 -228274774.20518851 493820666.56795883 0 0 0 0 -228462887.96780396 69735251.582535744 0 69735251.582535744 1277209451.1339972 0 0 0 0 577367587.96260071 111395987.06333697 0 111395987.06333697 1414475209.5223064 0 0 0 0 15442016.836631775 -112573402.75452232 0 -112573402.75452232 -33881032.84270668 0 0 0 0 234175.06571294926 -514392.10902005434 0 -514392.10902005434 2293338.1472529047 0 0 0 0 -8499878.1614227295 110075940.37267971 0 110075940.37267971 -52304570.289615631 0 0 0 0 -153419449.0067215 37757739.506059647 0 37757739.506059647 -2276641.2619152069 0 0 0 0 59051943.7709198 200947003.56886315 0 200947003.56886315 684008636.96873188 0 0 0 0 990858171.87659264 668652311.31596363 0 668652311.31596363 325856340.37146175 0 0 0 0 192481.9497715272 400983.52947327029 0 400983.52947327029 596455.25461308041 0 0 0 0 1210043993.5519199 6116291.3009222448 0 6116291.3009222448 -43704142.643588781 0 0 0 0 417002089.92582703 -62806641.333378077 0 -62806641.333378077 68803239.550352812 0 0 0 0 -19600510.779008865 55137995.589295626 0 55137995.589295626 -25552061.560941696 0 0 0 0 -477869.200407058 2121258.6102659404 0 2121258.6102659404 3869432.5832041078 0 0 0 0 24016038.212974548 1594617.9139685631 0 1594617.9139685631 -26769345.390886307 0 0 0 0 -10391314.607158661 69140556.024708271 0 69140556.024708271 -18265229.623483658 0 0 0 0 34064623.909500122 10991362.028445244 0 10991362.028445244 -45690471.695271492 0 0 0 0 12168242.984882355 -5017697.5952377319 0 -5017697.5952377319 -25384365.045642853 0 0 0 0 57325538.113273621 -5538467.4998455048 0 -5538467.4998455048 -26807197.51678133 0 0 0 0 38169566.629852295 25408975.988120794 0 25408975.988120794 2939238.2503299713 0 0 0 0 41419707.209388733 -26327140.897442818 0 -26327140.897442818 104743574.02794981 0 0 0 0 56677250.346121788 32965377.756125212 0 32965377.756125212 115703788.93159008 0 0 0 0 81478483.250061035 -23539638.305999756 0 -23539638.305999756 27946021.594285011 0 0 0 0 53371864.868423462 44043889.040369987 0 44043889.040369987 77596798.365998268 0 0 0 0 45726062.184375763 3307112.6496558189 0 3307112.6496558189 -11607145.071971893 0 0 0 0 1060892448.460933 -730169351.34511113 0 -730169351.34511113 -347445069.38124871 0 0 0 0 560333939.90102959 -718752540.90243185 0 -718752540.90243185 107841057.58505335 0 0 0 0 2199179379.582655 -1119720852.7894452 0 -1119720852.7894452 -320121317.39655292 0 0 0 0 1037217548.3186798 -616469693.29081416 0 -616469693.29081416 -536327345.58188975 0 0 0 0 1355796769.7021904 -659492027.03459644 0 -659492027.03459644 -620615871.2494936 0 0 0 0 1119776103.4848595 -394301304.26014292 0 -394301304.26014292 -918477707.68744338 0 0 0 0 2205733521.9547234 365534520.27320015 0 365534520.27320015 -1308395418.909641 0 0 0 0 734715643.40377045 -496474907.3480829 0 -496474907.3480829 -378604130.50989318 0 0 0 0 733243161.91139507 -477642727.63488871 0 -477642727.63488871 -431340023.65509415 0 0 0 0 517493676.70253563 -441516079.40085232 0 -441516079.40085232 -143484656.87396514 0 0 0 0 727341219.62696838 -457599426.65227771 0 -457599426.65227771 -221406944.05663919 0 0 0 0 493623922.99664104 -228509650.7557185 0 -228509650.7557185 -154957057.37993455 0 0 0 0 246509272.22084427 -424550279.99815261 0 -424550279.99815261 50323833.120679945 0 0 0 0 534594362.69375229 -541192556.53199708 0 -541192556.53199708 -13811247.054771796 0 0 0 0 74812744.524250031 -200366524.05174714 0 -200366524.05174714 290030390.10948646 0 0 0 0 410155672.49538612 -604045657.3277638 0 -604045657.3277638 206565017.80922639 0 0 0 0 113715465.48003769 -107082400.79226756 0 -107082400.79226756 -103302936.72553414 0 0 0 0 398273400.52561569 -326391334.53889823 0 -326391334.53889823 -78243320.868794322 0 0 0 0 116547944.28489876 -63481141.563945144 0 -63481141.563945144 -94358138.146832883 0 0 0 0 103360834.24260902 -37160495.451496601 0 -37160495.451496601 -321236875.05036354 0 0 0 0 97978118.938781738 -195030889.69107485 0 -195030889.69107485 -275446345.66277266 0 0 0 0 35958840.242835999 -134250072.07364273 0 -134250072.07364273 -192306481.34571394 0 0 0 0 268363691.03756046 -236509013.25575042 0 -236509013.25575042 -198268074.80689478 0 0 0 0 127705265.18799877 -87608865.456295967 0 -87608865.456295967 -207115987.71834993 0 0 0 0 248142475.84960556 -201441283.29598236 0 -201441283.29598236 -384672631.65675449 0 0 0 0 411812451.36376381 -644566759.9627943 0 -644566759.9627943 87122138.169842809 0 0 0 0 909915482.35811758 -1468956908.2232745 0 -1468956908.2232745 685814052.98286998 0 0 0 0 2202865815.6438766 1201841750.3674676 0 1201841750.3674676 472684520.40993255 0 0 0 0 -366452626.32347107 -669180392.57542729 0 -669180392.57542729 1017645820.5171943 0 0 0 0 888667.55773586268 -812493.32002292876 0 -812493.32002292876 403153.41558536759 0 0 0 0 1141085838.6384463 515467830.94276273 0 515467830.94276273 36971895.745335191 0 0 0 0 -122687514.39847946 -307714172.61070275 0 -307714172.61070275 -348219109.89748144 0 0 0 0 2243313.3900566082 -2060508.7182320966 0 -2060508.7182320966 1078275.4735830398 0 0 0 0 1145222130.4793746 314144058.74965411 0 314144058.74965411 8428716.1465985328 0 0 0 0 367635037.47984362 268578266.99120104 0 268578266.99120104 95571113.365137845 0 0 0 0 2204887126.0929527 473732545.99746811 0 473732545.99746811 -344555397.91771829 0 0 0 0 1531764164.9839606 131346312.07516906 0 131346312.07516906 -315206430.90624845 0 0 0 0 1537556597.2330308 95871982.583144009 0 95871982.583144009 -146443408.31243074 0 0 0 0 388949721.82236576 -224606970.82785067 0 -224606970.82785067 -16699866.116995871 0 0 0 0 1766867899.2908928 -561096161.77902019 0 -561096161.77902019 45932889.981879711 0 0 0 0 705537.17987860844 -495889.50000285986 0 -495889.50000285986 -531927.81682629394 0 0 0 0 219770122.69298077 71471835.090265036 0 71471835.090265036 -208631024.69636306 0 0 0 0 1806037841.4013565 -923029752.7107842 0 -923029752.7107842 -351702466.46030414 0 0 0 0 1899215171.7448854 118700029.61995575 0 118700029.61995575 -317511505.08082986 0 0 0 0 2204726878.3184614 202595830.11702713 0 202595830.11702713 -193814889.49602747 0 0 0 0 2944572315.2709503 -270341806.70391977 0 -270341806.70391977 -557709004.07381821 0 0 0 0 2461969.639046669 1456932.5204143524 0 1456932.5204143524 -37326392.074034698 0 0 0 0 12292837.964564323 -20944620.692160845 0 -20944620.692160845 -4450616.6817126274 0 0 0 0 -50594333.231679678 -9059547.4401911497 0 -9059547.4401911497 19617133.757425308 0 0 0 0 -59759830.695248604 -9360394.1472659111 0 -9360394.1472659111 159989077.76793957 0 0 0 0 -5636655.6321220398 -23717868.994021177 0 -23717868.994021177 24378666.634875298 0 0 0 0 224330465.91679537 145999509.49947745 0 145999509.49947745 6837312.3181970716 0 0 0 0 1659260.8196274438 -1576714.4683108344 0 -1576714.4683108344 -1492172.6052505013 0 0 0 0 1149109.3893210888 10054101.909449458 0 10054101.909449458 37511712.650224209 0 0 0 0 14038601.520722389 2094538.647289753 0 2094538.647289753 -3909608.4217848778 0 0 0 0 533444.92139049852 18455.223462402995 0 18455.223462402995 -462196.36584617669 0 0 0 0 3115030.9921228886 -13282803.956800237 0 -13282803.956800237 -76894786.510468483 0 0 0 0 4558268.0006203521 -936625.9066060232 0 -936625.9066060232 -2183800.6699444177 0 0 0 0 -2102784.6732444763 127026322.13399506 0 127026322.13399506 -250060847.2720747 0 0 0 0 216463117.29633522 -139524627.01296908 0 -139524627.01296908 48384609.999546051 0 0 0 0 2804679.2190850973 -20537761.71932286 0 -20537761.71932286 -215514502.45359612 0 0 0 0 3155423.6557980818 -2886947.2620047308 0 -2886947.2620047308 1130147.1723803491 0 0 0 0 82232482.778263092 -63408362.844133377 0 -63408362.844133377 -220842736.25411093 0 0 0 0 102218135.49820518 14652797.542752862 0 14652797.542752862 -321661294.24724293 0 0 0 0 87082814.747047424 -11347157.478761911 0 -11347157.478761911 -345317710.51363993 0 0 0 0 159156304.82863808 -86887242.747460842 0 -86887242.747460842 -335705411.22237587 0 0 0 0 58913874.535736084 -113030136.98117089 0 -113030136.98117089 -441502484.6488663 0 0 0 0 95509270.906990051 65069670.870531082 0 65069670.870531082 -409060375.93953478 0 0 0 0 -168926226.3590126 -64219545.039306879 0 -64219545.039306879 -477630026.2794199 0 0 0 0 -198509695.02691269 328936161.193367 0 328936161.193367 -230793978.68101406 0 0 0 0 436416.32139664982 -26432.930853195954 0 -26432.930853195954 -395878.29084732721 0 0 0 0 88207281.619522095 21173870.157539368 0 21173870.157539368 -641382682.80358839 0 0 0 0 -592437525.09194565 -171278615.05672491 0 -171278615.05672491 -3159103.8457849026 0 0 0 0 -192108578.30043411 193414284.85506141 0 193414284.85506141 -549299271.88017559 0 0 0 0 -75788984.753318787 -44369451.374083757 0 -44369451.374083757 -948801725.03515124 0 0 0 0 413082.99860359821 -473593.43988513504 0 -473593.43988513504 -425258.93944526702 0 0 0 0 -84899.834766387939 79589040.935901403 0 79589040.935901403 -927600504.07325172 0 0 0 0 -175349119.30824661 -272236657.64456081 0 -272236657.64456081 -678880957.80988598 0 0 0 0 -262699100.71965027 -86506229.724084139 0 -86506229.724084139 -51033885.054030418 0 0 0 0 103892.04281926155 -6860671.7241293788 0 -6860671.7241293788 1761208.9240493774 0 0 0 0 1307655.2317291251 -2899152.5378613267 0 -2899152.5378613267 2110137.94342958 0 0 0 0 -1154319.6711921692 26937556.109767437 0 26937556.109767437 -162733644.69620979 0 0 0 0 4042792.7274223771 -861104.84139560419 0 -861104.84139560419 -1984827.3111092022 0 0 0 0 840434.43647217751 -3360788.694745779 0 -3360788.694745779 -1551322.0360059738 0 0 0 0 4089551.6572265625 -5681054.4139022827 0 -5681054.4139022827 -772927.82965350151 0 0 0 0 -2227248.5745601654 -7507033.2006931305 0 -7507033.2006931305 18851861.934147358 0 0 0 0 9927962.3856685162 -12062393.443230152 0 -12062393.443230152 6050134.6543359756 0 0 0 0 -3665295.9595499039 -446147.25412678719 0 -446147.25412678719 2802317.9528253078 0 0 0 0 -5747812.0397434235 -1095293.9440078735 0 -1095293.9440078735 7215887.0159709454 0 0 0 0 1888862.5554561615 -8818746.9474875927 0 -8818746.9474875927 3026395.9228286743 0 0 0 0 -2114940.403670311 2073977.1756154895 0 2073977.1756154895 2680383.6096835136 0 0 0 0 3099555.5598740578 15733646.940910846 0 15733646.940910846 7523252.2672257423 0 0 0 0 3633725.4131793976 2375318.2829815149 0 2375318.2829815149 -20402338.960895024 0 0 0 0 -364690320.34809494 -249515912.65156621 0 -249515912.65156621 5587930.3118504882 0 0 0 0 282322015.40239143 -2260744.7217949629 0 -2260744.7217949629 -119416983.18386289 0 0 0 0 2164873.6994555136 -1409044.0469163905 0 -1409044.0469163905 -214145.99508043358 0 0 0 0 1340160.7750244141 1069497.1491817236 0 1069497.1491817236 -5882484.6683613062 0 0 0 0 1594903.903698226 -2133383.658190798 0 -2133383.658190798 1189574.4906347541 0 0 0 0 -355701135.85051727 -256272124.9093439 0 -256272124.9093439 -57414729.23611927 0 0 0 0 -296968143.94379616 -78655142.858745709 0 -78655142.858745709 42562585.222619534 0 0 0 0 294614181.24247932 -201261714.35215873 0 -201261714.35215873 -117000035.04206967 0 0 0 0 -43811737.741569519 32360052.559907794 0 32360052.559907794 -52460672.723432064 0 0 0 0 -298361312.04280853 -138298720.82923079 0 -138298720.82923079 -60209987.529910542 0 0 0 0 -118281367.62552738 -229023633.38043314 0 -229023633.38043314 -153788908.82519865 0 0 0 0 69101837.02025795 -63920999.252266705 0 -63920999.252266705 -476675583.51402116 0 0 0 0 -82336307.603145599 -46060642.771447182 0 -46060642.771447182 -128918308.39601541 0 0 0 0 111524617.79464197 88979484.387786269 0 88979484.387786269 -111655807.85088229 0 0 0 0 382199236.01705551 -41292841.015454412 0 -41292841.015454412 -219551455.69290683 0 0 0 0 307993981.44062042 211062107.65126863 0 211062107.65126863 -206311867.21015811 0 0 0 0 211341394.84328842 243884159.39067367 0 243884159.39067367 37104771.863751046 0 0 0 0 108069967.74512005 58524654.082691856 0 58524654.082691856 -250250123.26784042 0 0 0 0 11953.682750968263 -171365.53090057208 0 -171365.53090057208 49944.549756096007 0 0 0 0 26032883.953176498 167408487.47221017 0 167408487.47221017 -269096011.01651621 0 0 0 0 -106345581.09247971 23652245.787862778 0 23652245.787862778 -213892650.09346592 0 0 0 0 -549296333.85052681 -186708322.97657466 0 -186708322.97657466 -417341872.6821332 0 0 0 0 -143321158.33965302 72001321.350465059 0 72001321.350465059 -292275724.96228266 0 0 0 0 -1107099.6099777222 -26148370.49213171 0 -26148370.49213171 -181910447.78893673 0 0 0 0 42569697.009349823 -20150965.998651907 0 -20150965.998651907 -483674520.59517002 0 0 0 0 -221315241.00494385 -202093319.908566 0 -202093319.908566 -317295986.80598044 0 0 0 0 -53214075.931865692 -141773340.69546449 0 -141773340.69546449 -109095115.71042201 0 0 0 0 -141639486.63612843 -60917918.919305205 0 -60917918.919305205 -135489069.55160141 0 0 0 0 62981.593685174361 -382793.56579169788 0 -382793.56579169788 110179.97032869596 0 0 0 0 -120221200.378582 49349750.054071061 0 49349750.054071061 -6963087.5538093299 0 0 0 0 124515694.63263702 -1371990.7313122749 0 -1371990.7313122749 -248382822.59608153 0 0 0 0 260196199.82246208 -335419597.53163552 0 -335419597.53163552 -106425480.53526294 0 0 0 0 34807.438158591278 -254226.18981281959 0 -254226.18981281959 74521.012584922573 0 0 0 0 94611462.433166981 105261280.67494081 0 105261280.67494081 -33928830.587958932 0 0 0 0 191404933.33150482 153248231.31102562 0 153248231.31102562 -35201042.543866515 0 0 0 0 215429317.20020723 149693954.88111442 0 149693954.88111442 -68153091.622900963 0 0 0 0 217804101.42466736 160776135.67057186 0 160776135.67057186 -33246305.319197029 0 0 0 0 333319963.6224556 180963765.38033843 0 180963765.38033843 -60203162.86537917 0 0 0 0 74050014.341124058 177996299.20176786 0 177996299.20176786 16760487.366552472 0 0 0 0 289446562.68286896 87587083.9608908 0 87587083.9608908 -80666501.992278427 0 0 0 0 274847525.60443306 102218226.59856319 0 102218226.59856319 -95245961.84548597 0 0 0 0 217085270.55106544 130318398.79015183 0 130318398.79015183 -44272245.679828167 0 0 0 0 207211220.8514061 50630623.477713704 0 50630623.477713704 -97261292.661820292 0 0 0 0 43481.342342376709 -70422200.427460194 0 -70422200.427460194 -64083594.598542452 0 0 0 0 244501378.21647644 -105781572.28727543 0 -105781572.28727543 -68274419.423036575 0 0 0 0 277913814.9656868 -90443237.956813723 0 -90443237.956813723 -61246270.92198801 0 0 0 0 209921968.55502129 -83586556.287096545 0 -83586556.287096545 -37749550.698173881 0 0 0 0 499823054.38092804 -174133216.20533398 0 -174133216.20533398 20139669.034787476 0 0 0 0 247723574.65086937 -63858801.536211528 0 -63858801.536211528 -27660853.14602083 0 0 0 0 423964033.321105 -440864626.16978192 0 -440864626.16978192 157084645.75952911 0 0 0 0 456559915.11467195 -218922978.78580421 0 -218922978.78580421 -12346768.520828128 0 0 0 0 596407166.21051788 -306357237.34059536 0 -306357237.34059536 41071300.423923731 0 0 0 0 685416252.24111938 -64908676.605390191 0 -64908676.605390191 -124417876.09885579 0 0 0 0 363632820.71102428 11074729.520585701 0 11074729.520585701 -65348873.474010348 0 0 0 0 450234934.8329277 64815924.965886176 0 64815924.965886176 -113804399.43269561 0 0 0 0 502968259.33028698 119730525.96854007 0 119730525.96854007 -52350671.163353443 0 0 0 0 674957385.7578783 -147633506.15250331 0 -147633506.15250331 -26065862.277743578 0 0 0 0 749489374.35995817 -344138281.90806162 0 -344138281.90806162 450855133.27571273 0 0 0 0 888982028.86199951 -51705669.266247272 0 -51705669.266247272 -7405364.0080794096 0 0 0 0 771240029.4786644 -236191376.0347653 0 -236191376.0347653 -34085759.62326932 0 0 0 0 515532327.78956223 -345793216.45226336 0 -345793216.45226336 91874218.719581082 0 0 0 0 424499070.66120625 10777998.417488605 0 10777998.417488605 -14846190.815067768 0 0 0 0 1043513510.780407 -344507545.26379764 0 -344507545.26379764 239734443.86883557 0 0 0 0 1192859006.4461899 -969789600.10122204 0 -969789600.10122204 531281925.11276984 0 0 0 0 1313534837.1686516 -900609309.27295864 0 -900609309.27295864 278960164.23854661 0 0 0 0 993146889.60111189 -933780518.05360973 0 -933780518.05360973 298307282.60941499 0 0 0 0 1074970145.8424277 -276906030.20287287 0 -276906030.20287287 -214757152.92912287 0 0 0 0 2107273077.3364105 -734453025.24442172 0 -734453025.24442172 -139543516.67904967 0 0 0 0 1082312.4673608076 -777863.6853834521 0 -777863.6853834521 -473990.88511742547 0 0 0 0 92659803.162712097 24883411.370993376 0 24883411.370993376 -46517931.098118365 0 0 0 0 13580206.081695557 -28771400.166672945 0 -28771400.166672945 -23169659.902542591 0 0 0 0 42041.759063783102 -57211.161967783468 0 -57211.161967783468 -419.65189496793028 0 0 0 0 1041912028.010258 -497573264.18075633 0 -497573264.18075633 -121132422.74373299 0 0 0 0 1644989865.6212463 -941447779.30219853 0 -941447779.30219853 93623145.301032066 0 0 0 0 1394817051.8782196 -525486279.78835255 0 -525486279.78835255 431716921.43610775 0 0 0 0 2361917643.4428821 -963877992.02115989 0 -963877992.02115989 127138630.31613827 0 0 0 0 -59719.370526565341 -4109.7960440749303 0 -4109.7960440749303 789462.83772204001 0 0 0 0 1250380644.2062702 -972160978.45983589 0 -972160978.45983589 1465510696.6331477 0 0 0 0 23103342.918372333 103571948.81391445 0 103571948.81391445 471756542.31530237 0 0 0 0 67018713.444549561 -576244173.29044533 0 -576244173.29044533 776083485.69994593 0 0 0 0 857397298.82049179 -767251018.51399922 0 -767251018.51399922 341216058.97030973 0 0 0 0 1203241471.6458797 -261257061.69742566 0 -261257061.69742566 221387983.96436071 0 0 0 0 929004369.81180191 -442206003.35119867 0 -442206003.35119867 103850850.6283443 0 0 0 0 678915763.82206488 -304218129.05118078 0 -304218129.05118078 28511284.914622068 0 0 0 0 641399149.67706275 -585040941.79941297 0 -585040941.79941297 176701714.94501877 0 0 0 0 308823581.7154541 -433822617.4534986 0 -433822617.4534986 194237807.09123802 0 0 0 0 299254320.16658401 -477529113.04065025 0 -477529113.04065025 239346048.37262446 0 0 0 0 410545511.36053085 -227009203.32078481 0 -227009203.32078481 163554812.87473583 0 0 0 0 117226336.25119972 -450194702.1024422 0 -450194702.1024422 240350228.45667171 0 0 0 0 -30957433.534573555 -169885318.05781877 0 -169885318.05781877 201121473.83547878 0 0 0 0 292698870.06557846 -574620821.42918396 0 -574620821.42918396 284070701.73030066 0 0 0 0 144617837.21485519 -180347034.77773833 0 -180347034.77773833 82668799.621022582 0 0 0 0 1233032.2966944538 -558099.81171290134 0 -558099.81171290134 -530191.26820145594 0 0 0 0 253512527.92856979 -155814519.33067083 0 -155814519.33067083 58961938.807073832 0 0 0 0 241952447.67628288 -174698207.83083034 0 -174698207.83083034 58686832.132716179 0 0 0 0 194546712.69700623 -97199861.709352255 0 -97199861.709352255 10246923.140160561 0 0 0 0 27128295.183366776 -44348931.903786778 0 -44348931.903786778 27107289.774941921 0 0 0 0 365329364.82972336 -132041103.4103713 0 -132041103.4103713 -84422821.877816319 0 0 0 0 334807381.78879547 -214258490.59748101 0 -214258490.59748101 -8874861.116494298 0 0 0 0 57805440.419651031 -146482.90864980221 0 -146482.90864980221 -24345816.727768898 0 0 0 0 584181114.40835571 -186668748.2418201 0 -186668748.2418201 -104341456.2042059 0 0 0 0 -150611314.3274107 -35933712.344731137 0 -35933712.344731137 -72994380.643914223 0 0 0 0 -197356.96469537448 50761.839990904555 0 50761.839990904555 453589.18194109213 0 0 0 0 355433689.34046936 -104006143.31919718 0 -104006143.31919718 -13528740.935585976 0 0 0 0 560204.8155497089 -222419.77415711246 0 -222419.77415711246 -250599.23648841982 0 0 0 0 425721831.7245369 -509118588.6412077 0 -509118588.6412077 399963730.67445731 0 0 0 0 613146454.76495361 10025597.468607187 0 10025597.468607187 -862812384.88724041 0 0 0 0 776772683.2508049 -499086910.19615209 0 -499086910.19615209 202920809.21207952 0 0 0 0 713885716.27561951 -74963654.430250168 0 -74963654.430250168 -795169578.17975664 0 0 0 0 520347104.8768692 -638250654.63823068 0 -638250654.63823068 662001807.70314538 0 0 0 0 864346861.7855072 196497281.8826859 0 196497281.8826859 -810838933.87867987 0 0 0 0 -517857458.56278992 70379677.389977813 0 70379677.389977813 -103732934.98926604 0 0 0 0 539776.8214159105 -394225.66687079833 0 -394225.66687079833 -209276.02964789077 0 0 0 0 301969047.64169693 -271807809.36292958 0 -271807809.36292958 127667247.05985594 0 0 0 0 644668387.67958832 -478328244.49812722 0 -478328244.49812722 248567186.07457018 0 0 0 0 173379120.78167963 -288042269.09913206 0 -288042269.09913206 393606634.16730785 0 0 0 0 526147899.08100891 -358133203.53844994 0 -358133203.53844994 134870990.09702468 0 0 0 0 611880379.21227598 -359181098.57563937 0 -359181098.57563937 160735723.0028832 0 0 0 0 466913812.44493866 -444539311.09854168 0 -444539311.09854168 116266396.69134864 0 0 0 0 388104622.18455887 -405523721.56930888 0 -405523721.56930888 203285827.34176677 0 0 0 0 378063837.92713547 -460685479.09367669 0 -460685479.09367669 231101136.60104954 0 0 0 0 375415180.34099197 -477013224.99972373 0 -477013224.99972373 135632762.60219616 0 0 0 0 94194764.359687805 -336711670.20975769 0 -336711670.20975769 190018851.82676473 0 0 0 0 394209763.83879471 -407591144.87166935 0 -407591144.87166935 128703335.01421294 0 0 0 0 694259384.01274109 -410488555.31002897 0 -410488555.31002897 79965311.930236995 0 0 0 0 356742374.59833336 -548887747.6480366 0 -548887747.6480366 129801060.70195186 0 0 0 0 -536689801.77783203 -399699985.01535153 0 -399699985.01535153 112856815.76841101 0 0 0 0 215527.3542382624 -318788.29937222507 0 -318788.29937222507 445056.52947935875 0 0 0 0 842999973.62966919 -587699449.25452769 0 -587699449.25452769 307261485.20462334 0 0 0 0 598773792.23662758 -334149175.89706397 0 -334149175.89706397 194225395.77041686 0 0 0 0 525231855.65113449 -332886485.44936097 0 -332886485.44936097 187609011.28493536 0 0 0 0 508251564.13105202 -347109796.45811212 0 -347109796.45811212 352597416.58068031 0 0 0 0 619667292.1506176 -278593473.43360448 0 -278593473.43360448 193026699.25748825 0 0 0 0 578738477.59553528 -63036681.96116668 0 -63036681.96116668 50110933.840669155 0 0 0 0 490398214.61509323 -407026278.19874501 0 -407026278.19874501 175089306.7090497 0 0 0 0 487420548.94343662 -373726327.0513463 0 -373726327.0513463 223266474.34231842 0 0 0 0 1402666365.6056042 49793301.196958989 0 49793301.196958989 63365992.440459847 0 0 0 0 94501859.593128204 -174269397.45361674 0 -174269397.45361674 -258582969.31850433 0 0 0 0 -351577603.89983559 -303147427.89440131 0 -303147427.89440131 -162573179.49123144 0 0 0 0 685368.93546103314 -903145.05469129607 0 -903145.05469129607 879339.58788473869 0 0 0 0 468306350.33080673 162793224.4238441 0 162793224.4238441 127227274.71710658 0 0 0 0 400794699.29259109 34832371.777066112 0 34832371.777066112 63970918.565892972 0 0 0 0 254234084.14028406 117719719.20549653 0 117719719.20549653 153761929.79907203 0 0 0 0 301633982.08699894 -42568488.628441572 0 -42568488.628441572 -121322692.9416585 0 0 0 0 182701529.38931274 -69288489.119560242 0 -69288489.119560242 -22078835.642279863 0 0 0 0 300767400.80241585 -9616358.4222208858 0 -9616358.4222208858 -261737108.56872892 0 0 0 0 277770610.63632965 37434627.223482132 0 37434627.223482132 -413371010.76566625 0 0 0 0 195471834.57016754 178892171.86695713 0 178892171.86695713 -473308017.43413067 0 0 0 0 235265583.07528114 -68358307.980196357 0 -68358307.980196357 -130664421.35848379 0 0 0 0 293785220.20695496 60099403.504269361 0 60099403.504269361 -210763247.39796233 0 0 0 0 201042385.83822632 20304021.382217407 0 20304021.382217407 -225858953.30284297 0 0 0 0 260079655.02735138 -9645251.3669574261 0 -9645251.3669574261 -359839395.29474258 0 0 0 0 183233708.84133911 -76282307.157426357 0 -76282307.157426357 -290121620.07792902 0 0 0 0 172171957.77819824 21156870.331114173 0 21156870.331114173 -215800057.62505078 0 0 0 0 -12781185.514007568 -135022776.70969105 0 -135022776.70969105 -102952802.02365398 0 0 0 0 317845868.02594376 -109243267.12507331 0 -109243267.12507331 -106955401.25858593 0 0 0 0 180389109.01850128 -88134254.971153677 0 -88134254.971153677 52857132.593949556 0 0 0 0 194939743.25223541 -351482410.56535959 0 -351482410.56535959 51145878.260601401 0 0 0 0 425720771.68878174 -301456206.860627 0 -301456206.860627 47911430.096385956 0 0 0 0 325591382.30759192 -218662423.78837886 0 -218662423.78837886 -192493740.15215492 0 0 0 0 93605221.028385162 -407075123.94072962 0 -407075123.94072962 -342956748.84244227 0 0 0 0 -120130456.82164764 -44077373.087671041 0 -44077373.087671041 -174878790.18365884 0 0 0 0 -39514117.590797424 -147044101.79779243 0 -147044101.79779243 -487284437.2550292 0 0 0 0 513939.80401673075 58591.961530243978 0 58591.961530243978 -358623.0148130689 0 0 0 0 -243562656.55864716 -195580835.2197051 0 -195580835.2197051 -47601581.681195259 0 0 0 0 311817.03233796731 -129994.69726460706 0 -129994.69726460706 -334821.42296179198 0 0 0 0 40130060.878265381 -230453718.25077415 0 -230453718.25077415 -561003369.98013365 0 0 0 0 32200434.50843811 66348582.477150559 0 66348582.477150559 -424816466.5902319 0 0 0 0 124208706.58017731 -62725673.17838943 0 -62725673.17838943 -230371506.26222086 0 0 0 0 -8546604.5912597179 -108449618.20269296 0 -108449618.20269296 -202358746.25573874 0 0 0 0 6454763.9007873535 -34670050.401766419 0 -34670050.401766419 -34395814.633358002 0 0 0 0 1831534.5905761719 -368890.4616740942 0 -368890.4616740942 -347567.78887200356 0 0 0 0 1087847.508208707 -1459894.44073381 0 -1459894.44073381 -478146.2589432454 0 0 0 0 -17937908.270179749 9043089.0955462456 0 9043089.0955462456 -42050406.224941365 0 0 0 0 3033898.2702605771 569379.95774489269 0 569379.95774489269 -1111497.6251710262 0 0 0 0 1480855.1425704956 -334844.45051264763 0 -334844.45051264763 -350845.89233085513 0 0 0 0 1531746.9421615601 -496820.78878474236 0 -496820.78878474236 -855871.15008044243 0 0 0 0 7152108.8531417847 17181680.016897798 0 17181680.016897798 -27932066.071410179 0 0 0 0 1542549.5185143705 -1460206.5525170313 0 -1460206.5525170313 -737314.12230044848 0 0 0 0 1000508.9560775757 -861324.32690262794 0 -861324.32690262794 -900544.5475704968 0 0 0 0 1625963.4867987633 -974405.06165775657 0 -974405.06165775657 -1894213.8313746452 0 0 0 0 1939828.3498306274 -692048.23248004913 0 -692048.23248004913 -2598988.162519455 0 0 0 0 1695093.0743232458 157819.91155055352 0 157819.91155055352 -1319185.3623063781 0 0 0 0 457388743.02360153 -11846020.234447062 0 -11846020.234447062 64623783.211218834 0 0 0 0 393467411.25202942 75202262.511526108 0 75202262.511526108 16515532.634719849 0 0 0 0 7289658.6934547424 -3508540.918241024 0 -3508540.918241024 7547092.4589416385 0 0 0 0 2020977.5042908154 -1534646.9454500191 0 -1534646.9454500191 -1033757.0295825704 0 0 0 0 1661416.3891613483 -323707.96618618071 0 -323707.96618618071 -1080004.0508565903 0 0 0 0 -11475278.455444336 -7067650.7041853666 0 -7067650.7041853666 6939585.3260466456 0 0 0 0 937276.86621070094 -66607.14357635472 0 -66607.14357635472 -1053173.3993047932 0 0 0 0 802430444.85286331 -111674272.38198638 0 -111674272.38198638 -294186977.231812 0 0 0 0 -1153264.4762496948 6890922.7785983086 0 6890922.7785983086 -51186010.351551771 0 0 0 0 19002770.724912643 8624810.173478961 0 8624810.173478961 -53525404.68089056 0 0 0 0 24266002.841312408 10218719.166797757 0 10218719.166797757 -223949743.76166749 0 0 0 0 143581132.58347321 24468404.319805145 0 24468404.319805145 -222826312.46543008 0 0 0 0 100658432.76061249 116701758.8972441 0 116701758.8972441 -345906562.16041183 0 0 0 0 123638325.21425438 -38820908.840785801 0 -38820908.840785801 -354266098.69074893 0 0 0 0 282699.53809843305 -90225.813718398102 0 -90225.813718398102 -439543.74208181904 0 0 0 0 -233871122.72232819 312528242.42136836 0 312528242.42136836 -265493276.68253136 0 0 0 0 -87781335.791496277 127016240.19220328 0 127016240.19220328 -131538938.21769762 0 0 0 0 85993944.529067993 107024027.02161145 0 107024027.02161145 -336392807.76985741 0 0 0 0 89645826.254698277 274154198.26826966 0 274154198.26826966 -475264835.59647083 0 0 0 0 266893530.8219986 -203888434.85538259 0 -203888434.85538259 -205118093.61105442 0 0 0 0 474913889.7002449 -483937847.36430013 0 -483937847.36430013 -202680212.13238251 0 0 0 0 168541443.54755402 -503107243.64697772 0 -503107243.64697772 -143515957.36704481 0 0 0 0 1403704.0371995941 -1918697.0762952082 0 -1918697.0762952082 1715758.6267744494 0 0 0 0 -18881014.066102982 -98454296.483177662 0 -98454296.483177662 -81610730.926209927 0 0 0 0 335810055.85801697 -146064399.14124262 0 -146064399.14124262 275886140.80019796 0 0 0 0 336102955.87907791 -177127520.06986153 0 -177127520.06986153 -613294598.38515437 0 0 0 0 420219339.19458008 -60690170.821795702 0 -60690170.821795702 -193643028.03935981 0 0 0 0 419121568.12722015 38954424.633036733 0 38954424.633036733 24014287.603348732 0 0 0 0 -248642745.40015411 209053303.37008238 0 209053303.37008238 -152881393.062819 0 0 0 0 -779995876.46349144 -447602139.36935693 0 -447602139.36935693 -19524452.906241894 0 0 0 0 -659986835.24135113 -1129115823.8674254 0 -1129115823.8674254 5789615.6772046089 0 0 0 0 710196102.19393921 -317567358.70869398 0 -317567358.70869398 -123215470.65344095 0 0 0 0 283385250.06856728 -1148516638.7348018 0 -1148516638.7348018 -284100087.27015686 0 0 0 0 410530628.93806076 -60826026.923867822 0 -60826026.923867822 14102473.327838421 0 0 0 0 443832245.94026184 -195865860.95215333 0 -195865860.95215333 392528481.89664602 0 0 0 0 356834804.16703033 133229145.56519914 0 133229145.56519914 183744091.1201787 0 0 0 0 785296.25202804618 -163519.39212520537 0 -163519.39212520537 -138836.65361127927 0 0 0 0 1156800295.7013741 372676912.33200967 0 372676912.33200967 -410989992.38948631 0 0 0 0 961894733.67530823 390400583.18339968 0 390400583.18339968 -388668118.96828938 0 0 0 0 -72313331.130893707 69350343.403370857 0 69350343.403370857 -86223348.501125336 0 0 0 0 1431224172.3604126 316521735.12691808 0 316521735.12691808 -467070873.17137623 0 0 0 0 -992667514.39756393 21791519.016317606 0 21791519.016317606 533973757.25219858 0 0 0 0 1260879089.0937347 255871855.3102026 0 255871855.3102026 -347152845.67798233 0 0 0 0 277381039.37985611 -68775618.391916037 0 -68775618.391916037 31047897.155942917 0 0 0 0 509698793.69738007 695963154.56940937 0 695963154.56940937 960926913.5559206 0 0 0 0 1167501.7256327402 -1883950.9093822152 0 -1883950.9093822152 2314294.2151204143 0 0 0 0 132905695.82524872 -244478989.06886673 0 -244478989.06886673 414331607.22544765 0 0 0 0 654295544.95344925 -353286328.18626404 0 -353286328.18626404 -314219.07219839096 0 0 0 0 291739543.84710461 -280751813.40081918 0 -280751813.40081918 -131664395.00571537 0 0 0 0 294868465.61201173 -167866850.86310247 0 -167866850.86310247 -95224677.048575401 0 0 0 0 350342272.26065063 -209420302.9127984 0 -209420302.9127984 -170884194.03519201 0 0 0 0 336742417.06211472 72122319.48285675 0 72122319.48285675 -75321233.869548798 0 0 0 0 208331620.39667892 -83863688.388264656 0 -83863688.388264656 -133158876.1344924 0 0 0 0 14356118.199467659 -36757537.140067816 0 -36757537.140067816 -92625975.249743462 0 0 0 0 228964194.47390747 -190000458.74329829 0 -190000458.74329829 -159221375.73618078 0 0 0 0 217695537.28167915 -282012960.99871868 0 -282012960.99871868 -210590158.60771179 0 0 0 0 178591294.4305954 -183106499.94969606 0 -183106499.94969606 -132236578.21909666 0 0 0 0 122994211.8350479 -174576507.00748414 0 -174576507.00748414 -117720146.58594131 0 0 0 0 113126343.11988068 -140391091.50253534 0 -140391091.50253534 -51859748.378648639 0 0 0 0 111653849.45110321 -61872425.005102158 0 -61872425.005102158 -81120638.52181685 0 0 0 0 101447521.74489403 -71765298.258148193 0 -71765298.258148193 -30763432.243510723 0 0 0 0 100948266.54701233 -91461604.312046289 0 -91461604.312046289 -137214516.14293957 0 0 0 0 95742798.305267334 -99256962.215598226 0 -99256962.215598226 -138446757.47589397 0 0 0 0 41777102.544643402 -123412707.22383261 0 -123412707.22383261 -121128128.87382841 0 0 0 0 -138435690.69931793 -89725578.824706316 0 -89725578.824706316 -87137661.807374954 0 0 0 0 22140788.781360626 -71244036.577275693 0 -71244036.577275693 -102535264.56853294 0 0 0 0 1121962.856785059 -1404562.4387962641 0 -1404562.4387962641 1055221.8527212827 0 0 0 0 37553793.57276535 478971443.7072618 0 478971443.7072618 -69269797.280887127 0 0 0 0 -191511416.99468803 -220529714.29357195 0 -220529714.29357195 -126310381.6398859 0 0 0 0 33217658.527885437 -119265047.51144052 0 -119265047.51144052 -170421169.58691216 0 0 0 0 33677536.18744278 -90806949.701770544 0 -90806949.701770544 -92852389.225689411 0 0 0 0 -57661320.183521271 -98980327.213281155 0 -98980327.213281155 -108557149.71449113 0 0 0 0 57009085.108257294 -116298071.38584089 0 -116298071.38584089 -181231307.39991331 0 0 0 0 -45268841.153018951 -139538308.27622843 0 -139538308.27622843 -198358687.33845532 0 0 0 0 157179369.72153091 -21288899.1870327 0 -21288899.1870327 -169951325.89745617 0 0 0 0 135731803.40875053 42773182.786285251 0 42773182.786285251 -68844813.95135951 0 0 0 0 159371964.22181511 42324525.206655025 0 42324525.206655025 -30615655.613930225 0 0 0 0 124401511.230793 -16928177.704703093 0 -16928177.704703093 -112665791.36767006 0 0 0 0 99051449.013277054 -20388099.574260116 0 -20388099.574260116 -85837987.475810051 0 0 0 0 185165420.04745865 73333172.437083125 0 73333172.437083125 98031710.827724934 0 0 0 0 157235696.95368576 96461370.481393337 0 96461370.481393337 92076838.066061139 0 0 0 0 134036857.08586121 47878382.359514475 0 47878382.359514475 8051924.2369663715 0 0 0 0 200969109.352314 138670561.0967052 0 138670561.0967052 -23871800.235108614 0 0 0 0 175096660.27440262 172515812.76842642 0 172515812.76842642 68925394.945604801 0 0 0 0 438407753.95619583 126252558.73397517 0 126252558.73397517 55974918.393518925 0 0 0 0 252429904.78531647 17231578.075150728 0 17231578.075150728 1848113.1783115864 0 0 0 0 391824214.35617161 -83097770.434423119 0 -83097770.434423119 -37716687.256194115 0 0 0 0 602499049.91681719 51687149.775415242 0 51687149.775415242 143555522.79291534 0 0 0 0 575321441.71986389 196292370.52739835 0 196292370.52739835 176890002.62867498 0 0 0 0 815455911.7110939 116858948.36232567 0 116858948.36232567 49130724.667026281 0 0 0 0 359322715.01977921 46444169.739629269 0 46444169.739629269 92682883.944339871 0 0 0 0 244332132.07254219 151880711.38048017 0 151880711.38048017 194691360.64345026 0 0 0 0 256996434.94666672 129181582.89158905 0 129181582.89158905 444254541.64623737 0 0 0 0 201169617.96464539 3981408.8580908775 0 3981408.8580908775 229348011.07507485 0 0 0 0 739819618.59939003 -112442951.05645418 0 -112442951.05645418 465514896.23040295 0 0 0 0 473128298.2705574 115731498.59807825 0 115731498.59807825 474999121.67896175 0 0 0 0 335368648.74685287 -91356385.431725502 0 -91356385.431725502 295844878.83245087 0 0 0 0 225830062.03598404 10333439.504687309 0 10333439.504687309 214570613.46489 0 0 0 0 33012486.132699966 -120987272.22169161 0 -120987272.22169161 226853468.69521189 0 0 0 0 80635942.864871979 -117029167.852561 0 -117029167.852561 112395105.10397243 0 0 0 0 160944847.48264313 47425158.353855491 0 47425158.353855491 197886297.99483585 0 0 0 0 89610074.00252533 -39833485.578428507 0 -39833485.578428507 112104674.61926091 0 0 0 0 115029814.17578411 -35990605.795616984 0 -35990605.795616984 62790674.234830379 0 0 0 0 47296620.845527649 -183134130.94503736 0 -183134130.94503736 29605452.42740345 0 0 0 0 122914763.97081169 -188430441.19679719 0 -188430441.19679719 -18116159.919267654 0 0 0 0 56603884.658346176 -264743313.31847399 0 -264743313.31847399 -61818289.754644394 0 0 0 0 49002954.486919403 -294007536.15156174 0 -294007536.15156174 -89292322.040377855 0 0 0 0 -232409716.36901426 -107878697.85949531 0 -107878697.85949531 -45677138.817705154 0 0 0 0 81395373.035867691 -128365382.54934156 0 -128365382.54934156 -45194069.793933868 0 0 0 0 -58424190.270511627 -262595074.19573212 0 -262595074.19573212 83590537.227308989 0 0 0 0 -185159308.40257263 -409084196.87533379 0 -409084196.87533379 -145063804.87974977 0 0 0 0 153191741.038517 -217405861.00854969 0 -217405861.00854969 -142380455.97307014 0 0 0 0 133261280.16305923 -314392968.43060732 0 -314392968.43060732 -479893775.91550303 0 0 0 0 11618331.774562836 -54302146.306460381 0 -54302146.306460381 116152996.82276058 0 0 0 0 23273242.54883194 -44581640.265440464 0 -44581640.265440464 -34418080.962581158 0 0 0 0 33901354.554386139 40090355.811406612 0 40090355.811406612 -169011292.92474174 0 0 0 0 23597360.887442589 38303139.838905096 0 38303139.838905096 -17867992.917547226 0 0 0 0 273776.77683879901 151428.98761430755 0 151428.98761430755 -616533.4766759621 0 0 0 0 2447348.4506072998 -14539617.838350058 0 -14539617.838350058 -9142098.0051307678 0 0 0 0 1819978.2445530631 -415396.06551833346 0 -415396.06551833346 -440651.36332886224 0 0 0 0 -8401844.7311468124 -7617317.9036916494 0 -7617317.9036916494 25424339.984347343 0 0 0 0 -55340676.44909668 -248357237.58732939 0 -248357237.58732939 -340411937.18533421 0 0 0 0 -52510797.530545115 -435518624.14530528 0 -435518624.14530528 97397284.467460632 0 0 0 0 347781.04704079777 -40629.550681406632 0 -40629.550681406632 -156294.79239147174 0 0 0 0 421806778.92600632 -218286308.53751683 0 -218286308.53751683 110886184.44826096 0 0 0 0 68707664.323268414 125564916.64890674 0 125564916.64890674 -410624996.42810321 0 0 0 0 -114932.80942024663 -73998.62230776879 0 -73998.62230776879 -13125.413882865876 0 0 0 0 2431701.4474771628 -259274.80981248023 0 -259274.80981248023 -901172.72437989525 0 0 0 0 -25350098.494007111 -156432120.74311197 0 -156432120.74311197 -326747852.71132851 0 0 0 0 950071.05232643522 461419.2883853754 0 461419.2883853754 -1974630.2958812809 0 0 0 0 16557199.33568573 -3896109.3794002533 0 -3896109.3794002533 -4838786.8850234747 0 0 0 0 -265932659.00135994 -506721305.59442759 0 -506721305.59442759 -472553612.03714228 0 0 0 0 112464619.68890381 -111692621.47722435 0 -111692621.47722435 -315989685.93032694 0 0 0 0 544292418.79504013 97588061.348672152 0 97588061.348672152 -412932757.68997169 0 0 0 0 141252237.66394424 -139910736.44081187 0 -139910736.44081187 -320971446.34817457 0 0 0 0 574224927.41057634 87439767.451277137 0 87439767.451277137 -278719585.45380592 0 0 0 0 593676794.18384933 -74308171.199687004 0 -74308171.199687004 -386121087.70325494 0 0 0 0 153093958.43684959 -162333532.33778226 0 -162333532.33778226 -82581938.475904942 0 0 0 0 189278971.09147644 -103874423.9420681 0 -103874423.9420681 -493904130.98052883 0 0 0 0 428330005.14657974 -65939488.365724087 0 -65939488.365724087 -94549501.586874485 0 0 0 0 58165510.88596344 -199714919.57544231 0 -199714919.57544231 222706848.98545346 0 0 0 0 602891253.71558762 -320769439.0593698 0 -320769439.0593698 275408443.39094448 0 0 0 0 756890634.79793549 -55419978.966505289 0 -55419978.966505289 -168990897.33913827 0 0 0 0 970343752.38507843 92278046.992757797 0 92278046.992757797 -110983263.99633694 0 0 0 0 751622321.0115242 317456289.87693322 0 317456289.87693322 -68988080.217077732 0 0 0 0 934096476.95166016 319248461.80355072 0 319248461.80355072 -70667527.703357577 0 0 0 0 754471894.39055252 91074241.439426064 0 91074241.439426064 -375251938.51637703 0 0 0 0 993768848.71508408 99165908.210798621 0 99165908.210798621 -380748597.92873192 0 0 0 0 734475025.75457001 -15440559.764113903 0 -15440559.764113903 -437092440.64816356 0 0 0 0 680954324.470047 147589522.78087425 0 147589522.78087425 -317102756.38403302 0 0 0 0 785103651.68344784 205928053.24486068 0 205928053.24486068 -399060333.38209152 0 0 0 0 806635522.58503723 146496025.31425726 0 146496025.31425726 -317774595.09312367 0 0 0 0 586464745.86836243 327565060.61034179 0 327565060.61034179 -202937642.92689505 0 0 0 0 749477817.05756378 220213464.84165138 0 220213464.84165138 -266032376.26139688 0 0 0 0 541204620.88295746 199205308.97393474 0 199205308.97393474 -22696109.512344807 0 0 0 0 565415515.7474823 124072122.55886985 0 124072122.55886985 -94853399.982062072 0 0 0 0 670572223.29096222 74985453.26247257 0 74985453.26247257 -193842403.27675152 0 0 0 0 691218431.86726379 -17715158.724392116 0 -17715158.724392116 -130658737.76264477 0 0 0 0 591347466.77862549 125146108.37488061 0 125146108.37488061 -148203263.71016786 0 0 0 0 1447721837.344305 254178736.02869591 0 254178736.02869591 -774297687.667431 0 0 0 0 2198704546.8653259 768599994.9405334 0 768599994.9405334 -575036845.26178026 0 0 0 0 649290215.45261765 439908388.28979087 0 439908388.28979087 -29761211.278278053 0 0 0 0 729273149.76210713 -218130918.77763671 0 -218130918.77763671 -879273748.6993084 0 0 0 0 770144212.25549698 263735111.01159489 0 263735111.01159489 -330310931.81870556 0 0 0 0 2204304889.2475967 312344791.26383561 0 312344791.26383561 -258994977.39003548 0 0 0 0 2858911.9869865756 134783.57268995326 0 134783.57268995326 -866259.52621223219 0 0 0 0 -138900691.72500229 -407829154.77009141 0 -407829154.77009141 -441028688.87495065 0 0 0 0 2200591091.1143532 314574275.68471014 0 314574275.68471014 -260154885.7488623 0 0 0 0 532231509.72342873 113116601.2007432 0 113116601.2007432 -242572107.54833126 0 0 0 0 525969704.27188873 36859812.419227839 0 36859812.419227839 -144096461.76566839 0 0 0 0 2708088.9733280716 512531.87146806112 0 512531.87146806112 -1290638.506987256 0 0 0 0 281330802.86136246 -442929613.18511367 0 -442929613.18511367 430392594.07178843 0 0 0 0 340919921.795578 -83239799.16707179 0 -83239799.16707179 29449284.301755428 0 0 0 0 4321246.8545625713 -4491541.0743577089 0 -4491541.0743577089 137354.42623960954 0 0 0 0 -147278208.02661896 -68648993.988143206 0 -68648993.988143206 105880812.07591665 0 0 0 0 34285666.505378723 61583183.383685231 0 61583183.383685231 11396389.123233959 0 0 0 0 -6478939.1330718994 -23656526.16715169 0 -23656526.16715169 -38660218.783074677 0 0 0 0 3750233.7606253037 -413171.19305978157 0 -413171.19305978157 485819.82612461963 0 0 0 0 2173822714.1516132 -177566171.08308357 0 -177566171.08308357 13579198.114011411 0 0 0 0 97051859.234668732 -3370008.7032928467 0 -3370008.7032928467 -53404504.545418024 0 0 0 0 10049592.191776276 -3326844.6773940325 0 -3326844.6773940325 -13690201.244070292 0 0 0 0 24539493.908512115 -35930826.522507668 0 -35930826.522507668 53921307.807187557 0 0 0 0 1041634.4113581002 1332.2778745810501 0 1332.2778745810501 -1692531.9224088467 0 0 0 0 2111317263.6825619 458475726.69792998 0 458475726.69792998 100111166.46917722 0 0 0 0 1290016.6058994373 -4524679.240372953 0 -4524679.240372953 -1953069.1616751954 0 0 0 0 3691057.610132806 -1881297.3934077688 0 -1881297.3934077688 -1561326.0325696836 0 0 0 0 43600771.43755722 9606293.8398532867 0 9606293.8398532867 -36461661.766747475 0 0 0 0 141131181.79853439 -235450365.407166 0 -235450365.407166 206389292.84593964 0 0 0 0 181835385.47621536 -131087645.69227171 0 -131087645.69227171 69287331.567926884 0 0 0 0 -46539265.856014252 -96788339.709148407 0 -96788339.709148407 160276989.97239971 0 0 0 0 3274258.6168592842 -2122527.036393885 0 -2122527.036393885 -1447533.9966306931 0 0 0 0 176763340.13807297 -41036103.082665443 0 -41036103.082665443 -7768559.1643819809 0 0 0 0 3493003.825252533 5927213.8384453654 0 5927213.8384453654 -6392105.3685486317 0 0 0 0 -21181480.611257553 14774317.853354216 0 14774317.853354216 -9017362.3647584915 0 0 0 0 2619600.9623277131 1154124.8623339338 0 1154124.8623339338 -2133473.0427165432 0 0 0 0 1471112015.6387711 696830260.92791557 0 696830260.92791557 11575205.932670593 0 0 0 0 170081153.08790588 143260182.9738636 0 143260182.9738636 323073525.90716267 0 0 0 0 677634215.61077881 792435367.47578478 0 792435367.47578478 696972208.06817055 0 0 0 0 1095516.4347049091 201988.42801953549 0 201988.42801953549 -222113.11036518874 0 0 0 0 1547369255.8762207 -411843146.32768512 0 -411843146.32768512 325721119.71802139 0 0 0 0 912830246.52193069 296508003.85786581 0 296508003.85786581 1291986632.4758997 0 0 0 0 1834393080.0642166 478350720.71330214 0 478350720.71330214 393546964.49556446 0 0 0 0 965408914.98620224 -44776345.005423546 0 -44776345.005423546 111275092.24512386 0 0 0 0 1020013105.3434677 393857149.02417564 0 393857149.02417564 411303544.82633823 0 0 0 0 -160457397.53356171 -34895410.039272308 0 -34895410.039272308 436299775.59459352 0 0 0 0 255835.55607490335 -137606.82847226271 0 -137606.82847226271 -223834.06644869898 0 0 0 0 502415440.49456024 -703617282.55182552 0 -703617282.55182552 987067262.6655283 0 0 0 0 2020639671.8439727 -696051793.43763638 0 -696051793.43763638 235456968.91228867 0 0 0 0 681540567.6071167 -306367625.95880127 0 -306367625.95880127 152768061.98446751 0 0 0 0 509555003.43034363 -454966102.35890293 0 -454966102.35890293 311034725.66869473 0 0 0 0 699331749.57339096 -302788366.80407476 0 -302788366.80407476 80593507.423273087 0 0 0 0 773178403.17403793 -260403554.00703859 0 -260403554.00703859 -108018159.27942297 0 0 0 0 673336006.28440094 -385071743.9647975 0 -385071743.9647975 75488931.029477745 0 0 0 0 579446252.4376812 -285638253.35223269 0 -285638253.35223269 6417986.0039730072 0 0 0 0 681909485.12700653 -360507661.39743519 0 -360507661.39743519 136972540.12288451 0 0 0 0 805208338.1260643 -252376015.80459642 0 -252376015.80459642 -252808865.4601965 0 0 0 0 1355688276.4406013 -199872660.97361088 0 -199872660.97361088 -103212522.56508589 0 0 0 0 924657434.31185865 -199032403.81579745 0 -199032403.81579745 -200284287.77771139 0 0 0 0 704032173.6432724 -196039530.0270443 0 -196039530.0270443 -153728255.97265488 0 0 0 0 662207580.83945465 -237964983.64973855 0 -237964983.64973855 -190534818.33967257 0 0 0 0 725896682.14044952 -340722195.08701849 0 -340722195.08701849 -249973864.39998484 0 0 0 0 739155321.49995232 -354759674.37071252 0 -354759674.37071252 -296167521.02495241 0 0 0 0 705770821.83790207 -282070818.25365829 0 -282070818.25365829 -396916682.17649317 0 0 0 0 762017042.78439713 -233185715.46448672 0 -233185715.46448672 -380201890.29708338 0 0 0 0 436173491.6102829 -71843888.708960533 0 -71843888.708960533 -375353664.04616946 0 0 0 0 -28367105.044719696 167992116.96998787 0 167992116.96998787 -229587516.26935816 0 0 0 0 364729.38677133678 104389.71925240476 0 104389.71925240476 -590591.48036687169 0 0 0 0 438208425.68309402 167317547.82939863 0 167317547.82939863 -867244971.58541846 0 0 0 0 2272503452.7083435 105778249.09719014 0 105778249.09719014 -542389753.93074238 0 0 0 0 180045982.20819855 -53314685.093650818 0 -53314685.093650818 -5248259.1160202026 0 0 0 0 2203983998.5658031 234315720.64536968 0 234315720.64536968 206049327.25925741 0 0 0 0 78799447.153484344 -25409795.961605787 0 -25409795.961605787 514470.4627456665 0 0 0 0 128465361.42055511 -146243902.21517324 0 -146243902.21517324 93079656.760469437 0 0 0 0 365370022.52345657 -217313320.07555246 0 -217313320.07555246 -14317777.352951527 0 0 0 0 712161258.71353722 -314729724.20172262 0 -314729724.20172262 -169720141.28366089 0 0 0 0 181280899.17685318 -37526192.898642063 0 -37526192.898642063 -113370857.2864027 0 0 0 0 369489019.09633923 -152228287.81114233 0 -152228287.81114233 -47546529.32545948 0 0 0 0 1746058462.9581337 -377532965.86927098 0 -377532965.86927098 37142225.90992929 0 0 0 0 1828503176.516243 -166279347.72350946 0 -166279347.72350946 -237868264.01187605 0 0 0 0 2204449004.960743 92227033.226963818 0 92227033.226963818 -429488522.78032815 0 0 0 0 1655963074.6905899 -89974149.51329121 0 -89974149.51329121 -239207004.40826285 0 0 0 0 1666790816.4467697 -170071766.6205475 0 -170071766.6205475 -197969569.36454031 0 0 0 0 35272152.041801453 -94634910.772486925 0 -94634910.772486925 -33413884.937885404 0 0 0 0 1507609425.756691 -171513121.26347616 0 -171513121.26347616 -140297993.15111685 0 0 0 0 -61164461.68780899 -25995048.22729665 0 -25995048.22729665 2236823.4387100935 0 0 0 0 353592.06339870254 -171778.38597058877 0 -171778.38597058877 -182237.80605158638 0 0 0 0 -1925156.4633712769 -12453518.434120119 0 -12453518.434120119 -5137184.8298227787 0 0 0 0 7497921.8489379883 -21574094.490272164 0 -21574094.490272164 1574575.7018239945 0 0 0 0 1004422.6404436706 -465442.91892195307 0 -465442.91892195307 -505358.49144981644 0 0 0 0 23390522.900165558 -16734536.533439755 0 -16734536.533439755 -11527801.699120522 0 0 0 0 20745798.879920959 -5492813.7622626424 0 -5492813.7622626424 -49576326.676467657 0 0 0 0 5150797.4018001314 2920246.7913187547 0 2920246.7913187547 -209584.20719365572 0 0 0 0 5124707.2411346436 1784383.8241349459 0 1784383.8241349459 -25573004.421867251 0 0 0 0 10488443.774524689 12375942.449552417 0 12375942.449552417 -5806625.7526352406 0 0 0 0 7271413.5018234253 -5920557.6700907946 0 -5920557.6700907946 -591652.66987383366 0 0 0 0 1831801323.9771347 -578637483.66912234 0 -578637483.66912234 -12374964.727131315 0 0 0 0 1579057482.0986423 -429268487.42087525 0 -429268487.42087525 27402853.066285551 0 0 0 0 2204254733.6741867 -416205367.64112866 0 -416205367.64112866 -191145399.22056857 0 0 0 0 2206227953.4010315 -695973941.96985424 0 -695973941.96985424 -75229807.224069268 0 0 0 0 1886115480.3991318 -461689599.764112 0 -461689599.764112 -157522499.72023952 0 0 0 0 1876069011.3107328 -664762760.34355342 0 -664762760.34355342 444866580.82549393 0 0 0 0 1786923808.6906376 -1171721793.2634239 0 -1171721793.2634239 624294908.53703594 0 0 0 0 2998247901.1456451 -609835295.20876646 0 -609835295.20876646 434512844.65177816 0 0 0 0 1678068.2542408439 -602853.70737080835 0 -602853.70737080835 -948965.05801442289 0 0 0 0 972882205.41485214 -503266013.06760281 0 -503266013.06760281 305181443.87953138 0 0 0 0 63596350.465295792 149932853.1626617 0 149932853.1626617 389311625.52851534 0 0 0 0 -608829832.29119492 169350903.08874965 0 169350903.08874965 -549071920.22558641 0 0 0 0 -1082099324.5328903 241603165.05767787 0 241603165.05767787 337738099.52208352 0 0 0 0 393692.51161499973 172414.06607014872 0 172414.06607014872 38058.842457858846 0 0 0 0 -577397041.61433411 899719361.62948656 0 899719361.62948656 914981803.18885875 0 0 0 0 2605018880.2736664 765773199.96382546 0 765773199.96382546 -436424615.27956092 0 0 0 0 2201997794.4223785 70966350.523524418 0 70966350.523524418 1279248195.6231592 0 0 0 0 2249041822.9155121 -1208593047.656549 0 -1208593047.656549 619088664.52416873 0 0 0 0 1363605.270158669 205675.33302422985 0 205675.33302422985 -76495.163548465789 0 0 0 0 837377918.74913025 -307142449.19943941 0 -307142449.19943941 -1073112704.7018361 0 0 0 0 1185886439.8762817 1404637698.142103 0 1404637698.142103 637670727.87888551 0 0 0 0 127950632.03762817 825324231.99635875 0 825324231.99635875 714402895.97641289 0 0 0 0 10552.808287905529 1028940.4977768317 0 1028940.4977768317 710806.84171961702 0 0 0 0 -637621150.29754066 30170239.058161199 0 30170239.058161199 270905961.46106672 0 0 0 0 -326486288.31121826 -463051089.68216121 0 -463051089.68216121 -481977422.17082024 0 0 0 0 127211807.68897629 -87497893.678983808 0 -87497893.678983808 -267551113.31147623 0 0 0 0 375310483.79086304 556526391.78123057 0 556526391.78123057 393720613.95398062 0 0 0 0 -531993250.72713089 228614748.15168065 0 228614748.15168065 453524789.97552097 0 0 0 0 537584470.07643509 441041348.96875405 0 441041348.96875405 -28667547.599563718 0 0 0 0 -50474665.039093018 179264672.15790588 0 179264672.15790588 175521250.13046464 0 0 0 0 426353128.09382629 381250184.23739874 0 381250184.23739874 218965733.13769206 0 0 0 0 2202475710.3776498 1277176891.9327826 0 1277176891.9327826 -165141435.77227929 0 0 0 0 1085864787.1992264 948174499.95191145 0 948174499.95191145 215484670.12491438 0 0 0 0 1421741750.8245468 689834980.3156575 0 689834980.3156575 -510981233.28857124 0 0 0 0 229187773.43367767 735525510.08514476 0 735525510.08514476 275389209.71826339 0 0 0 0 450375425.22858429 122098635.0830929 0 122098635.0830929 29354664.653202057 0 0 0 0 504479445.28888702 258697.32481631637 0 258697.32481631637 -102047517.71952471 0 0 0 0 582843661.0855751 112195572.40672277 0 112195572.40672277 -90843220.149912477 0 0 0 0 593261490.87452698 123142745.38759428 0 123142745.38759428 -84797732.88394326 0 0 0 0 606105406.29172134 91776446.480517462 0 91776446.480517462 -83565071.663954556 0 0 0 0 295457180.53271484 175287310.20239791 0 175287310.20239791 -9474486.509771049 0 0 0 0 521571984.47431564 65135295.451363295 0 65135295.451363295 7137391.7090926766 0 0 0 0 584052520.91041565 111746021.21152401 0 111746021.21152401 -175976637.59278059 0 0 0 0 317748212.9202652 32334042.856483936 0 32334042.856483936 2502029.2020756006 0 0 0 0 99496245.152191162 -25878641.693194866 0 -25878641.693194866 -57411491.490940809 0 0 0 0 366419188.51457214 105524067.89609444 0 105524067.89609444 -2043988.7724981308 0 0 0 0 434535626.83328247 -53268235.050781846 0 -53268235.050781846 -344356877.77276683 0 0 0 0 465882887.82863617 505841346.57681465 0 505841346.57681465 -308923476.1003505 0 0 0 0 335120.47835811693 -301808.23235372966 0 -301808.23235372966 -39346.771692361042 0 0 0 0 877368458.14150047 281441703.39780498 0 281441703.39780498 -4279456.9151935577 0 0 0 0 644422998.90301895 -7854065.1874092221 0 -7854065.1874092221 55587714.426084757 0 0 0 0 255315893.99191284 -160460671.81830838 0 -160460671.81830838 80427729.88069725 0 0 0 0 466404794.64479065 475033293.60661352 0 475033293.60661352 266155730.18801564 0 0 0 0 473888934.65754795 420464800.62148452 0 420464800.62148452 354306488.92616272 0 0 0 0 196432675.32711029 -88342365.544626236 0 -88342365.544626236 108879836.98441815 0 0 0 0 469434443.16851425 233926118.25891125 0 233926118.25891125 -891495046.57562602 0 0 0 0 -769417267.04866028 545241214.42528129 0 545241214.42528129 307637582.2187506 0 0 0 0 367053.14604745433 658644.59599539847 0 658644.59599539847 410405.79144905513 0 0 0 0 989663240.58760834 515820143.92316377 0 515820143.92316377 -433257612.3450985 0 0 0 0 216213706.22367859 989402093.68891025 0 989402093.68891025 241638970.62568837 0 0 0 0 183518572.65116501 866732487.01075768 0 866732487.01075768 -709495134.20286059 0 0 0 0 4637903.2707708292 2855382.1143624261 0 2855382.1143624261 59288.632625368424 0 0 0 0 9387777.6402387619 -30175.225114554167 0 -30175.225114554167 -8266743.7347476482 0 0 0 0 -320124058.41566467 620847521.70409131 0 620847521.70409131 -395900200.26724988 0 0 0 0 144209385.88225937 -123279858.15725553 0 -123279858.15725553 -831686969.16853714 0 0 0 0 141195859.67683887 -223099810.82818797 0 -223099810.82818797 -266490554.4382329 0 0 0 0 188334292.81063604 148531553.59314686 0 148531553.59314686 -260292116.7350564 0 0 0 0 -247771466.43299103 -139974184.77488899 0 -139974184.77488899 -420687899.23000026 0 0 0 0 57658811.721635818 -75947263.374702394 0 -75947263.374702394 -467052606.5353837 0 0 0 0 -41706822.442417145 31894653.499266028 0 31894653.499266028 -197813936.98138213 0 0 0 0 -9735606.9362411499 38913170.14100647 0 38913170.14100647 -404809641.31812835 0 0 0 0 127832973.34146118 165688650.73847052 0 165688650.73847052 -458108063.05038881 0 0 0 0 -4160152.4443817139 -99953480.13457942 0 -99953480.13457942 -199217641.14838505 0 0 0 0 105964536.39414573 -18440075.771292813 0 -18440075.771292813 -139063159.14734983 0 0 0 0 -9909871.3390426636 -92137017.499744892 0 -92137017.499744892 -52451553.994683623 0 0 0 0 -32769245.872806549 -67633943.750632435 0 -67633943.750632435 44864889.180732727 0 0 0 0 41038223.523017883 -37346721.302546501 0 -37346721.302546501 6433799.9605736732 0 0 0 0 6069683.6646232605 -116233002.42675173 0 -116233002.42675173 -132727398.13804895 0 0 0 0 -20295806.732574463 -23429206.754459739 0 -23429206.754459739 28212909.080120683 0 0 0 0 -5416868.1170539856 -2328167.9173094034 0 -2328167.9173094034 24596911.5589993 0 0 0 0 -3905615.1816902161 15855897.204558253 0 15855897.204558253 149034673.11509585 0 0 0 0 8263006.1406478882 -16017399.789223671 0 -16017399.789223671 12520051.097906828 0 0 0 0 -7904307.053527832 -16368303.869600058 0 -16368303.869600058 52240406.44564715 0 0 0 0 -10632012.411763191 -28039002.460014939 0 -28039002.460014939 4871598.3283550739 0 0 0 0 1142632.0801773071 -2032614.9895404279 0 -2032614.9895404279 11453583.30928874 0 0 0 0 917389.47820568085 -7306144.8637023866 0 -7306144.8637023866 6746002.4173283577 0 0 0 0 1116932.9326684307 -1957374.3909066054 0 -1957374.3909066054 -438709.24080962699 0 0 0 0 -128534611.80363083 -11172555.74661994 0 -11172555.74661994 -3986234.7463721633 0 0 0 0 281581491.19180679 38610094.687869847 0 38610094.687869847 4293299.5543311834 0 0 0 0 1047667.8638887405 -1944795.5147475302 0 -1944795.5147475302 15228982.514802217 0 0 0 0 923966.4141248744 -913441.38797609089 0 -913441.38797609089 -95306.218964294647 0 0 0 0 857437.92983627319 -6103861.2259066403 0 -6103861.2259066403 20324769.299000978 0 0 0 0 290318330.67198944 9594205.3702289462 0 9594205.3702289462 -5564607.2860367894 0 0 0 0 -225786982.22489548 -84464562.739330053 0 -84464562.739330053 71090448.695816517 0 0 0 0 -207006505.35918427 -266782151.76521039 0 -266782151.76521039 491285305.15527153 0 0 0 0 -276433900.51022911 -86677971.888390541 0 -86677971.888390541 122059458.85690689 0 0 0 0 -114938541.18332672 -119327485.35296249 0 -119327485.35296249 31318103.804895401 0 0 0 0 6562986.5892176628 -6736643.8278605118 0 -6736643.8278605118 -260214.13711547852 0 0 0 0 -507354160.73899442 -46019576.090194568 0 -46019576.090194568 750918690.59916782 0 0 0 0 1215281.2959260046 -1849270.4863924275 0 -1849270.4863924275 -365738.05432330957 0 0 0 0 -494105007.7122345 490670712.20603347 0 490670712.20603347 53884387.083157554 0 0 0 0 -41889499.185001373 105683116.52300709 0 105683116.52300709 41203909.173884869 0 0 0 0 298453.21336046606 -465869.85615356127 0 -465869.85615356127 -26895.702851006121 0 0 0 0 20878424.979469299 -6491041.9248883724 0 -6491041.9248883724 -256010.82007602602 0 0 0 0 20670704.587505341 -11631288.98809135 0 -11631288.98809135 -14503455.702836752 0 0 0 0 102761075.50745106 56002144.609822914 0 56002144.609822914 -4154587.0021052361 0 0 0 0 -76328237.345863342 -179756096.8933531 0 -179756096.8933531 -344216814.4666937 0 0 0 0 33258.435791982338 -142733.88468234614 0 -142733.88468234614 21781.163126751315 0 0 0 0 42776360.219081879 108444772.33056962 0 108444772.33056962 -223273685.75562751 0 0 0 0 -70616422.821968079 82910944.792983234 0 82910944.792983234 -419701472.95633334 0 0 0 0 -2936988.4251303673 -125396508.87186058 0 -125396508.87186058 -197015485.71590757 0 0 0 0 -10623416.481164932 37563236.931876183 0 37563236.931876183 58013283.926855087 0 0 0 0 51972611.304380417 26721808.137819052 0 26721808.137819052 -25867720.169425011 0 0 0 0 -4285540.5400753021 -3616408.7416990995 0 -3616408.7416990995 -36328555.427991867 0 0 0 0 26641206.978113174 47362671.9877702 0 47362671.9877702 -44540142.440356255 0 0 0 0 7192274.7318910304 -146607.26850289106 0 -146607.26850289106 -1366829.3436968816 0 0 0 0 -10964044.161888123 41071954.543937564 0 41071954.543937564 -36663004.388847589 0 0 0 0 -853088.06041181833 995582.94780828734 0 995582.94780828734 -183380.41673432666 0 0 0 0 8027453.8483734131 -13835957.05229044 0 -13835957.05229044 -17160556.687572122 0 0 0 0 122735518.98953629 -111531798.02519059 0 -111531798.02519059 -840264024.19979656 0 0 0 0 -1325962.1805295963 3340957.3682512818 0 3340957.3682512818 -624351.48205806478 0 0 0 0 68600317.693229675 -22925695.16304177 0 -22925695.16304177 -673989005.36235094 0 0 0 0 -10858704.86691618 31749502.103676081 0 31749502.103676081 -273954.3778796196 0 0 0 0 8136685.5441015251 926806.34745653812 0 926806.34745653812 -1057579.8492338541 0 0 0 0 272656.61070400849 1041667.2790744813 0 1041667.2790744813 -201560.45432301323 0 0 0 0 96406737.781188965 228052952.93450075 0 228052952.93450075 -908295672.28933203 0 0 0 0 19736745.412643433 -11378710.095230937 0 -11378710.095230937 -60780073.990577936 0 0 0 0 -129296300.47467804 158448008.00814843 0 158448008.00814843 -474232684.7015574 0 0 0 0 24930756.633758545 -13634835.485225141 0 -13634835.485225141 -39827110.455691695 0 0 0 0 -1821772.1971511841 9033830.4546689391 0 9033830.4546689391 -51765440.412631512 0 0 0 0 51408280.015426636 9862464.1544800997 0 9862464.1544800997 -52257638.531684935 0 0 0 0 21385434.733016968 32530084.515713692 0 32530084.515713692 -64680224.758030772 0 0 0 0 3541976.1169052124 7532430.4383126497 0 7532430.4383126497 -50443710.255575657 0 0 0 0 18925285.38369751 33324471.980517805 0 33324471.980517805 -17871289.773538947 0 0 0 0 18473192.902183533 16210862.096436501 0 16210862.096436501 -15455446.575142778 0 0 0 0 -1154336.2031173706 37187528.559743404 0 37187528.559743404 9554000.0898015499 0 0 0 0 112062255.39707184 5669567.6207309961 0 5669567.6207309961 -36000563.319921896 0 0 0 0 45417725.227897644 56920559.458055347 0 56920559.458055347 45396591.68890059 0 0 0 0 71135.507263183594 -4531208.5332344547 0 -4531208.5332344547 84600067.460892677 0 0 0 0 2807872.0864639282 -2710156.5925994739 0 -2710156.5925994739 16958076.762174331 0 0 0 0 -9092814.254486084 13036855.740660906 0 13036855.740660906 -551897.93857014179 0 0 0 0 -13990889.937255859 10303336.961598039 0 10303336.961598039 33999566.262701035 0 0 0 0 -15732127.385902405 12052311.834289521 0 12052311.834289521 9336161.2230684161 0 0 0 0 -15543480.964174271 13703230.849904656 0 13703230.849904656 -97974.711064100266 0 0 0 0 -12555630.30146122 21178550.055028632 0 21178550.055028632 -13350656.768453121 0 0 0 0 1835857.1862640381 20772264.120854735 0 20772264.120854735 -30214165.421469599 0 0 0 0 4921000.8393330984 -2191580.5258815517 0 -2191580.5258815517 -1563197.3829504144 0 0 0 0 -59163331.927894592 75675864.667471886 0 75675864.667471886 -85488966.667738914 0 0 0 0 -53094470.077445984 75363780.764585495 0 75363780.764585495 -97765835.760408401 0 0 0 0 -58610673.615753174 105915668.65724277 0 105915668.65724277 -87598685.695167065 0 0 0 0 -25881716.870372772 66258224.392246246 0 66258224.392246246 -83059480.765596271 0 0 0 0 6065632.6054041572 -1163457.0679652095 0 -1163457.0679652095 -1521153.3778334088 0 0 0 0 -9174434.8185806274 9759009.5417238176 0 9759009.5417238176 -4495468.8454314172 0 0 0 0 -6609623.0720481873 3718628.9265392423 0 3718628.9265392423 4648875.5637588501 0 0 0 0 -6887733.4616241455 3577152.3012237549 0 3577152.3012237549 5098323.1140634418 0 0 0 0 -5351151.9213790894 4053383.5298125744 0 4053383.5298125744 3044308.5513118505 0 0 0 0 -7281920.7702407837 2161332.7159023881 0 2161332.7159023881 4514939.0642960072 0 0 0 0 -55217.616683959961 3015191.78358078 0 3015191.78358078 3092669.7462612391 0 0 0 0 8350808.7430419922 -1749413.6298537254 0 -1749413.6298537254 1176808.1430473328 0 0 0 0 -2535337.2540740967 1414997.1276122928 0 1414997.1276122928 4130060.8258533478 0 0 0 0 -880213.89431762695 -2225947.487300396 0 -2225947.487300396 2255033.2011578083 0 0 0 0 -2267266.3117074966 -1873701.4135030508 0 -1873701.4135030508 2321885.1101708412 0 0 0 0 21554437.035552979 67547789.4936409 0 67547789.4936409 -231296373.05655479 0 0 0 0 2764388.3223419189 -4458951.0096442103 0 -4458951.0096442103 1398068.2888162136 0 0 0 0 -2319592.4069519043 -4668326.4604378939 0 -4668326.4604378939 1591173.2449874282 0 0 0 0 3219702.8429368977 -3691094.3254244463 0 -3691094.3254244463 -1324140.0189526679 0 0 0 0 1524138.2061462402 -8183469.8815487623 0 -8183469.8815487623 3701505.4607555866 0 0 0 0 -48190.638641357422 -7987829.7610099316 0 -7987829.7610099316 4026122.3691643476 0 0 0 0 90496.93212980032 -122742.08573070727 0 -122742.08573070727 125100.79900533293 0 0 0 0 25011289.504089355 93172643.13463974 0 93172643.13463974 -226623075.6182785 0 0 0 0 6593534.1580810547 -1185350.3273749352 0 -1185350.3273749352 1186380.3476905227 0 0 0 0 -286532.45553588867 -1174332.4067403078 0 -1174332.4067403078 1334306.3276216984 0 0 0 0 3140718.384552002 -5338629.4600658417 0 -5338629.4600658417 1773424.2283782959 0 0 0 0 4121381.5432739258 -5994966.3361442089 0 -5994966.3361442089 1717262.6690182686 0 0 0 0 595802.81399536133 -5848332.8868892193 0 -5848332.8868892193 1971273.4571606517 0 0 0 0 1538607.6249542236 -7185864.46933496 0 -7185864.46933496 2512489.2250022888 0 0 0 0 1413400.6558227539 -7391601.7785360813 0 -7391601.7785360813 2114406.468539238 0 0 0 0 -540260.06964111328 -7705137.5149140358 0 -7705137.5149140358 3092950.0686199218 0 0 0 0 399529.20965576172 -6698310.0141946077 0 -6698310.0141946077 1756528.835078001 0 0 0 0 599998.58239746094 -8144560.8487653732 0 -8144560.8487653732 3059388.0210253745 0 0 0 0 -149279.51607513428 -7427478.6441971064 0 -7427478.6441971064 2489166.2044801712 0 0 0 0 48316.772033691406 -7463011.3870363235 0 -7463011.3870363235 2666465.1372437477 0 0 0 0 2338044.0566711426 -8173645.9646078944 0 -8173645.9646078944 2740412.1697897911 0 0 0 0 35461335.19619751 86088748.984107971 0 86088748.984107971 -220760233.700158 0 0 0 0 35407055.855285645 92354015.235809326 0 92354015.235809326 -213367036.60617256 0 0 0 0 30813867.490844727 83455940.601436615 0 83455940.601436615 -198530883.14317322 0 0 0 0 29241102.465789795 82755201.666893005 0 82755201.666893005 -201893539.56596375 0 0 0 0 31490159.151611328 80603033.462276459 0 80603033.462276459 -215784265.09128666 0 0 0 0 18829227.714477539 66085411.328598022 0 66085411.328598022 -221088553.26064718 0 0 0 0 13341052.737762451 68684547.772529602 0 68684547.772529602 -205740947.95031738 0 0 0 0 -7716906.4007415771 47312644.506141663 0 47312644.506141663 -221876738.08604431 0 0 0 0 -22926975.947662354 42539250.498603821 0 42539250.498603821 -210981154.16770172 0 0 0 0 9100797.3110733032 -4216556.4095878005 0 -4216556.4095878005 1647669.5301675797 0 0 0 0 5808386.7808227539 -7118375.5660479069 0 -7118375.5660479069 2407566.4699654579 0 0 0 0 1380061.068359375 -9782667.2100116014 0 -9782667.2100116014 16936542.439452648 0 0 0 0 -45301154.240570068 11083385.679555893 0 11083385.679555893 -162406582.99376678 0 0 0 0 1055177.1788024902 -4767259.9904000312 0 -4767259.9904000312 2455362.6525790691 0 0 0 0 854873.13497924805 -5357642.5363438129 0 -5357642.5363438129 5726005.75200212 0 0 0 0 -56480222.844909668 88722122.713752747 0 88722122.713752747 -185709539.82392883 0 0 0 0 -77435923.21937561 53414136.191225052 0 53414136.191225052 -164527975.65765381 0 0 0 0 -282099.61465454102 -7512561.3490107059 0 -7512561.3490107059 4303827.7400599718 0 0 0 0 569773.21990966797 -6321110.4117958546 0 -6321110.4117958546 4581313.0385450125 0 0 0 0 -460530.57244873047 -7611630.7551107407 0 -7611630.7551107407 3436724.8506784439 0 0 0 0 -17957157.442260742 101718250.10270691 0 101718250.10270691 -200270694.19422913 0 0 0 0 32302747.608681917 82232235.27011995 0 82232235.27011995 -197853199.78580475 0 0 0 0 32394329.214172363 92664766.396247864 0 92664766.396247864 -209899319.34558868 0 0 0 0 7364164.4072570801 79009684.677207947 0 79009684.677207947 -191142068.1009903 0 0 0 0 34052471.501312256 83971310.818946838 0 83971310.818946838 -201878465.23763275 0 0 0 0 4286803.3523254395 99587064.880012512 0 99587064.880012512 -204869485.89902115 0 0 0 0 -3467911.0751800537 71103861.586023331 0 71103861.586023331 -180471685.56298828 0 0 0 0 -5931823.9663085938 38374337.688737869 0 38374337.688737869 -166065246.52972412 0 0 0 0 -23921251.560150146 62760626.471427917 0 62760626.471427917 -179334913.49456787 0 0 0 0 28580104.707183838 50175400.957145691 0 50175400.957145691 -179094740.5815832 0 0 0 0 12431548.817947388 36333843.322170258 0 36333843.322170258 -179730575.19340897 0 0 0 0 44208830.909820557 13575797.132968903 0 13575797.132968903 -173798043.38929343 0 0 0 0 25418938.366729736 -9272789.3001251221 0 -9272789.3001251221 -165274637.31440735 0 0 0 0 -21083571.930938721 24032032.222915649 0 24032032.222915649 -174442336.44746208 0 0 0 0 82094037.047515869 30649612.658725739 0 30649612.658725739 -182743978.44032097 0 0 0 0 71981486.832885742 32495593.743662834 0 32495593.743662834 -179863369.0126915 0 0 0 0 62385204.787261963 24881870.349533081 0 24881870.349533081 -177477148.23923302 0 0 0 0 35863086.369987488 60612060.23309803 0 60612060.23309803 -185823030.31111908 0 0 0 0 83926674.513870239 46184229.095184326 0 46184229.095184326 -181501890.66842556 0 0 0 0 56292234.408882141 77833909.037448883 0 77833909.037448883 -173554515.51232147 0 0 0 0 35269516.48248291 84512984.433193207 0 84512984.433193207 -196498459.9291935 0 0 0 0 41582730.856719971 63860425.156433105 0 63860425.156433105 -184464515.02306747 0 0 0 0 34793178.792327881 76138093.772514343 0 76138093.772514343 -183322963.33394241 0 0 0 0 38584835.116493225 86695816.930265427 0 86695816.930265427 -197183477.63909912 0 0 0 0 44551173.446941376 92084104.658988953 0 92084104.658988953 -173253525.98436737 0 0 0 0 53362009.880142212 72200097.095123291 0 72200097.095123291 -184259844.28992367 0 0 0 0 66653009.376350403 113639037.16920853 0 113639037.16920853 -151934041.52104187 0 0 0 0 93737975.96307373 69208980.767154694 0 69208980.767154694 -172027226.23220396 0 0 0 0 139226144.78817749 31548512.445130348 0 31548512.445130348 -181353723.17237091 0 0 0 0 89570379.637733459 65641966.669663429 0 65641966.669663429 -172403520.04085159 0 0 0 0 -55787401.164699554 63748628.044661522 0 63748628.044661522 -141495196.48599243 0 0 0 0 -14325556.375366211 80242752.26140976 0 80242752.26140976 -149189886.29267883 0 0 0 0 -34668724.025054932 74613337.383037567 0 74613337.383037567 -134969384.31762314 0 0 0 0 -40765735.897674561 88583696.047138214 0 88583696.047138214 -105598630.54203033 0 0 0 0 -41123565.988204956 43590892.572431564 0 43590892.572431564 -183702234.92253113 0 0 0 0 -31328274.18069458 58596304.843082428 0 58596304.843082428 -161211735.83111572 0 0 0 0 -9050094.6273193359 63213275.563690186 0 63213275.563690186 -180864888.48799133 0 0 0 0 -4151031.8229827881 57068896.397063255 0 57068896.397063255 -197496875.30896759 0 0 0 0 10802474.752178192 68656797.837865829 0 68656797.837865829 -196720897.47481537 0 0 0 0 7640255.2413635254 75046816.801837921 0 75046816.801837921 -174765689.70454407 0 0 0 0 24422047.779174805 78700425.899669647 0 78700425.899669647 -182029509.54856491 0 0 0 0 25506693.583404541 83320797.458057404 0 83320797.458057404 -184663084.46332169 0 0 0 0 -474691.14562988281 79770450.979539871 0 79770450.979539871 -160022312.09577179 0 0 0 0 20745937.399658203 92863481.770244598 0 92863481.770244598 -155821365.95372772 0 0 0 0 -8286699.1739120483 69400365.662456512 0 69400365.662456512 -173446339.59075165 0 0 0 0 -16723297.063156128 100935851.3272419 0 100935851.3272419 -129976809.64265442 0 0 0 0 48600569.350006104 97600918.004199982 0 97600918.004199982 -155849788.65074253 0 0 0 0 18627705.355529785 89258228.51640892 0 89258228.51640892 -158009686.45505905 0 0 0 0 9373918.7823028564 115074624.86467934 0 115074624.86467934 -138822802.58310318 0 0 0 0 8269520.0649490356 116670156.74616146 0 116670156.74616146 -124359110.05653763 0 0 0 0 -27333142.732330322 123095503.36691093 0 123095503.36691093 -115890253.96379089 0 0 0 0 -56965697.380783081 115410586.45171738 0 115410586.45171738 -97726454.153327942 0 0 0 0 -24364592.415161133 95495575.335655212 0 95495575.335655212 -124213648.34448051 0 0 0 0 -30749586.911560059 108979307.49415588 0 108979307.49415588 -100762597.80948734 0 0 0 0 -85641818.98853302 144276126.84810066 0 144276126.84810066 -83605136.697952271 0 0 0 0 -30073267.591842651 135276845.69575858 0 135276845.69575858 -83373773.928718567 0 0 0 0 11248717.469894409 143765554.30208397 0 143765554.30208397 -117448671.57837868 0 0 0 0 50772193.274536133 119579666.19557953 0 119579666.19557953 -138372615.66961598 0 0 0 0 19035253.692138672 143846164.53687096 0 143846164.53687096 -117661236.63688469 0 0 0 0 44073773.286911011 159557407.47647572 0 159557407.47647572 -140887027.92298126 0 0 0 0 141185678.265625 152878260.30986404 0 152878260.30986404 -148288691.59970975 0 0 0 0 -20795293.431770325 183980416.55989313 0 183980416.55989313 -94197472.769544601 0 0 0 0 -53673421.577590942 181543964.14271927 0 181543964.14271927 -93956907.487824678 0 0 0 0 146700328.1019516 15902874.997779608 0 15902874.997779608 -166602695.64770126 0 0 0 0 182371051.2569809 75881083.599051476 0 75881083.599051476 -173290335.42670441 0 0 0 0 124241920.79698181 123468183.63748741 0 123468183.63748741 -152027045.54754257 0 0 0 0 107485596.99274445 98030352.761169434 0 98030352.761169434 -149153266.36507225 0 0 0 0 46458915.168518066 111385207.16303921 0 111385207.16303921 -146597090.40512466 0 0 0 0 219004853.76948547 100567828.59692097 0 100567828.59692097 -162794145.84224606 0 0 0 0 127094415.70694733 132629490.57366037 0 132629490.57366037 -153473778.41586304 0 0 0 0 192282344.45718002 61451930.43503046 0 61451930.43503046 -140481014.22662926 0 0 0 0 430605014.66975403 27215642.135509014 0 27215642.135509014 -178887841.26732635 0 0 0 0 270927789.52938747 6742132.1145079732 0 6742132.1145079732 -128159035.83436775 0 0 0 0 286161166.28202057 67006496.658538818 0 67006496.658538818 -155941917.03898239 0 0 0 0 256005536.90931606 127917506.37145564 0 127917506.37145564 -194088801.25528622 0 0 0 0 299143694.53805542 75866986.472407341 0 75866986.472407341 -150485001.06678391 0 0 0 0 -37365099.757003784 219839729.12655449 0 219839729.12655449 -138586586.56353736 0 0 0 0 -35949733.981473923 214847259.73221225 0 214847259.73221225 -143860909.66244316 0 0 0 0 42962401.050422668 228077028.03102541 0 228077028.03102541 -141110553.36628342 0 0 0 0 34169901.486183167 189148561.78310895 0 189148561.78310895 -210420908.84088051 0 0 0 0 216395304.09521675 255547318.84413487 0 255547318.84413487 -257408872.16574669 0 0 0 0 -231860741.27193451 304534380.22098017 0 304534380.22098017 -182244908.60579252 0 0 0 0 -188547386.12492371 218375561.5763855 0 218375561.5763855 -388764209.82485896 0 0 0 0 -164997603.67405701 94138930.648517847 0 94138930.648517847 -21389684.583429337 0 0 0 0 -350118480.63669205 226421492.11160016 0 226421492.11160016 -42794189.015696526 0 0 0 0 -109627608.28546143 240294266.74563861 0 240294266.74563861 -120692084.05009079 0 0 0 0 -94019011.672014713 53573870.500904888 0 53573870.500904888 -24820469.73026371 0 0 0 0 -207488991.78666306 162187894.34244967 0 162187894.34244967 -44619340.406822205 0 0 0 0 -87074162.323628426 114838224.52324712 0 114838224.52324712 -68360323.56401825 0 0 0 0 -82681576.544281006 130597997.67822647 0 130597997.67822647 -38111239.175360918 0 0 0 0 -40996147.856437683 13288671.278681755 0 13288671.278681755 -44102333.922674179 0 0 0 0 -183335437.21642303 82224193.706700802 0 82224193.706700802 -22475052.429759562 0 0 0 0 -68822858.118679047 -30524945.406261921 0 -30524945.406261921 30757382.70865345 0 0 0 0 -220406146.69065094 43563469.147849083 0 43563469.147849083 117397763.96758139 0 0 0 0 -319289.95770305768 52231.295388513245 0 52231.295388513245 -9491.793221096581 0 0 0 0 113241901.35218048 -13592535.3842801 0 -13592535.3842801 -979453248.63423455 0 0 0 0 -78858162.612576485 -176468831.47068796 0 -176468831.47068796 -565397715.37958837 0 0 0 0 17408707.378898621 -226532979.46605492 0 -226532979.46605492 -358598577.07950002 0 0 0 0 -9436775.9639358521 201851004.18851674 0 201851004.18851674 -209708510.51565099 0 0 0 0 -287457529.05221939 348447796.49980712 0 348447796.49980712 -438233659.77742195 0 0 0 0 -626237909.19269562 18268083.921157122 0 18268083.921157122 -370203534.87469614 0 0 0 0 -649945606.77465057 52305539.254988343 0 52305539.254988343 -407423996.99633187 0 0 0 0 75714.24888244085 -372343.27777065663 0 -372343.27777065663 -334050.34657175653 0 0 0 0 -786594182.60303497 -129958229.20433235 0 -129958229.20433235 28017805.805665493 0 0 0 0 -152549409.50043488 -100833442.58918655 0 -100833442.58918655 -666981685.11984134 0 0 0 0 -409370540.10601807 97996249.819295049 0 97996249.819295049 124176351.03353572 0 0 0 0 -735823517.99066496 375083323.32141972 0 375083323.32141972 -66651556.544502616 0 0 0 0 -333516163.16833496 120944390.08417928 0 120944390.08417928 -4877854.2402419448 0 0 0 0 -488038532.68966675 29637745.341004074 0 29637745.341004074 222120292.75973558 0 0 0 0 -171824936.20642853 -82816487.09610796 0 -82816487.09610796 134012275.31939745 0 0 0 0 -182879406.33120346 -247576.48497211933 0 -247576.48497211933 -3761317.3774769306 0 0 0 0 -54039114.747415543 -94563023.094072372 0 -94563023.094072372 82461771.569678783 0 0 0 0 153352.6515535228 -972089.79395219823 0 -972089.79395219823 -654884.94031450606 0 0 0 0 -347209970.58779907 -89996170.931334734 0 -89996170.931334734 5974812.0189560205 0 0 0 0 271659.02991667669 -1787584.2863664087 0 -1787584.2863664087 1829366.5762577886 0 0 0 0 1697167075.2342834 -1086386915.1740208 0 -1086386915.1740208 195737512.29386711 0 0 0 0 -347318828.53251648 -42827699.975835323 0 -42827699.975835323 135881734.44274688 0 0 0 0 -199804678.57949829 -137744094.54432607 0 -137744094.54432607 187065593.63806844 0 0 0 0 89601.41238485463 -784870.56025823439 0 -784870.56025823439 905892.34482182772 0 0 0 0 -17571116.947189331 -85681832.600791216 0 -85681832.600791216 -188591150.47854805 0 0 0 0 -1095497478.504528 339728458.92492509 0 339728458.92492509 -391191162.48919582 0 0 0 0 452075.39033438079 -794599.00057470566 0 -794599.00057470566 1197482.4307198224 0 0 0 0 1530924372.8616409 141296947.61716485 0 141296947.61716485 -501606384.20406628 0 0 0 0 1535553152.4429131 -516050195.8810792 0 -516050195.8810792 -54830454.059102058 0 0 0 0 1223251440.9055481 -321666212.29109478 0 -321666212.29109478 20969014.58317852 0 0 0 0 741336177.47779846 -744828373.3650794 0 -744828373.3650794 679715371.53756905 0 0 0 0 676370694.2691803 -113867419.06146419 0 -113867419.06146419 -10524189.887874842 0 0 0 0 737157560.65393066 -413108690.90772796 0 -413108690.90772796 -45515680.440581799 0 0 0 0 739518626.72126722 -147338819.08951619 0 -147338819.08951619 -175711227.61771059 0 0 0 0 264049906.28905106 -440524376.75180292 0 -440524376.75180292 90627584.268746614 0 0 0 0 285004825.95362091 -501657872.89575469 0 -501657872.89575469 -216683853.99863768 0 0 0 0 277930010.00588608 -519295847.08314449 0 -519295847.08314449 251045791.61424351 0 0 0 0 562775393.68682098 -395097883.15646744 0 -395097883.15646744 -20838363.24281311 0 0 0 0 216620297.55262756 -324182123.44154477 0 -324182123.44154477 40192976.627784252 0 0 0 0 -103395212.06488037 -57759602.020985126 0 -57759602.020985126 146132331.78043127 0 0 0 0 19301272.498317719 -273720340.75175524 0 -273720340.75175524 372261060.24924326 0 0 0 0 240238590.19859314 -228419362.62415838 0 -228419362.62415838 255235800.23213935 0 0 0 0 1070609567.3025169 -833590688.82818842 0 -833590688.82818842 355130532.052387 0 0 0 0 304508475.93704987 -476946633.05480623 0 -476946633.05480623 1086540404.7471251 0 0 0 0 1472192047.4137039 -357681989.17014122 0 -357681989.17014122 -250014474.65218258 0 0 0 0 1448531371.9692116 -85190225.419144139 0 -85190225.419144139 4872241.9356626272 0 0 0 0 604834054.20378876 271888458.98315275 0 271888458.98315275 675102619.49739504 0 0 0 0 -188229310.21043396 -150089837.49532676 0 -150089837.49532676 438984522.45900154 0 0 0 0 266479222.55280304 -129828043.94547909 0 -129828043.94547909 218733765.7464416 0 0 0 0 -136446120.43083191 -175856605.47867346 0 -175856605.47867346 -36343416.421772838 0 0 0 0 134509680.02783966 65767507.6425699 0 65767507.6425699 167908206.21688938 0 0 0 0 -5093170.2368392944 186396705.70693862 0 186396705.70693862 -136233532.57813922 0 0 0 0 219088721.6889534 -37113259.614766836 0 -37113259.614766836 -231814061.60806811 0 0 0 0 605131215.93080139 238234505.77642518 0 238234505.77642518 -42282886.455962121 0 0 0 0 359470056.54711914 222596093.85825908 0 222596093.85825908 -308421048.33515096 0 0 0 0 33303815.424598694 169781450.91721773 0 169781450.91721773 -425912446.83704913 0 0 0 0 574069594.7243576 -73283128.10158205 0 -73283128.10158205 -145619532.49473214 0 0 0 0 689548323.41263866 -236236573.09446898 0 -236236573.09446898 -23994337.388259768 0 0 0 0 489158529.29450226 -101986886.86138731 0 -101986886.86138731 -140460989.52558374 0 0 0 0 716309162.33134079 -370932493.79777682 0 -370932493.79777682 17331436.052948952 0 0 0 0 556364594.55461121 -421664466.49331176 0 -421664466.49331176 216599086.94965228 0 0 0 0 516363860.65139771 -329781292.42793465 0 -329781292.42793465 136801779.16907334 0 0 0 0 208413619.62358475 -234908351.78051305 0 -234908351.78051305 288531126.92560023 0 0 0 0 -274220277.62581444 -137884117.31854001 0 -137884117.31854001 -48649285.025957346 0 0 0 0 1102560.10278235 -428375.02746424545 0 -428375.02746424545 -478800.56869029719 0 0 0 0 566871678.47823715 -612460974.46369183 0 -612460974.46369183 659985727.62129164 0 0 0 0 760235065.87069702 338244168.85623097 0 338244168.85623097 139802004.74184394 0 0 0 0 1236090.5990608279 -884361.90348153142 0 -884361.90348153142 -101450.02828881884 0 0 0 0 3207063.95503869 -1364274.9800248295 0 -1364274.9800248295 -1495141.1022074912 0 0 0 0 1073085.0338134766 -1100711.3273673058 0 -1100711.3273673058 -1792580.8541135788 0 0 0 0 -1789855.5426673889 -3895226.7113673389 0 -3895226.7113673389 2973259.1211607754 0 0 0 0 -267324.57450524811 -46601.112651305273 0 -46601.112651305273 -227408.56408253103 0 0 0 0 668306005.66696453 93294862.249286398 0 93294862.249286398 12416383.023211002 0 0 0 0 1244979.8712172508 -2137940.5293537788 0 -2137940.5293537788 -3969495.5139539242 0 0 0 0 2929883.1056655571 -2861756.1459545833 0 -2861756.1459545833 -1129103.235927402 0 0 0 0 1189093.8307113647 -950884.25509190559 0 -950884.25509190559 -1770288.6641888618 0 0 0 0 525943.6614074707 -74138859.000711918 0 -74138859.000711918 -58976458.945663214 0 0 0 0 1379101.6763687134 -1266045.1738318205 0 -1266045.1738318205 -2213882.6339969635 0 0 0 0 1420647.7080458887 -3248930.263077212 0 -3248930.263077212 -366419.08352154249 0 0 0 0 46227822.532814026 -13607042.558907747 0 -13607042.558907747 -136983586.83227158 0 0 0 0 8369646.0951690674 -78978780.221417904 0 -78978780.221417904 -223672307.26305985 0 0 0 0 303542885.71607208 -111125524.72886941 0 -111125524.72886941 -221665101.24885345 0 0 0 0 134221115.74485016 52952621.416614622 0 52952621.416614622 -161400199.56273121 0 0 0 0 1606108.7444229126 -289247619.63411719 0 -289247619.63411719 -133924650.06943008 0 0 0 0 478551083.53842926 -314409292.44867516 0 -314409292.44867516 -133949505.58163545 0 0 0 0 615677605.16078377 165957034.98909086 0 165957034.98909086 -135816079.75238919 0 0 0 0 708579729.2754364 -615009968.26605153 0 -615009968.26605153 570400423.26417875 0 0 0 0 1832900087.2336826 250981174.32355091 0 250981174.32355091 -75526260.406005383 0 0 0 0 101193.7412205115 -457875.36372549273 0 -457875.36372549273 1004895.6618143356 0 0 0 0 1638442790.8664799 -415049644.73984146 0 -415049644.73984146 -8728857.7495069504 0 0 0 0 870202227.73979187 203495361.18288612 0 203495361.18288612 101427647.01515317 0 0 0 0 721733567.97183228 -295229338.10714316 0 -295229338.10714316 106012167.506042 0 0 0 0 1093890225.2756195 -175877320.79257989 0 -175877320.79257989 -110596559.82764292 0 0 0 0 -368883479.84223175 -110845477.40265417 0 -110845477.40265417 192460354.49040508 0 0 0 0 -245874144.68158722 -120376442.17651701 0 -120376442.17651701 -56352262.467948914 0 0 0 0 519047.37208489422 158121.17239910457 0 158121.17239910457 -257202.84220186237 0 0 0 0 -1028659895.8769531 -386885134.65097618 0 -386885134.65097618 564433721.16842985 0 0 0 0 105249921.6526947 -437141110.40687084 0 -437141110.40687084 239600726.7216363 0 0 0 0 801123727.63100624 -574214188.68322706 0 -574214188.68322706 84869637.845081329 0 0 0 0 368934491.46665192 -164633900.7790823 0 -164633900.7790823 1692252.9009575844 0 0 0 0 610694357.62660217 -235089880.3911559 0 -235089880.3911559 -91538188.810054302 0 0 0 0 226641577.25804901 -83293751.145590782 0 -83293751.145590782 -103813813.69136143 0 0 0 0 327918632.01622772 -54672611.053845406 0 -54672611.053845406 -100047461.38124657 0 0 0 0 201285827.63819504 -34338176.883159637 0 -34338176.883159637 -162876667.63335609 0 0 0 0 276444346.32537079 28963253.908432007 0 28963253.908432007 -176831340.28879738 0 0 0 0 -168000238.81228638 -267095679.34056854 0 -267095679.34056854 138042028.61679459 0 0 0 0 403745380.70996475 -270823852.46523905 0 -270823852.46523905 -55582390.03720665 0 0 0 0 113656545.25389099 -164929077.02483463 0 -164929077.02483463 -90066184.130596638 0 0 0 0 226339487.4414444 -89015300.570411682 0 -89015300.570411682 -191634888.22863007 0 0 0 0 138496198.55851746 -194167906.46642017 0 -194167906.46642017 -131062488.87506294 0 0 0 0 -39632521.008140564 -165734861.71868896 0 -165734861.71868896 -129981725.28242683 0 0 0 0 -111792741.39495087 -85413408.329244614 0 -85413408.329244614 -188353593.1257019 0 0 0 0 94746303.785318375 -87706560.606831074 0 -87706560.606831074 -187023106.38178635 0 0 0 0 109666234.86825562 -136119838.18468094 0 -136119838.18468094 -226172067.76688766 0 0 0 0 -5273327.787979126 -147935266.62530136 0 -147935266.62530136 -182914172.10875893 0 0 0 0 48347525.2293396 -95206720.189439774 0 -95206720.189439774 -173191008.5271492 0 0 0 0 49947256.406692505 -121288296.0668087 0 -121288296.0668087 -172002540.76029205 0 0 0 0 2310925.8972396851 -171139084.78148222 0 -171139084.78148222 -242238763.72790527 0 0 0 0 -132256988.25566864 -203553168.51135635 0 -203553168.51135635 -149567234.71915627 0 0 0 0 126573691.6103363 26667313.088075638 0 26667313.088075638 -171573945.91841316 0 0 0 0 180745680.66133118 -29241861.931035042 0 -29241861.931035042 -194022063.45583344 0 0 0 0 170554349.14678955 -104370258.13352203 0 -104370258.13352203 -195518847.65691948 0 0 0 0 135035976.15837097 -49326148.463573456 0 -49326148.463573456 -165422269.77970266 0 0 0 0 118897238.28153229 -48356348.352652073 0 -48356348.352652073 -190230161.62929535 0 0 0 0 102350599.6192627 -99600180.779016495 0 -99600180.779016495 -200000591.539505 0 0 0 0 93380002.93359375 -27674200.396297455 0 -27674200.396297455 -193140079.59902191 0 0 0 0 101667861.45421219 -19605740.664548397 0 -19605740.664548397 -186023615.96159744 0 0 0 0 1879653.9636368267 -5334469.7660273425 0 -5334469.7660273425 -1110041.7253381845 0 0 0 0 19676430.802246094 -25197304.967697144 0 -25197304.967697144 -149362463.41479015 0 0 0 0 1580598.6343078613 -5700220.4168736935 0 -5700220.4168736935 -781858.2108951807 0 0 0 0 19564353.392196655 -19089407.95684433 0 -19089407.95684433 -148665223.62473106 0 0 0 0 45491692.021377563 -25846429.843278885 0 -25846429.843278885 -171557638.11403656 0 0 0 0 30367389.770950317 -8921079.2493419647 0 -8921079.2493419647 -175798162.06526947 0 0 0 0 41649239.633335114 -12739498.738528252 0 -12739498.738528252 -174566996.64173889 0 0 0 0 57314726.632904053 -13045856.691978455 0 -13045856.691978455 -186600352.42534065 0 0 0 0 76632599.903060913 -34488210.743011475 0 -34488210.743011475 -182284455.86643219 0 0 0 0 38287539.162841797 -25872855.171867371 0 -25872855.171867371 -171259159.89332962 0 0 0 0 44638390.502090454 -30289762.073215485 0 -30289762.073215485 -181428392.18742371 0 0 0 0 36505525.289978027 -30630947.570785522 0 -30630947.570785522 -165662336.62634087 0 0 0 0 46278420.10692215 -48075491.313036442 0 -48075491.313036442 -160087424.88687897 0 0 0 0 28556030.367858887 -44573642.301361084 0 -44573642.301361084 -160697469.40424347 0 0 0 0 49324187.880157471 -38248642.538291931 0 -38248642.538291931 -169572126.085783 0 0 0 0 62793611.921722412 -50846861.138629913 0 -50846861.138629913 -189490934.93152046 0 0 0 0 56533082.283859253 -53973278.860177994 0 -53973278.860177994 -172802110.54993439 0 0 0 0 51832982.932157516 -80880928.474687576 0 -80880928.474687576 -161180052.77086639 0 0 0 0 22209367.214752197 -42430473.889080048 0 -42430473.889080048 -130053239.15654755 0 0 0 0 21087772.491378784 -54302625.318244934 0 -54302625.318244934 -129325190.85790253 0 0 0 0 29487775.404296875 -49807170.466690063 0 -49807170.466690063 -146206924.44319153 0 0 0 0 21544659.57635498 -37005294.570571899 0 -37005294.570571899 -142193234.80859375 0 0 0 0 28006637.003501892 -32618089.884555817 0 -32618089.884555817 -157746370.20150757 0 0 0 0 40568778.632873535 -36894090.741481781 0 -36894090.741481781 -157368084.96533203 0 0 0 0 3951226.4610290527 -12533894.931846619 0 -12533894.931846619 -153008326.17047882 0 0 0 0 -11285447.687164307 -8310773.8967647552 0 -8310773.8967647552 -35734563.97051239 0 0 0 0 -65891851.264852524 -5092986.5390641689 0 -5092986.5390641689 2863545.9787101746 0 0 0 0 -13604256.934768677 -54445566.385684013 0 -54445566.385684013 -62951826.560844421 0 0 0 0 -51475114.349090576 -80282763.300022125 0 -80282763.300022125 -80323695.693878174 0 0 0 0 -26250154.801986694 -106906711.50193596 0 -106906711.50193596 -61454639.676898956 0 0 0 0 -18847029.83480835 -123787637.88370132 0 -123787637.88370132 -143081040.30252457 0 0 0 0 17179198.034408569 -76323365.844434738 0 -76323365.844434738 -142816349.54284668 0 0 0 0 16546337.798492432 -84957099.532047272 0 -84957099.532047272 -107376671.39427948 0 0 0 0 -9348963.5403652191 -75449651.70668602 0 -75449651.70668602 -108327179.18858337 0 0 0 0 4153413.8694458008 -50532475.336284637 0 -50532475.336284637 -89894840.686141968 0 0 0 0 2598753.326965332 -1816999.838180542 0 -1816999.838180542 -116127225.86458969 0 0 0 0 262474.64083862305 -44765769.01499176 0 -44765769.01499176 -93821617.804347992 0 0 0 0 5429391.190246582 -48559981.618492126 0 -48559981.618492126 -131416952.1995163 0 0 0 0 5154315.3171844482 -54251675.432704926 0 -54251675.432704926 -111132630.45123291 0 0 0 0 9876357.1131896973 -31371324.472564697 0 -31371324.472564697 -134211193.85459518 0 0 0 0 17451.345520019531 -27463380.675209045 0 -27463380.675209045 -109039797.75061226 0 0 0 0 -2296909.6859283447 -41435106.806699753 0 -41435106.806699753 -68606767.538116455 0 0 0 0 -3133915.5699157715 1860984.5140228271 0 1860984.5140228271 -86006048.836753845 0 0 0 0 -3611376.8222045898 6176715.0990715027 0 6176715.0990715027 -34808837.656349182 0 0 0 0 148500.39340209961 -32148294.668310165 0 -32148294.668310165 -69776760.578491211 0 0 0 0 -13486250.855392456 -34032259.223554611 0 -34032259.223554611 -17717530.922729492 0 0 0 0 8695207.070022583 -30662710.420524597 0 -30662710.420524597 -71917040.538093567 0 0 0 0 -742395.07956469245 -2281186.8103742246 0 -2281186.8103742246 3389141.0152315479 0 0 0 0 635644014.34651184 16747160.139718652 0 16747160.139718652 -89491007.740966082 0 0 0 0 1078786.988498468 -1400362.6521775275 0 -1400362.6521775275 619196.8207365867 0 0 0 0 285804941.11726379 -45199846.724428356 0 -45199846.724428356 95928620.324067593 0 0 0 0 369968690.22274017 -108365944.60036623 0 -108365944.60036623 -12112054.077950716 0 0 0 0 652607709.12200403 -249202703.48796526 0 -249202703.48796526 -28786462.424294949 0 0 0 0 458151786.72206116 -96226839.943568468 0 -96226839.943568468 -96053316.899531841 0 0 0 0 119093.6664915476 -74904.568860322237 0 -74904.568860322237 41120.871452833875 0 0 0 0 647669801.50013733 -89154906.257787943 0 -89154906.257787943 -133874537.61489803 0 0 0 0 661939722.08607483 -148644604.83584583 0 -148644604.83584583 -102434158.33894157 0 0 0 0 518335534.58565521 25332071.834177434 0 25332071.834177434 20831248.934341431 0 0 0 0 779506080.47915649 -102178878.73532248 0 -102178878.73532248 -133409367.00873685 0 0 0 0 483671.62543111201 -1644369.0934134992 0 -1644369.0934134992 2650534.6850008806 0 0 0 0 506020686.23807526 -16539272.295281529 0 -16539272.295281529 9287903.286421299 0 0 0 0 -176096187.73218536 -179638226.2190094 0 -179638226.2190094 -165751815.95281982 0 0 0 0 -182728190.04351807 -236895481.85518169 0 -236895481.85518169 -44551390.580894113 0 0 0 0 -246756296.99880981 -96953214.306512833 0 -96953214.306512833 20940451.510306835 0 0 0 0 -76775.394345660694 -369631.75347151235 0 -369631.75347151235 225828.43847316131 0 0 0 0 1939650.9484825134 -1766862.8728166223 0 -1766862.8728166223 -87216.090501308441 0 0 0 0 1316995.0932998657 -2014509.1043416262 0 -2014509.1043416262 -176055.56673669815 0 0 0 0 1408603.5649261475 -1194022.7138030529 0 -1194022.7138030529 -19483.616106987 0 0 0 0 1270832.6851463318 -1488253.9619098902 0 -1488253.9619098902 460959.76605987549 0 0 0 0 1318399.1773681641 -2298922.7098851204 0 -2298922.7098851204 1057125.9058523178 0 0 0 0 1510581.9305496216 -1978523.8201893568 0 -1978523.8201893568 -696772.61375522614 0 0 0 0 1174754.1705780029 -1555266.2794799805 0 -1555266.2794799805 416146.50697040558 0 0 0 0 647417136.12396312 -142062551.51723257 0 -142062551.51723257 91720211.241866514 0 0 0 0 2500713.8328681057 -1629018.8200090397 0 -1629018.8200090397 929775.55484054133 0 0 0 0 509343531.73637772 -299902493.35694975 0 -299902493.35694975 51857087.570047826 0 0 0 0 438723465.13825226 42808362.143584244 0 42808362.143584244 5798230.7517739944 0 0 0 0 357328.53335560579 -69377.818444982171 0 -69377.818444982171 84919.757725292802 0 0 0 0 642408164.6712935 -323306138.00711858 0 -323306138.00711858 149664410.14165008 0 0 0 0 225756.65162406489 -233276.46523103397 0 -233276.46523103397 -18219.296513346475 0 0 0 0 424485369.19904327 -170679753.62662256 0 -170679753.62662256 48290884.00310111 0 0 0 0 315111160.80429077 -332965650.82744718 0 -332965650.82744718 184898293.25380385 0 0 0 0 889896.68141555786 -1062861.5610454679 0 -1062861.5610454679 -145652.59476947784 0 0 0 0 1212935.4782333374 -990416.82890224457 0 -990416.82890224457 -207252.84507226944 0 0 0 0 1342874.8128830306 -1887673.8096877728 0 -1887673.8096877728 279553.40004709107 0 0 0 0 816821.9741973877 -1105626.2835075855 0 -1105626.2835075855 149610.00418663025 0 0 0 0 4955595.5625 1635714.852571249 0 1635714.852571249 -574415.06568092108 0 0 0 0 3590182.0180619005 -1328934.8194598919 0 -1328934.8194598919 -1075790.8072897242 0 0 0 0 3200919.1077057607 -3236410.5163506735 0 -3236410.5163506735 -1745424.5913618542 0 0 0 0 -27002777.490112305 -14059348.77885437 0 -14059348.77885437 75106677.361076355 0 0 0 0 1511754.9510803223 -6874437.8449306488 0 -6874437.8449306488 -859469.28118092287 0 0 0 0 1554194.0392456055 -6430785.5929013491 0 -6430785.5929013491 -1431818.4260773063 0 0 0 0 1929315.0529174805 -6957445.1346701831 0 -6957445.1346701831 -1754627.1480314583 0 0 0 0 1651571.4560947418 -6173094.6249533426 0 -6173094.6249533426 -2026545.1493538916 0 0 0 0 2643501.2577896118 -6328665.8142513856 0 -6328665.8142513856 -4216799.9128875248 0 0 0 0 234377.66766342707 -57499.735577270389 0 -57499.735577270389 -77528.627086214488 0 0 0 0 654158.77017784119 -1693131.2009188533 0 -1693131.2009188533 707692.18840360641 0 0 0 0 5894025.1147232056 -3851613.2501057386 0 -3851613.2501057386 -474437.18823623657 0 0 0 0 7652893.3158111572 3757476.3347001076 0 3757476.3347001076 -710295.20424532145 0 0 0 0 5735877.5838012695 -4334894.7806873322 0 -4334894.7806873322 705739.77515995502 0 0 0 0 1349750.1603393555 -2286127.7507042885 0 -2286127.7507042885 1194516.3240232468 0 0 0 0 2590355.190032959 -2041844.5396478176 0 -2041844.5396478176 -915896.14877223969 0 0 0 0 3308733.606300354 -580503.97120690346 0 -580503.97120690346 -3250769.46256423 0 0 0 0 734451.559425354 -1345511.2714262009 0 -1345511.2714262009 -1094032.6889953613 0 0 0 0 -292740.60623168945 -240845.4579179883 0 -240845.4579179883 -1435268.9777634144 0 0 0 0 7336347.000038147 -3066320.6912967116 0 -3066320.6912967116 -6624046.7696480751 0 0 0 0 4450453.6657491652 -1209609.8362182621 0 -1209609.8362182621 -1212853.0699286009 0 0 0 0 2812809.7589756846 -1506503.8756678663 0 -1506503.8756678663 -184832.53255059465 0 0 0 0 4364121.5488357544 -2034479.3765841941 0 -2034479.3765841941 -160734.71249104815 0 0 0 0 3918843.716583252 -1057778.6091620175 0 -1057778.6091620175 113104.14005544037 0 0 0 0 4951306.6366729736 -1183340.3691801354 0 -1183340.3691801354 -438671.97288359329 0 0 0 0 4799224.6309356689 -902365.34927245602 0 -902365.34927245602 193585.14969497267 0 0 0 0 2248213.8555603027 -2061913.138802886 0 -2061913.138802886 -2242916.97499156 0 0 0 0 3229104.723616939 -911936.34717912483 0 -911936.34717912483 -487896.09588623536 0 0 0 0 1556549.8376159668 -2665251.6372914314 0 -2665251.6372914314 -693905.64502334595 0 0 0 0 376154564.79766083 -78056827.944250882 0 -78056827.944250882 89742342.538138956 0 0 0 0 2598304.5887606768 -1469851.3291039933 0 -1469851.3291039933 725961.20662056631 0 0 0 0 2391847.6839904785 -523208.60274124146 0 -523208.60274124146 -653972.80314123631 0 0 0 0 4459175.6342315674 -37013.45649052388 0 -37013.45649052388 286191.17043953203 0 0 0 0 4010701.2368125916 -577890.28334767232 0 -577890.28334767232 -69920.287451356649 0 0 0 0 4375478.1337127686 -1328646.1976365121 0 -1328646.1976365121 211906.57665513642 0 0 0 0 2904279.6399648162 -523149.23420565575 0 -523149.23420565575 521767.02277540957 0 0 0 0 5806671.8506469727 -862532.37853510678 0 -862532.37853510678 -202916.92470090184 0 0 0 0 5452878.1473693848 -675417.12249403913 0 -675417.12249403913 -99907.735815938096 0 0 0 0 1204.0613767188042 -245.61837420426309 0 -245.61837420426309 357.086236492637 0 0 0 0 5989680.7138824463 -1334091.7825712815 0 -1334091.7825712815 -35600.96343812719 0 0 0 0 5356416.6111679077 -1205109.7493089414 0 -1205109.7493089414 182058.37475868035 0 0 0 0 5125559.2601165771 -974462.36048900709 0 -974462.36048900709 221452.176804627 0 0 0 0 5305940.0272979736 -1276362.7802047376 0 -1276362.7802047376 445149.77307617152 0 0 0 0 4943765.037563324 -1039670.9698629812 0 -1039670.9698629812 98237.3207512917 0 0 0 0 4804748.1648080349 -1278234.9830577024 0 -1278234.9830577024 30122.257945789956 0 0 0 0 5001980.9675216675 -1107854.8050651695 0 -1107854.8050651695 133398.22300304566 0 0 0 0 5034826.4786567688 -1023971.006884524 0 -1023971.006884524 -83973.100391940679 0 0 0 0 5098689.7903137207 -896799.89886011952 0 -896799.89886011952 145857.82167578861 0 0 0 0 5074918.3043556213 -960372.83469801908 0 -960372.83469801908 165369.7574995663 0 0 0 0 5050408.9190063477 -968075.0029726238 0 -968075.0029726238 300338.63353971916 0 0 0 0 5140275.8962173462 -922622.51632055524 0 -922622.51632055524 122325.4624569593 0 0 0 0 4962484.8682479858 -837876.17708895821 0 -837876.17708895821 120713.57340363094 0 0 0 0 4992007.7002887726 -985670.60999886435 0 -985670.60999886435 171018.19899110659 0 0 0 0 5086747.9079818726 -779178.35953652463 0 -779178.35953652463 19931.719135703752 0 0 0 0 5242111.4331512451 -879849.34987968823 0 -879849.34987968823 -19547.344303281978 0 0 0 0 5216670.9247131348 -691704.29168043425 0 -691704.29168043425 -728.83990011446679 0 0 0 0 4964551.8790817261 -849201.16333215742 0 -849201.16333215742 7703.0763627658598 0 0 0 0 4836236.0887470245 -688644.24025247071 0 -688644.24025247071 452.30621056707253 0 0 0 0 6078994.3958702087 -603598.99360174325 0 -603598.99360174325 2928.4957549424062 0 0 0 0 5705053.2569084167 -992520.24276461673 0 -992520.24276461673 -149059.61891129252 0 0 0 0 5138651.9633102417 -1048645.5069401022 0 -1048645.5069401022 -145820.9993321714 0 0 0 0 5572339.9612255096 -1589320.2928498667 0 -1589320.2928498667 -891608.03176283208 0 0 0 0 5408768.6623077393 -1117129.0457183968 0 -1117129.0457183968 -185180.10246291221 0 0 0 0 4844656.383852005 -1560981.4335117578 0 -1560981.4335117578 -520504.69843407301 0 0 0 0 4813027.7030334473 -1115624.1844583545 0 -1115624.1844583545 98944.143301436212 0 0 0 0 4959380.6228866577 -1869569.8840631042 0 -1869569.8840631042 -156946.88046256034 0 0 0 0 9777735.1032714844 1938626.7886104314 0 1938626.7886104314 -5454458.884897247 0 0 0 0 4772809.6669273376 -2240406.199220499 0 -2240406.199220499 -745578.65186023503 0 0 0 0 2230273.7662883587 -314239.18697823212 0 -314239.18697823212 -648103.55214171321 0 0 0 0 5896984.9314956665 1484765.8949296903 0 1484765.8949296903 462562.74929445982 0 0 0 0 662245.34013065323 -58397.43377811648 0 -58397.43377811648 -162818.75511807168 0 0 0 0 20403106.978111267 4818768.2539393259 0 4818768.2539393259 -1882318.2313685324 0 0 0 0 3305566.3727874756 -2913977.5365648097 0 -2913977.5365648097 -407332.63032532617 0 0 0 0 13965918.352039337 -374398.76228646113 0 -374398.76228646113 -3880.2966305926388 0 0 0 0 9773321.0770492554 -3637627.9574569892 0 -3637627.9574569892 -361375.71166229603 0 0 0 0 9447610.4498062134 -1096811.5430075116 0 -1096811.5430075116 1477.8389178012328 0 0 0 0 10294239.595817566 1475321.8512183283 0 1475321.8512183283 1566102.0770076243 0 0 0 0 10200230.586837769 -992571.86075435951 0 -992571.86075435951 -1905537.6228220267 0 0 0 0 10572444.509300232 -2291322.6001487253 0 -2291322.6001487253 2385657.2437740779 0 0 0 0 5907442.5756568909 -995369.07174477552 0 -995369.07174477552 1658570.6312316551 0 0 0 0 5206543.6497907639 -3906437.5422564847 0 -3906437.5422564847 -3445668.9266622737 0 0 0 0 5138148.9292068481 -1130938.8889748538 0 -1130938.8889748538 -412066.00020691752 0 0 0 0 9221244.6156463623 -2714636.2238274459 0 -2714636.2238274459 -9260590.8262887038 0 0 0 0 -10062298.33168602 -14933567.506443471 0 -14933567.506443471 -5869422.4392648935 0 0 0 0 -128250.61218411662 52867.426037881989 0 52867.426037881989 120314.16971682978 0 0 0 0 -32782410.182913065 11294434.19565611 0 11294434.19565611 2084809.9808520079 0 0 0 0 -31864348.332580566 -15441107.586143851 0 -15441107.586143851 -4733917.0756889284 0 0 0 0 1189290.933467865 -10173951.960217237 0 -10173951.960217237 -13660331.686662465 0 0 0 0 -8016615.9326591492 -16690938.876532286 0 -16690938.876532286 -18217989.780516624 0 0 0 0 6132104.4705421235 -570831.45984547818 0 -570831.45984547818 -654865.71379538369 0 0 0 0 6215794.1467209756 -930298.72884022584 0 -930298.72884022584 -790212.08487113379 0 0 0 0 2880489.3485183716 -5152469.3200287223 0 -5152469.3200287223 -4223016.0448922664 0 0 0 0 1063777.2508811951 -3182459.7061828971 0 -3182459.7061828971 -6336947.5851914287 0 0 0 0 -4944491.5951366425 -5809182.2930015465 0 -5809182.2930015465 -2708041.2496936619 0 0 0 0 -3780631.4538459778 -8455717.4853939265 0 -8455717.4853939265 -3646601.0786367357 0 0 0 0 732503.77366638184 -7714504.9629067034 0 -7714504.9629067034 -3526136.8170679286 0 0 0 0 -3274782.4903907776 -6456765.8024679087 0 -6456765.8024679087 -2901550.0259819031 0 0 0 0 3194950.1549911499 -7710225.7746323645 0 -7710225.7746323645 -9291726.5228098631 0 0 0 0 3103202.4408950806 -5111329.6272677183 0 -5111329.6272677183 -3447742.7218752503 0 0 0 0 2128517.42137146 -7379322.5399337113 0 -7379322.5399337113 -2096199.9873395264 0 0 0 0 3007428.6809387207 -6508227.554267168 0 -6508227.554267168 -1597613.3124471903 0 0 0 0 1737223.0839691162 -6215327.1353286169 0 -6215327.1353286169 -1367821.9976251721 0 0 0 0 2731860.9920921326 -6376981.6996695548 0 -6376981.6996695548 -1431322.865383625 0 0 0 0 104301.19464111328 -7165544.9116519392 0 -7165544.9116519392 1513264.5924440324 0 0 0 0 1576314.7489013672 -5782215.7838101387 0 -5782215.7838101387 2512842.0729082227 0 0 0 0 2018968.8158569336 -5008149.7334648371 0 -5008149.7334648371 3852736.5714343786 0 0 0 0 1942600.4759788513 -7155432.1246981546 0 -7155432.1246981546 272291.29234969616 0 0 0 0 2346493.9456100464 -6751958.8536907732 0 -6751958.8536907732 505263.44721412659 0 0 0 0 5362983.4854888916 -5989285.111948967 0 -5989285.111948967 664254.81208610535 0 0 0 0 3180383.8642272949 -8189162.0266560316 0 -8189162.0266560316 3011076.8438346982 0 0 0 0 2867156.2553405762 -7170526.4862317443 0 -7170526.4862317443 142802.17178201675 0 0 0 0 -3349110.3208847046 -4899682.1594649404 0 -4899682.1594649404 424978.87274098396 0 0 0 0 -2943317.6861763 -5642162.2746770903 0 -5642162.2746770903 -907711.55072805285 0 0 0 0 -1624426.9200286865 -7177079.1914615631 0 -7177079.1914615631 -139085.14372116327 0 0 0 0 -205426.03910064697 -6273841.3219245076 0 -6273841.3219245076 1378519.4448919296 0 0 0 0 84189.308792114258 -6185975.9308101535 0 -6185975.9308101535 435572.59571158886 0 0 0 0 -395375.64663696289 -6962123.8506859541 0 -6962123.8506859541 2581282.7295594215 0 0 0 0 -161613.95989227295 -7112322.6638704538 0 -7112322.6638704538 790398.30965960026 0 0 0 0 -312164.1129989624 -5136750.3917760253 0 -5136750.3917760253 855525.77317810059 0 0 0 0 -3150726.7847900391 -5729350.2797979116 0 -5729350.2797979116 1031172.4428068697 0 0 0 0 -1471292.4179382324 -6672652.9477053285 0 -6672652.9477053285 1940557.383908391 0 0 0 0 -10204947.844841003 -174690.99073615298 0 -174690.99073615298 3860419.3180581033 0 0 0 0 -6123288.7642974854 -3001015.6504779458 0 -3001015.6504779458 2364901.7805880606 0 0 0 0 -4984300.1774597168 -939202.41529207677 0 -939202.41529207677 2548418.8853127956 0 0 0 0 -11716269.497192383 -1849981.2314385846 0 -1849981.2314385846 2436785.7298085764 0 0 0 0 -7523086.6347351074 -7013094.9130260646 0 -7013094.9130260646 -603842.76626874506 0 0 0 0 -9016357.7713775635 -191009.56554847956 0 -191009.56554847956 3779049.2953600883 0 0 0 0 -16532546.009147644 1901498.5932980152 0 1901498.5932980152 5287450.0468315491 0 0 0 0 -13042251.728792191 9715545.4643976204 0 9715545.4643976204 1780453.220254302 0 0 0 0 -9181046.2537231445 3541549.8897258043 0 3541549.8897258043 5146653.7784045488 0 0 0 0 -17101143.616788864 10562665.245779686 0 10562665.245779686 2023821.6538854241 0 0 0 0 -31042416.91431427 -2039303.2751937918 0 -2039303.2751937918 3693599.1437490731 0 0 0 0 -7781879.5699768066 -8320920.2278053761 0 -8320920.2278053761 -2661979.8832448833 0 0 0 0 -206376.82219090685 114452.91088577081 0 114452.91088577081 230407.48978162397 0 0 0 0 -45160028.703914642 -18685538.476490647 0 -18685538.476490647 60509620.11640811 0 0 0 0 -6403301.8359222412 2054608.5210270584 0 2054608.5210270584 8931777.9886910059 0 0 0 0 -8646205.5405311584 11065.829419054091 0 11065.829419054091 18667106.426601946 0 0 0 0 -95480.383457707241 70296.009158615023 0 70296.009158615023 127437.01930546573 0 0 0 0 84586412.200050354 86641780.176800311 0 86641780.176800311 -8061074.3610092103 0 0 0 0 52139265.637748718 37137064.876443245 0 37137064.876443245 131869449.44802548 0 0 0 0 55487369.909301758 -42594076.209718615 0 -42594076.209718615 88942333.183772355 0 0 0 0 3190984.0609664917 -33100765.222185761 0 -33100765.222185761 36160636.548657835 0 0 0 0 -44712527.31521225 -14759164.042137086 0 -14759164.042137086 86542150.849644005 0 0 0 0 -17943628.900804803 -48538571.521218404 0 -48538571.521218404 35794226.63923651 0 0 0 0 -18033041.294258118 -15679956.498141587 0 -15679956.498141587 99763297.430451274 0 0 0 0 53941550.47164917 -27187047.033444643 0 -27187047.033444643 4992238.7970621586 0 0 0 0 16655544.402313232 -83440888.988851666 0 -83440888.988851666 11680493.055748701 0 0 0 0 5474406.506187439 -32135296.357540369 0 -32135296.357540369 -96656272.711428642 0 0 0 0 -46818643.94467926 -29586414.939571142 0 -29586414.939571142 25700953.123020649 0 0 0 0 -19065046.392677307 -91504137.259268999 0 -91504137.259268999 -37656807.826561809 0 0 0 0 -13277265.111076355 -26377129.309331179 0 -26377129.309331179 -146703654.96417117 0 0 0 0 105970.97492980957 -22511598.412139773 0 -22511598.412139773 -40541734.407474279 0 0 0 0 -24488337.042264938 -55642325.598110914 0 -55642325.598110914 -11070759.322150707 0 0 0 0 -38876232.613830566 -47165394.653422117 0 -47165394.653422117 -39583974.165558338 0 0 0 0 -15276407.874389648 -46781287.169808209 0 -46781287.169808209 -39894949.090132728 0 0 0 0 7169129.8721694946 -61014643.236587524 0 -61014643.236587524 19619267.784193397 0 0 0 0 17926737.445083618 -13024314.133282363 0 -13024314.133282363 15592281.052984118 0 0 0 0 19969250.191539764 -35699330.085879624 0 -35699330.085879624 -65432418.60547483 0 0 0 0 5959953.654949354 -399741.9758322644 0 -399741.9758322644 -537305.02175903739 0 0 0 0 6008964.4573745728 -2745276.452154628 0 -2745276.452154628 -7418903.5622929037 0 0 0 0 5577477.2375640869 -2396915.3519931007 0 -2396915.3519931007 -4481008.4648210378 0 0 0 0 5711816.3732693717 -358099.76797525561 0 -358099.76797525561 -427858.78311882843 0 0 0 0 -4994421.8292999268 -43667961.238109708 0 -43667961.238109708 -108558517.89846992 0 0 0 0 4596308.9009170532 -2295017.8107005865 0 -2295017.8107005865 -2833968.6812781431 0 0 0 0 5036674.10912323 -2259135.3674387075 0 -2259135.3674387075 -2834845.1048765592 0 0 0 0 4066058.7969818115 -1703869.2428852899 0 -1703869.2428852899 91566.903055438772 0 0 0 0 6063185.0822372437 -827525.29615031136 0 -827525.29615031136 -639090.34712740488 0 0 0 0 4881349.4411849976 -1430277.2699700012 0 -1430277.2699700012 -1030882.2754323184 0 0 0 0 4654204.6855926514 -1937066.5509929848 0 -1937066.5509929848 -1187796.4283257406 0 0 0 0 4800857.6963005066 -1671714.302652057 0 -1671714.302652057 733.55333434191004 0 0 0 0 7342346.7589950562 -2972522.4582320927 0 -2972522.4582320927 -512545.23417945649 0 0 0 0 3663990.2790585291 -1095289.0210635737 0 -1095289.0210635737 -192144.23578591042 0 0 0 0 4679478.2882232666 -1544215.3444508309 0 -1544215.3444508309 -341703.14305530721 0 0 0 0 5612070.1515579224 -975836.73116029147 0 -975836.73116029147 632.50415672051463 0 0 0 0 4532027.7962493896 -2026493.7023129049 0 -2026493.7023129049 -458696.53275318956 0 0 0 0 4744451.0971069336 -1219505.7026645616 0 -1219505.7026645616 -2065027.8864097798 0 0 0 0 6103511.2003173828 -1600103.0660010944 0 -1600103.0660010944 -2018749.6684477353 0 0 0 0 6435242.7713816576 70971.698260323144 0 70971.698260323144 -656633.24653767375 0 0 0 0 5257971.77684021 -1909559.4630239483 0 -1909559.4630239483 -3221578.0812719679 0 0 0 0 11399459.162246704 -25278458.060515881 0 -25278458.060515881 -2745791.3499550819 0 0 0 0 5387410.9717941284 -1587441.0529839688 0 -1587441.0529839688 -3360361.2712177373 0 0 0 0 10479507.514404297 19021414.920802116 0 19021414.920802116 -75671109.639309406 0 0 0 0 -36033096.460659027 -112258259.20431989 0 -112258259.20431989 -183370053.578408 0 0 0 0 648919.3690463677 394241.91504643857 0 394241.91504643857 -387329.65360815765 0 0 0 0 31918956.51473999 -99316885.096001148 0 -99316885.096001148 -240896060.20218635 0 0 0 0 -320549.70564975217 -716576.57724274299 0 -716576.57724274299 96317.892483392381 0 0 0 0 -22971072.305633545 -101694873.44696546 0 -101694873.44696546 -159100297.83076 0 0 0 0 -27185991.999146461 -36301591.510098428 0 -36301591.510098428 -168523600.28456926 0 0 0 0 -13284245.2709198 -87970064.902360439 0 -87970064.902360439 -94639932.217899546 0 0 0 0 57107232.886962891 -71938900.659701586 0 -71938900.659701586 -170586681.18120146 0 0 0 0 28096107.015743256 -34860787.472006083 0 -34860787.472006083 -138023315.44932985 0 0 0 0 70230373.222640991 -76838347.260087609 0 -76838347.260087609 -101659331.03613687 0 0 0 0 107394606.0372467 -20364355.613946915 0 -20364355.613946915 -161212335.63109326 0 0 0 0 67721733.547988892 -26961212.707326651 0 -26961212.707326651 -166693721.86017704 0 0 0 0 55360866.530563354 -21464609.226678133 0 -21464609.226678133 -158464666.0622077 0 0 0 0 49238206.995147705 -58939705.787859917 0 -58939705.787859917 -148514874.54678857 0 0 0 0 10341474.504989624 -36465968.161399364 0 -36465968.161399364 -142830914.0008831 0 0 0 0 96340520.757843018 31279239.464108944 0 31279239.464108944 -254083810.96388507 0 0 0 0 104960761.50359344 -66832251.333820462 0 -66832251.333820462 -193735472.97006083 0 0 0 0 1631824.9316959046 172089.81744350679 0 172089.81744350679 -23946.120838606512 0 0 0 0 -16272473.481018066 91107503.435502291 0 91107503.435502291 -178583652.34148479 0 0 0 0 3204669.4786148071 -1035839.7845880985 0 -1035839.7845880985 1778906.5669571161 0 0 0 0 28495467.226173401 2663155.67580235 0 2663155.67580235 1392899.8824017048 0 0 0 0 2885427.628353741 925847.35496007465 0 925847.35496007465 715495.72141514486 0 0 0 0 6311002.343156036 370896.82018010318 0 370896.82018010318 -742334.33299286535 0 0 0 0 -21451729.323394775 24672665.353093624 0 24672665.353093624 -48968453.797185108 0 0 0 0 4445019.41655159 -2528268.8578606062 0 -2528268.8578606062 -2285874.1291800058 0 0 0 0 -17891721.198799133 29913047.756646872 0 29913047.756646872 -80887061.049732685 0 0 0 0 11124793.64352417 -29786885.891426563 0 -29786885.891426563 -48590392.398468971 0 0 0 0 7346794.0860452652 -78420300.172503561 0 -78420300.172503561 -136233662.09872532 0 0 0 0 3934338.1115264893 3177233.353562355 0 3177233.353562355 -168896370.38983333 0 0 0 0 4799722.8666229248 -1676298.8596582564 0 -1676298.8596582564 -1873828.2718150257 0 0 0 0 6455672.7798995972 1494376.6604534092 0 1494376.6604534092 -1114460.2258112831 0 0 0 0 4171158.3094199002 -1061508.1507026497 0 -1061508.1507026497 -469680.63486829778 0 0 0 0 4364347.1720733643 1160390.5605572704 0 1160390.5605572704 25948.482375291642 0 0 0 0 785635.97453308105 364276.19624680281 0 364276.19624680281 -440323.76759928465 0 0 0 0 3961917.2238116674 123926.700139069 0 123926.700139069 742245.97751631541 0 0 0 0 7382962.6749572754 -3354770.5228217375 0 -3354770.5228217375 -2176718.4670847878 0 0 0 0 4526395.3693237305 2815366.3966402812 0 2815366.3966402812 -650093.55983127002 0 0 0 0 88059.356325827539 -54208.552612639032 0 -54208.552612639032 -66928.090582800869 0 0 0 0 3093539.9920391068 1236001.4985637972 0 1236001.4985637972 -60259.921868183868 0 0 0 0 4844404.6434326172 362096.46602217294 0 362096.46602217294 -836546.04141918756 0 0 0 0 6462327.1454162598 1504339.9742698162 0 1504339.9742698162 -1121945.8175240457 0 0 0 0 5999210.6100921631 510532.31265518628 0 510532.31265518628 -872674.25939752534 0 0 0 0 6450001.3667297363 1481224.3470726945 0 1481224.3470726945 -1139717.319124369 0 0 0 0 7216819.4417495728 334459.74588208983 0 334459.74588208983 -1462031.165559896 0 0 0 0 4810253.7989722248 -196810.05937452242 0 -196810.05937452242 -325494.56151881453 0 0 0 0 5294671.3074188232 1541597.1795243097 0 1541597.1795243097 -3302.8230403228072 0 0 0 0 3084616.3274230957 482948.05081524164 0 482948.05081524164 -504489.69217508985 0 0 0 0 6454495.502204895 1506036.4722167584 0 1506036.4722167584 -1106434.6187843098 0 0 0 0 1430132240.3651123 43469600.096772783 0 43469600.096772783 440254.9524075847 0 0 0 0 2201278478.9017143 -236833642.74411216 0 -236833642.74411216 -342776437.36033279 0 0 0 0 2074734895.4537811 -235049910.22783089 0 -235049910.22783089 116933597.91192615 0 0 0 0 1499848899.1566467 829978680.91702473 0 829978680.91702473 147597028.75456753 0 0 0 0 398743.88756001741 -49280.248351103626 0 -49280.248351103626 19132.46747949062 0 0 0 0 3839553.2570877075 -549880.17685409822 0 -549880.17685409822 936289.00378875434 0 0 0 0 1854793.0050506592 204676.18206210434 0 204676.18206210434 2534246.5811198084 0 0 0 0 947548.32622769848 -85194.713276742958 0 -85194.713276742958 43992.587577379352 0 0 0 0 2781519.7476687133 -505918.69495907612 0 -505918.69495907612 186871.77763118013 0 0 0 0 555167481.36621475 -176243645.56856352 0 -176243645.56856352 81814720.428672552 0 0 0 0 162131845.80486298 151240782.9805586 0 151240782.9805586 97353530.663715169 0 0 0 0 459718709.42411804 12706316.441473991 0 12706316.441473991 -54775261.384224474 0 0 0 0 246916984.15840149 1230053.4637586623 0 1230053.4637586623 158643737.86595151 0 0 0 0 1145496482.1724768 -1161537432.3933928 0 -1161537432.3933928 587600956.33965063 0 0 0 0 1085738366.8950367 -191549641.54290634 0 -191549641.54290634 -109482181.37635539 0 0 0 0 3328433.0333603807 -305981.74532815255 0 -305981.74532815255 615298.06050825294 0 0 0 0 550861.76215769723 -157783.07771827467 0 -157783.07771827467 -805031.04244604008 0 0 0 0 97611904.343740463 -176495859.17022586 0 -176495859.17022586 222198201.41341892 0 0 0 0 353505038.70776367 101275690.88914979 0 101275690.88914979 27893898.76838918 0 0 0 0 3739205.1071472168 513418112.22585273 0 513418112.22585273 1073683674.6906183 0 0 0 0 2017738.7171274032 -795308.76851635985 0 -795308.76851635985 509148.79281876294 0 0 0 0 1748281468.7157059 1067681018.838549 0 1067681018.838549 379523294.37538528 0 0 0 0 2201508185.9995918 1014290276.3594546 0 1014290276.3594546 -149363026.97806197 0 0 0 0 1671488489.4344711 559037565.4006598 0 559037565.4006598 180084497.04235294 0 0 0 0 1671533384.1229019 560148543.22624886 0 560148543.22624886 -102746419.99225706 0 0 0 0 1151371493.5855865 695971039.74064589 0 695971039.74064589 216517207.50529113 0 0 0 0 -234041074.25202179 297816792.72534555 0 297816792.72534555 174749710.55489612 0 0 0 0 1074067307.9120331 -122605719.0644474 0 -122605719.0644474 -252419743.90026224 0 0 0 0 885867.12859691307 320505.06448577158 0 320505.06448577158 388735.47218574531 0 0 0 0 331685368.84124756 534869622.7789467 0 534869622.7789467 272913357.11397129 0 0 0 0 57997412.021446228 -46507107.261991382 0 -46507107.261991382 -46529403.155691147 0 0 0 0 151075595.28082275 11872401.02082926 0 11872401.02082926 -28013888.724430084 0 0 0 0 13018311.271881104 -2392633.0733275414 0 -2392633.0733275414 154325817.16369462 0 0 0 0 66028611.843307495 -14852352.261949062 0 -14852352.261949062 -70574559.013375759 0 0 0 0 72619835.313056946 -76988659.33390522 0 -76988659.33390522 55190606.276996493 0 0 0 0 45922074.922012329 -47603214.248658448 0 -47603214.248658448 100991002.18046385 0 0 0 0 116493623.4834137 26354046.43599385 0 26354046.43599385 92980268.00664115 0 0 0 0 192677286.05661011 -28417816.905355647 0 -28417816.905355647 129370824.98927817 0 0 0 0 123830375.33625031 38223151.725739121 0 38223151.725739121 105946723.74245499 0 0 0 0 303081077.4332428 282577258.38322729 0 282577258.38322729 184179780.66021413 0 0 0 0 354613726.41331482 229614230.12174785 0 229614230.12174785 231468043.48775899 0 0 0 0 952536073.32282257 361935061.39746469 0 361935061.39746469 113962962.52635832 0 0 0 0 370293020.43590927 76184971.361655384 0 76184971.361655384 142835609.80663371 0 0 0 0 326848294.076828 121922477.23044509 0 121922477.23044509 128203981.56347364 0 0 0 0 127852196.10746384 -6356891.0089518428 0 -6356891.0089518428 100642571.61912513 0 0 0 0 106259770.90753937 36597587.075601563 0 36597587.075601563 206043265.10881796 0 0 0 0 353196639.28281403 -39377840.57258606 0 -39377840.57258606 -34409578.381652437 0 0 0 0 81589327.290517807 95749584.128806561 0 95749584.128806561 117728207.6540755 0 0 0 0 640133147.71731186 198897824.11489046 0 198897824.11489046 24404009.10449928 0 0 0 0 892908977.16738129 -137929662.48919526 0 -137929662.48919526 -95795497.914099187 0 0 0 0 1632807023.8650589 200168707.21068048 0 200168707.21068048 -389153733.8790822 0 0 0 0 2205348489.3594308 497876655.58200574 0 497876655.58200574 -318598483.17486995 0 0 0 0 1035435948.4169388 302643007.44415098 0 302643007.44415098 -56147296.560208321 0 0 0 0 1574388915.3198204 329137936.40207744 0 329137936.40207744 -175591813.01670432 0 0 0 0 3179007.7017650604 -8830539.0735296011 0 -8830539.0735296011 -9407849.0193662643 0 0 0 0 2810888.5780392364 -2126923.5851585427 0 -2126923.5851585427 1270734.4943001068 0 0 0 0 33435640.996582031 13488816.084974289 0 13488816.084974289 -34688476.040893793 0 0 0 0 16403645.133010864 -24141120.414044142 0 -24141120.414044142 -5660717.4386487007 0 0 0 0 96617615.900039673 -13721304.61024642 0 -13721304.61024642 -10070832.332730114 0 0 0 0 78319186.86000061 -7208170.6833022237 0 -7208170.6833022237 -11938077.263764918 0 0 0 0 98043751.496860504 36169046.506892353 0 36169046.506892353 33993824.453915477 0 0 0 0 -142568723.05229187 -154696388.45158148 0 -154696388.45158148 -76186611.633341074 0 0 0 0 -114321322.66921234 17821454.37381649 0 17821454.37381649 17878812.220106602 0 0 0 0 334678.57029167609 -251102.13964062557 0 -251102.13964062557 -105730.70988605928 0 0 0 0 -183856301.16905212 -94586023.740802288 0 -94586023.740802288 88513648.6647439 0 0 0 0 221483.67953491211 17403212.606406212 0 17403212.606406212 -2421953.9405055046 0 0 0 0 589186.53656768799 5619847.767800808 0 5619847.767800808 125947764.64105511 0 0 0 0 206303464.28665733 49316456.121036172 0 49316456.121036172 129167823.2468977 0 0 0 0 198975396.84799957 9808749.1735091209 0 9808749.1735091209 28924042.039283276 0 0 0 0 179244475.70736694 -72870853.441366196 0 -72870853.441366196 -145989782.17155933 0 0 0 0 129245745.66747665 59777806.915399611 0 59777806.915399611 -87689601.508757591 0 0 0 0 125986494.83105087 40769419.784751415 0 40769419.784751415 117984235.49724197 0 0 0 0 173254775.33220673 -102748410.05093288 0 -102748410.05093288 39725147.625022888 0 0 0 0 -124093348.58408356 32052574.184503317 0 32052574.184503317 95038290.499094248 0 0 0 0 -13804038.774347305 -76326404.256840557 0 -76326404.256840557 -86399226.898463249 0 0 0 0 3029923.8736521564 -2220960.844133337 0 -2220960.844133337 1072966.8666793702 0 0 0 0 -2582254.379322052 -8119145.5141936839 0 -8119145.5141936839 -47223262.690464973 0 0 0 0 -162453594.3013382 -264007735.89109564 0 -264007735.89109564 19530503.264767528 0 0 0 0 -133409076.99904633 145343747.60184407 0 145343747.60184407 37976610.022863388 0 0 0 0 55155052.275848389 -44758058.819773912 0 -44758058.819773912 -109656326.44186044 0 0 0 0 70909959.772565842 22424824.192251205 0 22424824.192251205 -70989425.300153732 0 0 0 0 62973901.91418457 176411658.72657394 0 176411658.72657394 -49506560.550167859 0 0 0 0 42106849.150665283 30263575.773908615 0 30263575.773908615 -48013201.479091167 0 0 0 0 -60266338.229034424 -87277887.271977425 0 -87277887.271977425 -34707609.255520344 0 0 0 0 843225.1052691713 -5931.4640166433528 0 -5931.4640166433528 -127000.47280189308 0 0 0 0 46385762.520233154 4285572.0852410793 0 4285572.0852410793 -77657141.980361819 0 0 0 0 24912225.715576172 19336742.903502941 0 19336742.903502941 -49395124.050601482 0 0 0 0 41322021.616424561 -8466415.5723112822 0 -8466415.5723112822 -41203970.193690777 0 0 0 0 42492888.497146606 16332775.445410252 0 16332775.445410252 -52751260.288196087 0 0 0 0 24620118.126327515 11182090.38427949 0 11182090.38427949 -47602509.530862808 0 0 0 0 -10129765.443328857 -3489697.4900510311 0 -3489697.4900510311 -21054035.998521566 0 0 0 0 484168185.17818451 289143140.62081838 0 289143140.62081838 77074877.125726938 0 0 0 0 10563303.898361206 19592619.922090769 0 19592619.922090769 -44461734.490540981 0 0 0 0 -493937206.03492737 263224392.16426945 0 263224392.16426945 951293230.08870506 0 0 0 0 22879716.955810547 153769045.19579458 0 153769045.19579458 69569024.751086235 0 0 0 0 540760123.02349854 406421204.78030014 0 406421204.78030014 180353799.13534069 0 0 0 0 259467254.42501831 320806246.70643234 0 320806246.70643234 161851871.18341804 0 0 0 0 573835055.17597485 101940370.44094434 0 101940370.44094434 35775787.084828377 0 0 0 0 392836871.43682861 22726227.038066864 0 22726227.038066864 5150373.6697177887 0 0 0 0 276168978.77405548 -72564748.035841465 0 -72564748.035841465 32862611.810360909 0 0 0 0 302752684.49291992 368148761.13023674 0 368148761.13023674 49822645.644850492 0 0 0 0 642977.28485536575 378726.39914860856 0 378726.39914860856 68945.516054693144 0 0 0 0 12800217.115768433 -115082439.28886461 0 -115082439.28886461 -124205381.31384945 0 0 0 0 -42440603.156600952 -117006031.96611285 0 -117006031.96611285 110070305.98734045 0 0 0 0 -27310290.008850098 154009325.68451113 0 154009325.68451113 272615984.23948556 0 0 0 0 552283.92924306914 35707.867921166588 0 35707.867921166588 -107148.66968096397 0 0 0 0 45502081.163234711 -79392896.317010403 0 -79392896.317010403 -21544881.132531643 0 0 0 0 -25919960.418403625 7103427.8579583168 0 7103427.8579583168 -83336133.692050219 0 0 0 0 -17617542.235002518 -12537005.275616765 0 -12537005.275616765 -117391461.56456375 0 0 0 0 -20982666.039337158 30762110.509389877 0 30762110.509389877 -58551007.483494282 0 0 0 0 42439801.889846802 3545720.3095738888 0 3545720.3095738888 -243498304.91531277 0 0 0 0 1706950.9382791892 808106.05511675519 0 808106.05511675519 52641.228077160486 0 0 0 0 9042969.4692764282 87383664.45493722 0 87383664.45493722 35097109.373710155 0 0 0 0 -44670845.593605042 12796757.09984827 0 12796757.09984827 101960537.16747189 0 0 0 0 -26514690.113422394 -8242.4240307211876 0 -8242.4240307211876 -79423577.613170147 0 0 0 0 -19938617.655628204 48550313.811730683 0 48550313.811730683 -70196662.078436375 0 0 0 0 -30371521.088058472 60412712.164794266 0 60412712.164794266 22013405.948329449 0 0 0 0 -9824442.3996810913 108154388.09867515 0 108154388.09867515 46397888.250329651 0 0 0 0 -19224011.503738403 53579321.880746365 0 53579321.880746365 25488411.674135089 0 0 0 0 45776390.406539917 69528821.206984848 0 69528821.206984848 -35676252.789843529 0 0 0 0 87477186.584291458 -37386355.034649923 0 -37386355.034649923 -58526995.137999058 0 0 0 0 149919441.33447266 -80274001.96871078 0 -80274001.96871078 -50188678.395972311 0 0 0 0 213719379.25627899 169279276.20671976 0 169279276.20671976 13775031.116905987 0 0 0 0 119393239.79339218 25380622.684314221 0 25380622.684314221 -81297294.575194359 0 0 0 0 128476346.68834686 64268668.760593966 0 64268668.760593966 -35573867.020073861 0 0 0 0 24346913.216129303 -39755263.089849278 0 -39755263.089849278 15280358.060150266 0 0 0 0 526474.20755864121 155919.04868282098 0 155919.04868282098 -232324.26268990128 0 0 0 0 -30107761.982833862 -15528133.133235887 0 -15528133.133235887 17727606.974367261 0 0 0 0 29738994.830909729 46236333.157193184 0 46236333.157193184 28048260.392245553 0 0 0 0 119226732.56639099 27212578.341982365 0 27212578.341982365 -1032917.5935974121 0 0 0 0 43227474.393874168 73771616.803893983 0 73771616.803893983 53136954.391631514 0 0 0 0 1428090.8264148757 586479.89684796147 0 586479.89684796147 -526154.04860616813 0 0 0 0 -11869947.507637024 23751161.60061276 0 23751161.60061276 44997819.376152307 0 0 0 0 -11500289.190162659 18298517.805244923 0 18298517.805244923 25183543.91042304 0 0 0 0 2396311.9508147184 1181037.1179227019 0 1181037.1179227019 -756806.56180463813 0 0 0 0 -4864317.4573745728 -51336061.14312315 0 -51336061.14312315 28928147.276734114 0 0 0 0 -11684049.046013355 10981092.342050321 0 10981092.342050321 10774068.274289966 0 0 0 0 14552740.093917847 19502226.425002694 0 19502226.425002694 5028540.3263887167 0 0 0 0 -12459074.87658906 -517008.82446786389 0 -517008.82446786389 5442754.7793157101 0 0 0 0 -8561667.0152893066 -16770513.948358536 0 -16770513.948358536 -25322804.633166313 0 0 0 0 389734.12016004324 47172.136073567905 0 47172.136073567905 -347675.39959861734 0 0 0 0 122999762.81669998 -3926507.2162396312 0 -3926507.2162396312 -10987478.780263186 0 0 0 0 80220934.566665649 36521375.812257051 0 36521375.812257051 -912611.64470432512 0 0 0 0 22991632.769683838 15082431.7484231 0 15082431.7484231 406030.05034759641 0 0 0 0 26115026.182418823 8074527.2438928485 0 8074527.2438928485 12343378.672299504 0 0 0 0 24215778.532562256 17590446.425705016 0 17590446.425705016 16650200.378040314 0 0 0 0 21194395.096256256 11092233.186503887 0 11092233.186503887 2701776.797814846 0 0 0 0 51287077.742889404 13494732.39599967 0 13494732.39599967 3317889.6040129066 0 0 0 0 66152254.255020142 12996619.367185116 0 12996619.367185116 4969497.5027914047 0 0 0 0 73232557.219154358 -3973846.6812121272 0 -3973846.6812121272 1596932.405134201 0 0 0 0 83926362.759750366 3090714.0421801209 0 3090714.0421801209 -2628382.6702418327 0 0 0 0 116561509.96240234 -25344261.111852646 0 -25344261.111852646 7456213.5331537724 0 0 0 0 44640749.459022522 -8174501.0644123554 0 -8174501.0644123554 69027869.835773945 0 0 0 0 87200981.890197754 81500897.176329851 0 81500897.176329851 12599389.149648666 0 0 0 0 43812379.747619629 -81940747.441355228 0 -81940747.441355228 88324068.38004446 0 0 0 0 72360.224001195282 -349310.53210113326 0 -349310.53210113326 -35498.249789847898 0 0 0 0 99200651.225784302 40549116.450375497 0 40549116.450375497 4349961.3603863716 0 0 0 0 -2121198.3440172076 -2282380.3437567763 0 -2282380.3437567763 31279.928458395883 0 0 0 0 13541396.987670898 -6766220.9526274204 0 -6766220.9526274204 -9236980.9748315811 0 0 0 0 1167484.8773345947 126146.28040623665 0 126146.28040623665 -445613.37363748252 0 0 0 0 3584532.5541496277 735846.17448472977 0 735846.17448472977 -8199154.5520067215 0 0 0 0 3033017.6080019725 31710.259256486781 0 31710.259256486781 632256.55956130475 0 0 0 0 31114965.963943481 5539604.218318224 0 5539604.218318224 12158758.169512749 0 0 0 0 1218170.3086053999 -301639.35415009782 0 -301639.35415009782 341010.57236458093 0 0 0 0 -10823390.602092743 10346463.200476646 0 10346463.200476646 -9734771.2326226234 0 0 0 0 1156847.7899374645 -936421.97624661494 0 -936421.97624661494 -500574.93642165302 0 0 0 0 -12303914.896820068 44404165.076743126 0 44404165.076743126 -39849195.611821175 0 0 0 0 -17135770.281799316 40495306.386254787 0 40495306.386254787 -6582234.4111442566 0 0 0 0 -34039920.070678711 13881034.883327484 0 13881034.883327484 -6377308.9883160591 0 0 0 0 -45638463.732116699 38386936.012351513 0 38386936.012351513 -6723363.0042164326 0 0 0 0 10304506.758197784 1358680.8290255964 0 1358680.8290255964 3797810.1555011868 0 0 0 0 -62730194.332237244 21728037.133309364 0 21728037.133309364 6600581.6537046432 0 0 0 0 600205.44516015798 22694.189919115975 0 22694.189919115975 -124746.91714023647 0 0 0 0 2747021.3053923603 -1372214.6310077561 0 -1372214.6310077561 1687373.1605815392 0 0 0 0 125353108.76507282 -13296949.27835235 0 -13296949.27835235 -26160574.668733001 0 0 0 0 -51004971.412349701 38352523.928047419 0 38352523.928047419 11062796.103826523 0 0 0 0 -28639526.508926392 69341105.987143993 0 69341105.987143993 24676713.319581985 0 0 0 0 -73259132.551662445 20455406.440678 0 20455406.440678 48587716.927091599 0 0 0 0 -64276438.089370728 -2764194.8070859909 0 -2764194.8070859909 -22145811.999212265 0 0 0 0 -165855931.61005783 -25365644.942537785 0 -25365644.942537785 55602612.945637703 0 0 0 0 2686764.219156296 -1882130.1284570498 0 -1882130.1284570498 1714014.5781918725 0 0 0 0 -8747344.6558837891 -2901787.0659736395 0 -2901787.0659736395 14924190.764082134 0 0 0 0 -599530.39119503461 -88008.534215962514 0 -88008.534215962514 532347.10531652567 0 0 0 0 120693885.75700378 85743087.33932662 0 85743087.33932662 1489950.6185292453 0 0 0 0 215481027.47678375 -14116725.63241601 0 -14116725.63241601 62214394.68404007 0 0 0 0 236170532.91366577 28184757.223702669 0 28184757.223702669 120378856.71086121 0 0 0 0 115160618.90584564 80923743.665102959 0 80923743.665102959 66709673.433869362 0 0 0 0 -24083233.307647705 50132956.534201145 0 50132956.534201145 41903440.376711845 0 0 0 0 -18637152.239677429 30966715.581973553 0 30966715.581973553 101394426.24767399 0 0 0 0 -107896137.2853508 -3320254.7266865969 0 -3320254.7266865969 85091392.677847862 0 0 0 0 78360294.691833496 46602841.433346272 0 46602841.433346272 31842320.109900475 0 0 0 0 5776584.6801986694 78123054.631391525 0 78123054.631391525 47047296.152941704 0 0 0 0 70932942.097490311 35758299.028832078 0 35758299.028832078 110330303.85296059 0 0 0 0 163273167.15593719 61067800.902043819 0 61067800.902043819 28513411.132236481 0 0 0 0 66895734.455553055 61891384.078833103 0 61891384.078833103 -25999551.771736145 0 0 0 0 78321160.806640625 13846586.073911667 0 13846586.073911667 4493592.1112613678 0 0 0 0 -21080972.399200439 4204240.1559100151 0 4204240.1559100151 -61489118.805317879 0 0 0 0 -4524606.842590332 61111546.14527607 0 61111546.14527607 -9634362.2124387175 0 0 0 0 -2581476.6307182312 54550163.065101624 0 54550163.065101624 -9517205.0653896332 0 0 0 0 20714355.821388245 75017186.456007004 0 75017186.456007004 -74706778.791863441 0 0 0 0 2053254.2873125114 418318.16802458058 0 418318.16802458058 737105.42187775322 0 0 0 0 -18869073.400062561 12441915.728535652 0 12441915.728535652 -1075075.4580917358 0 0 0 0 10881850.514305115 9357698.1847748756 0 9357698.1847748756 -30823051.419237733 0 0 0 0 10891884.48383338 203058.95133466972 0 203058.95133466972 -113736129.14587498 0 0 0 0 -32215.933701790869 178242.60180748627 0 178242.60180748627 284895.73935163533 0 0 0 0 1956732.7659732699 202874.15913267015 0 202874.15913267015 619707.54469444521 0 0 0 0 17906886.417572021 -638587.05706691742 0 -638587.05706691742 -27225892.998832703 0 0 0 0 82144203.209632874 4353989.0297148228 0 4353989.0297148228 -123697857.50047684 0 0 0 0 17072727.990982056 32876962.536513805 0 32876962.536513805 -109587026.2647624 0 0 0 0 47252165.171020508 -38406229.846286058 0 -38406229.846286058 -102970474.39068604 0 0 0 0 -27468767.26815033 -49077945.341146469 0 -49077945.341146469 -78804697.86641407 0 0 0 0 308093.2757025985 784559.09747787099 0 784559.09747787099 867664.31339763314 0 0 0 0 686864798.01385117 -78170997.683787584 0 -78170997.683787584 76507610.580459595 0 0 0 0 865590716.17475891 -20328512.763328552 0 -20328512.763328552 -63273289.054429173 0 0 0 0 16325.791784940287 93279.192096604733 0 93279.192096604733 122561.37941661087 0 0 0 0 130502.2729404429 224908.48266807757 0 224908.48266807757 309348.21844017762 0 0 0 0 -117651550.09029007 -355762074.38773561 0 -355762074.38773561 54335383.529575348 0 0 0 0 108234855.65645409 -34024434.301958263 0 -34024434.301958263 -103068821.14895916 0 0 0 0 93464111.653366089 8027722.5954871178 0 8027722.5954871178 -18772273.662010193 0 0 0 0 1068101262.0444565 -419657.89680194855 0 -419657.89680194855 2447208.8226537704 0 0 0 0 1555778637.4158096 -114896030.13896847 0 -114896030.13896847 2914998.3851380348 0 0 0 0 781257123.50721741 23997068.750801086 0 23997068.750801086 85892047.524609566 0 0 0 0 808066549.40908813 1978573.138048172 0 1978573.138048172 138108601.42758763 0 0 0 0 988665228.11213684 -123656437.18910503 0 -123656437.18910503 207038197.8626132 0 0 0 0 938134841.68304062 19857214.702053308 0 19857214.702053308 65202376.121484756 0 0 0 0 1107176500.8817902 -296278142.47208834 0 -296278142.47208834 506614744.489079 0 0 0 0 1041944350.2243347 -128107197.833318 0 -128107197.833318 94473123.99459362 0 0 0 0 1562249810.2511444 -556227747.40251875 0 -556227747.40251875 486495911.93001461 0 0 0 0 1340509325.1294556 -235789692.19074702 0 -235789692.19074702 23429675.121911049 0 0 0 0 1152391795.8586197 -117310426.22435188 0 -117310426.22435188 -66403396.243667603 0 0 0 0 1230142049.2823906 -202731570.1817193 0 -202731570.1817193 23623574.853206635 0 0 0 0 1121326766.1687565 -215247392.04293114 0 -215247392.04293114 150090572.07462692 0 0 0 0 1182751114.6040573 -256432227.88847017 0 -256432227.88847017 85251773.225343704 0 0 0 0 1103014176.6896591 -114040669.34489489 0 -114040669.34489489 -53615115.332269192 0 0 0 0 1183821139.0785141 -149617405.65684593 0 -149617405.65684593 -116246669.46469498 0 0 0 0 1247669715.6318054 -56221571.500531197 0 -56221571.500531197 -155717775.64217138 0 0 0 0 975175668.19664001 -26898540.493834972 0 -26898540.493834972 -135163186.0912838 0 0 0 0 1274713361.6001434 -113065301.69403267 0 -113065301.69403267 -112103765.05196476 0 0 0 0 1177256159.0642891 -175632889.10738683 0 -175632889.10738683 -214757370.33026695 0 0 0 0 1067352631.3083038 4104799.9877524376 0 4104799.9877524376 -185803850.54148102 0 0 0 0 926996747.07881927 -49816355.931267023 0 -49816355.931267023 -165188568.87046051 0 0 0 0 745628444.27459717 -357663106.22958839 0 -357663106.22958839 -368454160.66404247 0 0 0 0 899137660.40582275 -15163684.718842387 0 -15163684.718842387 -203617204.17308044 0 0 0 0 1838886421.2954826 -177394010.75652122 0 -177394010.75652122 -377526059.00496483 0 0 0 0 1058533162.7133789 34937079.91744566 0 34937079.91744566 -80180743.854634285 0 0 0 0 1227181511.8951721 -108491340.65984917 0 -108491340.65984917 -282297372.82476997 0 0 0 0 982991476.61646461 -142637661.91879952 0 -142637661.91879952 -67724945.555157661 0 0 0 0 915904974.02894592 -149036557.66457129 0 -149036557.66457129 -17996941.536946774 0 0 0 0 1212431634.823349 -200689266.42966652 0 -200689266.42966652 -89946504.019899845 0 0 0 0 582826192.42445374 -68677159.268223286 0 -68677159.268223286 68704449.995231152 0 0 0 0 574264261.18026733 38455147.305477619 0 38455147.305477619 37176812.401005745 0 0 0 0 931049137.71431732 -72661935.6580863 0 -72661935.6580863 -31687194.11542654 0 0 0 0 511321053.51529694 -27001509.848546505 0 -27001509.848546505 -1371743.5621795654 0 0 0 0 513607223.48292065 -143688993.22381631 0 -143688993.22381631 36138614.68572998 0 0 0 0 178252643.25735855 -103209454.30764782 0 -103209454.30764782 81293809.477397919 0 0 0 0 965506673.87049866 -294175527.05027485 0 -294175527.05027485 -21237718.306792259 0 0 0 0 1147454182.9947681 -234547449.60076046 0 -234547449.60076046 64836472.026174545 0 0 0 0 933298638.6990509 -94156269.029083252 0 -94156269.029083252 -23656787.16461134 0 0 0 0 -36841711.149421692 128437178.21244529 0 128437178.21244529 -211106814.18362761 0 0 0 0 13116947.701011658 -3255534.5543951988 0 -3255534.5543951988 -5815331.292757988 0 0 0 0 3070832.2656649519 -779219.81598652992 0 -779219.81598652992 -2734562.4311676882 0 0 0 0 2302317.6563682556 -1251627.23948735 0 -1251627.23948735 -3191876.5310423374 0 0 0 0 6703621.2100372314 391562.29043674469 0 391562.29043674469 -1215476.1911168098 0 0 0 0 3414695.3481633216 1053536.6467246814 0 1053536.6467246814 -1843244.0587341478 0 0 0 0 1958133.1828832924 850641.26403914392 0 850641.26403914392 -681488.36455013079 0 0 0 0 1379737.1284148693 528125.20209951326 0 528125.20209951326 -309289.58459408861 0 0 0 0 -891779.32802581787 6881115.0848376751 0 6881115.0848376751 -4165491.0516200066 0 0 0 0 12720879.868606567 4983339.2918353081 0 4983339.2918353081 -11548096.709534645 0 0 0 0 170734115.4635849 154478225.47907162 0 154478225.47907162 132483190.79046345 0 0 0 0 687544809.88382721 -18163851.260001183 0 -18163851.260001183 -92281386.151216507 0 0 0 0 915253203.29551315 575191511.00432324 0 575191511.00432324 361042573.66746712 0 0 0 0 5055905.7383422852 -3185114.1617479324 0 -3185114.1617479324 9150653.9241323471 0 0 0 0 429160.39803943969 -9802.1567530874163 0 -9802.1567530874163 -429416.4387239269 0 0 0 0 1855035293.8032551 -5512974.851888895 0 -5512974.851888895 -152107936.18094063 0 0 0 0 1044655281.5823822 216006608.86642075 0 216006608.86642075 -154712705.85564727 0 0 0 0 1044108684.2239151 91117444.472563982 0 91117444.472563982 -169351330.24022293 0 0 0 0 1455878172.550705 15589810.707102537 0 15589810.707102537 -169381812.65765858 0 0 0 0 986318512.53264618 79745216.420293808 0 79745216.420293808 -123519382.08504391 0 0 0 0 1004630409.8152008 56698002.72821331 0 56698002.72821331 -117068790.53006077 0 0 0 0 1000129336.305748 -21595606.271673679 0 -21595606.271673679 -220815226.77404213 0 0 0 0 985128683.25666046 -32873128.975788832 0 -32873128.975788832 -47444352.483774185 0 0 0 0 1016281540.7533035 68967390.129990578 0 68967390.129990578 -105308350.61968517 0 0 0 0 432321.39719317481 143542.60325870849 0 143542.60325870849 -2345.8689602839295 0 0 0 0 4162744.092666626 42408394.041691661 0 42408394.041691661 -9693415.4565057755 0 0 0 0 1008503160.3660736 43486150.576750278 0 43486150.576750278 -109987790.83805656 0 0 0 0 1045162011.4677734 44544079.624477386 0 44544079.624477386 -123560448.46067715 0 0 0 0 2338648.1981658004 -56053.121327728033 0 -56053.121327728033 -1550404.7850041296 0 0 0 0 23094456.814081192 -14041058.040002644 0 -14041058.040002644 -1901588.3408288956 0 0 0 0 -275569964.94444275 438307694.20422363 0 438307694.20422363 -164157983.86149913 0 0 0 0 13622917.734542847 107508451.03412271 0 107508451.03412271 -264565747.59921354 0 0 0 0 143442397.95868301 44270233.30223316 0 44270233.30223316 -243400623.60703254 0 0 0 0 714076407.66500854 -261726818.25115681 0 -261726818.25115681 -39255866.117672563 0 0 0 0 321786972.70392227 -367053034.00303429 0 -367053034.00303429 185883747.87918139 0 0 0 0 467664714.78790283 -47503015.821635246 0 -47503015.821635246 75776412.466182709 0 0 0 0 222636014.01390839 33171799.632851601 0 33171799.632851601 540675798.99479914 0 0 0 0 201564018.54457331 332494974.21166527 0 332494974.21166527 4756060.6618638039 0 0 0 0 92820068.104827881 -180465579.94693029 0 -180465579.94693029 225564112.37796736 0 0 0 0 18153518.176523209 128842134.29489589 0 128842134.29489589 -175606614.9545331 0 0 0 0 -495495450.77875519 74401038.375712395 0 74401038.375712395 83175631.078906775 0 0 0 0 -111245475.51320648 -119273816.0258007 0 -119273816.0258007 83829998.71914506 0 0 0 0 232470184.21106339 -97310099.232492089 0 -97310099.232492089 -117967933.9256587 0 0 0 0 -94892191.583703041 157661653.13617685 0 157661653.13617685 -446288531.98049068 0 0 0 0 -181714391.435112 -103624418.6609695 0 -103624418.6609695 -110691595.18290997 0 0 0 0 -544477997.1443634 731239540.45473337 0 731239540.45473337 -334842499.84502888 0 0 0 0 -656157996.16719437 538285792.64136338 0 538285792.64136338 -164579746.43480015 0 0 0 0 836211249.49580383 -91952307.622633934 0 -91952307.622633934 -50371186.628056526 0 0 0 0 836677646.87282562 -79387554.417707682 0 -79387554.417707682 3634917.6279380322 0 0 0 0 1500141.2184768207 233666.23617703933 0 233666.23617703933 -576098.45664883615 0 0 0 0 1180815730.3764114 -410851737.793262 0 -410851737.793262 147162486.44830656 0 0 0 0 923332788.89483643 -172014619.35699892 0 -172014619.35699892 -36521277.898527145 0 0 0 0 1097089082.1513519 -129942480.69774914 0 -129942480.69774914 -180954902.89845991 0 0 0 0 1981916599.9892502 -637253159.66931653 0 -637253159.66931653 -29760026.201992154 0 0 0 0 497732.73658622801 105140.49765581917 0 105140.49765581917 -75100.981235612417 0 0 0 0 1474427335.310606 309676433.28014654 0 309676433.28014654 33325521.646269321 0 0 0 0 772388796.99127197 294961977.92209983 0 294961977.92209983 -338608719.69738507 0 0 0 0 1170262098.420145 90629278.236876518 0 90629278.236876518 -265372281.83201313 0 0 0 0 1130935539.4277058 276266774.79633874 0 276266774.79633874 66967484.217903137 0 0 0 0 1586037299.746048 394895518.99055183 0 394895518.99055183 -178921725.11582041 0 0 0 0 1317864933.895874 12417741.334898591 0 12417741.334898591 -28787618.47630512 0 0 0 0 537939742.20755005 126727802.85816717 0 126727802.85816717 -10357914.805640697 0 0 0 0 642318971.98931885 22564600.544887304 0 22564600.544887304 24645677.145938635 0 0 0 0 269429281.76045227 -90181389.932056844 0 -90181389.932056844 133004301.17749536 0 0 0 0 -31436381.798400879 101986228.8116622 0 101986228.8116622 16807911.884279132 0 0 0 0 245810731.23531342 -312991617.51652098 0 -312991617.51652098 -9236130.8818480968 0 0 0 0 330945558.98500824 -207250183.06883657 0 -207250183.06883657 -54399956.880626202 0 0 0 0 68170159.33757019 14868697.226177216 0 14868697.226177216 -154533163.56202102 0 0 0 0 395744780.44572449 -128107510.66314656 0 -128107510.66314656 15485236.91865766 0 0 0 0 370631344.31986237 -261709372.33737677 0 -261709372.33737677 22067665.511575222 0 0 0 0 419682417.2736969 -200070570.99320948 0 -200070570.99320948 80522123.827729344 0 0 0 0 430431681.21434021 -213478049.22188365 0 -213478049.22188365 -3831367.3896023035 0 0 0 0 477165578.07748413 -201010877.68952489 0 -201010877.68952489 -27246886.9524858 0 0 0 0 477987708.83709717 -243709023.65812039 0 -243709023.65812039 -57024399.175991654 0 0 0 0 505279728.82855225 -245428070.44691277 0 -245428070.44691277 -95627865.95655632 0 0 0 0 457524749.28869629 -274052932.82551813 0 -274052932.82551813 -59813282.766540289 0 0 0 0 382504796.48527527 -222083137.42257512 0 -222083137.42257512 -45854888.428987026 0 0 0 0 479223338.46536255 -346965626.72160792 0 -346965626.72160792 -15613135.960840583 0 0 0 0 719192444.25713348 -224498724.62240958 0 -224498724.62240958 -94429807.065490246 0 0 0 0 1084854596.8148575 286008136.77691507 0 286008136.77691507 146289710.86199284 0 0 0 0 1093407088.773201 -38608329.762763023 0 -38608329.762763023 139862816.60326317 0 0 0 0 969250302.75379944 172658641.66127753 0 172658641.66127753 -6582171.0856294632 0 0 0 0 674307865.00274658 -42418302.512906551 0 -42418302.512906551 70297684.184432089 0 0 0 0 472468806.65131378 192788678.66639876 0 192788678.66639876 31155533.665925026 0 0 0 0 606434015.7857132 191016150.38892412 0 191016150.38892412 91563318.140784085 0 0 0 0 551432926.65576172 -3731606.6422352791 0 -3731606.6422352791 41265256.080791473 0 0 0 0 973950253.59013367 124952857.17240906 0 124952857.17240906 5802647.5925588608 0 0 0 0 1567221610.470974 119345860.23072267 0 119345860.23072267 -165206452.23436737 0 0 0 0 955229948.79009247 -19660808.348124504 0 -19660808.348124504 17146384.421544075 0 0 0 0 413168.89866610104 -372677.69656709209 0 -372677.69656709209 -298446.83423571894 0 0 0 0 973348432.81433868 205363020.08378625 0 205363020.08378625 148391754.77892256 0 0 0 0 377766.5922028143 -368708.97392291576 0 -368708.97392291576 -78419.09466532059 0 0 0 0 217719036.61832428 -302673569.77499819 0 -302673569.77499819 -15647702.382192135 0 0 0 0 342183844.42837524 99485551.668304205 0 99485551.668304205 36962643.864122391 0 0 0 0 878468405.68685532 277917941.38707018 0 277917941.38707018 -119989134.6397295 0 0 0 0 752302256.50054932 -144760544.71572065 0 -144760544.71572065 -224636222.1188184 0 0 0 0 922011037.42726135 73292315.666179419 0 73292315.666179419 -219307181.83781052 0 0 0 0 1263976175.419857 -61839725.644384027 0 -61839725.644384027 -222769416.93776703 0 0 0 0 957154935.02269936 13885412.535320431 0 13885412.535320431 -20008041.43108511 0 0 0 0 1194816642.5623474 -60233655.554757357 0 -60233655.554757357 62855402.597941756 0 0 0 0 736900.81151728891 -729874.09931261465 0 -729874.09931261465 -160150.23694591946 0 0 0 0 957357885.45549011 19521287.104691744 0 19521287.104691744 21169825.699422598 0 0 0 0 978493002.99629211 31965154.070910633 0 31965154.070910633 -29735804.165269494 0 0 0 0 978852405.57389069 25311592.080526531 0 25311592.080526531 -62474808.683910251 0 0 0 0 948796.58974082186 -901238.99109785073 0 -901238.99109785073 -628211.55992997065 0 0 0 0 375599602.47888947 -104758572.42867614 0 -104758572.42867614 136934404.90160006 0 0 0 0 394698.89939724095 -379931.17048113979 0 -379931.17048113979 -94587.504454333393 0 0 0 0 612328105.15007019 206105848.83252525 0 206105848.83252525 89917419.109510422 0 0 0 0 1059174456.9333649 -47798633.057335377 0 -47798633.057335377 12977704.852439836 0 0 0 0 1023752107.5618248 263436844.49043155 0 263436844.49043155 81922733.318672419 0 0 0 0 691048973.61457062 -20652023.110126257 0 -20652023.110126257 62270235.409470975 0 0 0 0 1426479562.2811794 114946377.19966912 0 114946377.19966912 -137412401.02464867 0 0 0 0 691518866.59030914 -16301203.722880244 0 -16301203.722880244 -108442782.37090468 0 0 0 0 228688889.93870163 243138621.94005358 0 243138621.94005358 -122056721.09694958 0 0 0 0 497554767.59960938 -143896763.28628522 0 -143896763.28628522 -41846207.591318816 0 0 0 0 2557151.2660399042 -1809243.2331699571 0 -1809243.2331699571 781758.52842507674 0 0 0 0 70503593.519577026 -428694326.14424229 0 -428694326.14424229 -102515977.23166561 0 0 0 0 119070986.03020477 49574384.813947201 0 49574384.813947201 -394396630.28689575 0 0 0 0 -215607607.45979309 131882956.26103806 0 131882956.26103806 -59773585.861608744 0 0 0 0 32278801.839294434 -34965500.852192879 0 -34965500.852192879 43552974.488420963 0 0 0 0 1058819.5066964477 -708953.22664976586 0 -708953.22664976586 297165.0737732253 0 0 0 0 -230296475.14388835 -430201240.56783611 0 -430201240.56783611 82692390.709750175 0 0 0 0 2015175048.3108368 685320856.51829028 0 685320856.51829028 -304519029.97082162 0 0 0 0 515758278.25391006 141862793.25839028 0 141862793.25839028 100325768.59235215 0 0 0 0 1104339584.6508865 230309855.51470149 0 230309855.51470149 1511020.3971582651 0 0 0 0 1085894.3916225748 -1024837.6937726475 0 -1024837.6937726475 -165532.45144946163 0 0 0 0 1400517595.0787544 129174342.31841856 0 129174342.31841856 -163529276.92087054 0 0 0 0 1150633789.6887512 121069792.84472317 0 121069792.84472317 -129589003.45837596 0 0 0 0 835919781.04079056 -149057748.87870684 0 -149057748.87870684 -83483489.058106631 0 0 0 0 1099071039.798851 79596791.921232596 0 79596791.921232596 30252813.26557596 0 0 0 0 708816538.3700428 -139564215.30052513 0 -139564215.30052513 1082961682.0705061 0 0 0 0 1202320710.5757751 61371654.927876443 0 61371654.927876443 -17820776.428181469 0 0 0 0 1669783776.6802139 -264173404.79371774 0 -264173404.79371774 -309484856.81294489 0 0 0 0 844739.55224621086 -679667.5203249678 0 -679667.5203249678 438837.76267989411 0 0 0 0 1171596404.1811981 74483639.856337994 0 74483639.856337994 55257053.8245911 0 0 0 0 1172504308.3291459 -21262677.323171366 0 -21262677.323171366 2822782.740717411 0 0 0 0 1493475800.7635956 83611514.501063496 0 83611514.501063496 -36306523.156107217 0 0 0 0 1100231532.6233368 23372783.387538344 0 23372783.387538344 82031210.77836293 0 0 0 0 339549.97924601659 -188512.69488691352 0 -188512.69488691352 273061.85633007716 0 0 0 0 744348686.70132446 53798286.316308677 0 53798286.316308677 -227720630.29227328 0 0 0 0 730251722.62598038 80222877.047103688 0 80222877.047103688 -99452934.84282279 0 0 0 0 656055988.76787567 -41198396.697552502 0 -41198396.697552502 -62625881.425193906 0 0 0 0 355913858.72940063 -109911770.61590528 0 -109911770.61590528 -17186506.87385571 0 0 0 0 635563784.71461487 -84703448.26447618 0 -84703448.26447618 -20046507.718131453 0 0 0 0 349170945.15476227 -93336951.304727793 0 -93336951.304727793 64296553.360427856 0 0 0 0 149366706.50334167 -28107274.683306456 0 -28107274.683306456 66761165.209705539 0 0 0 0 197533544.39461517 -42284949.473274112 0 -42284949.473274112 35667161.485009193 0 0 0 0 82942292.87985611 -280927731.28581989 0 -280927731.28581989 104223678.3528204 0 0 0 0 877725749.89373779 -92315236.38914609 0 -92315236.38914609 -340033763.51676929 0 0 0 0 595367454.69013977 -559568578.95037603 0 -559568578.95037603 102532039.70938349 0 0 0 0 808817743.29057312 -334788054.03796339 0 -334788054.03796339 35425829.603658199 0 0 0 0 398421051.24319458 -196681468.17701742 0 -196681468.17701742 76543009.482911035 0 0 0 0 373194317.68278503 -140054699.78768492 0 -140054699.78768492 99294561.839470044 0 0 0 0 414598317.91326904 -155782257.25469589 0 -155782257.25469589 47633420.57130456 0 0 0 0 426145540.97947693 -172789820.97251946 0 -172789820.97251946 31574294.30553174 0 0 0 0 440432143.79425049 -160723303.98789966 0 -160723303.98789966 62825992.007790715 0 0 0 0 432468541.44515991 -186588412.46559137 0 -186588412.46559137 53029077.726960301 0 0 0 0 410661755.39543915 -157398583.93245682 0 -157398583.93245682 90383723.20091033 0 0 0 0 414432650.76943207 -163881807.93957126 0 -163881807.93957126 101264983.51055181 0 0 0 0 484606120.24778748 -187708733.06619158 0 -187708733.06619158 73523011.429342031 0 0 0 0 464402341.6995945 -102495727.70564243 0 -102495727.70564243 127281185.43176436 0 0 0 0 650235611.899086 -71060120.134621888 0 -71060120.134621888 90626059.510241032 0 0 0 0 506410861.32411957 -123252815.78320138 0 -123252815.78320138 115688660.89776967 0 0 0 0 510981730.76220703 -140671599.04411131 0 -140671599.04411131 83375965.639551893 0 0 0 0 688473569.29601288 -119536409.8816953 0 -119536409.8816953 46279508.555311382 0 0 0 0 792915860.56185913 -62352403.806910999 0 -62352403.806910999 57072599.739784464 0 0 0 0 730425347.44329834 -26531034.452533796 0 -26531034.452533796 90129026.078863621 0 0 0 0 680453626.66676331 -104282472.54577726 0 -104282472.54577726 100010390.60275143 0 0 0 0 697577348.45553589 -34672641.423781693 0 -34672641.423781693 90467017.034362644 0 0 0 0 720789232.64243698 -86685568.263398483 0 -86685568.263398483 142054794.35438547 0 0 0 0 796908360.96017456 16023819.301453918 0 16023819.301453918 149793809.16017669 0 0 0 0 1011659303.9199371 24879225.460335106 0 24879225.460335106 55438660.013592064 0 0 0 0 1034988564.7977409 -4486317.7840966508 0 -4486317.7840966508 22846206.923677683 0 0 0 0 990524830.12581825 -89274410.874542654 0 -89274410.874542654 41413242.055143297 0 0 0 0 1045030842.8396149 45341686.064083248 0 45341686.064083248 27959830.690844834 0 0 0 0 1088923501.2089386 -31360242.254128337 0 -31360242.254128337 3948884.064669773 0 0 0 0 941919081.35422134 -49424202.081648134 0 -49424202.081648134 68118565.330956876 0 0 0 0 944058241.83258057 -72862792.811389983 0 -72862792.811389983 -3850419.8258424997 0 0 0 0 745081058.32777405 -122946233.28045295 0 -122946233.28045295 73520812.073074698 0 0 0 0 906696324.96563721 -16932177.686904915 0 -16932177.686904915 25484379.260474384 0 0 0 0 735867825.4189682 -97490070.31918034 0 -97490070.31918034 23914874.223808497 0 0 0 0 564682055.71543884 -113497099.52280615 0 -113497099.52280615 85928374.70678097 0 0 0 0 786913111.44821167 -159325889.49179399 0 -159325889.49179399 -11961234.450712919 0 0 0 0 534875604.02790833 -217618045.82221615 0 -217618045.82221615 66583361.885991096 0 0 0 0 572979023.43386078 -213162169.70354778 0 -213162169.70354778 52716300.557611652 0 0 0 0 556624.48347441666 87727.343128710985 0 87727.343128710985 147014.41895223348 0 0 0 0 442067358.31152725 -89739244.041405842 0 -89739244.041405842 92207402.582743794 0 0 0 0 553165696.6001358 -129587695.41706155 0 -129587695.41706155 22909894.948306791 0 0 0 0 563922043.55702829 -127901712.07700652 0 -127901712.07700652 10495660.677142054 0 0 0 0 5422920.1460571289 -533149.62217566534 0 -533149.62217566534 474210.01737263729 0 0 0 0 3023.6372705241665 -427.14123173430562 0 -427.14123173430562 556.21565273553949 0 0 0 0 2244716.7453318108 -373833.4798062034 0 -373833.4798062034 131510.35000691339 0 0 0 0 4838625.1968193054 -1687342.263412575 0 -1687342.263412575 55740.83817861136 0 0 0 0 568211327.30208588 -192698063.09071741 0 -192698063.09071741 70876719.118014649 0 0 0 0 2561511.3643905492 -397247.93442568183 0 -397247.93442568183 300577.35798269941 0 0 0 0 583644.51190734841 188036.21368861012 0 188036.21368861012 172910.55161197466 0 0 0 0 726048189.03878784 -103605121.4681967 0 -103605121.4681967 80073491.068358213 0 0 0 0 570875378.16495705 -203460595.92306662 0 -203460595.92306662 110381002.58499575 0 0 0 0 790039102.9068718 -194371159.27605885 0 -194371159.27605885 75529256.175585061 0 0 0 0 653062347.32359314 -250920781.94398767 0 -250920781.94398767 -1823175.6162647009 0 0 0 0 1159100262.6521301 -229275087.17432222 0 -229275087.17432222 52497224.661135703 0 0 0 0 1139666144.7147141 14953841.97444794 0 14953841.97444794 40476425.989155963 0 0 0 0 1016037870.1565552 -89901052.103244781 0 -89901052.103244781 26758157.490779817 0 0 0 0 788915927.87709308 -106823625.67700104 0 -106823625.67700104 60109157.319603503 0 0 0 0 995658554.39245796 -23375001.571188621 0 -23375001.571188621 59539891.638123333 0 0 0 0 1111763791.2612305 4470325.4459302425 0 4470325.4459302425 36837812.385381848 0 0 0 0 1121710764.2129898 -3759916.7216008008 0 -3759916.7216008008 21216293.378131233 0 0 0 0 1118230892.9827251 2048888.7599599175 0 2048888.7599599175 82391754.594577074 0 0 0 0 1172826696.4518614 18628301.65792919 0 18628301.65792919 14500505.300361782 0 0 0 0 1192255444.9248695 -47544548.947428361 0 -47544548.947428361 78115766.338570774 0 0 0 0 1163278829.1771183 -65455888.1568501 0 -65455888.1568501 51984173.369099885 0 0 0 0 1186245556.649189 -21567464.517767373 0 -21567464.517767373 119379852.27225702 0 0 0 0 1351305056.3125763 -131054971.64445205 0 -131054971.64445205 113832.48839266833 0 0 0 0 1319001652.3999481 12427424.058202192 0 12427424.058202192 66449384.293226361 0 0 0 0 1462447032.1597862 -182713289.74323687 0 -182713289.74323687 -4300435.2534207255 0 0 0 0 289457.12881473266 98690.99240770936 0 98690.99240770936 71711.985532986786 0 0 0 0 617796726.89251709 -223213651.01398265 0 -223213651.01398265 200176529.2929073 0 0 0 0 5310603.1378898621 -390150.77732282679 0 -390150.77732282679 2999.6240286807979 0 0 0 0 1236744018.3325043 -18684511.971049082 0 -18684511.971049082 -7968029.4826260377 0 0 0 0 2072064.4111734806 -413402.01498214714 0 -413402.01498214714 54383.398729168395 0 0 0 0 3874.8142752796412 -579.87221637368202 0 -579.87221637368202 270.85617766486308 0 0 0 0 4298358.9490432739 -801106.20338247996 0 -801106.20338247996 162962.42191335489 0 0 0 0 6016895.8659629822 -1353205.0360765427 0 -1353205.0360765427 111935.76575146033 0 0 0 0 5838968.1751937866 -1317951.9700553748 0 -1317951.9700553748 118202.23923962656 0 0 0 0 856649903.7942276 -149339839.11399865 0 -149339839.11399865 20894749.450044442 0 0 0 0 412467170.33139038 -36161322.492463291 0 -36161322.492463291 71447728.100069523 0 0 0 0 618077525.74183273 -9208720.8674248345 0 -9208720.8674248345 -9227203.8390233517 0 0 0 0 378707218.95541382 -29668785.235228837 0 -29668785.235228837 11450047.69163841 0 0 0 0 607099149.67077065 -77406099.709669009 0 -77406099.709669009 104257376.54998803 0 0 0 0 656922975.23270416 64965759.239014596 0 64965759.239014596 28070586.0671767 0 0 0 0 1347539999.5179291 -71245243.395939648 0 -71245243.395939648 10173913.751448691 0 0 0 0 1158556027.9852123 -65095246.247751564 0 -65095246.247751564 87960830.101220489 0 0 0 0 1058883428.2224655 35870507.561454281 0 35870507.561454281 63607240.525817171 0 0 0 0 1073996681.7023525 20438021.91305881 0 20438021.91305881 -12858921.760467775 0 0 0 0 1061152012.9978828 20886631.020760793 0 20886631.020760793 21882.17488589212 0 0 0 0 937697249.42161179 -98999549.680435926 0 -98999549.680435926 186273.45349255949 0 0 0 0 788517211.08504105 20864924.708453134 0 20864924.708453134 -41193.588837863965 0 0 0 0 610317437.979599 21123644.335980114 0 21123644.335980114 15801657.294720769 0 0 0 0 442999972.23617554 39775368.912067376 0 39775368.912067376 72422.11177604043 0 0 0 0 629850761.27391434 -105744582.37269057 0 -105744582.37269057 29623381.25187711 0 0 0 0 360233086.67802048 -53777711.568761677 0 -53777711.568761677 5561463.7590770423 0 0 0 0 203867290.45227432 43322266.506590098 0 43322266.506590098 5624.9482527709952 0 0 0 0 211127583.32563782 11133874.919281378 0 11133874.919281378 -30522613.653435826 0 0 0 0 213223076.54761505 27763126.461105973 0 27763126.461105973 47031311.536389649 0 0 0 0 35408999.155090332 42433796.806775734 0 42433796.806775734 18324.272127590677 0 0 0 0 132209378.99609375 -13316249.186916869 0 -13316249.186916869 -1205031.727869004 0 0 0 0 101960891.33444214 49746828.593153819 0 49746828.593153819 6089617.2144555934 0 0 0 0 30587812.807880402 -7132784.6489007697 0 -7132784.6489007697 -20241454.268257439 0 0 0 0 87370.773363964632 69987.317347353324 0 69987.317347353324 13473.793986337958 0 0 0 0 99208776.880996704 53472790.615340889 0 53472790.615340889 -40198539.211060435 0 0 0 0 108517358.00476074 31212169.200456947 0 31212169.200456947 -11251948.869393885 0 0 0 0 -40824326.457687378 1622180.7475025654 0 1622180.7475025654 71662834.08733201 0 0 0 0 121793549.35310364 23258425.199502826 0 23258425.199502826 -41340602.885054231 0 0 0 0 9879385.7158279419 69311408.489549279 0 69311408.489549279 87613578.337468743 0 0 0 0 -77371133.528923035 104718638.18020585 0 104718638.18020585 83391881.470286846 0 0 0 0 408309431.33579254 448648.32766911387 0 448648.32766911387 -38303596.446929634 0 0 0 0 -33459.901941306889 88474.652529934421 0 88474.652529934421 62160.385533576657 0 0 0 0 247275035.68848419 9291434.093724221 0 9291434.093724221 44890800.786478758 0 0 0 0 226981800.27130127 59719899.49955672 0 59719899.49955672 13152881.012927532 0 0 0 0 387595509.68135452 -6215647.0524809211 0 -6215647.0524809211 16902422.136296034 0 0 0 0 260037456.49160767 39903730.282974601 0 39903730.282974601 58376342.436073303 0 0 0 0 257102816.58189392 4135149.023884058 0 4135149.023884058 42532590.208562493 0 0 0 0 266124865.203125 29964391.465543985 0 29964391.465543985 15103717.928085804 0 0 0 0 212198543.32507324 36446599.747668505 0 36446599.747668505 46795641.264343739 0 0 0 0 199210752.65853882 67916755.521493196 0 67916755.521493196 11544079.77120924 0 0 0 0 224204136.18623352 85803626.718788862 0 85803626.718788862 -3296142.6357729435 0 0 0 0 222058211.26556396 20732186.436117411 0 20732186.436117411 -31247312.710898399 0 0 0 0 209688775.16603518 72215796.616866082 0 72215796.616866082 -13834501.069134235 0 0 0 0 171440012.24171925 43302859.608793333 0 43302859.608793333 2069039.4215455055 0 0 0 0 169906940.60678101 53873733.360626578 0 53873733.360626578 22706533.558662772 0 0 0 0 258531495.56405234 62196601.592423767 0 62196601.592423767 -10538553.84874177 0 0 0 0 35539426.225726128 -11356265.198872335 0 -11356265.198872335 23553390.455395699 0 0 0 0 -72981.411568969488 310932.08269086853 0 310932.08269086853 -3182.8641387454991 0 0 0 0 42903727.526580811 85817375.461845994 0 85817375.461845994 46328609.872888684 0 0 0 0 1542392.7783532143 25286896.823733412 0 25286896.823733412 14949927.063810349 0 0 0 0 3103700.0599441528 -20676184.98122865 0 -20676184.98122865 -18117830.273366362 0 0 0 0 85804194.378051758 5371761.8462150097 0 5371761.8462150097 -8851836.3171744347 0 0 0 0 51346647.271179199 36329361.485126972 0 36329361.485126972 -5466038.1384796798 0 0 0 0 83473984.212280273 32348102.117086887 0 32348102.117086887 8218674.8707785606 0 0 0 0 108908916.68286514 -24742134.758834243 0 -24742134.758834243 -23214707.558905602 0 0 0 0 380561104.30366516 -47206982.301199198 0 -47206982.301199198 -21828435.113088608 0 0 0 0 207135.71397525631 135582.41920548584 0 135582.41920548584 -12063.866303451941 0 0 0 0 -1501715.6405515671 -58213733.573590428 0 -58213733.573590428 -216585788.41849422 0 0 0 0 -52540.1044637952 147400.55028915219 0 147400.55028915219 -50038.114776677685 0 0 0 0 528070.88767841645 361566.83324501198 0 361566.83324501198 -40451.964280671789 0 0 0 0 8263337.7015838623 27004117.293160915 0 27004117.293160915 -125082395.9302597 0 0 0 0 48922442.714904785 87304013.992353439 0 87304013.992353439 -156899044.85801339 0 0 0 0 137898217.73468018 120694466.82985663 0 120694466.82985663 -223768972.22269154 0 0 0 0 39879976.581703186 106635142.25828326 0 106635142.25828326 398582.05410242081 0 0 0 0 37178072.973770142 216795703.74213195 0 216795703.74213195 60025791.843102455 0 0 0 0 196050380.05653381 66943953.943876743 0 66943953.943876743 -2654618.1784267426 0 0 0 0 208083098.84272766 76924055.263488531 0 76924055.263488531 5516673.3232536316 0 0 0 0 -41225448.047309875 211502553.41328979 0 211502553.41328979 90882646.576034546 0 0 0 0 -67873518.220024109 148115858.14283466 0 148115858.14283466 42974853.974110603 0 0 0 0 117199885.88865662 270398044.7845583 0 270398044.7845583 21800475.340388298 0 0 0 0 29213539.133026123 210901487.51510954 0 210901487.51510954 60241115.20554018 0 0 0 0 56124630.098922729 216453118.71303344 0 216453118.71303344 -15333262.11518383 0 0 0 0 322070.9343727082 -7172.8494319180027 0 -7172.8494319180027 -47657.750753037923 0 0 0 0 43602717.639942169 -129354874.87021574 0 -129354874.87021574 118549220.18552494 0 0 0 0 149061308.66436005 -128842566.4484688 0 -128842566.4484688 -150053093.58257055 0 0 0 0 148230726.23779297 -51499072.935826302 0 -51499072.935826302 -44439623.620011806 0 0 0 0 186359870.33242798 63139821.030339241 0 63139821.030339241 -115565678.65405679 0 0 0 0 89938587.074831009 119488534.51323986 0 119488534.51323986 -47685951.40948534 0 0 0 0 163310066.97724915 54276898.861210823 0 54276898.861210823 6362165.5820097923 0 0 0 0 193341810.53528595 105596391.93262899 0 105596391.93262899 -14727893.562616825 0 0 0 0 287498982.03553772 157406263.6429491 0 157406263.6429491 58698697.949780643 0 0 0 0 179499874.41788101 52661162.733530164 0 52661162.733530164 -31691935.922805309 0 0 0 0 37809353.273399353 15213412.833461702 0 15213412.833461702 -45702051.477278709 0 0 0 0 33557000.070766449 -2059828.2509505749 0 -2059828.2509505749 -55058587.001620293 0 0 0 0 50848733.296615601 12098910.561117411 0 12098910.561117411 -44164532.298478127 0 0 0 0 17282935.293579102 16123241.839594841 0 16123241.839594841 -35625162.966868401 0 0 0 0 17428128.726501465 29853141.671418905 0 29853141.671418905 -23517208.388214111 0 0 0 0 -1721476.2324962616 28526960.000497997 0 28526960.000497997 -5549458.1871185303 0 0 0 0 -1976575.2938842773 26043299.163009629 0 26043299.163009629 -8793192.7577629089 0 0 0 0 1699847.6092004776 23793472.535625666 0 23793472.535625666 -28268535.498301506 0 0 0 0 2943141.6523590088 13769631.658495426 0 13769631.658495426 -36811531.696415424 0 0 0 0 3668577.9289658703 411108.97437037923 0 411108.97437037923 -424559.97758169309 0 0 0 0 7460386.474357605 20218578.011991739 0 20218578.011991739 -63276236.120823383 0 0 0 0 -642678.89402008057 22104033.167260319 0 22104033.167260319 -44289003.823766708 0 0 0 0 29247096.016769409 -2146450.29347229 0 -2146450.29347229 -77330908.699909687 0 0 0 0 576936.77463937178 1001774.5660535108 0 1001774.5660535108 -185154.15896421269 0 0 0 0 2603372.226348877 10392073.336094856 0 10392073.336094856 -5969045.3463230133 0 0 0 0 2738999.2354888916 -1842636.8673551083 0 -1842636.8673551083 -53253889.975222826 0 0 0 0 -18058970.742538452 -13400473.951768756 0 -13400473.951768756 -5030136.4475765228 0 0 0 0 14945667.61100769 1936781.3316001892 0 1936781.3316001892 -55137595.686914444 0 0 0 0 12240625.134719849 -20871896.583433151 0 -20871896.583433151 -23043256.664574623 0 0 0 0 13153766.128997803 -156048497.64079762 0 -156048497.64079762 29832920.029809475 0 0 0 0 177394197.43379211 -107604742.24503851 0 -107604742.24503851 38953226.614474833 0 0 0 0 -9737703.577583313 -70677243.872758865 0 -70677243.872758865 86512864.728799343 0 0 0 0 175805.60991864651 240259.10193647095 0 240259.10193647095 -43777.197019260173 0 0 0 0 61091233.177427292 -187405752.44390881 0 -187405752.44390881 -58790263.821755409 0 0 0 0 -7984281.9770278931 38935690.884941936 0 38935690.884941936 -20514997.757531166 0 0 0 0 97049891.5234375 -120305481.22870874 0 -120305481.22870874 -187286873.9284234 0 0 0 0 65085617.98739624 39352767.256294012 0 39352767.256294012 -189070733.36944598 0 0 0 0 41389629.75037384 -25919284.318098307 0 -25919284.318098307 -80608414.792042732 0 0 0 0 50734057.510986328 -10002201.697491169 0 -10002201.697491169 -56124107.702788293 0 0 0 0 57261624.868713379 -51832048.970770359 0 -51832048.970770359 -49636431.667975426 0 0 0 0 56452858.816207886 -56092952.648199558 0 -56092952.648199558 -64448192.208969593 0 0 0 0 68430764.337837219 1361506.5870397091 0 1361506.5870397091 -63067612.632720947 0 0 0 0 65888196.089752197 -5414647.96316576 0 -5414647.96316576 -75977629.146773696 0 0 0 0 59586120.248569489 22011543.852938533 0 22011543.852938533 -32387614.354812622 0 0 0 0 134210240.71814728 30448555.95549798 0 30448555.95549798 -34594647.198037148 0 0 0 0 83363223.3879776 6477117.4458557367 0 6477117.4458557367 -65643094.45942688 0 0 0 0 36579748.992950439 -14294726.883170724 0 -14294726.883170724 -6225987.5083914399 0 0 0 0 22953491.710823059 16914780.591059208 0 16914780.591059208 -11678758.845585942 0 0 0 0 456936.91241677105 380534.93501541764 0 380534.93501541764 108098.89669728384 0 0 0 0 -32648013.645507812 17275357.023707926 0 17275357.023707926 24920987.757253051 0 0 0 0 50271889.642715454 -7143462.4147406816 0 -7143462.4147406816 9043813.2282612324 0 0 0 0 222005372.51367188 -1827840.3866581917 0 -1827840.3866581917 9112732.4083943292 0 0 0 0 182127.441886032 129549.8329297537 0 129549.8329297537 21079.037979574525 0 0 0 0 103933298.65640259 118315924.40261155 0 118315924.40261155 110134350.05313063 0 0 0 0 46373924.754470825 67390615.023382068 0 67390615.023382068 28348618.895062208 0 0 0 0 -9795257.7609024048 32885372.764014482 0 32885372.764014482 115457612.10490692 0 0 0 0 46726738.368087769 49307897.717137337 0 49307897.717137337 30328233.495198011 0 0 0 0 21053200.822875977 41617349.922947645 0 41617349.922947645 2740690.550231725 0 0 0 0 16002877.892044067 39756217.26082015 0 39756217.26082015 2485137.2185707092 0 0 0 0 56363044.576396465 39487068.937177867 0 39487068.937177867 -23659239.098225117 0 0 0 0 55000164.461669922 12354038.582588673 0 12354038.582588673 -44674125.722712159 0 0 0 0 16035236.761077881 39359591.785401583 0 39359591.785401583 -1528711.2059524059 0 0 0 0 10011066.479370117 55582625.052229404 0 55582625.052229404 26932923.784861803 0 0 0 0 -13571721.312774658 38684848.805408955 0 38684848.805408955 15143447.243645191 0 0 0 0 -34271679.493843079 29714490.021075845 0 29714490.021075845 47428969.46617955 0 0 0 0 -8285045.8545389175 28544487.800923042 0 28544487.800923042 31961677.798074722 0 0 0 0 -57837819.261993408 7731620.230368495 0 7731620.230368495 56830420.929923773 0 0 0 0 -1499546.894241333 -16316326.178123176 0 -16316326.178123176 21860869.8388744 0 0 0 0 20040395.778244019 24235490.270834446 0 24235490.270834446 48091869.642669439 0 0 0 0 19747318.10382843 1048457.0389035046 0 1048457.0389035046 233255897.21209192 0 0 0 0 -5299603.203414917 -13260805.937857211 0 -13260805.937857211 92131384.426051736 0 0 0 0 79841472.511367798 -42794817.158441186 0 -42794817.158441186 7355479.9792846441 0 0 0 0 12273303.687911987 7974050.6512654722 0 7974050.6512654722 -29707402.538831413 0 0 0 0 -2597838.2167205811 -37296461.916444659 0 -37296461.916444659 5863853.3093821108 0 0 0 0 -69457310.207563877 -55973794.203873627 0 -55973794.203873627 2112782.6950360537 0 0 0 0 -63739936.687339783 3594608.2644309327 0 3594608.2644309327 -12985224.822538018 0 0 0 0 -35209750.673358917 -29913329.18678242 0 -29913329.18678242 -25169678.665465713 0 0 0 0 -51823969.045547485 -12941965.205891967 0 -12941965.205891967 30915885.282412648 0 0 0 0 -19173553.700485229 -23245466.667697042 0 -23245466.667697042 146153573.01471508 0 0 0 0 88090101.790130615 127680184.70410603 0 127680184.70410603 119150698.83159874 0 0 0 0 181677523.91765594 -62914030.326199949 0 -62914030.326199949 20438620.015021026 0 0 0 0 86958039.332635403 16000481.809346434 0 16000481.809346434 -41565409.898078442 0 0 0 0 66833645.825790405 11701463.999128938 0 11701463.999128938 -42384472.353141963 0 0 0 0 -40049488.932811737 -4256147.6334801838 0 -4256147.6334801838 -16664022.285485387 0 0 0 0 -33085142.515750885 63857556.743261598 0 63857556.743261598 -15938982.559986703 0 0 0 0 8975280.5059051514 112385717.1892823 0 112385717.1892823 -49658187.016204044 0 0 0 0 185961.86974945478 133190.4936085958 0 133190.4936085958 -11321.229644178704 0 0 0 0 54690965.29397583 -4717004.477732107 0 -4717004.477732107 -60641001.735247493 0 0 0 0 170036.96172703058 82249.620707771741 0 82249.620707771741 -109216.88148202853 0 0 0 0 -53798652.878486633 35284862.683438271 0 35284862.683438271 -24887.60907275138 0 0 0 0 117559980.67754364 -26816566.495015178 0 -26816566.495015178 -53417774.00836128 0 0 0 0 -12167807.484268188 6031885.6366732903 0 6031885.6366732903 -10547043.922782185 0 0 0 0 -91605705.5117836 -41347891.161469221 0 -41347891.161469221 -3842068.8662136793 0 0 0 0 -85556295.386505127 16779289.126908779 0 16779289.126908779 -49657771.588849723 0 0 0 0 -147190269.47892761 -4618927.642710343 0 -4618927.642710343 -15623892.851254724 0 0 0 0 -79351526.419525146 -24648764.637851089 0 -24648764.637851089 -51330242.193462715 0 0 0 0 -106518850.89486694 -69669955.985414684 0 -69669955.985414684 -57561582.640716523 0 0 0 0 -12672.941829703748 3042.4003317034803 0 3042.4003317034803 398.83708195135659 0 0 0 0 -49031126.344009399 -18848072.439750731 0 -18848072.439750731 -18302443.590752125 0 0 0 0 41744216.852218628 2555218.5927795768 0 2555218.5927795768 -43385049.16796419 0 0 0 0 55739017.551330566 27526805.80517213 0 27526805.80517213 -64934875.316534519 0 0 0 0 -16450099.524097443 45156591.979315691 0 45156591.979315691 -40229203.611795902 0 0 0 0 -80378127.081939697 19434423.396665871 0 19434423.396665871 -38697765.861014932 0 0 0 0 -86824100.839828491 90542867.059270099 0 90542867.059270099 86670.89052948085 0 0 0 0 131450468.86273193 18829015.552332442 0 18829015.552332442 -82630372.374800146 0 0 0 0 67304445.724235535 84011858.075227663 0 84011858.075227663 -49267276.273779392 0 0 0 0 -191302540.78697205 -16194713.427111045 0 -16194713.427111045 16881655.905189812 0 0 0 0 -140591.41994112544 142302.53885455988 0 142302.53885455988 72915.282984334262 0 0 0 0 -119674.64862442017 51095.098393093569 0 51095.098393093569 94.842800789885388 0 0 0 0 -79870.248733520508 64608.101272858461 0 64608.101272858461 -13515.96650905058 0 0 0 0 -15189.46404895559 19694.157450772822 0 19694.157450772822 -49737.104640585618 0 0 0 0 208886.31623077393 322821.96167823253 0 322821.96167823253 -478061.32914142031 0 0 0 0 239919.25631713867 -47212.060298397671 0 -47212.060298397671 -112170.58979269338 0 0 0 0 306266.80585861206 89330.676999188436 0 89330.676999188436 -1010778.3566548587 0 0 0 0 -51205.449821472168 39882.722748032364 0 39882.722748032364 -93.341933605557415 0 0 0 0 -674652.26312255859 49641.686125017935 0 49641.686125017935 -305634.64311498072 0 0 0 0 -9286.6085564158857 10382.044391025323 0 10382.044391025323 -27209.061666892845 0 0 0 0 40763.79216003418 61918.015716182315 0 61918.015716182315 -23801.102420312272 0 0 0 0 158397.1124420166 5334.6240691085086 0 5334.6240691085086 196.8547605149185 0 0 0 0 -413489.98503112793 918345.13008475804 0 918345.13008475804 -1330448.5670270806 0 0 0 0 -47485.88143157959 638153.88076128624 0 638153.88076128624 -1683656.7247120133 0 0 0 0 -11500.278233956546 -36685.344877281925 0 -36685.344877281925 22680.386408009974 0 0 0 0 -503245.66661071777 728947.53788890503 0 728947.53788890503 -1433300.2406119083 0 0 0 0 -1665915.8987121582 803027.57248404296 0 803027.57248404296 -641003.7044004465 0 0 0 0 -532360.08211517334 893933.91889214097 0 893933.91889214097 -649072.91807067138 0 0 0 0 -594050.10054779053 -255400.07162068086 0 -255400.07162068086 194984.04370778915 0 0 0 0 -621232.04258011468 -51340.161522944458 0 -51340.161522944458 29777.539835722157 0 0 0 0 -3286450.0418300629 -1143432.5326017141 0 -1143432.5326017141 3222139.7361941338 0 0 0 0 -2509347.6410827637 1617505.5620840788 0 1617505.5620840788 -570873.8217830658 0 0 0 0 -76252.682052612305 381938.35910001164 0 381938.35910001164 -74367.245799635071 0 0 0 0 -262205.77604083717 45694.841594736092 0 45694.841594736092 87337.222590428108 0 0 0 0 -79612.188758850098 455948.27111007366 0 455948.27111007366 -101024.10109396721 0 0 0 0 -177035.34834285919 367517.97839727253 0 367517.97839727253 -277404.37102040887 0 0 0 0 -54388029.393135071 15529496.604372472 0 15529496.604372472 9125544.9847173691 0 0 0 0 -75896344.183818817 -10014142.6987001 0 -10014142.6987001 24921386.683056116 0 0 0 0 -188771.20343510993 264774.02159009129 0 264774.02159009129 -23001.196822374746 0 0 0 0 13473855.314254761 -7802038.817469079 0 -7802038.817469079 -8878844.772827724 0 0 0 0 33127758.196350098 7718798.1345338896 0 7718798.1345338896 -3655592.7712479066 0 0 0 0 13349747.427864075 2809814.737993917 0 2809814.737993917 -4738595.6560902596 0 0 0 0 12153993.470531464 2346097.212061699 0 2346097.212061699 -7366.2243939095479 0 0 0 0 13021158.929161072 1440548.8281899882 0 1440548.8281899882 -1283207.7645806519 0 0 0 0 11670457.650514603 3839335.4436759339 0 3839335.4436759339 -1710106.8181298999 0 0 0 0 15266771.017471313 5298947.6777046602 0 5298947.6777046602 -1549528.1996602856 0 0 0 0 8361092.8564758301 3547842.0676059388 0 3547842.0676059388 -1872.1846532987988 0 0 0 0 1966165.4381065369 1616618.1261986836 0 1616618.1261986836 1163984.3990261715 0 0 0 0 8569633.8997116089 7428549.2914320752 0 7428549.2914320752 1990050.013627748 0 0 0 0 6957901.1441268921 10159696.446782021 0 10159696.446782021 10590801.547782134 0 0 0 0 3392035.0035552979 1211697.6705108243 0 1211697.6705108243 531825.62411946664 0 0 0 0 1811875.2184333801 384036.35946338694 0 384036.35946338694 -235734.831248709 0 0 0 0 -116838.21844482422 838423.61289566569 0 838423.61289566569 -159621.44490803313 0 0 0 0 30135.85644730553 19591.388465458527 0 19591.388465458527 -29917.021208135808 0 0 0 0 -2952753.7288208008 1481079.0140247394 0 1481079.0140247394 1835.829081728097 0 0 0 0 9255603.7746086121 2701260.7261747038 0 2701260.7261747038 268313.06062522577 0 0 0 0 -157760.79252512753 142442.05097845849 0 142442.05097845849 -121478.59697734656 0 0 0 0 -2573762.7686004639 -1293034.0068363308 0 -1293034.0068363308 -836095.07599291136 0 0 0 0 -3237.6100580394268 3474.5855843881145 0 3474.5855843881145 -8607.0179151792345 0 0 0 0 -645142.50100708008 2476946.6328754136 0 2476946.6328754136 -652710.73873387184 0 0 0 0 -141202.91413116455 1541862.9570922151 0 1541862.9570922151 -2611004.6644381629 0 0 0 0 -469255.93112182617 141763.10858075746 0 141763.10858075746 314762.51180977008 0 0 0 0 -177547.39892626368 157917.65764027089 0 157917.65764027089 -123207.6871851114 0 0 0 0 450369.43019104004 435057.19332377193 0 435057.19332377193 -410713.78019198496 0 0 0 0 -581771.50216674805 436442.43722998071 0 436442.43722998071 -1055069.7798765874 0 0 0 0 -914250.0038026683 548745.31733063003 0 548745.31733063003 249087.34318162024 0 0 0 0 -3502968.7742805481 2027667.332152307 0 2027667.332152307 608639.93409699202 0 0 0 0 -2349621.1342563629 1258304.3973741531 0 1258304.3973741531 -1137946.2595670223 0 0 0 0 -4035853.3362312317 5840153.5427104756 0 5840153.5427104756 7258358.2443568408 0 0 0 0 1089145.4866714478 -3566951.1374584436 0 -3566951.1374584436 547718.81684565544 0 0 0 0 1314760.5842819642 417722.50477855094 0 417722.50477855094 -352276.43272405147 0 0 0 0 3108585.2220611572 1456732.0061169416 0 1456732.0061169416 -12356958.589940889 0 0 0 0 138823.0478490144 -41337.790289367083 0 -41337.790289367083 -61889.594948875849 0 0 0 0 7969168.0353469849 12369175.765842825 0 12369175.765842825 10393061.878683269 0 0 0 0 3381782.4849624634 -11323589.978261679 0 -11323589.978261679 25832798.388475806 0 0 0 0 4591894.5010070801 -5268979.8276124299 0 -5268979.8276124299 11929064.315945685 0 0 0 0 4874460.1400299072 15058552.67589134 0 15058552.67589134 18987044.851827443 0 0 0 0 492206.9001159668 326209.51008093357 0 326209.51008093357 19697917.980074108 0 0 0 0 72650432.10484314 19073193.915598802 0 19073193.915598802 1082087.0943763852 0 0 0 0 50284.938984375447 -19145.694546391256 0 -19145.694546391256 -18684.865045930575 0 0 0 0 32966954.531356812 -20958185.650343791 0 -20958185.650343791 -9717642.7194361277 0 0 0 0 41747.987091524526 24801.86949746497 0 24801.86949746497 -1019.4462655017051 0 0 0 0 37853364.48916626 29264469.416277073 0 29264469.416277073 22399910.996296708 0 0 0 0 40300431.994361877 -86638421.850853652 0 -86638421.850853652 -10915046.820019796 0 0 0 0 79343132.018280029 3978816.8950015269 0 3978816.8950015269 -9529898.3545537908 0 0 0 0 37316619.747592926 11768.749873772264 0 11768.749873772264 -6847573.2574994564 0 0 0 0 3713088.329164505 -2774925.1394627076 0 -2774925.1394627076 -7013157.7535099983 0 0 0 0 4708377.8015285991 697650.20476114377 0 697650.20476114377 -322144.49388342816 0 0 0 0 9526794.652671814 4670780.4501518011 0 4670780.4501518011 -23628385.878385365 0 0 0 0 5412756.1137084961 -7614286.1974539161 0 -7614286.1974539161 -3541424.9591092467 0 0 0 0 3906329.5006103516 -682770.28333339095 0 -682770.28333339095 -14459738.335842252 0 0 0 0 -144772.93620300293 -4071166.0587023199 0 -4071166.0587023199 1501924.2590534687 0 0 0 0 1830692.4237796254 375916.00031204708 0 375916.00031204708 -672130.19797212339 0 0 0 0 -9522529.0022125244 5632750.1334365606 0 5632750.1334365606 368663.81381604075 0 0 0 0 56723.886960983276 -4102910.9915756881 0 -4102910.9915756881 -898999.86534625292 0 0 0 0 1840934.3371315002 -103549.71090832353 0 -103549.71090832353 -609602.23161780834 0 0 0 0 -63725367.023895264 165482455.28980112 0 165482455.28980112 -204294164.03779459 0 0 0 0 -85702943.646987915 100996705.19587922 0 100996705.19587922 -58712489.775769472 0 0 0 0 -84456112.532108307 232525278.13888752 0 232525278.13888752 -398975670.3791337 0 0 0 0 4314776.6339521371 1269694.5225429456 0 1269694.5225429456 -73965.460667781881 0 0 0 0 94758627.124816895 30493601.137044311 0 30493601.137044311 -449610041.70488691 0 0 0 0 -187481287.74676132 59574711.056375444 0 59574711.056375444 -2077220.7134404182 0 0 0 0 -18670337.15322876 117367962.98575306 0 117367962.98575306 2439595.5600075722 0 0 0 0 -54058503.8017416 -369040.74743127823 0 -369040.74743127823 236950696.70763874 0 0 0 0 547242591.13771057 -304944144.23771787 0 -304944144.23771787 342086451.3458147 0 0 0 0 -178813683.88600922 357859674.81075168 0 357859674.81075168 318943725.6427598 0 0 0 0 -120370125.01664352 -197133934.11357647 0 -197133934.11357647 -464798359.36550856 0 0 0 0 97397165.654502869 616820499.16584277 0 616820499.16584277 -843715457.1215055 0 0 0 0 25012594.119888306 9665238.7511754036 0 9665238.7511754036 7622766.9010791779 0 0 0 0 -4649416.4385528564 -10483207.744249821 0 -10483207.744249821 46261435.503442764 0 0 0 0 -28974582.791351318 13734115.987596989 0 13734115.987596989 53163978.005782604 0 0 0 0 -2645156.873916626 3960589.6522247791 0 3960589.6522247791 40536278.056480169 0 0 0 0 1966829.0646362305 8555726.6677486897 0 8555726.6677486897 -7004086.9261078835 0 0 0 0 -816408.12860107422 14515196.242470741 0 14515196.242470741 8265100.4290301204 0 0 0 0 2521874.8273925781 6476647.0941619873 0 6476647.0941619873 549743.35683250427 0 0 0 0 -15070173.091400146 13176677.581665039 0 13176677.581665039 18053196.349161148 0 0 0 0 -14406603.299804688 9212968.2037100792 0 9212968.2037100792 19916170.367395401 0 0 0 0 -14412002.122924805 22532513.096502304 0 22532513.096502304 9090464.1144399643 0 0 0 0 -14495744.187545776 21459267.295298576 0 21459267.295298576 4972076.7479534149 0 0 0 0 -16222530.366828918 31166268.329927385 0 31166268.329927385 14350927.916113853 0 0 0 0 -24707658.481262207 30559324.014523268 0 30559324.014523268 29488684.957535267 0 0 0 0 -17274732.839996338 8721626.056728363 0 8721626.056728363 20319338.317425489 0 0 0 0 -30345174.872161865 21705260.311038017 0 21705260.311038017 22654763.129880905 0 0 0 0 -23655874.89112854 11758688.51076436 0 11758688.51076436 37127934.684373856 0 0 0 0 -45535615.538330078 33854697.296689987 0 33854697.296689987 -4228089.6529526711 0 0 0 0 -31098535.483528137 8212783.9432889223 0 8212783.9432889223 -8577862.2110648155 0 0 0 0 -32999552.035583496 27567048.498109818 0 27567048.498109818 29376264.420000076 0 0 0 0 -40883802.552845001 9284834.5629016757 0 9284834.5629016757 13151903.455553532 0 0 0 0 -33059028.376800537 13682551.80439496 0 13682551.80439496 10292142.870648861 0 0 0 0 -35249635.107666016 25539960.818175793 0 25539960.818175793 30967162.332829118 0 0 0 0 1764599.739074707 -1678739.9538221359 0 -1678739.9538221359 3332848.322561264 0 0 0 0 9953965.4094543457 -10523593.542927146 0 -10523593.542927146 5637443.0381822586 0 0 0 0 12547938.169769287 18619999.417801857 0 18619999.417801857 23777065.377479076 0 0 0 0 -81301.264723822474 58451.826862847432 0 58451.826862847432 78816.161218511756 0 0 0 0 -12310.568723950535 10757.52094290778 0 10757.52094290778 -15482.075799610233 0 0 0 0 -1184970.6962013245 -4108587.4082477093 0 -4108587.4082477093 8658207.267768383 0 0 0 0 -2008340.589017868 4412170.4840571284 0 4412170.4840571284 4341343.2362437248 0 0 0 0 -6693609.4748001099 321895.90391635895 0 321895.90391635895 2475751.3526570797 0 0 0 0 -8777735.4494094849 11731775.179595947 0 11731775.179595947 -2458267.9686512947 0 0 0 0 -6327060.8715820312 10638173.950240374 0 10638173.950240374 -4222678.3060817719 0 0 0 0 -6739422.262008667 8740429.7662658691 0 8740429.7662658691 12981156.150316238 0 0 0 0 -5131254.2055358887 8770149.5120910406 0 8770149.5120910406 -2730237.2143330574 0 0 0 0 992106.79168701172 18719202.72046876 0 18719202.72046876 -3080458.425868988 0 0 0 0 -8576449.2318496704 10242004.102302074 0 10242004.102302074 -1583576.1425857544 0 0 0 0 -464403.28404998779 10812831.037683964 0 10812831.037683964 -16276814.300427437 0 0 0 0 4802445.3825741746 422565.1550336855 0 422565.1550336855 -703516.524431222 0 0 0 0 -207879.97793579102 16103687.833176851 0 16103687.833176851 -19881110.05869627 0 0 0 0 -37654809.802185059 138996597.73502445 0 138996597.73502445 -269670467.34834862 0 0 0 0 2595051.0617572293 357960.29326033592 0 357960.29326033592 -1093654.9006951537 0 0 0 0 3612748.7842980027 1810881.6712933087 0 1810881.6712933087 198440.21514492913 0 0 0 0 3985060.3362731934 -771250.14301034808 0 -771250.14301034808 -4492870.0828875303 0 0 0 0 261382.07297039591 66249.555906202644 0 66249.555906202644 -141648.9014214729 0 0 0 0 -82150520.907329559 148114375.7085005 0 148114375.7085005 -128149002.07435799 0 0 0 0 -59221972.68032074 137078886.67200541 0 137078886.67200541 -190741147.09994984 0 0 0 0 -78043530.51512146 98439100.384889603 0 98439100.384889603 -174093938.42229271 0 0 0 0 7555303.5465698242 2740995.8342590332 0 2740995.8342590332 -68732726.443314552 0 0 0 0 -84300960.993942261 74643225.457952023 0 74643225.457952023 -66456848.136778355 0 0 0 0 -26952091.992630005 76288402.098347664 0 76288402.098347664 -86331736.650878906 0 0 0 0 -117149386.10668945 164042187.02694035 0 164042187.02694035 -140375491.86924648 0 0 0 0 4218635.8294448033 469435.54479111615 0 469435.54479111615 -518132.07130005205 0 0 0 0 -65017355.560409546 58036651.061020851 0 58036651.061020851 34900721.131197691 0 0 0 0 13918646.13861084 -1536750.7927470207 0 -1536750.7927470207 -11300829.84457016 0 0 0 0 32111238.12046814 -307981.72968530655 0 -307981.72968530655 -23529864.680997849 0 0 0 0 3277950.3515930176 20176144.330120087 0 20176144.330120087 -43655327.60648632 0 0 0 0 -1596361.6775665283 5353465.9648242742 0 5353465.9648242742 -25170097.138674259 0 0 0 0 3383087.6929779053 19024442.774778605 0 19024442.774778605 -18292799.328440189 0 0 0 0 -6813525.5467987061 15249547.421506405 0 15249547.421506405 -4818542.5063354969 0 0 0 0 -5108830.5113372803 15923360.431179523 0 15923360.431179523 -15870949.994362831 0 0 0 0 -5517993.538269043 11476775.679152489 0 11476775.679152489 -6006529.4762661457 0 0 0 0 -4125206.9070281982 21225612.081837177 0 21225612.081837177 -23808472.947179317 0 0 0 0 -7554313.6867523193 14092718.265471935 0 14092718.265471935 -25522971.084673405 0 0 0 0 -2171196.7640380859 8485279.1610269547 0 8485279.1610269547 -46319578.602098942 0 0 0 0 -105309.01716919988 1833071.1269713258 0 1833071.1269713258 -97621.315402460488 0 0 0 0 -9303880.3809204102 12744261.449479103 0 12744261.449479103 5706841.9121062756 0 0 0 0 -15022274.888908386 21440724.053253651 0 21440724.053253651 -122913138.32606649 0 0 0 0 2234637.8298187256 4742239.7068052292 0 4742239.7068052292 -158629002.75171369 0 0 0 0 -17699810.388578415 22260648.147174656 0 22260648.147174656 -122799644.3346653 0 0 0 0 -39330.644666448236 618368.32406278769 0 618368.32406278769 -45098.585541100416 0 0 0 0 -15227598.928092957 7582951.0113677979 0 7582951.0113677979 -197405559.02509975 0 0 0 0 -3863319.8846206665 73164679.776768684 0 73164679.776768684 -331887297.47681761 0 0 0 0 -40067810.90827179 42313381.517262936 0 42313381.517262936 -50719314.348931313 0 0 0 0 -60995516.792361259 90880045.373581231 0 90880045.373581231 -116343632.61980629 0 0 0 0 -57202108.177961349 44503407.523079395 0 44503407.523079395 -121594657.48021126 0 0 0 0 -30818471.681850433 44756001.401603222 0 44756001.401603222 -19697719.606568813 0 0 0 0 -30002533.145355225 70070822.858934879 0 70070822.858934879 -92916303.69393146 0 0 0 0 -40463180.549476624 87804196.190448344 0 87804196.190448344 20039194.273865104 0 0 0 0 -9806737.5245796237 65680631.870887809 0 65680631.870887809 34750173.570717454 0 0 0 0 -17792317.821762085 72914067.566610575 0 72914067.566610575 -37368467.558370203 0 0 0 0 -60590692.925428391 20024483.285009533 0 20024483.285009533 17565878.313430071 0 0 0 0 -143413024.91760254 27454992.459604263 0 27454992.459604263 124484305.97434497 0 0 0 0 -164117.11471091211 499813.89327578805 0 499813.89327578805 936255.92337094725 0 0 0 0 -31869841.308939755 -17046576.163995907 0 -17046576.163995907 46489908.510902643 0 0 0 0 -31011103.072616577 29375879.833868146 0 29375879.833868146 20290205.424792171 0 0 0 0 -75170190.210426331 -1745564.6265904903 0 -1745564.6265904903 24774783.294885635 0 0 0 0 -6945688.0317764282 16758777.758329272 0 16758777.758329272 26322180.206717014 0 0 0 0 -72603123.479496002 28933754.141821921 0 28933754.141821921 -15349986.586083889 0 0 0 0 -2651715.897315979 23319127.754271507 0 23319127.754271507 -27279383.307093382 0 0 0 0 -45528526.281776428 54424816.710706472 0 54424816.710706472 -108691852.01894712 0 0 0 0 -43103569.269889832 44126878.597650409 0 44126878.597650409 -30566016.739676237 0 0 0 0 -121421619.22332764 56246527.341454506 0 56246527.341454506 -26000675.48435545 0 0 0 0 -124233068.97605896 146231054.97437549 0 146231054.97437549 -177996518.34002829 0 0 0 0 -145144221.90196228 47550631.066915989 0 47550631.066915989 -100644014.18848658 0 0 0 0 -50817886.898983002 78188794.601284385 0 78188794.601284385 -84478580.006686687 0 0 0 0 -56356772.235298157 104958365.29544663 0 104958365.29544663 -212987725.72678947 0 0 0 0 -32862930.646057129 71860759.845380306 0 71860759.845380306 -94858932.907449007 0 0 0 0 -47020037.084121704 21013824.076283932 0 21013824.076283932 10762355.895326138 0 0 0 0 2229528.6910705566 68390022.587845087 0 68390022.587845087 -81318315.598085284 0 0 0 0 -78754298.896385193 22568989.563793361 0 22568989.563793361 88111387.098089218 0 0 0 0 182079.50957173295 351823.42494115233 0 351823.42494115233 511535.73722991289 0 0 0 0 36716524.607335567 -99484155.995158628 0 -99484155.995158628 103520165.72025442 0 0 0 0 -41990929.437347412 -8060713.1102879047 0 -8060713.1102879047 70577804.955345213 0 0 0 0 18691719.959603786 24384540.377234742 0 24384540.377234742 3062233.7679166794 0 0 0 0 630873187.74773884 -313620633.33963275 0 -313620633.33963275 45295602.633573532 0 0 0 0 40005052.874557495 -159285113.00007629 0 -159285113.00007629 222731793.61671451 0 0 0 0 79599.270342806354 88704.704474397935 0 88704.704474397935 144870.31070328329 0 0 0 0 82366554.001350403 -48377257.08746624 0 -48377257.08746624 29193462.568438053 0 0 0 0 184311747.88011932 -55385445.587454557 0 -55385445.587454557 -138053773.17148161 0 0 0 0 174737985.52222824 -85474490.265265703 0 -85474490.265265703 45297924.051377296 0 0 0 0 145095.76966455136 178250.57120036799 0 178250.57120036799 1482340.4864887465 0 0 0 0 254393644.79315948 -113129187.36354566 0 -113129187.36354566 21408983.44268465 0 0 0 0 207205569.38658142 -115918818.82772398 0 -115918818.82772398 70808358.611180127 0 0 0 0 229570738.70864487 -88612089.570715666 0 -88612089.570715666 1691972.7786502838 0 0 0 0 100739336.99452209 -95650885.127239466 0 -95650885.127239466 7201377.3377835751 0 0 0 0 99547650.236630678 -84533551.831380844 0 -84533551.831380844 355802524.52205276 0 0 0 0 56453995.176372528 -44337598.799155951 0 -44337598.799155951 115001596.97332954 0 0 0 0 115777.82121562585 77025.546240909025 0 77025.546240909025 1003114.7688251892 0 0 0 0 293077091.99749756 473511397.17409611 0 473511397.17409611 -67336340.923856735 0 0 0 0 96047.888786921278 574889.85437990446 0 574889.85437990446 890285.79652157892 0 0 0 0 22568374.139808655 -70997430.552612185 0 -70997430.552612185 58107069.075812459 0 0 0 0 108781490.71025848 -297036609.73795843 0 -297036609.73795843 36356760.251270652 0 0 0 0 215299447.91110229 155747334.41017437 0 155747334.41017437 222602635.55128145 0 0 0 0 19048.287129404023 150353.64794186596 0 150353.64794186596 630679.32153756032 0 0 0 0 320249421.68172836 100864623.68896222 0 100864623.68896222 67100906.268557549 0 0 0 0 -224640937.1322937 -226698223.15356827 0 -226698223.15356827 329340215.61546564 0 0 0 0 203117748.57552719 -210100413.15238768 0 -210100413.15238768 131437268.71587563 0 0 0 0 -69276478.557441711 -64116345.1291731 0 -64116345.1291731 53200556.554880619 0 0 0 0 210877800.95938301 101615573.89124465 0 101615573.89124465 60875334.690790176 0 0 0 0 227728615.10477448 5031304.1162991524 0 5031304.1162991524 -23908983.933974743 0 0 0 0 101893096.17720032 -53921939.121802807 0 -53921939.121802807 29475117.04434967 0 0 0 0 82266279.65372467 -36014125.982390404 0 -36014125.982390404 64822622.882816315 0 0 0 0 -50832600.87987709 -31329245.491872743 0 -31329245.491872743 88227913.401617289 0 0 0 0 103033.81993561145 610553.53083444294 0 610553.53083444294 1709905.6487842987 0 0 0 0 62969254.082576752 15137014.029973626 0 15137014.029973626 5464794.5818424225 0 0 0 0 152007530.00920105 -86291392.297276497 0 -86291392.297276497 34676302.505317688 0 0 0 0 -100488.0753736496 7024.148324161768 0 7024.148324161768 136836.82212989684 0 0 0 0 -42158329.825935364 4568808.6850236654 0 4568808.6850236654 -20834832.92846591 0 0 0 0 162988660.53872681 30103871.675242901 0 30103871.675242901 -256260.7337012291 0 0 0 0 178612566.45056152 96250923.876678944 0 96250923.876678944 41312990.075300217 0 0 0 0 164548211.41924286 64522078.785979748 0 64522078.785979748 127416405.64494324 0 0 0 0 61519409.044456482 -33411584.375564575 0 -33411584.375564575 376487785.72061872 0 0 0 0 102063891.02744293 1677946.8073759079 0 1677946.8073759079 158584608.27749634 0 0 0 0 177508899.1842804 95839316.099547863 0 95839316.099547863 71689180.52404356 0 0 0 0 49168.933759834385 31814.891905526631 0 31814.891905526631 395779.62840734515 0 0 0 0 216692625.44812012 165774222.49081898 0 165774222.49081898 157108237.662076 0 0 0 0 180231164.9177227 86767807.638673723 0 86767807.638673723 338888666.05029678 0 0 0 0 -162428945.9907074 157752872.07252908 0 157752872.07252908 433068079.46835423 0 0 0 0 181622794.87845612 -267789360.61028004 0 -267789360.61028004 -73273432.884843826 0 0 0 0 68981120.036376953 61951688.574020386 0 61951688.574020386 -250550473.57143688 0 0 0 0 68300716.215633392 -80117451.114132017 0 -80117451.114132017 48577418.432192802 0 0 0 0 176689355.93605042 -66108095.95105648 0 -66108095.95105648 29688581.568644762 0 0 0 0 -68022538.968139648 48218197.140666962 0 48218197.140666962 -42114125.726782322 0 0 0 0 142250871.17512512 -101553919.88070607 0 -101553919.88070607 -5397779.8758449554 0 0 0 0 45305267.191604614 -4690672.8980765343 0 -4690672.8980765343 8462477.2734694481 0 0 0 0 166040743.2311554 -56653333.462605476 0 -56653333.462605476 -79630784.479143143 0 0 0 0 173408541.62117004 -77334487.078841925 0 -77334487.078841925 -118429006.03707314 0 0 0 0 -34928030.324577332 -78950362.562920094 0 -78950362.562920094 -167290036.55032921 0 0 0 0 313862.27059425041 131213.15163067076 0 131213.15163067076 -617874.76854345109 0 0 0 0 -120424097.53869629 131906973.04380512 0 131906973.04380512 -84548334.84369278 0 0 0 0 2720065.873544693 3602832.196911335 0 3602832.196911335 -3369747.1440563202 0 0 0 0 765551.01577174617 859135.15921062045 0 859135.15921062045 -389024.47980385902 0 0 0 0 121205134.95087433 -38159755.760858297 0 -38159755.760858297 1713812.9262371063 0 0 0 0 114412740.82389832 -38442143.549488544 0 -38442143.549488544 21852311.299726486 0 0 0 0 130437019.17724228 -9298634.293603301 0 -9298634.293603301 -24833935.73665905 0 0 0 0 79680568.000610352 -3303895.7727856636 0 -3303895.7727856636 6056183.3945674896 0 0 0 0 151807431.46170297 -49757318.556895539 0 -49757318.556895539 -19162596.39350605 0 0 0 0 202900619.42757607 -128218630.07852554 0 -128218630.07852554 -7887460.2120656967 0 0 0 0 148774.25543966517 92961.534329678863 0 92961.534329678863 -164183.46830006759 0 0 0 0 138754777.96221161 -110017193.68904185 0 -110017193.68904185 53928620.295145035 0 0 0 0 108842028.31315613 -24205289.434705734 0 -24205289.434705734 68397296.47372818 0 0 0 0 86112721.882567406 -44424603.588252068 0 -44424603.588252068 23161490.603530884 0 0 0 0 -952101.93342590332 -283087.00713062286 0 -283087.00713062286 409608.68083524704 0 0 0 0 -253396.05122590065 9337087.8366501033 0 9337087.8366501033 -6170998.1328115463 0 0 0 0 -57952005.076400757 91490155.163437605 0 91490155.163437605 -13913641.58261776 0 0 0 0 373521.54996308312 1491403.6893740064 0 1491403.6893740064 2283059.2041900894 0 0 0 0 -77323892.841905594 34190035.097477853 0 34190035.097477853 20791361.192765236 0 0 0 0 -4946871.2114562988 32026319.965304852 0 32026319.965304852 4287543.6181147099 0 0 0 0 25047078.934371948 23476286.196707487 0 23476286.196707487 -74627087.744335651 0 0 0 0 91773291.878448486 31355967.502142906 0 31355967.502142906 -3233657.145632416 0 0 0 0 3882951.9290466309 34495972.163291931 0 34495972.163291931 -2287577.8013720512 0 0 0 0 -20023761.866931915 47887030.234389961 0 47887030.234389961 122881805.33520889 0 0 0 0 -6910331.7647171021 24780245.801770687 0 24780245.801770687 -46034057.093198538 0 0 0 0 1141017.409548955 2158651.4334942047 0 2158651.4334942047 2319989.1464991206 0 0 0 0 -1895944.7345504761 76717703.015395641 0 76717703.015395641 -73463251.009983391 0 0 0 0 20720036.550796509 12362644.84826088 0 12362644.84826088 -45718762.79547596 0 0 0 0 18750599.750869751 -6839899.973098278 0 -6839899.973098278 -63971611.404350758 0 0 0 0 60969622.316864014 28023603.932312965 0 28023603.932312965 -48839032.506486773 0 0 0 0 15413113.651351929 32766781.30755806 0 32766781.30755806 -53347454.069904804 0 0 0 0 24470117.224182129 -48273408.23759079 0 -48273408.23759079 -77047848.31510973 0 0 0 0 23435704.886169434 -56580026.894553185 0 -56580026.894553185 2371310.130662024 0 0 0 0 -5333800.6836242676 10353088.894574642 0 10353088.894574642 -48736332.536766529 0 0 0 0 47421252.661880493 -331004.87655925751 0 -331004.87655925751 -49592003.282922268 0 0 0 0 -7315067.0144248009 -51488819.951345906 0 -51488819.951345906 -58741384.949837685 0 0 0 0 -2327147.8629150391 -14955725.082036734 0 -14955725.082036734 -22303457.419896126 0 0 0 0 -6210178.1948242188 -25342471.731297016 0 -25342471.731297016 20964426.21397543 0 0 0 0 59130680.818855286 -53525731.273578167 0 -53525731.273578167 33064014.334489465 0 0 0 0 36469359.425636292 1236806.0945488214 0 1236806.0945488214 83091094.160513163 0 0 0 0 26479704.037712097 -731968.00237751007 0 -731968.00237751007 746150.21670627594 0 0 0 0 72953557.560180664 22777391.484942794 0 22777391.484942794 2440681.7907291204 0 0 0 0 187093559.46133804 51244818.57123512 0 51244818.57123512 84384916.440143585 0 0 0 0 11386573.112617493 -39345347.735269248 0 -39345347.735269248 202781709.56881535 0 0 0 0 -13394191.478448868 9136696.0286259055 0 9136696.0286259055 131959101.19939137 0 0 0 0 -4293512.0410041809 121706982.45167968 0 121706982.45167968 131330594.00602347 0 0 0 0 24744847.191955566 41485496.181684226 0 41485496.181684226 -3583696.9042805433 0 0 0 0 23643944.501106262 -160134375.26761103 0 -160134375.26761103 327385989.60771489 0 0 0 0 -175163.76628457755 188808.45107635669 0 188808.45107635669 437643.27127802349 0 0 0 0 -1314122.4085655212 -52205107.30310224 0 -52205107.30310224 148980965.1123035 0 0 0 0 -69258264.948539734 -65650864.831853658 0 -65650864.831853658 179122460.42245603 0 0 0 0 -27661558.588562012 26941713.022747636 0 26941713.022747636 117805596.50234365 0 0 0 0 -54170613.587486267 13482094.757327378 0 13482094.757327378 111463352.88677073 0 0 0 0 9795648.1568336487 -24555998.841636062 0 -24555998.841636062 119985528.96779037 0 0 0 0 -5866534.9834442139 61868717.808941722 0 61868717.808941722 319740674.98970705 0 0 0 0 8122150.4992218018 3303357.6147847176 0 3303357.6147847176 -8375343.6081352234 0 0 0 0 -8216190.3626480103 3659333.8628401756 0 3659333.8628401756 1002682.2450399399 0 0 0 0 -3844311.9487285614 -12352168.973219872 0 -12352168.973219872 -72425830.553271294 0 0 0 0 -22627843.764163971 -1530396.7307243347 0 -1530396.7307243347 24775381.663925171 0 0 0 0 1171655.7561703417 141763.32969665295 0 141763.32969665295 -77381.097593273618 0 0 0 0 720039.82287597656 -2383159.7583694458 0 -2383159.7583694458 1650633.4498152733 0 0 0 0 2502795.8738746643 12158074.885557652 0 12158074.885557652 -5118742.7704629898 0 0 0 0 -3036245.4460220337 21942839.207233429 0 21942839.207233429 -6489438.6298236847 0 0 0 0 7088837.9973220825 -1818654.8144595623 0 -1818654.8144595623 -7294604.0212769508 0 0 0 0 1336241.1587592233 -403723.57807337167 0 -403723.57807337167 -481804.60398085206 0 0 0 0 2040055.709367305 75710.298056000844 0 75710.298056000844 -534752.71668730723 0 0 0 0 25579344.696853638 21263282.023243904 0 21263282.023243904 -8195911.7875335217 0 0 0 0 -11699244.420460701 -1956826.7560237646 0 -1956826.7560237646 31626210.961441994 0 0 0 0 3806719.8667068481 -7827315.1020982265 0 -7827315.1020982265 4070974.8920226097 0 0 0 0 -15380567.324567795 9265719.2800959349 0 9265719.2800959349 22979988.511762619 0 0 0 0 1036409.8668977208 40946.114788985811 0 40946.114788985811 68691.130417063367 0 0 0 0 -8258060.2108898163 -2177149.4879095554 0 -2177149.4879095554 22234396.068354607 0 0 0 0 -11936627.712177277 -3630131.7453083992 0 -3630131.7453083992 26176102.07566452 0 0 0 0 17395267.619773865 -7630031.1954436302 0 -7630031.1954436302 23982290.39291954 0 0 0 0 -6001189.2896614075 2273560.1718286276 0 2273560.1718286276 23644285.305660248 0 0 0 0 -16208720.026294708 8404144.6948218346 0 8404144.6948218346 23965367.525911331 0 0 0 0 -33117688.736709595 16875278.682862282 0 16875278.682862282 28659373.300314903 0 0 0 0 -13068298.341171265 2252417.0145514011 0 2252417.0145514011 35972510.541895866 0 0 0 0 393732.75735092163 -34782262.009144187 0 -34782262.009144187 54230557.901162148 0 0 0 0 -37348622.24597168 -8071345.9763278961 0 -8071345.9763278961 49723776.983206868 0 0 0 0 511951.27902390063 33093.956369957887 0 33093.956369957887 271473.21190461004 0 0 0 0 -39953590.803192139 -36827857.446537018 0 -36827857.446537018 -3668444.595248878 0 0 0 0 -53455333.375984192 -20774204.031721473 0 -20774204.031721473 80210099.637168884 0 0 0 0 -46776992.563362122 68410904.590516567 0 68410904.590516567 17823642.059605598 0 0 0 0 -46156726.92035675 60648617.444909096 0 60648617.444909096 100895979.82913637 0 0 0 0 169531233.69815826 150025125.88039303 0 150025125.88039303 129152518.21844101 0 0 0 0 184045925.50793743 255949211.27653503 0 255949211.27653503 81230032.396162033 0 0 0 0 -441533829.7129364 -266138158.84810209 0 -266138158.84810209 22383792.483476639 0 0 0 0 -229458958.06069946 712306488.2642889 0 712306488.2642889 471809105.11224365 0 0 0 0 -141272929.73571014 17412658.152456284 0 17412658.152456284 238067624.74425077 0 0 0 0 -144557764.47312927 -126575489.2682085 0 -126575489.2682085 -24377541.873906136 0 0 0 0 170179926.91622162 -12939647.306560516 0 -12939647.306560516 4184923.3768672943 0 0 0 0 1164584.7855933607 1024811.0451355428 0 1024811.0451355428 470957.84904173214 0 0 0 0 798288384.50449371 128242952.2604723 0 128242952.2604723 -73725760.738214493 0 0 0 0 401456271.05722046 -188704404.33557081 0 -188704404.33557081 85381246.482882619 0 0 0 0 1247697738.6598053 501482151.75669765 0 501482151.75669765 31030416.066935539 0 0 0 0 579212.30123184994 317156.06721330131 0 317156.06721330131 140532.77901844517 0 0 0 0 191569541.00921631 505242831.90089226 0 505242831.90089226 -17940491.239910126 0 0 0 0 1387106342.9394531 341986307.15330505 0 341986307.15330505 -187131512.13938522 0 0 0 0 1211697549.7943649 -338040073.04308462 0 -338040073.04308462 44323877.886757016 0 0 0 0 386320.63738659024 373243.84167436976 0 373243.84167436976 252254.10195075674 0 0 0 0 153289925.91600037 537967766.20032597 0 537967766.20032597 432125476.07154942 0 0 0 0 -107821486.53342438 -90293525.619354725 0 -90293525.619354725 -135504922.38991356 0 0 0 0 800513820.01174164 148097391.92441583 0 148097391.92441583 87665582.477482796 0 0 0 0 326597910.06135559 -6910133.3458042145 0 -6910133.3458042145 59913880.747570276 0 0 0 0 479898043.71992111 -82335041.294676781 0 -82335041.294676781 -15318718.441166878 0 0 0 0 426124719.15822601 -147942304.16570377 0 -147942304.16570377 87454321.673856735 0 0 0 0 239112003.7430191 -83268982.370770931 0 -83268982.370770931 -14174746.523263931 0 0 0 0 139076997.95602417 -35611266.672577858 0 -35611266.672577858 12899046.935376167 0 0 0 0 377945039.64901352 -27614568.106377602 0 -27614568.106377602 -52378472.731368065 0 0 0 0 357208855.29717255 -12261951.408729792 0 -12261951.408729792 -20100656.381014824 0 0 0 0 358716957.44307709 15810510.339348316 0 15810510.339348316 -50429054.906645298 0 0 0 0 -23657970.64491272 -80228961.453258991 0 -80228961.453258991 -211514346.05668736 0 0 0 0 1194809.8814135008 433826.92536961706 0 433826.92536961706 126032.88217875536 0 0 0 0 -8136561.3351745605 45034010.137499809 0 45034010.137499809 -24004751.829068184 0 0 0 0 89639142.534835815 -145268891.70487404 0 -145268891.70487404 95399138.774259567 0 0 0 0 -80723800.158981323 2504361.9639849663 0 2504361.9639849663 75672004.829296112 0 0 0 0 138878520.24043274 -36449977.179459572 0 -36449977.179459572 10033943.113744736 0 0 0 0 -19414378.366226196 -52732661.969442368 0 -52732661.969442368 76100106.871135712 0 0 0 0 -86033.284582199529 29879.163151581772 0 29879.163151581772 90112.452160770539 0 0 0 0 34451480.610321045 -4153458.4649319649 0 -4153458.4649319649 -15161613.407980919 0 0 0 0 18206272.331428528 2610527.5264801979 0 2610527.5264801979 40631280.148260117 0 0 0 0 -203347.90503151901 64519.900492094457 0 64519.900492094457 197519.70071913279 0 0 0 0 121959702.84174347 3316402.73874259 0 3316402.73874259 1351027.5685882568 0 0 0 0 83713897.785461426 -54661467.740076542 0 -54661467.740076542 18306702.024651051 0 0 0 0 81526669.582286835 43956244.890300274 0 43956244.890300274 18725565.425141335 0 0 0 0 26294390.663284302 -32841731.39666605 0 -32841731.39666605 12691959.970897675 0 0 0 0 377221565.38400364 10950488.342633843 0 10950488.342633843 -67871215.307310104 0 0 0 0 249115484.85419464 -4573828.5627279282 0 -4573828.5627279282 -23680036.178703308 0 0 0 0 226173367.11040497 -47901737.15029335 0 -47901737.15029335 -1266528.6592082977 0 0 0 0 230727100.07906342 18734760.791924 0 18734760.791924 -14305026.046660423 0 0 0 0 241247534.6359024 -17129483.148445129 0 -17129483.148445129 -27884871.677914143 0 0 0 0 309729826.42536163 39210348.650383949 0 39210348.650383949 -18698060.966249466 0 0 0 0 220245684.8136673 -294169969.20524645 0 -294169969.20524645 -314267858.27262115 0 0 0 0 490644704.37792206 -10697735.830026627 0 -10697735.830026627 -59204031.735722065 0 0 0 0 142903652.43224716 139210890.5470829 0 139210890.5470829 -28912265.215708733 0 0 0 0 584614667.55195236 482379522.7212081 0 482379522.7212081 225402581.42055988 0 0 0 0 1519378.0963985771 -192161.52079474821 0 -192161.52079474821 -209191.10938038383 0 0 0 0 255260980.5476532 -360485095.35111618 0 -360485095.35111618 132356913.57445538 0 0 0 0 686791514.61838341 -126841872.45944345 0 -126841872.45944345 190862889.32026672 0 0 0 0 981228017.85566711 1109432139.4829197 0 1109432139.4829197 1419900326.3704309 0 0 0 0 1743023920.5222473 -66878405.080339432 0 -66878405.080339432 -1197223142.7939663 0 0 0 0 -14018449.666130066 -19944021.71621871 0 -19944021.71621871 -25884114.941843033 0 0 0 0 15911519.63621521 -6889058.194144249 0 -6889058.194144249 -22111082.255125999 0 0 0 0 35455362.672325134 -24220512.677694798 0 -24220512.677694798 -21366581.442147255 0 0 0 0 4018173.5843389761 -205303.17635647696 0 -205303.17635647696 -607492.6877473857 0 0 0 0 52203071.507511139 13308697.17688942 0 13308697.17688942 -113800596.294981 0 0 0 0 277312809.54743958 -231151087.96211147 0 -231151087.96211147 -571596317.13420963 0 0 0 0 105836214.97007751 65315074.380064011 0 65315074.380064011 -594980539.59697998 0 0 0 0 5551884.3924054988 56834.870391811244 0 56834.870391811244 -970145.37010507146 0 0 0 0 18958415.455062866 -15627141.209485531 0 -15627141.209485531 -78221403.664199233 0 0 0 0 -1126646.1388244629 -4173098.4876796007 0 -4173098.4876796007 -26445593.152775764 0 0 0 0 14046395.330764771 -9862401.62221241 0 -9862401.62221241 -26546546.300420806 0 0 0 0 -6828738.0809001923 -16513664.221276522 0 -16513664.221276522 17531311.300887108 0 0 0 0 10077520.792686462 -15938686.062838078 0 -15938686.062838078 17030587.938784838 0 0 0 0 -220099.39338195324 61700.214965145104 0 61700.214965145104 198070.02738989098 0 0 0 0 -244879.69720840454 -11381449.204117119 0 -11381449.204117119 20472833.930683136 0 0 0 0 -8217145.4586334229 1853014.2820544243 0 1853014.2820544243 16048350.062799454 0 0 0 0 7577869.7093849182 -14298210.512219429 0 -14298210.512219429 22450518.866814613 0 0 0 0 9702918.4608535767 -18800022.754906654 0 -18800022.754906654 24928272.372820646 0 0 0 0 258067.46699523926 -3552575.2512898445 0 -3552575.2512898445 7789757.2863874435 0 0 0 0 -5121130.5856838226 -1333473.5072643757 0 -1333473.5072643757 6910004.9036169052 0 0 0 0 -4739083.8778076172 -359869.21205186844 0 -359869.21205186844 9340276.7946090698 0 0 0 0 1781780.018198967 -2011519.4686431289 0 -2011519.4686431289 7788323.389591217 0 0 0 0 -11165880.305213928 -816357.10621976852 0 -816357.10621976852 11584696.130386353 0 0 0 0 -106958.14463312365 29162.861109876074 0 29162.861109876074 93631.032139014918 0 0 0 0 -13650070.525733948 -12450998.194871902 0 -12450998.194871902 2109269.4056901932 0 0 0 0 2901536.9630432129 -11769592.991164207 0 -11769592.991164207 -16101767.042013168 0 0 0 0 1688955.6340827942 -2657449.429579258 0 -2657449.429579258 -13124606.458471298 0 0 0 0 -8051649.950958252 -10686183.392415285 0 -10686183.392415285 -16109679.200990677 0 0 0 0 -4336686.1465530396 -15115092.377390862 0 -15115092.377390862 -20502329.708742142 0 0 0 0 11316479.837127686 -26004862.771679461 0 -26004862.771679461 -14009442.760453224 0 0 0 0 3895421.0681667328 -15378146.085804462 0 -15378146.085804462 -23468223.068132401 0 0 0 0 129500007.26696777 156854281.84011078 0 156854281.84011078 -119444102.24783754 0 0 0 0 6434083.6503894776 259895.67186574813 0 259895.67186574813 -1395360.461740924 0 0 0 0 3187589.358757019 -9458968.1358084679 0 -9458968.1358084679 -30474934.248265266 0 0 0 0 4947980.1414899826 2651231.4486578703 0 2651231.4486578703 -9665733.0698356628 0 0 0 0 6235643.6462936401 -2251606.6110143661 0 -2251606.6110143661 -19152961.780188799 0 0 0 0 -31749565.296710968 22193458.607378006 0 22193458.607378006 596850.34527206421 0 0 0 0 -204228426.42303467 198836913.97721744 0 198836913.97721744 -49406950.193003654 0 0 0 0 -184429.22968398035 460134.31338457577 0 460134.31338457577 -152160.04812510149 0 0 0 0 -15430235.993667603 3456941.2333078384 0 3456941.2333078384 12490706.648964405 0 0 0 0 -4213963.2416534424 -4535448.9355792999 0 -4535448.9355792999 8685897.6909942627 0 0 0 0 -92364252.935277939 136087198.16130096 0 136087198.16130096 27176670.213565826 0 0 0 0 -87460716.035223007 161943340.80788925 0 161943340.80788925 -30872802.907577515 0 0 0 0 -174908671.4284668 78016211.256562948 0 78016211.256562948 -108089602.97941381 0 0 0 0 2373577.1566200256 -30333163.863973379 0 -30333163.863973379 -103120207.2585144 0 0 0 0 -30059080.333799362 203459995.82749331 0 203459995.82749331 -140033146.88695335 0 0 0 0 11962.43321422115 179549.98391357344 0 179549.98391357344 -108169.60517733451 0 0 0 0 -30620726.960525513 181328907.60946798 0 181328907.60946798 -125171525.38469452 0 0 0 0 -130027195.88027954 214067862.77798653 0 214067862.77798653 -64334766.296457767 0 0 0 0 -199369400.45809937 36445264.282686234 0 36445264.282686234 -207816355.00549126 0 0 0 0 -95591562.270462036 174729869.63516188 0 174729869.63516188 -22085853.88492775 0 0 0 0 -27679299.375152588 153036487.74366379 0 153036487.74366379 -176361788.7863853 0 0 0 0 -72569249.586166382 202903153.55520201 0 202903153.55520201 -53925098.381946564 0 0 0 0 118162366.49813843 220264912.62570286 0 220264912.62570286 -427728807.18424463 0 0 0 0 222435157.40959167 -113681675.15789199 0 -113681675.15789199 70291191.448634148 0 0 0 0 96163780.301940918 108154120.67671108 0 108154120.67671108 -17127450.117085457 0 0 0 0 61689873.212638855 75368983.08309257 0 75368983.08309257 111613438.44443893 0 0 0 0 42554337.584503174 82746820.894144058 0 82746820.894144058 -26102701.785075605 0 0 0 0 -61539515.059783936 101706161.80810976 0 101706161.80810976 45044459.083715916 0 0 0 0 -41196214.458404541 151335720.87396789 0 151335720.87396789 -87442993.31308651 0 0 0 0 2002450.1882476807 136700138.0018816 0 136700138.0018816 60783723.030040741 0 0 0 0 -23200858.100708008 108475328.28786623 0 108475328.28786623 66808226.268688679 0 0 0 0 55839036.570587158 23979933.154082298 0 23979933.154082298 59504996.135844529 0 0 0 0 9283689.6708374023 4574088.5348730087 0 4574088.5348730087 80742777.614411354 0 0 0 0 293396658.9103775 20514731.966964245 0 20514731.966964245 146407190.97630262 0 0 0 0 99442167.277496338 83030106.741993189 0 83030106.741993189 136320534.45880651 0 0 0 0 179957633.30091858 -66820264.765459061 0 -66820264.765459061 125120937.54515618 0 0 0 0 208780473.78570557 -14789949.057052374 0 -14789949.057052374 90534008.890350521 0 0 0 0 211841557.10342407 -42604845.319262743 0 -42604845.319262743 183430302.77847052 0 0 0 0 457172749.59727478 -30339263.679579973 0 -30339263.679579973 100357225.44649935 0 0 0 0 332186035.31378174 -78928761.048667669 0 -78928761.048667669 142491461.88361025 0 0 0 0 261954825.09317017 -6523145.9603125453 0 -6523145.9603125453 91074064.127253771 0 0 0 0 323360011.80744934 8993886.9955797195 0 8993886.9955797195 136952374.96014261 0 0 0 0 420783819.87898254 -99197022.124999166 0 -99197022.124999166 106635734.24837568 0 0 0 0 199022340.09506226 -74611305.514128506 0 -74611305.514128506 94004288.794955492 0 0 0 0 84092894.74899292 14898219.061355114 0 14898219.061355114 55560715.056846857 0 0 0 0 9937004.1196289062 52102456.853207827 0 52102456.853207827 74848822.956465721 0 0 0 0 79620509.199478149 13681800.62872076 0 13681800.62872076 137050405.93759179 0 0 0 0 40563920.871353149 -22836060.940675497 0 -22836060.940675497 76969251.201318651 0 0 0 0 -63378119.87336731 35709146.745481253 0 35709146.745481253 101995970.6283884 0 0 0 0 -144094304.96586609 55196190.989129543 0 55196190.989129543 69175683.296091557 0 0 0 0 -58002668.574020386 64607171.994247198 0 64607171.994247198 10479523.846273899 0 0 0 0 -54793960.173370361 16861463.777460814 0 16861463.777460814 35649516.055610359 0 0 0 0 -176130147.39808655 58992120.706744909 0 58992120.706744909 41356247.088214636 0 0 0 0 -135697818.28230286 62835114.258613825 0 62835114.258613825 -894555.07690262794 0 0 0 0 -184022774.56898499 65688903.951880217 0 65688903.951880217 9913918.2993106842 0 0 0 0 -137412058.78913879 110064346.89661622 0 110064346.89661622 -94025810.70163393 0 0 0 0 -49341479.887023926 100093372.50229263 0 100093372.50229263 -54430102.142434478 0 0 0 0 -47973375.024124146 70397956.230528355 0 70397956.230528355 9488439.1120846868 0 0 0 0 -147608359.40332222 81206561.982346416 0 81206561.982346416 41825311.933577061 0 0 0 0 1043920725.5505829 157338621.3236165 0 157338621.3236165 -358622714.88744926 0 0 0 0 225147047.2888031 -510678095.24509478 0 -510678095.24509478 322704136.93665123 0 0 0 0 521925712.40447998 6598872.4936219454 0 6598872.4936219454 404619670.25617886 0 0 0 0 608123990.77964783 -232626185.61152232 0 -232626185.61152232 271196524.24279022 0 0 0 0 399023839.2196846 183885748.41751254 0 183885748.41751254 501606362.98896027 0 0 0 0 99707.624865091406 209412.77919108979 0 209412.77919108979 860350.66212326032 0 0 0 0 188044227.75966644 -311273933.54000473 0 -311273933.54000473 170014663.22818565 0 0 0 0 -102965864.98428345 -341630134.18581343 0 -341630134.18581343 277291113.06626987 0 0 0 0 174425660.03600693 -292777872.10416341 0 -292777872.10416341 225471807.56581497 0 0 0 0 -107173288.0763092 -127032289.35136473 0 -127032289.35136473 -247445669.29576012 0 0 0 0 227455281.55763626 -414113532.72424459 0 -414113532.72424459 -117011685.71705151 0 0 0 0 -133972912.81292725 -297639637.225317 0 -297639637.225317 270062856.95384216 0 0 0 0 -442672494.88731384 -206274072.8503145 0 -206274072.8503145 63756921.443660319 0 0 0 0 84376.03595949267 152075.61144264601 0 152075.61144264601 348959.4549342033 0 0 0 0 -85936490.701559067 -403954577.91952455 0 -403954577.91952455 163533389.86744547 0 0 0 0 1385836836.4581833 -155613962.18074155 0 -155613962.18074155 -53317241.609123707 0 0 0 0 -115446383.70587349 -312815550.80866849 0 -312815550.80866849 233515840.80815125 0 0 0 0 352258259.47609711 39638626.704703808 0 39638626.704703808 -242093486.85516262 0 0 0 0 12025450.96522522 -258984966.5548315 0 -258984966.5548315 329962208.604918 0 0 0 0 345827401.23735046 101208538.02843428 0 101208538.02843428 -88828550.070704937 0 0 0 0 -144280850.39636993 117446991.1815033 0 117446991.1815033 13534945.615333557 0 0 0 0 778718469.91197205 -458472096.45306158 0 -458472096.45306158 173675610.12860966 0 0 0 0 328810607.38058472 -16438025.740358353 0 -16438025.740358353 138099577.19869184 0 0 0 0 460001274.74325562 -178207741.06244063 0 -178207741.06244063 134145071.39192116 0 0 0 0 691422760.17810059 -67820494.803143203 0 -67820494.803143203 42591073.683088779 0 0 0 0 757688384.1301384 -180711337.79921222 0 -180711337.79921222 -12278063.110163212 0 0 0 0 1017369856.369503 -320923241.29247105 0 -320923241.29247105 71198015.196605206 0 0 0 0 898041235.75419617 83474716.432823777 0 83474716.432823777 69703959.710095882 0 0 0 0 694234758.47628784 -62366798.239907503 0 -62366798.239907503 42332595.499019146 0 0 0 0 457330698.09403992 -35286261.975123644 0 -35286261.975123644 229207022.77625275 0 0 0 0 735637096.9658699 -55936898.060108393 0 -55936898.060108393 12094024.379376352 0 0 0 0 588335717.90884399 -73045571.382912397 0 -73045571.382912397 92269721.650243521 0 0 0 0 422502701.26719666 -37752200.189246178 0 -37752200.189246178 178454487.1543622 0 0 0 0 581694630.45566177 -731302.91459673643 0 -731302.91459673643 349780081.2129817 0 0 0 0 496382043.27680969 209984672.14074421 0 209984672.14074421 89446110.511938989 0 0 0 0 -4349944.7673416138 3952040.7695811838 0 3952040.7695811838 -1296504.8741954416 0 0 0 0 1539430.7045866172 474345.03034591861 0 474345.03034591861 276369.77727145876 0 0 0 0 159400.65772423893 12348.010761989281 0 12348.010761989281 21614.317199527999 0 0 0 0 -41029880.941979885 -106173274.66874476 0 -106173274.66874476 -250800153.26776063 0 0 0 0 713299817.94516754 -172455262.14578104 0 -172455262.14578104 37559627.553422451 0 0 0 0 263360.5948888096 203784.02448226511 0 203784.02448226511 1013792.54112761 0 0 0 0 3160368.390691217 -628570.19245131873 0 -628570.19245131873 -515750.42745569267 0 0 0 0 -15446243.740409851 -272452922.42737424 0 -272452922.42737424 -117431245.65883803 0 0 0 0 -3156155.1939849854 7713649.0632149875 0 7713649.0632149875 -303908.54311025143 0 0 0 0 -2692106.0548858643 6704791.9143613279 0 6704791.9143613279 -5765924.5557048768 0 0 0 0 -550357.87950897217 4677711.260582298 0 4677711.260582298 -4537471.9093263745 0 0 0 0 3772435.0853691101 10272450.348089635 0 10272450.348089635 330936.33739727736 0 0 0 0 6396983.5721139908 16634025.378297521 0 16634025.378297521 -19190899.197895527 0 0 0 0 453042682.45628357 99168309.584722102 0 99168309.584722102 -1034996035.3010187 0 0 0 0 4346708.7777507454 -8655.7377709567081 0 -8655.7377709567081 -509439.07708772202 0 0 0 0 3127091.3778381348 -1302613.0051600933 0 -1302613.0051600933 213998.15902192891 0 0 0 0 377230.65187072754 -1121630.4120020568 0 -1121630.4120020568 3048140.8906593323 0 0 0 0 1075623.5309123993 702073.78150971234 0 702073.78150971234 -1880776.7203294635 0 0 0 0 4537018.9922943115 -3039048.9994401932 0 -3039048.9994401932 1989001.9831902385 0 0 0 0 1551282.8480529785 -2984797.4115622044 0 -2984797.4115622044 6002658.4445260763 0 0 0 0 499297.08747577667 1930384.6877661864 0 1930384.6877661864 6382247.5594639778 0 0 0 0 -2536332.7652587891 2652064.304312557 0 2652064.304312557 10895539.668545395 0 0 0 0 -2827452.144200325 4790693.5700266436 0 4790693.5700266436 1996913.2827427387 0 0 0 0 -4954940.1286048889 4563680.9914125651 0 4563680.9914125651 934865.4643149972 0 0 0 0 -5381360.0735704899 1926482.9843989229 0 1926482.9843989229 349094.54423063993 0 0 0 0 -4648021.6226806641 3957287.9511630237 0 3957287.9511630237 1888180.0478598624 0 0 0 0 -5355389.3520355225 2931088.7246771604 0 2931088.7246771604 4452269.8484458029 0 0 0 0 -13934121.051063538 3634856.375691101 0 3634856.375691101 2200053.6259240583 0 0 0 0 599083826.39817047 66721719.380800501 0 66721719.380800501 -26443203.990920484 0 0 0 0 1334320.6814354714 459306.39895349182 0 459306.39895349182 137182.16373432064 0 0 0 0 669435410.77322388 -8974539.7662103176 0 -8974539.7662103176 -11567924.126882076 0 0 0 0 484214379.33081055 31509975.110634267 0 31509975.110634267 -9034701.7478060126 0 0 0 0 494093998.19754028 -4162627.5474860668 0 -4162627.5474860668 -26342116.774369955 0 0 0 0 453935091.47111559 21904932.754708506 0 21904932.754708506 27461339.677158177 0 0 0 0 453852071.92051554 24191647.94332746 0 24191647.94332746 -32897414.490677416 0 0 0 0 464029929.72759247 57833993.07548295 0 57833993.07548295 20700.64910077487 0 0 0 0 -31792943.651304245 38926184.155676804 0 38926184.155676804 228473.86281554835 0 0 0 0 597596833.06708527 16471575.962258391 0 16471575.962258391 -37248176.652004465 0 0 0 0 1244376.4380253814 403401.30591789447 0 403401.30591789447 56666.031504768762 0 0 0 0 -701024.33460998535 4202210.6253535859 0 4202210.6253535859 -5504230.4592218548 0 0 0 0 2959681.6095733643 -1946914.1703730598 0 -1946914.1703730598 -756001.99138869345 0 0 0 0 50820.930906722322 18599.246057244018 0 18599.246057244018 -30152.682840150595 0 0 0 0 1022228.8057327271 818978.98064643517 0 818978.98064643517 5408.0149629007765 0 0 0 0 -3531612.4336452484 -5142630.5609132424 0 -5142630.5609132424 357442.01823265851 0 0 0 0 5246773.8947143555 -4949199.4014626453 0 -4949199.4014626453 -1599138.0551765577 0 0 0 0 65551.11015291512 37708.234232338145 0 37708.234232338145 -5456.6522665244447 0 0 0 0 2658877.1748733521 -2587194.5112406313 0 -2587194.5112406313 -68991.279700143263 0 0 0 0 12658789.769285679 -2077128.4812631318 0 -2077128.4812631318 -1473241.2997003645 0 0 0 0 -19514672.236335754 -1819588.8510736302 0 -1819588.8510736302 9080224.2596528362 0 0 0 0 51582146.306846619 29122919.243013352 0 29122919.243013352 40117571.78166312 0 0 0 0 -31271715.385108948 -32537274.160617962 0 -32537274.160617962 46153549.908102505 0 0 0 0 -209738097.60988998 38591351.734355278 0 38591351.734355278 54098456.212969258 0 0 0 0 -67141014.426811218 -7658350.6511334777 0 -7658350.6511334777 16337350.846760273 0 0 0 0 -160316376.57794189 22028795.02340883 0 22028795.02340883 24405968.323203802 0 0 0 0 -147087084.79296494 49244957.064122915 0 49244957.064122915 59646299.548008204 0 0 0 0 -65041036.783336639 6458062.0378004089 0 6458062.0378004089 78691838.93035388 0 0 0 0 53521494.002914429 -945704.81579744816 0 -945704.81579744816 39306456.579571486 0 0 0 0 -45354112.628044128 37596487.70929867 0 37596487.70929867 76124546.540020227 0 0 0 0 166818241.61877441 -39562588.737451553 0 -39562588.737451553 35664085.388471365 0 0 0 0 102714738.05335999 28038352.698580742 0 28038352.698580742 67461414.519287109 0 0 0 0 48206480.696313858 -11828988.80382809 0 -11828988.80382809 93543748.128822327 0 0 0 0 418837648.92370605 -82690554.13947469 0 -82690554.13947469 35878659.713659525 0 0 0 0 357527784.66352844 48816280.333836742 0 48816280.333836742 18941640.879635096 0 0 0 0 199761053.19321442 10150726.418737859 0 10150726.418737859 35023241.498951197 0 0 0 0 307703003.95874023 -41059562.713835157 0 -41059562.713835157 -8242454.3813791946 0 0 0 0 142431779.75304794 58987665.356358975 0 58987665.356358975 16613599.44149442 0 0 0 0 329460736.57067871 -26137463.097789854 0 -26137463.097789854 8955748.9563498963 0 0 0 0 268924509.55369568 62882527.30373913 0 62882527.30373913 -280.03622816407005 0 0 0 0 49239893.888763428 -42645493.230474874 0 -42645493.230474874 8519205.8548454791 0 0 0 0 -16379312.190008163 68154208.49084565 0 68154208.49084565 -114504.55398860294 0 0 0 0 -58837629.756608963 25269657.157146826 0 25269657.157146826 -10941548.377397656 0 0 0 0 -322416232.4832077 -52508204.900025234 0 -52508204.900025234 28159014.421351299 0 0 0 0 3601257.9819335938 5688912.8948732521 0 5688912.8948732521 12461.858329389783 0 0 0 0 9145160.1094207764 5280929.8175780233 0 5280929.8175780233 -7159857.0260831602 0 0 0 0 885515.21025398746 518917.595354544 0 518917.595354544 120657.54905315417 0 0 0 0 4933306.8792572021 382622.49365539243 0 382622.49365539243 -1095236.7125588059 0 0 0 0 6266032.7704544067 2605851.0115762926 0 2605851.0115762926 -4114324.8128420673 0 0 0 0 6259615.0907301903 2517558.5969010168 0 2517558.5969010168 -404278.25279236212 0 0 0 0 8413034.3910827637 2730707.0370761007 0 2730707.0370761007 -737851.38751246431 0 0 0 0 4973369.7708740234 654830.39624348236 0 654830.39624348236 -887213.08330947906 0 0 0 0 5340783.264465332 1158763.2911333558 0 1158763.2911333558 -229647.71871298272 0 0 0 0 4388103.3490600586 414975.10987684829 0 414975.10987684829 600367.45254539372 0 0 0 0 5015663.3751525879 1559358.713784599 0 1559358.713784599 1519466.0709246313 0 0 0 0 91782.32077918062 92342.595624061301 0 92342.595624061301 13916.536649185033 0 0 0 0 8339736.9406242371 -366715.51003493555 0 -366715.51003493555 7749266.7099918127 0 0 0 0 4706312.2578277588 451242.88573154341 0 451242.88573154341 -638375.819656712 0 0 0 0 4726620.9161911011 616101.35700806114 0 616101.35700806114 -16746.393310033716 0 0 0 0 4533891.2746887207 165899.21628689743 0 165899.21628689743 -479583.56026630732 0 0 0 0 3628559.7814254761 398305.87352367816 0 398305.87352367816 -396764.55757258495 0 0 0 0 -280773061.62118912 -47917082.022971332 0 -47917082.022971332 30112488.897410989 0 0 0 0 1044654.3918886138 658102.74185792729 0 658102.74185792729 -38065.239373444048 0 0 0 0 278562.98860156443 309400.43366388232 0 309400.43366388232 46673.579657341863 0 0 0 0 10158997.348167419 3231144.8488303907 0 3231144.8488303907 -3660503.3312901407 0 0 0 0 5720653.2975082397 -93242.999798286241 0 -93242.999798286241 238437.50460988563 0 0 0 0 5574290.5642166138 385384.61521758622 0 385384.61521758622 -1169073.4810903368 0 0 0 0 4685127.8944969177 1136490.6664863257 0 1136490.6664863257 -1781029.5149476395 0 0 0 0 432836.12266198173 76751.641960227862 0 76751.641960227862 -365970.43756605359 0 0 0 0 7330431.6142425537 -2416989.814179753 0 -2416989.814179753 -945961.8813399002 0 0 0 0 1664109.4833984375 2063809.4176873935 0 2063809.4176873935 -986651.88042113476 0 0 0 0 683909.08454785123 1023528.3770218901 0 1023528.3770218901 96792.815113132354 0 0 0 0 -183917675.28849792 40325026.741854429 0 40325026.741854429 21376184.105560094 0 0 0 0 -201728200.63828659 28540363.213412583 0 28540363.213412583 17991421.227488518 0 0 0 0 1083813.8495632699 244980.3031091895 0 244980.3031091895 -292645.09511160001 0 0 0 0 7467958.0129394531 3384097.5430503991 0 3384097.5430503991 -240510.08540669084 0 0 0 0 8871391.4889602661 -526214.67623966932 0 -526214.67623966932 -1681836.4817435853 0 0 0 0 7313337.9979095459 -1209686.1574659143 0 -1209686.1574659143 -1174813.2477497049 0 0 0 0 7385090.2160720825 -1146963.4808171303 0 -1146963.4808171303 -1476531.2557425138 0 0 0 0 6047098.4236755371 1136731.9658569172 0 1136731.9658569172 4482031.2287963256 0 0 0 0 13491420.795860291 -691316.80654649204 0 -691316.80654649204 -2192510.9160868488 0 0 0 0 33820.954339623451 28423.542098307516 0 28423.542098307516 -26697.640385700284 0 0 0 0 10318584.85956192 7428934.171668251 0 7428934.171668251 4627232.6071218662 0 0 0 0 6579823.6250953674 -4552588.7408641586 0 -4552588.7408641586 -3038799.5215199394 0 0 0 0 13206469.06477356 3167560.1408424187 0 3167560.1408424187 -695454.62640407914 0 0 0 0 8704914.0548248291 1445529.7402935305 0 1445529.7402935305 -1344904.674732897 0 0 0 0 7597945.1271820068 1131571.0404598475 0 1131571.0404598475 -1113763.211040983 0 0 0 0 7691968.5425872803 1690738.4463804376 0 1690738.4463804376 -7649.6422283108723 0 0 0 0 7513706.6208343506 735094.96114375349 0 735094.96114375349 4683.6667222034121 0 0 0 0 6517962.6194763184 59757.827319410397 0 59757.827319410397 623069.78357397718 0 0 0 0 2462.9714455828071 1723.6742082517594 0 1723.6742082517594 -527.88129533325741 0 0 0 0 2342965.575592041 2284024.0535546904 0 2284024.0535546904 3008950.6133012394 0 0 0 0 -162612.42106628418 -254498.54171694085 0 -254498.54171694085 -1158.0215506257339 0 0 0 0 385195.60133361816 1049085.6423770878 0 1049085.6423770878 2375242.3750961265 0 0 0 0 2266809.680847168 1813397.350601973 0 1813397.350601973 607131.28523506504 0 0 0 0 875877.0287322998 432793.32497108763 0 432793.32497108763 -341399.522495226 0 0 0 0 2448072.2369842529 -579539.50519576389 0 -579539.50519576389 522754.14835614013 0 0 0 0 728388.87953948975 210045.59820820391 0 210045.59820820391 163954.23110307124 0 0 0 0 5275052.3421516418 3633081.9697409905 0 3633081.9697409905 1042738.2933771783 0 0 0 0 204903.41103744507 -58434.757714348758 0 -58434.757714348758 -439871.60594965774 0 0 0 0 421374.42149734497 939130.9167470173 0 939130.9167470173 736000.25185394101 0 0 0 0 796052.95513153076 -581829.58753493614 0 -581829.58753493614 2780.3094107607931 0 0 0 0 3559.2046358138323 1043.2919264114462 0 1043.2919264114462 -501.58840818349444 0 0 0 0 184779.37618637085 1217623.3293025922 0 1217623.3293025922 784173.99915681267 0 0 0 0 235291.77626800537 414013.33179923747 0 414013.33179923747 -292927.44786260783 0 0 0 0 2121.7059357501566 490.67346366448328 0 490.67346366448328 -337.80607552491551 0 0 0 0 1470331.1133956909 537049.37313207623 0 537049.37313207623 -1448513.6048554992 0 0 0 0 8786172.5856323242 4819704.1991722714 0 4819704.1991722714 1359358.6318518703 0 0 0 0 267113.78788757324 587302.99495093699 0 587302.99495093699 29935.490115465887 0 0 0 0 539620.79582977295 346279.82674367237 0 346279.82674367237 -1057466.5379141571 0 0 0 0 28922.002990245819 -271747.68245120358 0 -271747.68245120358 -558178.54188495991 0 0 0 0 716841.15566253662 808678.29044583184 0 808678.29044583184 -679053.94894964504 0 0 0 0 67573.128707885742 727212.76387526258 0 727212.76387526258 -586546.18983765517 0 0 0 0 208861.08977200091 205330.70493534068 0 205330.70493534068 -186384.68864172223 0 0 0 0 601435.37029266357 221180.29223206945 0 221180.29223206945 -1335560.8183151218 0 0 0 0 4514715.6099090576 -11597050.142734736 0 -11597050.142734736 -2977882.7409814298 0 0 0 0 7995839.1874008179 -1101733.0898729563 0 -1101733.0898729563 -442422.49379064888 0 0 0 0 -47874.416042078286 -65542.975996948313 0 -65542.975996948313 61893.40282667987 0 0 0 0 18879801.351013184 871793.89885304123 0 871793.89885304123 -97784.632685884833 0 0 0 0 152939.12124147825 -36533.652926469222 0 -36533.652926469222 3303.7978845913276 0 0 0 0 879620.84003448486 -499058.11609221878 0 -499058.11609221878 -3202973.6986498153 0 0 0 0 106924.23953863233 96784.004924743436 0 96784.004924743436 -89668.821893246946 0 0 0 0 1820438.8725357056 1377949.8947627218 0 1377949.8947627218 -1576752.7887178513 0 0 0 0 185155.86796569824 515500.15456416551 0 515500.15456416551 -205353.20232799649 0 0 0 0 657042.66456604004 1382796.5834607407 0 1382796.5834607407 967001.32394560054 0 0 0 0 1988373.5254211426 1605624.8966247048 0 1605624.8966247048 906295.01690381393 0 0 0 0 2465769.702255249 1127578.4802681035 0 1127578.4802681035 447527.28284717724 0 0 0 0 3180973.5511932373 2311271.6420967523 0 2311271.6420967523 901020.01149721723 0 0 0 0 3263481.4086456299 2559007.7069949135 0 2559007.7069949135 1293616.4119508918 0 0 0 0 4610709.5214920044 1285051.2557554701 0 1285051.2557554701 -1010465.8421602733 0 0 0 0 3550362.8059997559 997870.225141339 0 997870.225141339 -1201081.5387677997 0 0 0 0 4290280.9161376953 1633996.1732406365 0 1633996.1732406365 -1030445.536061205 0 0 0 0 3495995.8785552979 1374776.228676863 0 1374776.228676863 -1494575.9118903354 0 0 0 0 2634402.4797515869 1236682.7076475369 0 1236682.7076475369 -749467.13146786764 0 0 0 0 1655783.2806663513 858591.5694583552 0 858591.5694583552 -1634658.3315569535 0 0 0 0 -204318.21354675293 975491.928318277 0 975491.928318277 133553.58418994583 0 0 0 0 2099611.3546905518 1692212.7878486067 0 1692212.7878486067 -346933.19808491692 0 0 0 0 -10977084.663406372 5915504.9096264094 0 5915504.9096264094 3090886.6828261018 0 0 0 0 1730005.5996341705 1766327.5232052854 0 1766327.5232052854 -1119857.3245233595 0 0 0 0 1169291.6089043487 -379139.57186079491 0 -379139.57186079491 -93415.178426528961 0 0 0 0 1626159.0569219589 127735.04689316452 0 127735.04689316452 -2162029.3265446126 0 0 0 0 55441.851825848222 64967.528219595086 0 64967.528219595086 -41881.022188529445 0 0 0 0 2430368.3319702148 2309365.78073816 0 2309365.78073816 -911453.52836076915 0 0 0 0 2964610.5543823242 881948.95085663348 0 881948.95085663348 -1523190.4151542634 0 0 0 0 3644568.7748413086 1151029.3972895145 0 1151029.3972895145 -2100491.6614794284 0 0 0 0 4309296.2713623047 971310.84546310455 0 971310.84546310455 -1760520.2715890557 0 0 0 0 3642721.5447311401 1115292.9250880945 0 1115292.9250880945 -1534800.7680146992 0 0 0 0 3646318.8512573242 1419562.7885737829 0 1419562.7885737829 -1392460.5429727286 0 0 0 0 2589309.1521911621 1521152.3335579708 0 1521152.3335579708 -1217858.1942209005 0 0 0 0 -2852827.2629547119 -6284073.2405271456 0 -6284073.2405271456 2928370.8793488443 0 0 0 0 12680392.548660278 -9461129.5393067449 0 -9461129.5393067449 -2610622.727137953 0 0 0 0 5567273.004447937 -1972500.4320980906 0 -1972500.4320980906 4091327.4098652303 0 0 0 0 791835.24487196654 -313191.15610255022 0 -313191.15610255022 35611.967588990279 0 0 0 0 -165501.51933288574 1073561.429243315 0 1073561.429243315 -358977.85803801566 0 0 0 0 1946492.016336441 12085228.478871515 0 12085228.478871515 -5188636.4694337249 0 0 0 0 27320389.327033997 -2977632.2877960652 0 -2977632.2877960652 -10490276.043525126 0 0 0 0 -10301709.322273254 10255802.687639769 0 10255802.687639769 21294684.503294677 0 0 0 0 -11245501.914932251 -10277594.892378286 0 -10277594.892378286 20833247.8338187 0 0 0 0 19610902.191947937 -19501890.058131933 0 -19501890.058131933 11001975.636441439 0 0 0 0 -1192216.1694488525 -1249854.3756199777 0 -1249854.3756199777 10602378.655735314 0 0 0 0 -2191.2539851423353 24828.046243473887 0 24828.046243473887 27745.58555287811 0 0 0 0 2219284.1242370605 -3179247.1947854077 0 -3179247.1947854077 -2318986.1827622908 0 0 0 0 3340848.2740631104 13371332.804814104 0 13371332.804814104 3229318.5847449563 0 0 0 0 3859380.1422243118 4620908.8215621179 0 4620908.8215621179 -21210888.554329172 0 0 0 0 57580.046801678836 -168701.68262983765 0 -168701.68262983765 -25713.032235067993 0 0 0 0 307508.06365966797 -355734.30446732044 0 -355734.30446732044 -1276723.4276985228 0 0 0 0 769504.76207932457 -755399.99019751092 0 -755399.99019751092 -369636.9761474767 0 0 0 0 1034629.0092200935 -127285.24625921715 0 -127285.24625921715 -223835.14596161497 0 0 0 0 24584847.193126678 -16463458.011586461 0 -16463458.011586461 -24324520.463622123 0 0 0 0 -3508738.1340179443 -15536508.70902133 0 -15536508.70902133 36676556.311330497 0 0 0 0 1394717.363532871 -811304.23251610901 0 -811304.23251610901 -144724.69282327243 0 0 0 0 -9426907.1238937378 -10229408.327326894 0 -10229408.327326894 74999575.159261703 0 0 0 0 2677783.0794792175 -12879946.234727383 0 -12879946.234727383 28716514.682607412 0 0 0 0 3193027.1032409668 1226003.2082685307 0 1226003.2082685307 -1037541.3531899452 0 0 0 0 747335.45676803589 -328800.10959243774 0 -328800.10959243774 -1087090.1842055023 0 0 0 0 2298964.0493830144 -184118.70046483912 0 -184118.70046483912 -331400.27293280791 0 0 0 0 3264549.533416748 1109125.3270681724 0 1109125.3270681724 -1163929.9625639468 0 0 0 0 3647384.1166687012 1194157.4418767765 0 1194157.4418767765 -1606288.6861461252 0 0 0 0 503165.47706604004 -82267.340709298849 0 -82267.340709298849 -906185.54630491138 0 0 0 0 912104.5724163726 -327697.79089318821 0 -327697.79089318821 -89522.332030792008 0 0 0 0 -10432730.295043945 -11950926.0148945 0 -11950926.0148945 -7202347.7233598679 0 0 0 0 6412580.9737243652 -12440163.929687083 0 -12440163.929687083 13189174.787672281 0 0 0 0 6067226.3097229004 -13195393.795408249 0 -13195393.795408249 11542123.789502919 0 0 0 0 649493.12773092464 -704974.28217295744 0 -704974.28217295744 -547995.52313551272 0 0 0 0 2402765.6845550537 -1232784.3675128222 0 -1232784.3675128222 -2068563.3550496399 0 0 0 0 2481150.2511069886 -230380.30873158318 0 -230380.30873158318 -1255773.9180899358 0 0 0 0 2021019.9535129033 -1478169.329392192 0 -1478169.329392192 -1181775.5642810259 0 0 0 0 4004971.0868682861 86387.531783953309 0 86387.531783953309 -1198725.8944209293 0 0 0 0 4483762.631690979 188630.56883966178 0 188630.56883966178 -1328615.5724555627 0 0 0 0 3165148.3665604591 375619.3102903727 0 375619.3102903727 -1256135.1868614033 0 0 0 0 3699775.889831543 609785.35897676647 0 609785.35897676647 -1528507.5014734268 0 0 0 0 4869495.0081787109 -621647.23878685385 0 -621647.23878685385 -1371755.2650094852 0 0 0 0 4547691.8680114746 95254.1536488235 0 95254.1536488235 -1635826.7342002913 0 0 0 0 2724034.2271587849 -602872.02057412174 0 -602872.02057412174 -1419967.354502016 0 0 0 0 4051917.5939412117 -671243.18888598005 0 -671243.18888598005 -926578.65101475269 0 0 0 0 1973649.5577392578 -691289.48547005653 0 -691289.48547005653 -3423955.6381750107 0 0 0 0 1138231.8404464722 -16115.119874596596 0 -16115.119874596596 -1086499.2590386868 0 0 0 0 1622019.3739852905 322485.63867855072 0 322485.63867855072 -2388592.4581444263 0 0 0 0 39082.782165527344 -183776.46877479553 0 -183776.46877479553 -3546034.7586038113 0 0 0 0 621741.99618530273 -990139.44230365753 0 -990139.44230365753 -628015.42228758335 0 0 0 0 587616.12850952148 -734023.97289824486 0 -734023.97289824486 44446.881549268961 0 0 0 0 14598616.817047119 6044150.1876831055 0 6044150.1876831055 -10886045.492740631 0 0 0 0 2710496.8419206589 1244222.7441778909 0 1244222.7441778909 -1375404.9909539463 0 0 0 0 -2522.1558999568224 18436.872142093605 0 18436.872142093605 -16932.079194619819 0 0 0 0 5545384.6008134494 556773.81685191393 0 556773.81685191393 -780274.34831022227 0 0 0 0 8700460.6941986084 -3875448.1207017899 0 -3875448.1207017899 -1411919.2002182007 0 0 0 0 7656728.0389465997 1968296.9209915027 0 1968296.9209915027 -1709998.8433744845 0 0 0 0 5533548.4271850586 -3640131.679857254 0 -3640131.679857254 -897269.31838846207 0 0 0 0 6139589.1370239258 -3676707.2913894653 0 -3676707.2913894653 -915080.95227050781 0 0 0 0 3602878.0695350692 -2301977.3280493189 0 -2301977.3280493189 -1284488.8590466797 0 0 0 0 143912.40637025237 -1941.134245140478 0 -1941.134245140478 -106315.94773953455 0 0 0 0 6764756.5676879883 8082751.8120288849 0 8082751.8120288849 -8268931.0613899231 0 0 0 0 4335033.5204772949 12231076.30921936 0 12231076.30921936 -37658721.656786919 0 0 0 0 7085742.5987972114 208322.66305735603 0 208322.66305735603 -2043635.8570512398 0 0 0 0 -7391745.8746032715 23357952.554016113 0 23357952.554016113 -28654977.390854836 0 0 0 0 5640558.0162353516 3489235.1563606262 0 3489235.1563606262 -26418270.113636017 0 0 0 0 1369821.3895263672 -9953738.2541456223 0 -9953738.2541456223 -17218237.163845062 0 0 0 0 -259799.02828979492 11156734.701778412 0 11156734.701778412 -21017838.956157684 0 0 0 0 4351804.9996948242 4112752.2461605072 0 4112752.2461605072 -10846808.415350914 0 0 0 0 -3966139.8798828125 7777190.2172470093 0 7777190.2172470093 -6391868.3213558197 0 0 0 0 -3402926.2968139648 8607625.7270355225 0 8607625.7270355225 -7359013.2454824448 0 0 0 0 -3398777.6895751953 8838336.7223815918 0 8838336.7223815918 -5933977.5520477295 0 0 0 0 -4824898.0117492676 11595781.817070961 0 11595781.817070961 -11112869.427652836 0 0 0 0 -3111820.8883666992 10880930.318695545 0 10880930.318695545 -10996116.095579147 0 0 0 0 -1291785.1128082275 6089438.3415961266 0 6089438.3415961266 -1021529.2407417297 0 0 0 0 -285708.61466646334 204337.03474323079 0 204337.03474323079 36947.66581823118 0 0 0 0 -16239929.312391281 15910004.119278342 0 15910004.119278342 -2830515.5582332611 0 0 0 0 -9714387.4225463867 9203914.9303722382 0 9203914.9303722382 3371594.5625957251 0 0 0 0 -8194395.6674804688 12418309.129906178 0 12418309.129906178 -1919395.8960113525 0 0 0 0 -3979740.2363891602 8018564.1225509644 0 8018564.1225509644 -5174870.3423089981 0 0 0 0 -8620994.4797973633 12867391.37346077 0 12867391.37346077 -2387053.7713069916 0 0 0 0 -4456550.3564376831 8902302.9841556549 0 8902302.9841556549 -2460875.5281963348 0 0 0 0 -4978450.7678527832 5201517.2717409134 0 5201517.2717409134 1057286.6300230026 0 0 0 0 -6615936.0474090576 5886641.7330136299 0 5886641.7330136299 1235723.7997303009 0 0 0 0 -6307814.5707397461 5179144.6100406647 0 5179144.6100406647 2781173.5779650211 0 0 0 0 -6669915.662273407 4601993.7478154898 0 4601993.7478154898 1941424.8762302399 0 0 0 0 11204201.614219666 665241.58973936737 0 665241.58973936737 85583.074694633484 0 0 0 0 11454860.904830933 3595324.7087581158 0 3595324.7087581158 202257.81232452393 0 0 0 0 -10633091.111068726 14058470.936635971 0 14058470.936635971 2942287.9963780642 0 0 0 0 3048192.7866529608 -237468.49200212583 0 -237468.49200212583 -541664.60993338167 0 0 0 0 2180831.249870535 1350432.1125593893 0 1350432.1125593893 -801040.14223894873 0 0 0 0 4934961.6583251953 -533858.62423374131 0 -533858.62423374131 -1455739.7119951211 0 0 0 0 5482623.6042022705 -4509660.5792484283 0 -4509660.5792484283 -1389785.2728252411 0 0 0 0 -25416143.293731689 -5137195.5910387039 0 -5137195.5910387039 10413691.477325439 0 0 0 0 8352306.7118301392 2632484.5696737766 0 2632484.5696737766 283916.11625289917 0 0 0 0 2700981.8678501165 -339770.43767787702 0 -339770.43767787702 -720228.66360158904 0 0 0 0 5146345.4320678711 -768530.74410088174 0 -768530.74410088174 -1502629.956323646 0 0 0 0 3915202.4932403564 -1642754.0672328053 0 -1642754.0672328053 -874759.65764085203 0 0 0 0 -2819517.284866333 1622702.7146120071 0 1622702.7146120071 -3185981.0439662933 0 0 0 0 -672818.89955345355 640199.54945215769 0 640199.54945215769 -35408.460354314768 0 0 0 0 -5609309.6007080078 4132010.073410511 0 4132010.073410511 1692251.1569757462 0 0 0 0 -6991347.8074645996 3730361.301194191 0 3730361.301194191 1779740.1960207224 0 0 0 0 -2939918.7295379639 2812699.9617099762 0 2812699.9617099762 1138882.406747818 0 0 0 0 -2424609.158706665 5456532.8788299561 0 5456532.8788299561 -3048242.6040477753 0 0 0 0 -9212212.1591491699 175111.09802436829 0 175111.09802436829 359193.47591972351 0 0 0 0 1301740.2058854033 1834977.5260895211 0 1834977.5260895211 -287011.92138664948 0 0 0 0 146049.90672693495 -66680.772612839937 0 -66680.772612839937 -58244.972108181566 0 0 0 0 -188103661.77948952 93668236.519584805 0 93668236.519584805 -13405327.272268772 0 0 0 0 872687.05801391602 490140.33284115791 0 490140.33284115791 91857.256034851074 0 0 0 0 8331696.7417678833 1234281.4550215006 0 1234281.4550215006 223814.68329238892 0 0 0 0 7395.9017505329102 1194143.5327892313 0 1194143.5327892313 -729681.55075057817 0 0 0 0 -176797084.54277039 47210771.837011337 0 47210771.837011337 -26272126.953517854 0 0 0 0 5734851.3608551025 -2290149.5111555606 0 -2290149.5111555606 -751406.17432948574 0 0 0 0 6229128.615901947 -784819.45949219773 0 -784819.45949219773 -1576962.0191387534 0 0 0 0 6696988.8150482178 -1235664.3933344036 0 -1235664.3933344036 -1142519.1045858208 0 0 0 0 6703178.6169079542 197159.32901737027 0 197159.32901737027 -1746072.7377489358 0 0 0 0 5855197.644241333 756655.46134840138 0 756655.46134840138 -1761169.7891596258 0 0 0 0 5521487.1371307373 51722.799560781568 0 51722.799560781568 -1626554.402811937 0 0 0 0 4240692.3046264648 841523.44190001488 0 841523.44190001488 -1662568.7038678974 0 0 0 0 5022920.4948501587 547213.56719468627 0 547213.56719468627 -1742544.4161459804 0 0 0 0 4927166.338637352 -21569.649440257344 0 -21569.649440257344 -1612221.7640937045 0 0 0 0 5403838.286819458 -873947.60683083907 0 -873947.60683083907 -1568604.8454287369 0 0 0 0 5892856.0116500854 -23839.352265641093 0 -23839.352265641093 -1772249.7887539715 0 0 0 0 1774781167.1470337 146650923.42183343 0 146650923.42183343 -346414786.52206177 0 0 0 0 2201939965.88836 1016483238.199905 0 1016483238.199905 -67245213.893112406 0 0 0 0 1470054048.7356834 772316972.12166965 0 772316972.12166965 -234413082.68060762 0 0 0 0 1615978.4203489944 213424.92118255235 0 213424.92118255235 -734587.8257740906 0 0 0 0 1366432853.59412 156260862.48048919 0 156260862.48048919 1356257.0367700118 0 0 0 0 1329251778.3594208 263868887.99583834 0 263868887.99583834 -222526841.41549405 0 0 0 0 1723005378.920517 79887695.492248029 0 79887695.492248029 -171860236.03064722 0 0 0 0 1192729.0824189931 307926.08710177988 0 307926.08710177988 -360809.57457168552 0 0 0 0 1890293121.1890926 -479295770.88478696 0 -479295770.88478696 -28486217.13675344 0 0 0 0 1231264998.8193064 -321683223.77657819 0 -321683223.77657819 -15236641.237213969 0 0 0 0 1232398532.6015472 -172913458.53086108 0 -172913458.53086108 -176520430.96909976 0 0 0 0 670781.13624134287 72465.593311325647 0 72465.593311325647 -287496.86090392689 0 0 0 0 925345721.62228394 -354219052.0267185 0 -354219052.0267185 -747320034.40951562 0 0 0 0 795023532.65435028 368804323.13588881 0 368804323.13588881 183935396.64238816 0 0 0 0 1568296638.9533005 1152337838.9573739 0 1152337838.9573739 429516132.79038095 0 0 0 0 724828956.59568787 67898150.453525543 0 67898150.453525543 -160222321.65359801 0 0 0 0 245493262.72952271 -505652728.04844135 0 -505652728.04844135 -214934248.93815675 0 0 0 0 272611685.15650558 -183206545.49129802 0 -183206545.49129802 -88615136.293606043 0 0 0 0 863186.27782961167 805748.48233282752 0 805748.48233282752 655236.40972336091 0 0 0 0 -77391486.431972504 186746875.59557354 0 186746875.59557354 157921745.77712345 0 0 0 0 -3243569.524772644 2827768.5459750541 0 2827768.5459750541 3036837.7463767822 0 0 0 0 4911892.7245025635 -2145074.365125048 0 -2145074.365125048 -2629756.4755465053 0 0 0 0 621825413.20936584 -52262960.359363317 0 -52262960.359363317 -2879681.025709033 0 0 0 0 608363718.47477722 35993450.070198268 0 35993450.070198268 -81510992.06920816 0 0 0 0 1198250.160750756 682641.21369125973 0 682641.21369125973 217989.68190349307 0 0 0 0 -1141903.9955062866 1412442.2674994159 0 1412442.2674994159 -1477.2925585221737 0 0 0 0 2268899.1363945007 1634904.5330031756 0 1634904.5330031756 821.33635564266274 0 0 0 0 269490.95965576172 -125280.56697912014 0 -125280.56697912014 -433013.41100813076 0 0 0 0 2089026.6111526489 1431739.8659919885 0 1431739.8659919885 -1470799.9264717966 0 0 0 0 2070506.4199171066 1235632.8203008585 0 1235632.8203008585 195869.05023666937 0 0 0 0 11325490.210113525 694982.76470938511 0 694982.76470938511 -5174572.5408811513 0 0 0 0 3326635.7229681015 -3371332.1268059867 0 -3371332.1268059867 -239565.17486183951 0 0 0 0 4802251.9718017578 763863.04813109164 0 763863.04813109164 -1107543.2287125683 0 0 0 0 407434.43328759866 79330.190069003031 0 79330.190069003031 8577.2298382882745 0 0 0 0 7068902.7406616211 -923677.02062187821 0 -923677.02062187821 -5698.2904561437135 0 0 0 0 7081034.4880447388 -21083.843892383476 0 -21083.843892383476 -1298428.0042021605 0 0 0 0 15386905.448364258 1573167.0698736431 0 1573167.0698736431 -2832122.8999865893 0 0 0 0 11050369.489685059 607131.56839934993 0 607131.56839934993 -1219183.441500634 0 0 0 0 8285445.384979248 -4875636.7860086933 0 -4875636.7860086933 -2338091.4425596418 0 0 0 0 10920330.405952454 -349689.84593671514 0 -349689.84593671514 5387785.3530205991 0 0 0 0 28902452.669174194 -11390246.346537508 0 -11390246.346537508 12008831.756995168 0 0 0 0 14380255.971801758 7643508.0002336642 0 7643508.0002336642 2152022.0056077489 0 0 0 0 300186.92910766602 2265338.3306953786 0 2265338.3306953786 570175.56798861921 0 0 0 0 50467.607702760026 -11837.852432694286 0 -11837.852432694286 1269.1938087278704 0 0 0 0 11373708.333648682 -3549360.2741595358 0 -3549360.2741595358 657493.48577063205 0 0 0 0 22063409.622680664 -10415788.742623799 0 -10415788.742623799 1118231.0325970948 0 0 0 0 15044683.384040833 8889682.9850899894 0 8889682.9850899894 4694266.2407908291 0 0 0 0 1666244.1931152344 1119645.6467826413 0 1119645.6467826413 775280.2013507206 0 0 0 0 450345.79573558969 107410.79280590825 0 107410.79280590825 7458.9884207963596 0 0 0 0 -4962550.2507629395 1368099.1801307518 0 1368099.1801307518 9754266.9848637283 0 0 0 0 66268.494489746168 -6728.5307604465634 0 -6728.5307604465634 -49577.943750083447 0 0 0 0 8504795.771686554 -4411510.6432329919 0 -4411510.6432329919 -782946.17477487773 0 0 0 0 389214.70551300049 1373499.9842190631 0 1373499.9842190631 -824096.33428414166 0 0 0 0 757022.35924471938 229709.37883892842 0 229709.37883892842 -96304.271411100402 0 0 0 0 -439143.40118408203 243514.98475316167 0 243514.98475316167 -212326.56471467018 0 0 0 0 -24693.803863871843 132162.40319996513 0 132162.40319996513 147830.36444893369 0 0 0 0 3902477.5671825409 -8278071.4222987508 0 -8278071.4222987508 1971980.7263400257 0 0 0 0 5146005.1825637817 3963753.1057275012 0 3963753.1057275012 -4045054.5372695271 0 0 0 0 11102456.929397583 -13768106.8127212 0 -13768106.8127212 -561474.92273495719 0 0 0 0 -370270.72151184082 854579.66119727492 0 854579.66119727492 508538.43655280769 0 0 0 0 -322267.36822509766 377322.75956594944 0 377322.75956594944 1041648.5747134089 0 0 0 0 18829483.705200195 -2234937.8295013309 0 -2234937.8295013309 2362633.7443907261 0 0 0 0 -6067.5078695528209 77999.263667531312 0 77999.263667531312 84037.054252981761 0 0 0 0 -325577.22163546085 161829.34871581313 0 161829.34871581313 -179676.75739634037 0 0 0 0 -101889.33515075594 -16718.291930468753 0 -16718.291930468753 76144.710422550881 0 0 0 0 833629.98247206677 407123.81762998365 0 407123.81762998365 312357.19098528614 0 0 0 0 -302453.42835283279 54931.358981795609 0 54931.358981795609 964728.19076040387 0 0 0 0 -337324.71328735352 1105719.5361984521 0 1105719.5361984521 1338094.2882986441 0 0 0 0 -1299842.6415555477 1181588.373578418 0 1181588.373578418 2122923.0156128705 0 0 0 0 3554035.7090740204 5676643.7681934331 0 5676643.7681934331 -3066170.3386987299 0 0 0 0 280494.62902832031 1629701.2031644359 0 1629701.2031644359 18466.759754866362 0 0 0 0 218839.01983642578 2023513.8246290088 0 2023513.8246290088 2541331.9848055393 0 0 0 0 1603174.6268310547 -895810.16195261944 0 -895810.16195261944 -6077187.1459381627 0 0 0 0 1846359.8308916092 171495.80535793304 0 171495.80535793304 -1797572.2984934077 0 0 0 0 1365061.5623916909 -850847.21910353703 0 -850847.21910353703 -60891.991150465823 0 0 0 0 -15793545.125228882 -18507139.514892578 0 -18507139.514892578 201263708.79938221 0 0 0 0 118261.42818734795 52187.395734752528 0 52187.395734752528 -51410.69079944471 0 0 0 0 66030176.014509201 -201630423.84282759 0 -201630423.84282759 641055813.70912266 0 0 0 0 31599.581965464633 -22565.851695811376 0 -22565.851695811376 16469.038806178141 0 0 0 0 1303974.4662094116 292381.75677122362 0 292381.75677122362 -1398873.0437530186 0 0 0 0 655167.85464363871 282542.25437431596 0 282542.25437431596 -221636.14837778654 0 0 0 0 134481046.80375671 -89410266.039004087 0 -89410266.039004087 -5774330.8438037634 0 0 0 0 82565752.325035572 -76023387.593151122 0 -76023387.593151122 46427138.044148922 0 0 0 0 77535988.757789612 -90913971.20615387 0 -90913971.20615387 58068092.636466503 0 0 0 0 77419122.582885742 -84657548.843406916 0 -84657548.843406916 233362472.43201065 0 0 0 0 397358369.7069397 -132217881.99548817 0 -132217881.99548817 -91438008.885933876 0 0 0 0 -11936600.838722229 -27186346.298873544 0 -27186346.298873544 72714507.184067816 0 0 0 0 186047879.88225174 -15563757.000669673 0 -15563757.000669673 72553639.801095009 0 0 0 0 202512193.53423309 97330486.686264575 0 97330486.686264575 176871166.56231737 0 0 0 0 -109785683.64523363 -59726203.534295015 0 -59726203.534295015 128353308.05108929 0 0 0 0 284026219.18860626 62765893.374290228 0 62765893.374290228 -18107090.131025232 0 0 0 0 451743219.51592255 -62873359.914267063 0 -62873359.914267063 -102726124.42591339 0 0 0 0 478608.09822004102 27367.508410072885 0 27367.508410072885 -225141.12940166862 0 0 0 0 579521531.41713619 445250961.80382359 0 445250961.80382359 258990668.07673597 0 0 0 0 607168225.34675598 572360207.13142371 0 572360207.13142371 -26464593.998705149 0 0 0 0 912969258.73095703 434742297.87682188 0 434742297.87682188 -97355618.396407291 0 0 0 0 886999.02850951999 180499.89285450615 0 180499.89285450615 -558402.95288133761 0 0 0 0 216029081.58811188 265963661.04797435 0 265963661.04797435 300818263.69252759 0 0 0 0 269003208.97254181 125944366.95365375 0 125944366.95365375 128671720.09514588 0 0 0 0 84714507.93561554 39970593.5865255 0 39970593.5865255 149276757.47409716 0 0 0 0 174968367.21330261 118365143.7220926 0 118365143.7220926 103892091.93650812 0 0 0 0 95505919.086971283 51539653.994642615 0 51539653.994642615 -30835513.20491147 0 0 0 0 -23051824.389694214 76308675.157515764 0 76308675.157515764 103904493.57312748 0 0 0 0 140627093.42969513 134628681.84471208 0 134628681.84471208 -84577389.15652132 0 0 0 0 112156922.42852783 111821779.46649414 0 111821779.46649414 204029146.27427611 0 0 0 0 441188.75211970881 166181.02454131749 0 166181.02454131749 -353145.17369099578 0 0 0 0 167141595.16004562 261504541.41258246 0 261504541.41258246 186605160.63994747 0 0 0 0 68389921.60308075 120531314.28098643 0 120531314.28098643 134163185.24732143 0 0 0 0 826234240.2135849 1273642885.6871066 0 1273642885.6871066 1201034940.0421255 0 0 0 0 2201448710.1580596 1068095420.7640865 0 1068095420.7640865 -178706595.1687772 0 0 0 0 2198936058.1097794 1070419422.8183335 0 1070419422.8183335 -177397067.92282155 0 0 0 0 397561605.3989563 -10566409.047631979 0 -10566409.047631979 -117560394.21159969 0 0 0 0 1778205278.3633499 828385895.37869263 0 828385895.37869263 177482681.39557132 0 0 0 0 930009170.09582186 341090415.44344497 0 341090415.44344497 -51988458.966381431 0 0 0 0 800472138.7591362 359952352.73912227 0 359952352.73912227 -46904527.691266298 0 0 0 0 1859785.8683481161 411916.25471667014 0 411916.25471667014 -1011794.735854226 0 0 0 0 1406542873.7704391 -495377321.21500278 0 -495377321.21500278 -300322749.4473086 0 0 0 0 1300868289.9927025 -296867480.38230288 0 -296867480.38230288 -196213973.38990545 0 0 0 0 2205535951.7255516 -860257054.86630428 0 -860257054.86630428 -149733396.88159388 0 0 0 0 2200416089.6155472 -1607093307.1043959 0 -1607093307.1043959 969683002.42359662 0 0 0 0 1994985.3710299991 127035.42563505564 0 127035.42563505564 360072.3234773181 0 0 0 0 841137923.62376404 -653949124.28519225 0 -653949124.28519225 304116982.03350425 0 0 0 0 843473366.79641056 -424473546.93748957 0 -424473546.93748957 103412831.95115936 0 0 0 0 4568110.0926944055 1076044.9098801147 0 1076044.9098801147 412303.05586848455 0 0 0 0 -24626717.677696228 236169816.21365285 0 236169816.21365285 -131596655.21582651 0 0 0 0 -68011161.409655571 -873940.93709485233 0 -873940.93709485233 -45504896.121541262 0 0 0 0 254794685.91344762 58146715.468476199 0 58146715.468476199 -151190085.54905379 0 0 0 0 266900647.40284348 -247645583.45658424 0 -247645583.45658424 144869745.61780852 0 0 0 0 895473500.66639709 -484942421.56902283 0 -484942421.56902283 98459725.853515252 0 0 0 0 361497849.12044525 -85432345.431256086 0 -85432345.431256086 -1686558.5874572992 0 0 0 0 593144348.70350647 -204630882.522825 0 -204630882.522825 17140700.13150771 0 0 0 0 125794149.94904709 -53255066.848774016 0 -53255066.848774016 27199820.512860976 0 0 0 0 17058174.495767593 84010271.505172312 0 84010271.505172312 -111504150.51856722 0 0 0 0 6776594.6094586775 1875476.7924539088 0 1875476.7924539088 83613.248936406861 0 0 0 0 201330867.33831787 -149841038.56578687 0 -149841038.56578687 21990059.715476081 0 0 0 0 -23177579.279750824 86184106.477346346 0 86184106.477346346 49915929.42800352 0 0 0 0 15395647.031227112 171551078.13948286 0 171551078.13948286 -317907182.22314775 0 0 0 0 6011721.3429299314 1624067.2156472583 0 1624067.2156472583 281017.77471615915 0 0 0 0 126255757.32839966 71274529.791584253 0 71274529.791584253 -38215648.238955259 0 0 0 0 43672223.468475342 67226285.126607418 0 67226285.126607418 150470889.50361466 0 0 0 0 268255240.45413685 24971679.071869582 0 24971679.071869582 109763550.04022217 0 0 0 0 309207759.50723267 -279198146.90828848 0 -279198146.90828848 568746193.78054881 0 0 0 0 166733704.73812866 -134926525.55638838 0 -134926525.55638838 110818657.77122498 0 0 0 0 154857050.72225189 -41942443.733331561 0 -41942443.733331561 -238413388.68100357 0 0 0 0 -77522262.411645889 34494766.153843462 0 34494766.153843462 -36456215.639225006 0 0 0 0 36240112.973594666 134189133.99660707 0 134189133.99660707 -327564544.78497732 0 0 0 0 -20473643.154296875 -8877691.3889479637 0 -8877691.3889479637 -98609424.188043177 0 0 0 0 67860431.695129395 -72842536.757428467 0 -72842536.757428467 -84985139.980138779 0 0 0 0 209043653.72741699 -132235005.98217201 0 -132235005.98217201 52609247.47607708 0 0 0 0 16921745.322303772 5739587.5732367039 0 5739587.5732367039 -28047844.417170048 0 0 0 0 218013123.48614502 -64627800.313713551 0 -64627800.313713551 61566635.407454014 0 0 0 0 -64027041.683838844 64931132.942754224 0 64931132.942754224 475779971.19982815 0 0 0 0 210048895.84057617 -41709895.980487347 0 -41709895.980487347 162891642.59389591 0 0 0 0 10769250.359367371 8415719.1653169394 0 8415719.1653169394 77302461.036342859 0 0 0 0 7277802.0264701843 -88226602.612864196 0 -88226602.612864196 83704945.559221268 0 0 0 0 34696488.434520721 -60293653.780248284 0 -60293653.780248284 -103285866.1846633 0 0 0 0 3011136.8343353271 -21487509.224247575 0 -21487509.224247575 -48160912.237849474 0 0 0 0 7191583.231296204 1905959.1943002082 0 1905959.1943002082 -203297.89993947101 0 0 0 0 11044197.328651428 34810320.107680321 0 34810320.107680321 -169575616.1855371 0 0 0 0 -62383017.273014069 87791756.433205336 0 87791756.433205336 22264069.712338865 0 0 0 0 -102709580.26884174 10880841.3681622 0 10880841.3681622 19441628.047446132 0 0 0 0 10523544.994285583 -21998985.712982237 0 -21998985.712982237 -52885853.580621719 0 0 0 0 3099335.0411071777 23992362.551180065 0 23992362.551180065 -52391820.714260817 0 0 0 0 23302401.013954163 76876932.678866386 0 76876932.678866386 -34255161.124261439 0 0 0 0 -83422969.010953903 -64837240.539562151 0 -64837240.539562151 28975314.631259978 0 0 0 0 -77767179.143623352 -67370870.486713126 0 -67370870.486713126 56660848.291452765 0 0 0 0 -72846650.468566895 -8146035.6100914478 0 -8146035.6100914478 3656799.8622490913 0 0 0 0 -199194897.12724495 70272968.924109682 0 70272968.924109682 15123028.94574666 0 0 0 0 1623977.5107340235 -377.33553067594767 0 -377.33553067594767 -1109835.028681888 0 0 0 0 -80169445.14597702 -12332767.602225646 0 -12332767.602225646 14840894.470247269 0 0 0 0 -71610847.235198975 -16967498.087316692 0 -16967498.087316692 7622110.6025394797 0 0 0 0 -61139704.419570923 -31329277.384031177 0 -31329277.384031177 19723525.582236826 0 0 0 0 -50962242.373977661 -40520086.047565758 0 -40520086.047565758 4379579.9156821966 0 0 0 0 -48093928.198318481 -36039351.066818058 0 -36039351.066818058 -3635762.6542506218 0 0 0 0 -25317870.717079639 -67301484.788966998 0 -67301484.788966998 22321962.32406956 0 0 0 0 -9691682.5723419189 -62657952.349363595 0 -62657952.349363595 -26435728.739098467 0 0 0 0 -24192520.03540802 -76417328.897879779 0 -76417328.897879779 -7887604.2264834046 0 0 0 0 -47482254.825298309 -56987175.212269656 0 -56987175.212269656 29614108.581722736 0 0 0 0 -46995827.48979187 -68704666.691570222 0 -68704666.691570222 58450925.142331839 0 0 0 0 -50626998.54309082 -51276536.008889437 0 -51276536.008889437 24803736.339236617 0 0 0 0 -90978627.079780579 -7714398.6780158281 0 -7714398.6780158281 26561967.440879583 0 0 0 0 -70634777.910359144 -36524725.625043891 0 -36524725.625043891 45886312.259282947 0 0 0 0 18957010.249656677 -49654863.198423922 0 -49654863.198423922 37161042.013189733 0 0 0 0 18026937.112953186 -84272181.473638505 0 -84272181.473638505 80862892.934996963 0 0 0 0 19110627.880088806 -15162020.953733623 0 -15162020.953733623 111808729.23126912 0 0 0 0 18911909.503799438 -76790183.391974598 0 -76790183.391974598 20448102.493397623 0 0 0 0 -35174871.454849243 -118928229.54008994 0 -118928229.54008994 -12584685.972095763 0 0 0 0 -24649168.751213074 -65066951.000960886 0 -65066951.000960886 49072769.250053868 0 0 0 0 152373873.72367859 14173160.253416598 0 14173160.253416598 39930572.189284481 0 0 0 0 130635928.51531029 26414924.550590813 0 26414924.550590813 122608212.25278723 0 0 0 0 151945385.21305275 -10919849.823942706 0 -10919849.823942706 73114392.615354419 0 0 0 0 522246916.85230637 -66815388.977172732 0 -66815388.977172732 15729694.069743693 0 0 0 0 71088536.376251221 -47933453.506725073 0 -47933453.506725073 11197821.975929201 0 0 0 0 136300339.24946976 22150134.759964347 0 22150134.759964347 29755208.334471583 0 0 0 0 225786024.28504944 27850295.922491848 0 27850295.922491848 63121339.921405077 0 0 0 0 1049361371.1512718 -58352322.698049128 0 -58352322.698049128 -121414848.69917101 0 0 0 0 577312846.19991684 65833058.04794243 0 65833058.04794243 -6132989.3728473783 0 0 0 0 560461649.37654114 97494544.539608777 0 97494544.539608777 39512153.764518023 0 0 0 0 622046362.85454559 5191735.0680202842 0 5191735.0680202842 -24384256.294002384 0 0 0 0 467515595.23358917 90449584.850230858 0 90449584.850230858 -1993013.6237634309 0 0 0 0 429940581.55348969 229867072.00999761 0 229867072.00999761 110754837.89663646 0 0 0 0 1122028221.4252129 279172068.15467882 0 279172068.15467882 -76890038.610452533 0 0 0 0 1128287020.2680104 199043653.58370584 0 199043653.58370584 -144092013.75107479 0 0 0 0 1774112277.454525 483489839.6739797 0 483489839.6739797 -204526557.14909691 0 0 0 0 1522141042.6917076 376053412.02839434 0 376053412.02839434 -99130975.071321845 0 0 0 0 2205219691.168808 357622307.28288698 0 357622307.28288698 -266599511.77525699 0 0 0 0 1924013486.825119 124876478.42948033 0 124876478.42948033 -449846484.87024599 0 0 0 0 2204398771.7128601 186615376.94091907 0 186615376.94091907 -487742390.08418906 0 0 0 0 1769797804.732935 -38341252.80726707 0 -38341252.80726707 -406213451.22563845 0 0 0 0 1516165969.1702423 -117472349.2653459 0 -117472349.2653459 -426972259.71225935 0 0 0 0 1124288799.8793201 -296231173.29528344 0 -296231173.29528344 -161503875.1313085 0 0 0 0 2204663888.8781843 -365818984.82030898 0 -365818984.82030898 -460561582.3989045 0 0 0 0 -1714627.9151229858 -7847192.8487067223 0 -7847192.8487067223 -14963622.055709653 0 0 0 0 6027236.5465087891 -8931569.3121994734 0 -8931569.3121994734 -23461549.938833714 0 0 0 0 7311530.0657509817 532730.01743415184 0 532730.01743415184 -2035735.9203894869 0 0 0 0 481513.11160445213 -566186.77819807827 0 -566186.77819807827 -560501.62592392089 0 0 0 0 -17619612.923828125 -31262587.469652891 0 -31262587.469652891 -355983.51937484741 0 0 0 0 -4753770.0655517578 -10264120.788346767 0 -10264120.788346767 1991286.6713461876 0 0 0 0 17493654.1001091 -4441377.3733551204 0 -4441377.3733551204 -3844242.2654409409 0 0 0 0 -24327079.843109131 -2144996.5603313446 0 -2144996.5603313446 -5743623.124076128 0 0 0 0 20847591.391784668 -9449312.6623840332 0 -9449312.6623840332 -15017553.590976417 0 0 0 0 -21104489.479034424 -14380749.429470062 0 -14380749.429470062 -559319.51854622364 0 0 0 0 -20131794.925897598 -18623439.357210159 0 -18623439.357210159 5494123.106408596 0 0 0 0 -22742173.260532856 -17200308.722283199 0 -17200308.722283199 4735979.7103824615 0 0 0 0 -4762649.0662626475 -14661385.153358307 0 -14661385.153358307 -1133334.410323143 0 0 0 0 -5733639.1605834961 -15929283.56520319 0 -15929283.56520319 -6214583.5422697067 0 0 0 0 11724.518699645996 -16542883.372173786 0 -16542883.372173786 -7275457.1356680393 0 0 0 0 6749180.1897850037 451753.6041431427 0 451753.6041431427 -4782447.2237281799 0 0 0 0 10029515.696228027 -7632014.3914449215 0 -7632014.3914449215 -6179480.3572263718 0 0 0 0 7817218.1604089793 -671741.40075822175 0 -671741.40075822175 -3219395.1897016028 0 0 0 0 4240146.0007481184 225208.91383022768 0 225208.91383022768 -2132435.8412108314 0 0 0 0 6677246.9604530334 -432517.04894065857 0 -432517.04894065857 -7768275.5504283905 0 0 0 0 6070420.18384552 -2323483.647895813 0 -2323483.647895813 -5411500.7749700546 0 0 0 0 4577385.4560661316 983968.85085630417 0 983968.85085630417 -10399628.343841553 0 0 0 0 3448692.1137113348 500560.47440684424 0 500560.47440684424 -1586455.8968240526 0 0 0 0 9331204.255279541 3306083.5948181152 0 3306083.5948181152 -19542991.482402802 0 0 0 0 4271073.6865539551 -1858980.9179697037 0 -1858980.9179697037 -2936124.9952421188 0 0 0 0 2336922.8790230956 -1740517.0421743663 0 -1740517.0421743663 -1791962.1319059827 0 0 0 0 4990192.3800048828 -6023989.9460792542 0 -6023989.9460792542 -505344.28646528721 0 0 0 0 3772414.774523735 -12905903.31186235 0 -12905903.31186235 376970.36113071442 0 0 0 0 3034566.9741516113 851071.92506170273 0 851071.92506170273 -2212605.781039238 0 0 0 0 3054945.661915727 -2007909.6726217251 0 -2007909.6726217251 -3078158.9968474079 0 0 0 0 3975068.0653305054 -755217.48362112045 0 -755217.48362112045 -1488331.9008033276 0 0 0 0 9608628.3464450836 -8274032.3619366884 0 -8274032.3619366884 -4248400.9391479492 0 0 0 0 6819070.9431381226 -3869703.0740995407 0 -3869703.0740995407 -3999007.6262683868 0 0 0 0 4751439.3216558155 -524574.27147505805 0 -524574.27147505805 -2042224.6339179012 0 0 0 0 10049635.840332985 -7086408.345672369 0 -7086408.345672369 -8384782.7796421051 0 0 0 0 8550876.1671295166 -2597233.853972435 0 -2597233.853972435 -8542349.4196636379 0 0 0 0 5792802.2167053223 41889.827172279358 0 41889.827172279358 -6556497.2441205978 0 0 0 0 7379715.2402954102 -3534812.3001680374 0 -3534812.3001680374 -15092621.724934578 0 0 0 0 7404711.1729846001 -2943701.9783541858 0 -2943701.9783541858 -8052910.5669116974 0 0 0 0 8840184.2525024414 -104170.52044391632 0 -104170.52044391632 -8684127.1242637634 0 0 0 0 4374264.5269012451 966175.48951488733 0 966175.48951488733 191157.8744995594 0 0 0 0 1831737.8913879395 109533.16023087502 0 109533.16023087502 -107326.6147480011 0 0 0 0 513227.90271289088 -407915.22993303835 0 -407915.22993303835 -1021842.2335879523 0 0 0 0 8689213.6831741333 -3251947.6942081451 0 -3251947.6942081451 -5463285.9719810486 0 0 0 0 8955807.9262237549 519431.97844028473 0 519431.97844028473 -5320828.4176540375 0 0 0 0 3058658.8427783628 268277.21857198887 0 268277.21857198887 -256162.72060888511 0 0 0 0 307776.18008422852 -705533.38196897507 0 -705533.38196897507 -828362.51533508301 0 0 0 0 3507315.0570177324 -741980.27685072646 0 -741980.27685072646 -1826749.832486151 0 0 0 0 2535465.6026732428 230755.39778937772 0 230755.39778937772 -226512.86221489438 0 0 0 0 1961022.8651428223 -685705.38371288776 0 -685705.38371288776 -751795.08694934845 0 0 0 0 4888999.5633850098 1100277.2310211658 0 1100277.2310211658 -2468026.5165196806 0 0 0 0 1535037.5101013184 -530169.37557208538 0 -530169.37557208538 -808490.81828451157 0 0 0 0 1968421.2976989746 -571104.34350502491 0 -571104.34350502491 -1702348.0853220224 0 0 0 0 1176841.7856521606 -644640.85829639435 0 -644640.85829639435 -437020.81838560104 0 0 0 0 2232751.5824930668 -1031451.5449335687 0 -1031451.5449335687 -560024.9546892643 0 0 0 0 2273023.0908442792 -1483700.008388387 0 -1483700.008388387 -1633918.9035466691 0 0 0 0 2272310.5323486328 -70728.383251786232 0 -70728.383251786232 -679002.27803587914 0 0 0 0 688989.31501017511 -752547.26102650445 0 -752547.26102650445 -879755.21027423209 0 0 0 0 2574041.4091201397 391082.67775689065 0 391082.67775689065 -88454.920446673757 0 0 0 0 -76070.884608740918 -404297.12007325888 0 -404297.12007325888 -266917.84266162675 0 0 0 0 -5170948.0032043457 -1844991.4147896767 0 -1844991.4147896767 2861679.0388031006 0 0 0 0 4394777.0158081055 909292.85999584198 0 909292.85999584198 -72119.709192276001 0 0 0 0 -366875.42330671474 -788376.27364312112 0 -788376.27364312112 -538146.79830475408 0 0 0 0 1981006.9066619873 298212.42355892062 0 298212.42355892062 -472058.93107879162 0 0 0 0 -3964615.8359222412 -1834289.4677472115 0 -1834289.4677472115 -3586834.0135879517 0 0 0 0 3784580.5062029213 -1821847.1099505126 0 -1821847.1099505126 -2800077.1385887093 0 0 0 0 7618289.2861639038 -1972089.585620922 0 -1972089.585620922 -5267967.0437658364 0 0 0 0 19203756.666130066 -6648925.7746504545 0 -6648925.7746504545 -4400244.5101938248 0 0 0 0 15012647.751083374 -1700587.8052883148 0 -1700587.8052883148 -2355868.0246577263 0 0 0 0 16622286.775817871 -1418105.2124919891 0 -1418105.2124919891 -3049659.7673788071 0 0 0 0 14090600.873802185 -4901875.9829175472 0 -4901875.9829175472 -3486592.3726348877 0 0 0 0 8044321.3364715576 -5701687.010283947 0 -5701687.010283947 -2562877.2762801647 0 0 0 0 10939179.743228912 -7753562.7945110798 0 -7753562.7945110798 -1264158.7045068741 0 0 0 0 9126569.5085544586 -10563102.581193119 0 -10563102.581193119 3455375.1434864998 0 0 0 0 15230858.943466187 -16220970.299336195 0 -16220970.299336195 -2239984.4561936855 0 0 0 0 14074511.287651062 -20519413.816549778 0 -20519413.816549778 -8535199.169567585 0 0 0 0 5235281.8130874634 -24785219.783106804 0 -24785219.783106804 8395508.6826031208 0 0 0 0 13693258.314899445 -29214048.115692496 0 -29214048.115692496 -27817621.384140968 0 0 0 0 19282184.460250854 -18747943.422132492 0 -18747943.422132492 -8357997.1475811899 0 0 0 0 18999729.750144958 -17490712.890317559 0 -17490712.890317559 -12570325.429501534 0 0 0 0 21199262.867103577 -14293631.510236949 0 -14293631.510236949 -8231179.5590858459 0 0 0 0 -8819490.9227142334 -27097056.828509331 0 -27097056.828509331 34862365.934054852 0 0 0 0 4989581.5348320007 -28650705.123497725 0 -28650705.123497725 -7190278.6737089157 0 0 0 0 4226259.7756195068 -26218222.850930929 0 -26218222.850930929 -6840311.0230544806 0 0 0 0 13229054.880912781 -23181546.930965185 0 -23181546.930965185 -58369931.105703354 0 0 0 0 2263451.9814834595 -49298766.161505342 0 -49298766.161505342 -5428585.1023294926 0 0 0 0 6517905.7687683105 -9560957.9750657082 0 -9560957.9750657082 -49541884.630353928 0 0 0 0 27797126.515075684 -20239472.09084487 0 -20239472.09084487 -39379313.204451382 0 0 0 0 7610104.2724710349 1842176.3683133167 0 1842176.3683133167 -617619.14960248442 0 0 0 0 2597826.4575958252 17142432.736982554 0 17142432.736982554 -80251532.924440384 0 0 0 0 10523093.764560759 -21894057.726140432 0 -21894057.726140432 -15477663.843245983 0 0 0 0 41151368.571578979 -7643364.6956939697 0 -7643364.6956939697 -20364767.43253994 0 0 0 0 25995984.249816895 4921134.961149931 0 4921134.961149931 6143550.0658769608 0 0 0 0 20250280.5234375 -7496953.1498734951 0 -7496953.1498734951 -33771537.847309709 0 0 0 0 22784316.244277954 -15354896.697245121 0 -15354896.697245121 -18673138.208076954 0 0 0 0 34610529.462997437 -19431580.175055146 0 -19431580.175055146 -46703266.214330673 0 0 0 0 -11220354.353609085 -9255379.5346883535 0 -9255379.5346883535 -20935645.494523525 0 0 0 0 68237617.544845581 4004435.7492229939 0 4004435.7492229939 -37852469.872144461 0 0 0 0 -127600.80105915852 -250014.80053205136 0 -250014.80053205136 -148782.58321138012 0 0 0 0 -33681838.866149902 -29864659.430885315 0 -29864659.430885315 11566021.358533859 0 0 0 0 64901389.534431458 33904367.969274759 0 33904367.969274759 -7299346.9849187136 0 0 0 0 -42928178.147468567 -55292421.102576733 0 -55292421.102576733 343203.59667110443 0 0 0 0 -15992632.056533813 -46188842.131674767 0 -46188842.131674767 -33856436.010325909 0 0 0 0 24766709.634468079 71580460.818699419 0 71580460.818699419 -23095274.923264205 0 0 0 0 -5973120.4237327576 -18728360.209727012 0 -18728360.209727012 -7726725.2987509966 0 0 0 0 52351408.143447876 83616283.582247734 0 83616283.582247734 -26389156.386969328 0 0 0 0 220759.82423149981 520519.08527651126 0 520519.08527651126 -217027.6760346978 0 0 0 0 8113873.8249083925 1589641.5215515392 0 1589641.5215515392 -1311491.6960842274 0 0 0 0 4663447.7786865234 -66765620.098633528 0 -66765620.098633528 60449754.206218898 0 0 0 0 58513942.410415649 -138423174.58750284 0 -138423174.58750284 -66246266.342078507 0 0 0 0 10569529.255508423 19874571.877931118 0 19874571.877931118 -17220229.818708539 0 0 0 0 5227073.4756584167 45738310.308245569 0 45738310.308245569 -89185462.844608307 0 0 0 0 14334959.037628174 19178625.792033672 0 19178625.792033672 -17922856.21383667 0 0 0 0 20286746.92590332 2561942.7253086567 0 2561942.7253086567 1967607.0508732796 0 0 0 0 16401758.705184937 5000414.1792879105 0 5000414.1792879105 -330149.09195685387 0 0 0 0 22460618.017845154 10741240.133116961 0 10741240.133116961 3721139.0299043655 0 0 0 0 17162429.312927246 8135067.844101429 0 8135067.844101429 12230058.200942993 0 0 0 0 17143899.236740112 12628772.356091976 0 12628772.356091976 13854166.617230654 0 0 0 0 19043980.771621704 3991976.6136870384 0 3991976.6136870384 45334.379583597183 0 0 0 0 7762620.7376785278 5166826.8690654039 0 5166826.8690654039 -30881607.307994962 0 0 0 0 15708070.368972778 21768105.791169405 0 21768105.791169405 -17374199.74757278 0 0 0 0 -36811045.219902039 45086175.329605818 0 45086175.329605818 194490089.11144829 0 0 0 0 82242504.205718994 50348071.526712656 0 50348071.526712656 -186808062.77843809 0 0 0 0 -2009585.1966705322 19714354.208746791 0 19714354.208746791 8856320.4494330585 0 0 0 0 41837924.914779663 66279127.416867971 0 66279127.416867971 2121293.0597555041 0 0 0 0 38118057.727737427 -99821093.479079008 0 -99821093.479079008 38439623.239968181 0 0 0 0 98733389.242767334 318025212.65967894 0 318025212.65967894 8555264.1489741802 0 0 0 0 117502581.82710266 -183946681.37011576 0 -183946681.37011576 -387442892.98730087 0 0 0 0 5616347.7543716431 -37730814.563352704 0 -37730814.563352704 -89795022.951401711 0 0 0 0 -22055242.387268066 25272411.398195267 0 25272411.398195267 -8783204.1089010239 0 0 0 0 -8765172.2359085083 10032237.041746616 0 10032237.041746616 3117029.4525127411 0 0 0 0 1240255.2066345867 363888.84978634492 0 363888.84978634492 -380126.31564814429 0 0 0 0 3844916.2804794312 7414757.6893786192 0 7414757.6893786192 2318948.7946515083 0 0 0 0 798775.37177929282 73186.686892441474 0 73186.686892441474 -543181.56820741622 0 0 0 0 7470147.0532226562 11329297.159314454 0 11329297.159314454 -18054025.007424355 0 0 0 0 16986468.649215698 6312301.9741873741 0 6312301.9741873741 -7282441.2563130856 0 0 0 0 36125683.80284214 -1673004.5254064947 0 -1673004.5254064947 -42633868.360246181 0 0 0 0 25731475.734302521 25736246.62865901 0 25736246.62865901 -30726792.883286953 0 0 0 0 24592186.482192993 33250159.135836124 0 33250159.135836124 -59818321.308204651 0 0 0 0 36797328.007354736 2963335.4173538685 0 2963335.4173538685 -61315411.181499615 0 0 0 0 17948578.840042114 831498.82945728302 0 831498.82945728302 -8050643.2389746308 0 0 0 0 5388641.5944656655 104380.93311056122 0 104380.93311056122 -3782766.5444609676 0 0 0 0 -84604245.127389908 5354069.4052333459 0 5354069.4052333459 544204.19315171242 0 0 0 0 20367476.169216156 -4863217.9358381629 0 -4863217.9358381629 -3280383.4023971558 0 0 0 0 -63868639.417051315 -10176831.242359836 0 -10176831.242359836 -9902389.2949765921 0 0 0 0 5658917.3965004859 -2677618.7576872506 0 -2677618.7576872506 -3332534.7699345625 0 0 0 0 5669691.9456558004 6947386.9399901098 0 6947386.9399901098 1939161.4158055247 0 0 0 0 7391458.535957098 13543062.942473412 0 13543062.942473412 -7912573.3969841003 0 0 0 0 3257292.9377174377 8998554.3079948425 0 8998554.3079948425 2865039.1203956604 0 0 0 0 5966373.9507519854 1181534.8640462039 0 1181534.8640462039 -3587779.4679308906 0 0 0 0 64573982.731550217 -3517140.4670906067 0 -3517140.4670906067 -33486177.877346039 0 0 0 0 18399816.745182276 10045984.315105438 0 10045984.315105438 -12536120.090051651 0 0 0 0 -42762433.415817261 -22209868.632714674 0 -22209868.632714674 -3669740.024367705 0 0 0 0 17915996.122752212 4251858.3672973514 0 4251858.3672973514 -10392765.128852844 0 0 0 0 6530349.5501355184 -3672413.8338778485 0 -3672413.8338778485 -5147902.3911476079 0 0 0 0 16199184.921252251 9704052.4801850319 0 9704052.4801850319 -5700197.5054440498 0 0 0 0 13405813.395319939 1891349.7516272068 0 1891349.7516272068 -2639433.4101586342 0 0 0 0 4487850.1356315613 7227667.1179339886 0 7227667.1179339886 -1167176.2569956779 0 0 0 0 4774962.7329589436 6196780.4225958148 0 6196780.4225958148 2082397.3791934322 0 0 0 0 5906016.1447105408 7173977.8526959419 0 7173977.8526959419 -1229368.0141012669 0 0 0 0 -44645206.188334465 50136914.609790325 0 50136914.609790325 7138399.8137874603 0 0 0 0 7946768.6521835327 2152278.218350172 0 2152278.218350172 508125.08930397034 0 0 0 0 7083809.1373935016 3281730.7646490186 0 3281730.7646490186 -330548.20557933231 0 0 0 0 13391560.049938202 9982813.987883091 0 9982813.987883091 1290626.8139257431 0 0 0 0 11977355.257137299 3791468.2988600731 0 3791468.2988600731 -3086021.886682272 0 0 0 0 12509179.016555786 10081884.499441624 0 10081884.499441624 3221356.2810087204 0 0 0 0 11633456.937896729 11495182.322324753 0 11495182.322324753 1088834.4820823669 0 0 0 0 5926483.5087566376 4843390.0973907709 0 4843390.0973907709 1377472.406785965 0 0 0 0 3834186.011390686 3908056.3165788651 0 3908056.3165788651 3495362.9156160355 0 0 0 0 8408817.7737121582 12094099.535307407 0 12094099.535307407 10202219.27790451 0 0 0 0 12315369.315002441 2806558.1753456593 0 2806558.1753456593 -2853078.2849081159 0 0 0 0 6486711.2169914246 283383.07123804092 0 283383.07123804092 -950080.87116861343 0 0 0 0 7087564.6849014051 3322084.9967643339 0 3322084.9967643339 -1371025.9497516281 0 0 0 0 466060.04851314053 2118829.3079468049 0 2118829.3079468049 -480361.70138986158 0 0 0 0 11232940.470899582 -467590.34821468592 0 -467590.34821468592 -2338649.6104712486 0 0 0 0 16174015.818983078 3346756.2120192647 0 3346756.2120192647 -3314281.3535606861 0 0 0 0 -4154110.4832458496 5317844.6874089241 0 5317844.6874089241 -19296263.297446251 0 0 0 0 4029537.9056053162 2264565.583479166 0 2264565.583479166 -2174203.5751056671 0 0 0 0 1719277.1809310913 6922952.3151209354 0 6922952.3151209354 3943071.5448932648 0 0 0 0 190620.68093373254 -939733.88933177618 0 -939733.88933177618 -607433.02676011482 0 0 0 0 1523552.7476806641 -1514828.4518470764 0 -1514828.4518470764 -1795143.1389760971 0 0 0 0 366891.98150634766 89841.468654632568 0 89841.468654632568 -974201.32081508636 0 0 0 0 442650.18948177062 706306.52294317086 0 706306.52294317086 -354003.01206665899 0 0 0 0 10261743.814337984 2663033.3242569994 0 2663033.3242569994 -1896121.9117647146 0 0 0 0 8250021.5440199981 -526013.9060778711 0 -526013.9060778711 -2998829.1170984521 0 0 0 0 3208787.8128585815 -1973641.5000286102 0 -1973641.5000286102 -1973552.0969047546 0 0 0 0 17789914.180688858 5905007.2543464303 0 5905007.2543464303 -19400162.640199661 0 0 0 0 4133035.1994590759 -1778607.2336528301 0 -1778607.2336528301 -2750398.7700519562 0 0 0 0 8489675.912612915 -11528354.385567188 0 -11528354.385567188 -48479671.410806179 0 0 0 0 -12898840.125874758 30684553.036551692 0 30684553.036551692 -14004334.441825271 0 0 0 0 8855056.0887323953 814207.94167369371 0 814207.94167369371 -2636019.7201174763 0 0 0 0 -6725150.1660614014 -21640809.735311031 0 -21640809.735311031 -19388050.339159966 0 0 0 0 8903707.6260223389 853614.92572116852 0 853614.92572116852 -8458584.5007143021 0 0 0 0 6401623.3484859467 -2495160.1916012764 0 -2495160.1916012764 -12615016.490730286 0 0 0 0 12618424.1342659 -7002015.5905127525 0 -7002015.5905127525 -6883579.9838180542 0 0 0 0 4740895.9200630188 -2862228.1332671642 0 -2862228.1332671642 -4428359.2954826355 0 0 0 0 1545473.791251719 -3623986.5137847885 0 -3623986.5137847885 470603.93564605713 0 0 0 0 3892251.2912750244 -4745188.7237815857 0 -4745188.7237815857 -2802858.1705513 0 0 0 0 4962469.500038147 -7321447.603345871 0 -7321447.603345871 1822682.151348114 0 0 0 0 2505501.2281799316 -4049678.8305988312 0 -4049678.8305988312 1479726.3847968578 0 0 0 0 183643.95104804263 -166501.40206727956 0 -166501.40206727956 -452281.41178500524 0 0 0 0 2585102.7382202148 -3730357.1556406021 0 -3730357.1556406021 -384599.49101257324 0 0 0 0 70002.475171046332 -52041.804750892334 0 -52041.804750892334 -178547.00417326309 0 0 0 0 11367508.706169128 -14832127.111176014 0 -14832127.111176014 14040676.555515289 0 0 0 0 31240723.753112793 -8705038.2466602325 0 -8705038.2466602325 -5031425.2730870247 0 0 0 0 12258439.475845337 22063260.071404457 0 22063260.071404457 31940304.6804142 0 0 0 0 26748556.597434998 17241618.338433743 0 17241618.338433743 8459199.2738780975 0 0 0 0 20585116.351867676 15798615.95069313 0 15798615.95069313 8749912.1951818466 0 0 0 0 7542919.322845459 14831326.008615971 0 14831326.008615971 5551397.5144033432 0 0 0 0 3497266.5685043335 9673438.837726593 0 9673438.837726593 14511451.551198959 0 0 0 0 3402167.9573059082 5365634.69196558 0 5365634.69196558 5377222.4782009125 0 0 0 0 12115483.163040161 22064557.650160789 0 22064557.650160789 16816607.330435514 0 0 0 0 16799467.192863464 18541334.925195694 0 18541334.925195694 6365301.1715126038 0 0 0 0 15335453.583206177 22715243.519743443 0 22715243.519743443 -1851872.5648937225 0 0 0 0 8125642.0481987 21949070.924843788 0 21949070.924843788 7803206.0753068924 0 0 0 0 10361294.4037323 19284047.054096222 0 19284047.054096222 7714732.4119215012 0 0 0 0 3114584.7751235962 23933418.194748402 0 23933418.194748402 7204868.5281322002 0 0 0 0 11325476.150985718 16004712.137039065 0 16004712.137039065 -22726773.290388107 0 0 0 0 9077548.2131729126 19771056.012126446 0 19771056.012126446 17182035.663178444 0 0 0 0 30794281.20526886 25560513.753812313 0 25560513.753812313 -1379842.5745968819 0 0 0 0 26489122.357460022 9833799.232542038 0 9833799.232542038 -10988340.2766819 0 0 0 0 36042894.182495117 14856520.896780014 0 14856520.896780014 -48365319.887212753 0 0 0 0 35299450.752051353 8993426.7785960436 0 8993426.7785960436 -15389201.146337509 0 0 0 0 -10332496.949005127 16969370.65968895 0 16969370.65968895 -16781011.942746639 0 0 0 0 30083883.514686584 2207254.0978374481 0 2207254.0978374481 -13736716.830484867 0 0 0 0 -1295951.9112625122 -14357368.612151146 0 -14357368.612151146 -21691594.753264427 0 0 0 0 16781422.901199341 -33604215.490709066 0 -33604215.490709066 48359201.859182835 0 0 0 0 547939.89728061669 995352.12233741931 0 995352.12233741931 155634.02631979084 0 0 0 0 40196321.426795959 -20087025.164572239 0 -20087025.164572239 -31431820.817322731 0 0 0 0 -1926572.7846221924 -12821388.999844551 0 -12821388.999844551 88301186.383130074 0 0 0 0 -307647861.33782959 148842247.64407349 0 148842247.64407349 132116664.73949814 0 0 0 0 25129997.068084717 -21601794.257301807 0 -21601794.257301807 7324367.12358284 0 0 0 0 3360565.3831490353 4316007.5619756076 0 4316007.5619756076 -1709681.4451139746 0 0 0 0 1664250.7463696059 2881885.5936445855 0 2881885.5936445855 460475.1436750663 0 0 0 0 2943134.9766311646 17045924.504068375 0 17045924.504068375 27758827.815418243 0 0 0 0 10761635.194587708 25105392.575798512 0 25105392.575798512 19293691.682362556 0 0 0 0 26474191.027503967 25297068.80277133 0 25297068.80277133 -1164532.9414916039 0 0 0 0 3796102.8785283938 5988321.4489190895 0 5988321.4489190895 -2836191.5090388102 0 0 0 0 538154.03414916992 7143877.2957725525 0 7143877.2957725525 -6237646.5862884521 0 0 0 0 12666313.042434692 6179304.0471712351 0 6179304.0471712351 -8291152.3935670853 0 0 0 0 -2801592.2477722168 6389491.5076503754 0 6389491.5076503754 -1377137.7409095764 0 0 0 0 996077.18347930908 5924652.8570375443 0 5924652.8570375443 -5093474.4141769409 0 0 0 0 -570463.13285827637 5043234.3417539597 0 5043234.3417539597 -2870200.8549423218 0 0 0 0 -2109013.3104400635 6618884.6840229034 0 6618884.6840229034 -4311430.3167457581 0 0 0 0 9959205.2778701782 -4162480.8055839539 0 -4162480.8055839539 -1837048.3822555542 0 0 0 0 6017170.7978096008 299939.27322149277 0 299939.27322149277 -2054401.0314254761 0 0 0 0 9737495.5893554688 -3557733.6449847221 0 -3557733.6449847221 -2379519.0697841644 0 0 0 0 9789531.1118978262 -2288979.2273359299 0 -2288979.2273359299 2232587.1819839478 0 0 0 0 9326890.3304162025 -6804149.8548409939 0 -6804149.8548409939 -2523765.9099254608 0 0 0 0 10362708.888092995 -4203238.3497021198 0 -4203238.3497021198 -1968538.9040565491 0 0 0 0 14359260.347236633 -6342886.3126840591 0 -6342886.3126840591 -1503684.7010669708 0 0 0 0 19058777.166595459 1209091.0604915619 0 1209091.0604915619 -2022840.042755127 0 0 0 0 17418338.848808289 561678.98459243774 0 561678.98459243774 -4280787.9552001953 0 0 0 0 17115525.224679947 -156790.33997154236 0 -156790.33997154236 -2979467.5392379761 0 0 0 0 3536342.6091721989 4024179.034267026 0 4024179.034267026 323397.47721890174 0 0 0 0 11165564.156072617 9608029.8100810051 0 9608029.8100810051 -1823686.8623847961 0 0 0 0 15124001.199466705 11124332.579230785 0 11124332.579230785 -1720573.5660324097 0 0 0 0 25301383.88458252 13704360.054351807 0 13704360.054351807 -1245892.4085941315 0 0 0 0 771370.89897851553 171925.80536031909 0 171925.80536031909 -685026.45315714157 0 0 0 0 2147914.8806188107 12896021.62352325 0 12896021.62352325 17005897.208993912 0 0 0 0 -6364431.2810668945 -3087423.893163681 0 -3087423.893163681 -6173938.0229444504 0 0 0 0 9845637.7810696922 911198.15624541696 0 911198.15624541696 -4256396.4211731143 0 0 0 0 2060739.1338729858 10380279.509961128 0 10380279.509961128 11130839.525756836 0 0 0 0 13746442.377059937 25241491.154013634 0 25241491.154013634 9503757.7545881271 0 0 0 0 6556862.2543077469 20058503.716735601 0 20058503.716735601 18135857.184914589 0 0 0 0 5905398.717880249 15770745.40457058 0 15770745.40457058 4251802.0256061554 0 0 0 0 12191425.272705078 20978225.65738678 0 20978225.65738678 11010984.687286377 0 0 0 0 23189841.239463806 7624267.7141704559 0 7624267.7141704559 -13981922.144080162 0 0 0 0 -6027003.9542388916 -1411557.0759963989 0 -1411557.0759963989 -895933.30031299591 0 0 0 0 4678314.0146789551 427382.3087387085 0 427382.3087387085 -3611392.4330835342 0 0 0 0 -10205109.306159973 1343009.3092784882 0 1343009.3092784882 1058887.1495285034 0 0 0 0 -468328.47736358643 8485029.2275028229 0 8485029.2275028229 11413918.497600079 0 0 0 0 9880797.9955215454 20365105.656356335 0 20365105.656356335 3756676.6446876526 0 0 0 0 9385152.6023788452 20394985.960334301 0 20394985.960334301 4944882.3316135406 0 0 0 0 -1170154.9401855469 2893365.0804071426 0 2893365.0804071426 -2117407.4264450073 0 0 0 0 2731172.0509066656 5134891.4594128486 0 5134891.4594128486 819155.61568010529 0 0 0 0 -5685878.5684890747 3793799.4894142151 0 3793799.4894142151 -2158583.143573761 0 0 0 0 -10106045.18793726 4711345.530196473 0 4711345.530196473 -342076.85168075562 0 0 0 0 3008885.4895041408 2722316.1829685615 0 2722316.1829685615 -378841.21448474261 0 0 0 0 11111865.598730087 -1202857.4719574451 0 -1202857.4719574451 -47057.943574905396 0 0 0 0 10165513.619056702 -1435914.3276934624 0 -1435914.3276934624 -248408.96184635162 0 0 0 0 9928817.8472557068 -2214312.8610799313 0 -2214312.8610799313 3224331.1444168091 0 0 0 0 3418187.5545156859 5049044.0424354486 0 5049044.0424354486 -254777.89912909421 0 0 0 0 -1044322.2444152832 1811490.1450920105 0 1811490.1450920105 141035.93463802338 0 0 0 0 8204168.2310840366 3129306.1611655084 0 3129306.1611655084 608342.58192340471 0 0 0 0 -2165715.0673217773 12507255.346689939 0 12507255.346689939 11845044.675976753 0 0 0 0 3430076.4120016322 3315364.8088027746 0 3315364.8088027746 -1732039.8960078331 0 0 0 0 17493326.874820709 7248980.8905000687 0 7248980.8905000687 -2302627.2849855423 0 0 0 0 9720242.8408234771 1392289.7761629284 0 1392289.7761629284 -1633590.6639998127 0 0 0 0 1451655.6503748605 2833516.938494592 0 2833516.938494592 2216691.5360684451 0 0 0 0 1059766.6658506133 1028568.2252413151 0 1028568.2252413151 -509898.21786725428 0 0 0 0 -16009037.727958679 -3521767.7817983627 0 -3521767.7817983627 12548938.501070976 0 0 0 0 21651899.814405441 51963032.179204881 0 51963032.179204881 33883287.464481354 0 0 0 0 17675022.714530945 23219547.26798439 0 23219547.26798439 -10635869.974949598 0 0 0 0 17847847.236495972 -247015.24827289581 0 -247015.24827289581 -16843749.332307816 0 0 0 0 13383532.11733532 10158410.812275052 0 10158410.812275052 1107592.8065929413 0 0 0 0 10900800.332113266 3398407.9048814774 0 3398407.9048814774 -1535403.1073093414 0 0 0 0 13529957.381469727 10582681.59486866 0 10582681.59486866 677196.59568285942 0 0 0 0 8289005.3965826035 3221078.7204370499 0 3221078.7204370499 99202.89061164856 0 0 0 0 1676843.2857492131 305075.34586121642 0 305075.34586121642 -905333.94378605299 0 0 0 0 208229293.83599377 -7424690.7911720276 0 -7424690.7911720276 -99817513.510412216 0 0 0 0 -153464747.44404984 -3223261.2058572769 0 -3223261.2058572769 255762782.19918442 0 0 0 0 33722206.623963356 98937818.423669815 0 98937818.423669815 92087627.590026855 0 0 0 0 147523328.76538372 73529997.962965012 0 73529997.962965012 -12425642.262046814 0 0 0 0 19679026.32207489 6893764.3539733887 0 6893764.3539733887 -34662731.337053299 0 0 0 0 -52670837.748422623 3659723.5057754517 0 3659723.5057754517 -39611315.62336731 0 0 0 0 165674360.71701336 -87099078.893921614 0 -87099078.893921614 -2053485.0724601746 0 0 0 0 -139389257.42938423 58940211.67697525 0 58940211.67697525 35040945.675029755 0 0 0 0 3231374.0542939724 5356663.7998080784 0 5356663.7998080784 2386838.0411952166 0 0 0 0 -52906564.046073914 -62954240.400241852 0 -62954240.400241852 -82444553.01656723 0 0 0 0 -31558926.797039032 -25521947.977775574 0 -25521947.977775574 -36936997.087085724 0 0 0 0 -443916.86281187739 6018364.3550834013 0 6018364.3550834013 851008.53379762545 0 0 0 0 16651503.60114181 17810248.682559967 0 17810248.682559967 -1215023.3716182709 0 0 0 0 10744885.299957275 14484167.860004425 0 14484167.860004425 10801297.264080048 0 0 0 0 5979599.9646782875 2733728.4266643524 0 2733728.4266643524 80443670.157596588 0 0 0 0 13596619.014047623 24758604.439767838 0 24758604.439767838 44831107.596157074 0 0 0 0 9238184.6144342422 -7364155.9078521729 0 -7364155.9078521729 4098889.9286441803 0 0 0 0 1114513.6123285294 50138064.05739212 0 50138064.05739212 116937643.76818085 0 0 0 0 -19874063.009711266 73541964.504983902 0 73541964.504983902 17403483.738945007 0 0 0 0 17970173.820717335 62043729.312524796 0 62043729.312524796 19842293.831356049 0 0 0 0 36337737.861172676 48369277.0454216 0 48369277.0454216 15995787.400966644 0 0 0 0 15115014.029538155 56396108.074840546 0 56396108.074840546 21257496.294826508 0 0 0 0 5911832.2213270664 60641281.378570557 0 60641281.378570557 56407242.292728424 0 0 0 0 -3000213.4028742313 31593907.65682888 0 31593907.65682888 43661163.54763031 0 0 0 0 30472577.150960684 40580293.221848488 0 40580293.221848488 21652077.447429657 0 0 0 0 62279102.954932928 40553736.820016861 0 40553736.820016861 14665455.30742836 0 0 0 0 62964551.201208472 33374453.21583426 0 33374453.21583426 9694486.8441505432 0 0 0 0 30239599.989332363 13210349.569388032 0 13210349.569388032 13263379.057182312 0 0 0 0 31627869.844243526 35235584.989709854 0 35235584.989709854 25511049.484994888 0 0 0 0 63781742.406433821 51530254.213603973 0 51530254.213603973 28206044.396068573 0 0 0 0 36276812.571732521 48785827.75349617 0 48785827.75349617 18955848.863250732 0 0 0 0 41486105.574454784 47785946.221546173 0 47785946.221546173 4753628.0346717834 0 0 0 0 49550348.689996243 36581553.64050293 0 36581553.64050293 17661699.414664268 0 0 0 0 4359189.1687692702 2299294.6734549319 0 2299294.6734549319 -288126.19926818972 0 0 0 0 11950025.573649406 15745858.241170883 0 15745858.241170883 5982301.4156417847 0 0 0 0 7810632.4374279976 18862017.976902008 0 18862017.976902008 27437451.658321381 0 0 0 0 26077359.028612137 51029043.107809067 0 51029043.107809067 16302150.950397491 0 0 0 0 6071017.2062149048 745486.6817111969 0 745486.6817111969 -35784.166854858398 0 0 0 0 26172035.935096681 52097202.978200316 0 52097202.978200316 -49727662.338130951 0 0 0 0 -23339.850689411163 38089331.823949814 0 38089331.823949814 -43636947.574298859 0 0 0 0 23027365.04368782 32349115.599427223 0 32349115.599427223 -116196057.68330574 0 0 0 0 35539814.565706015 2525731.8782520294 0 2525731.8782520294 -58285319.307868958 0 0 0 0 68148867.881982327 37755341.038781166 0 37755341.038781166 31016174.147862911 0 0 0 0 23529992.781855106 -30405350.335543871 0 -30405350.335543871 -145859590.68404579 0 0 0 0 2471841.0228330689 1194046.9156273459 0 1194046.9156273459 -61522.654055671301 0 0 0 0 45556037.085782051 49279716.503889084 0 49279716.503889084 51861817.108827591 0 0 0 0 1489920.2089295306 5952552.4598455289 0 5952552.4598455289 1525487.870963047 0 0 0 0 4549409.2142219543 2933245.8163757324 0 2933245.8163757324 -867446.92696094513 0 0 0 0 -37789279.403878212 -27194981.396909714 0 -27194981.396909714 -44672692.014674187 0 0 0 0 10216728.975956848 257014.43072636751 0 257014.43072636751 65566.418106275843 0 0 0 0 4442734.0938911438 2049634.3864274025 0 2049634.3864274025 -2682403.0844051242 0 0 0 0 2673338.5780003425 4170556.4431168567 0 4170556.4431168567 947799.86869180447 0 0 0 0 2953237.4194869995 4170051.185959816 0 4170051.185959816 -2036463.3414840698 0 0 0 0 -108966.93351909867 1000793.0578288629 0 1000793.0578288629 247082.10234445863 0 0 0 0 49183313.127667427 -47100819.029075623 0 -47100819.029075623 -66343776.846362591 0 0 0 0 11051611.926045418 51539487.069469452 0 51539487.069469452 -88812435.435155869 0 0 0 0 -646824.34974392154 22887.226180938538 0 22887.226180938538 560274.24371330999 0 0 0 0 590424.04648685455 43889775.200279236 0 43889775.200279236 -63727681.488683701 0 0 0 0 2905665.9425469819 4208029.6025245953 0 4208029.6025245953 1269981.4027107549 0 0 0 0 -4336171.3302459866 2727969.3341529369 0 2727969.3341529369 -14252767.605220795 0 0 0 0 2115682.7565002441 2507859.658159256 0 2507859.658159256 -938272.61321640015 0 0 0 0 9592225.2321295142 703781.28079042677 0 703781.28079042677 925348.83492108621 0 0 0 0 5039791.8003063202 -5900719.7257933617 0 -5900719.7257933617 -509350.79085922241 0 0 0 0 -168930384.85288906 144753686.01693344 0 144753686.01693344 -88921435.054023743 0 0 0 0 20602666.427650332 -24781517.357496262 0 -24781517.357496262 -286952872.4210434 0 0 0 0 1070309.1250817778 403375.70455258258 0 403375.70455258258 -188578.11312451866 0 0 0 0 -110628206.18226814 70912680.975347519 0 70912680.975347519 -9692028.8101056814 0 0 0 0 -38187355.598530769 192517058.18024826 0 192517058.18024826 -268964125.12142563 0 0 0 0 65505635.513168335 49453327.548472404 0 49453327.548472404 -118119732.46672773 0 0 0 0 44957736.413696527 102121371.85297489 0 102121371.85297489 -187525191.47514725 0 0 0 0 119051279.05069482 26706552.843826294 0 26706552.843826294 -194663342.65576553 0 0 0 0 102598210.59845304 -62989323.877650261 0 -62989323.877650261 -391283313.92067528 0 0 0 0 -175724264.82873642 227318090.77356863 0 227318090.77356863 -187211208.25943184 0 0 0 0 26965014.583361626 139370676.39128876 0 139370676.39128876 -412020567.29321766 0 0 0 0 62767399.889438272 3579575.6514811516 0 3579575.6514811516 -137458964.11004448 0 0 0 0 24895703.832787991 -9891424.9303336143 0 -9891424.9303336143 -133972367.28137589 0 0 0 0 -14111634.15694654 -61919027.296709061 0 -61919027.296709061 -83412773.909309387 0 0 0 0 52859107.645182848 21973498.029886246 0 21973498.029886246 -171596959.14372826 0 0 0 0 107921488.88900328 -20600782.418089867 0 -20600782.418089867 -198796204.26573658 0 0 0 0 155897243.08613968 -93838004.485341072 0 -93838004.485341072 -123207483.58551025 0 0 0 0 88400929.444621325 -61188070.309677362 0 -61188070.309677362 -95834713.614982605 0 0 0 0 61909724.881529331 -58163289.374873161 0 -58163289.374873161 -83799374.733078957 0 0 0 0 60132023.119414732 -83968155.64760685 0 -83968155.64760685 -50420029.069244385 0 0 0 0 17245926.863155365 -84404403.659917831 0 -84404403.659917831 69370848.517463684 0 0 0 0 99573772.240933418 -115249224.27498055 0 -115249224.27498055 -41148638.207467079 0 0 0 0 6096590.205280304 -65197245.455201149 0 -65197245.455201149 37309711.371440887 0 0 0 0 37797899.029681988 -99398642.552818745 0 -99398642.552818745 10339870.080186844 0 0 0 0 37306161.617998242 -113376372.24324533 0 -113376372.24324533 54793127.14251709 0 0 0 0 156613131.69800186 -173029776.40354538 0 -173029776.40354538 32200835.30251503 0 0 0 0 95856476.570962906 -84507878.414473534 0 -84507878.414473534 -80710442.348338127 0 0 0 0 -10091868.328661919 -23108306.032922745 0 -23108306.032922745 112415150.28853798 0 0 0 0 178168444.04526091 -150516562.82830524 0 -150516562.82830524 32743603.420501709 0 0 0 0 17908593.049849272 -130279097.22610092 0 -130279097.22610092 198451324.68673134 0 0 0 0 55870901.563685894 -161282713.54533195 0 -161282713.54533195 375194415.14667511 0 0 0 0 -16111480.366150498 -59918770.121778011 0 -59918770.121778011 54149752.182250977 0 0 0 0 5267990.5094811916 -51892712.912914276 0 -51892712.912914276 54345974.516014099 0 0 0 0 34652245.201239586 107852035.28196526 0 107852035.28196526 -136698221.77588272 0 0 0 0 58897848.090397358 103687126.06442833 0 103687126.06442833 -22749140.575338364 0 0 0 0 171332609.22725677 171874162.0018692 0 171874162.0018692 -107322060.34318924 0 0 0 0 313169698.81148958 -68585627.500114441 0 -68585627.500114441 -182283891.04196215 0 0 0 0 46309282.994009256 39001760.413901806 0 39001760.413901806 12513898.275793076 0 0 0 0 294354943.63386679 -62837693.563434601 0 -62837693.563434601 36665740.00299263 0 0 0 0 462925009.95717579 142185316.32379317 0 142185316.32379317 257102042.54476166 0 0 0 0 399558917.21740103 -337958057.58843613 0 -337958057.58843613 191286804.19979668 0 0 0 0 597564470.23669815 -347588638.56040764 0 -347588638.56040764 391790750.09496641 0 0 0 0 229223883.52169728 187446581.49484062 0 187446581.49484062 17242748.284526825 0 0 0 0 296254405.39079714 -43056601.440690041 0 -43056601.440690041 72758578.846673965 0 0 0 0 75238833.58615303 58288067.463999748 0 58288067.463999748 209560528.48805809 0 0 0 0 -16333801.377144098 52318295.215722084 0 52318295.215722084 64135657.134243011 0 0 0 0 -22898802.436701298 132608046.06665802 0 132608046.06665802 -131182294.54908371 0 0 0 0 86397010.520232812 125223410.11889422 0 125223410.11889422 -48657281.635149002 0 0 0 0 -42675481.005151987 176627729.31729698 0 176627729.31729698 17135592.961233139 0 0 0 0 77409048.911564261 182952596.74106073 0 182952596.74106073 -105178735.67316055 0 0 0 0 -97343695.883099675 234067942.19907188 0 234067942.19907188 -69639061.442472458 0 0 0 0 -38855912.978306532 160694179.71735716 0 160694179.71735716 -135869791.74614716 0 0 0 0 -13808240.712215424 227246076.88414001 0 227246076.88414001 -171666359.13698578 0 0 0 0 -24886305.653393745 241748677.57886505 0 241748677.57886505 -88025173.478375435 0 0 0 0 -125890014.28297448 174593806.13166428 0 174593806.13166428 -185203287.43803978 0 0 0 0 -282829544.02074873 159228886.92106819 0 159228886.92106819 -93441610.33805275 0 0 0 0 -120016686.80129831 217263908.1874609 0 217263908.1874609 -101294862.7257328 0 0 0 0 -135591253.83490849 113720939.65367699 0 113720939.65367699 -55882166.2115798 0 0 0 0 -224940556.81536812 230142897.92144203 0 230142897.92144203 -152229167.62953949 0 0 0 0 -323564732.24776304 241236644.98972845 0 241236644.98972845 -97120020.323551178 0 0 0 0 37598969.449054956 6029615.9689455032 0 6029615.9689455032 -25710537.707363129 0 0 0 0 -270300828.59552598 161386494.69568062 0 161386494.69568062 -165673705.64667988 0 0 0 0 -29154232.11502552 24403649.30932045 0 24403649.30932045 6668082.3691415787 0 0 0 0 13987848.233383179 -177502619.24702835 0 -177502619.24702835 62732214.803854942 0 0 0 0 1277664.343343643 908050.43362477585 0 908050.43362477585 841528.28446951415 0 0 0 0 44775272.636800766 -58659172.060667038 0 -58659172.060667038 147007339.01622391 0 0 0 0 67257297.230521202 -86220700.277987957 0 -86220700.277987957 -81298446.717391968 0 0 0 0 6640701.7238604818 3506220.6037761266 0 3506220.6037761266 -1382436.5167984171 0 0 0 0 14404201.139026642 72956791.102642059 0 72956791.102642059 -21308292.252689362 0 0 0 0 -1578545.3913497925 7418678.9496126175 0 7418678.9496126175 -6506148.5113487244 0 0 0 0 97365617.707092285 49920303.577312469 0 49920303.577312469 -87352506.635347545 0 0 0 0 68585911.469236374 25916603.758008957 0 25916603.758008957 -31473402.614322662 0 0 0 0 102529312.03994751 -56910794.940358162 0 -56910794.940358162 21309140.562828064 0 0 0 0 -12233966.097705841 -6728153.8024177551 0 -6728153.8024177551 23944825.300544739 0 0 0 0 1555726.4421105457 -87631.618019446265 0 -87631.618019446265 -1642970.0715808822 0 0 0 0 2698958.8386697881 1656451.3552051682 0 1656451.3552051682 1121379.4473025361 0 0 0 0 78526685.15376091 -9110361.9382362366 0 -9110361.9382362366 -26601721.027015686 0 0 0 0 55001599.645118713 -2111120.3079528809 0 -2111120.3079528809 2709533.972743988 0 0 0 0 -33302635.896957397 -55404631.812604904 0 -55404631.812604904 -23101754.015764236 0 0 0 0 -52162962.356973648 -25962630.59885025 0 -25962630.59885025 24452665.03452301 0 0 0 0 86618566.879741669 -36008572.193050385 0 -36008572.193050385 -75090891.408824921 0 0 0 0 69147817.764703751 8370123.0834553242 0 8370123.0834553242 -8389657.7534866333 0 0 0 0 51736285.211936951 4966927.4075222015 0 4966927.4075222015 -4044211.930472374 0 0 0 0 -989797.2033996582 7505583.0678787231 0 7505583.0678787231 -6518889.222120285 0 0 0 0 -255787.73567199707 7282495.1801109314 0 7282495.1801109314 -6475643.028881073 0 0 0 0 -1762671.7633743286 7107553.6174488068 0 7107553.6174488068 -6245419.6422538757 0 0 0 0 -1726649.5957336426 7212088.5554904938 0 7212088.5554904938 -5749216.4735045433 0 0 0 0 -1813401.1400299072 6865130.5193328857 0 6865130.5193328857 -5782608.6179504395 0 0 0 0 -795890.03002929688 7216909.7106018066 0 7216909.7106018066 -6242842.0943108201 0 0 0 0 -835753.81764602661 7282082.6501865387 0 7282082.6501865387 -6094281.2021217346 0 0 0 0 -74719.794647216797 7100506.9575157166 0 7100506.9575157166 -6078528.7338001728 0 0 0 0 -632817.20046520233 7116692.9927269816 0 7116692.9927269816 -5641935.4137535095 0 0 0 0 -678420.38322234154 6235003.8305220604 0 6235003.8305220604 -4839838.5744590759 0 0 0 0 -132660.34432983398 7653286.1650810242 0 7653286.1650810242 -5983334.2084121704 0 0 0 0 7002469.0760492459 2984688.5166780292 0 2984688.5166780292 -2894099.3040583869 0 0 0 0 -285360.70489501953 7520315.4892673492 0 7520315.4892673492 -6093926.4263267517 0 0 0 0 8921161.5225219727 15549354.50402832 0 15549354.50402832 17443734.082965851 0 0 0 0 53057657.947097778 17263620.803543091 0 17263620.803543091 -48437.064949035645 0 0 0 0 1796497.0315209932 -146458.71069289278 0 -146458.71069289278 -732632.90383771528 0 0 0 0 40377932.855140686 14327599.639707565 0 14327599.639707565 833724.53294277191 0 0 0 0 -10196223.754714966 -12338971.841707706 0 -12338971.841707706 26632336.363945007 0 0 0 0 12208548.134353638 -15423068.838979721 0 -15423068.838979721 6777195.7362823486 0 0 0 0 460526.41382026672 -34362352.173381329 0 -34362352.173381329 -9594583.0932693481 0 0 0 0 40358822.149421692 -32579484.856344223 0 -32579484.856344223 33439532.217704773 0 0 0 0 5289802.5011367798 -1829023.5339450836 0 -1829023.5339450836 32942365.55657196 0 0 0 0 37053943.739524841 -15952253.370204926 0 -15952253.370204926 28559496.639373779 0 0 0 0 23085376.658477783 -3926316.0767879486 0 -3926316.0767879486 20620550.801689148 0 0 0 0 11151120.667545319 -24456182.386177063 0 -24456182.386177063 54573287.660163879 0 0 0 0 8605977.055809021 -8670781.7851467133 0 -8670781.7851467133 64051719.027667999 0 0 0 0 5988022.387253046 -19353162.486276448 0 -19353162.486276448 46040714.555198669 0 0 0 0 26502556.003936768 13117586.721893311 0 13117586.721893311 59120103.289844513 0 0 0 0 27975366.542724609 14068081.481784821 0 14068081.481784821 -1257752.6238156557 0 0 0 0 45219968.441543579 -39251373.213563919 0 -39251373.213563919 -49159343.13627243 0 0 0 0 68653194.782104492 -19429647.346088409 0 -19429647.346088409 -50930181.075263977 0 0 0 0 101797783.44032669 24961158.285165787 0 24961158.285165787 -25326997.196086884 0 0 0 0 824804.61611399101 752945.11671122722 0 752945.11671122722 -676360.36194826849 0 0 0 0 28069799.675338745 -4444191.5945892334 0 -4444191.5945892334 20975378.227526665 0 0 0 0 20289251.938690186 -4016149.9653587341 0 -4016149.9653587341 21181082.892597198 0 0 0 0 1918602.0464859009 5600182.2080821991 0 5600182.2080821991 6443910.2835197449 0 0 0 0 37646901.28591156 3402495.3351764679 0 3402495.3351764679 -3881835.5301146507 0 0 0 0 11007921.419120789 -3495140.9939851761 0 -3495140.9939851761 727412.81028747559 0 0 0 0 10658347.474746704 -27394519.606992245 0 -27394519.606992245 -198835438.35604477 0 0 0 0 20583554.599891663 -9878579.623005867 0 -9878579.623005867 658941.1071395874 0 0 0 0 7492445.2120908843 1379692.7128895177 0 1379692.7128895177 -562857.36369639821 0 0 0 0 18226489.484523773 -34566815.787761688 0 -34566815.787761688 48072188.918739319 0 0 0 0 10310284.265258789 -15220844.804018021 0 -15220844.804018021 1490312.0680184364 0 0 0 0 10897897.371948242 -4219951.2085618973 0 -4219951.2085618973 -3470114.0747685432 0 0 0 0 -5050706.2965393066 1084902.8312835693 0 1084902.8312835693 32207734.019134521 0 0 0 0 -4596934.4768638611 -1820360.4565162659 0 -1820360.4565162659 43943355.821859121 0 0 0 0 23585178.583179474 140351474.89832497 0 140351474.89832497 -157934276.50640965 0 0 0 0 -88640090.8046031 200079648.30424273 0 200079648.30424273 -181089537.38589859 0 0 0 0 12750941.404279709 -1911496.8009281158 0 -1911496.8009281158 -8173524.4277420044 0 0 0 0 5174146.0111782514 1089115.6076302319 0 1089115.6076302319 -86342.942245219368 0 0 0 0 -82370046.263649464 232713444.40408802 0 232713444.40408802 -168461854.24594355 0 0 0 0 706934.0262689637 459984.80057488894 0 459984.80057488894 -502738.83035152406 0 0 0 0 74734940.182683945 -30384741.141010284 0 -30384741.141010284 198072.68724060059 0 0 0 0 61307599.096553802 -11939371.513799667 0 -11939371.513799667 6699011.657995224 0 0 0 0 2205573780.4592857 76726986.513317913 0 76726986.513317913 -232518163.91011027 0 0 0 0 1581071955.0406573 523602395.23412079 0 523602395.23412079 -439261362.87963617 0 0 0 0 1116141705.8572617 -326724000.47572893 0 -326724000.47572893 -500295849.62422919 0 0 0 0 1570444571.7318611 -778472486.09043908 0 -778472486.09043908 -55096942.501707673 0 0 0 0 2642829268.4315987 -1133966522.7157297 0 -1133966522.7157297 -154850079.67731285 0 0 0 0 810408569.70543599 -336722018.12192708 0 -336722018.12192708 28670576.8839055 0 0 0 0 2485819702.6135063 810301281.37859166 0 810301281.37859166 572133239.45713544 0 0 0 0 2204695567.6905861 310130195.94719964 0 310130195.94719964 479048566.08375376 0 0 0 0 2329931526.5769768 -129597924.25894058 0 -129597924.25894058 1614271617.5779896 0 0 0 0 2288982815.6876841 -4227869.823984649 0 -4227869.823984649 222550089.03793252 0 0 0 0 2081558921.6535196 700201609.67625153 0 700201609.67625153 -184775100.63977411 0 0 0 0 1502954217.8893452 1204768974.2281306 0 1204768974.2281306 565955184.85947573 0 0 0 0 397231899.11444855 -553929229.52583814 0 -553929229.52583814 726745703.56079888 0 0 0 0 2666241098.8603592 398882934.39016771 0 398882934.39016771 -71933197.49977994 0 0 0 0 1939797.0520001352 -494932.25961800595 0 -494932.25961800595 -246726.26338005904 0 0 0 0 -95787765.751487732 96322887.595831394 0 96322887.595831394 64279361.901111364 0 0 0 0 1097541418.3235054 874805093.71779633 0 874805093.71779633 257599676.38848174 0 0 0 0 66691702.537324905 13070031.537225969 0 13070031.537225969 272188331.15247172 0 0 0 0 849972699.89914513 336210485.2182014 0 336210485.2182014 -19755019.138594851 0 0 0 0 197586581.2556076 455746381.55778039 0 455746381.55778039 378453224.28842509 0 0 0 0 -66249882.036972046 -33316378.728312388 0 -33316378.728312388 19556261.213780403 0 0 0 0 92149667.620437622 135287923.42923093 0 135287923.42923093 71327606.522408709 0 0 0 0 5124694.4606690677 -1361430.4211525028 0 -1361430.4211525028 -873296.04538282438 0 0 0 0 -10761123.366573334 -4765317.4043736458 0 -4765317.4043736458 -23955713.71171236 0 0 0 0 44962093.641376495 2073934.0515365601 0 2073934.0515365601 -76029300.94032526 0 0 0 0 241749294.66524124 -11148251.600139558 0 -11148251.600139558 -357064390.69024098 0 0 0 0 7979464.5639028549 25028256.349728204 0 25028256.349728204 -3516455.6494045258 0 0 0 0 -46216.943672537804 -621340.68868538202 0 -621340.68868538202 -699296.22751878551 0 0 0 0 -12756259.265968323 -35459812.512616992 0 -35459812.512616992 75153945.060965061 0 0 0 0 821447355.02792847 -228648930.07653952 0 -228648930.07653952 -24248304.12675792 0 0 0 0 915420902.58766937 -272065725.91554594 0 -272065725.91554594 -21725092.353303269 0 0 0 0 -31795277.960754395 163502818.18977517 0 163502818.18977517 85637521.214405775 0 0 0 0 -101192853.65333557 33811495.050599217 0 33811495.050599217 298097382.96905375 0 0 0 0 115590150.93236923 -265489001.56373835 0 -265489001.56373835 246457612.36057389 0 0 0 0 -7775774.3257637024 -868697.80091953278 0 -868697.80091953278 22478367.285603523 0 0 0 0 -1277048.3472539093 -1440628.2518012901 0 -1440628.2518012901 -1436061.9850911801 0 0 0 0 -27972252.034255981 94998697.797669649 0 94998697.797669649 -99663466.258104324 0 0 0 0 756593.79381990433 1090671.3011164665 0 1090671.3011164665 8725060.3355751038 0 0 0 0 7353894.8915295629 -4956507.560147319 0 -4956507.560147319 -4875889.8008047938 0 0 0 0 2744973.9367055572 4248547.2634194093 0 4248547.2634194093 1295628.9640102014 0 0 0 0 22518444.914386749 6067251.906324476 0 6067251.906324476 933792.82586166263 0 0 0 0 21721875.78038311 1804012.9236640595 0 1804012.9236640595 -1495463.4515382051 0 0 0 0 8632534.4465790112 928374.63069645385 0 928374.63069645385 -5635220.4167677499 0 0 0 0 25975585.810562134 11317841.782843232 0 11317841.782843232 913459.64470005035 0 0 0 0 -2963555.24766922 10697226.498404682 0 10697226.498404682 -115107.49201488495 0 0 0 0 79526.202758789062 6807573.4744062424 0 6807573.4744062424 -928576.19964727759 0 0 0 0 -9979130.3151702881 8547764.3023869395 0 8547764.3023869395 22136217.034328524 0 0 0 0 -270677.92098999023 13587572.889177799 0 13587572.889177799 -13352113.857758045 0 0 0 0 58445169.246879578 -128156423.41254473 0 -128156423.41254473 -326516399.15777051 0 0 0 0 7462199.2118012384 -1875493.7607269185 0 -1875493.7607269185 -1682418.1868817569 0 0 0 0 7787812.2573490143 8368197.3189842701 0 8368197.3189842701 -24069284.787689686 0 0 0 0 16223584.880178452 -179376059.33343986 0 -179376059.33343986 -239017636.19443107 0 0 0 0 -4890240.6502151489 -57951782.004129298 0 -57951782.004129298 -72876068.836958826 0 0 0 0 105695142.61807418 -75644070.354623094 0 -75644070.354623094 -72383319.89753373 0 0 0 0 26122241.515884399 -60456662.780640736 0 -60456662.780640736 -70092376.639220163 0 0 0 0 -95028768.344551086 -37128175.642491162 0 -37128175.642491162 -72987360.067267984 0 0 0 0 -125831301.70283508 -95000975.90173018 0 -95000975.90173018 -252498791.18824196 0 0 0 0 24721377.738023758 -87527598.084229678 0 -87527598.084229678 -253259513.75907034 0 0 0 0 -58567972.604860306 -139441251.99859944 0 -139441251.99859944 -96606016.811572239 0 0 0 0 2542310.3788846061 3711219.2167224665 0 3711219.2167224665 -648380.56406067056 0 0 0 0 -11520963.0864048 38737032.693375394 0 38737032.693375394 -55171080.130417585 0 0 0 0 34399118.628730774 29177257.560177267 0 29177257.560177267 22110444.858263433 0 0 0 0 188604.66839211993 735633.79332404409 0 735633.79332404409 19754.737947860318 0 0 0 0 22920797.273838043 13173578.257848538 0 13173578.257848538 253474.8596342802 0 0 0 0 6562801.3495979309 4030221.892926693 0 4030221.892926693 -14389551.278651714 0 0 0 0 237886.33625656413 149125.62886094861 0 149125.62886094861 -4656.8308075319364 0 0 0 0 14329425.234893799 -8160406.6281965375 0 -8160406.6281965375 -7064854.1202130914 0 0 0 0 43556378.178209305 -1458342.3382954728 0 -1458342.3382954728 -19983354.531345665 0 0 0 0 7200239.890798565 -4585347.9986753333 0 -4585347.9986753333 -5055369.284668413 0 0 0 0 65393023.575950623 -15765197.432853498 0 -15765197.432853498 -80784419.721283659 0 0 0 0 79516976.421630859 -72366498.909199476 0 -72366498.909199476 -231844947.35992384 0 0 0 0 2606269.9524765015 -12002402.859467328 0 -12002402.859467328 -22142326.216024369 0 0 0 0 9138455.35597229 -83411016.781831205 0 -83411016.781831205 -55753828.136799559 0 0 0 0 5144535.9639816284 -74697960.671803385 0 -74697960.671803385 -70406064.029787078 0 0 0 0 6958494.1510436349 -4180014.8017611383 0 -4180014.8017611383 -5180255.2923683692 0 0 0 0 -10273020.920761108 -35435166.262760773 0 -35435166.262760773 -32166041.252112344 0 0 0 0 27208167.942253798 -56507185.715546608 0 -56507185.715546608 -57780318.50012207 0 0 0 0 -19120311.303499222 -45509282.792123988 0 -45509282.792123988 -22449075.593759179 0 0 0 0 -8115189.2432888746 -15603374.021728516 0 -15603374.021728516 902506.53102874756 0 0 0 0 111756269.81499827 7589653.1721878052 0 7589653.1721878052 -11337985.554298401 0 0 0 0 115564343.45235798 37331563.841701984 0 37331563.841701984 -5270376.7699165344 0 0 0 0 -88338923.324847668 -43284282.614492416 0 -43284282.614492416 -16111428.419713974 0 0 0 0 69237499.477404594 -7714508.70104599 0 -7714508.70104599 -5581959.023399353 0 0 0 0 -738217.99676585128 -689676.09730805503 0 -689676.09730805503 -481784.11009397265 0 0 0 0 83924749.358228564 27292723.622180939 0 27292723.622180939 10189466.087522507 0 0 0 0 99974855.452234387 43199270.887321472 0 43199270.887321472 8592423.2666835785 0 0 0 0 73859813.289207697 41145625.934267044 0 41145625.934267044 18468528.804458618 0 0 0 0 102407330.5255965 61849977.64654541 0 61849977.64654541 31825061.25522995 0 0 0 0 131803311.32632998 40122688.730609894 0 40122688.730609894 5678700.3146905899 0 0 0 0 101053336.89122753 37682979.423343301 0 37682979.423343301 6844440.045085907 0 0 0 0 -88123689.447065592 -43893064.184589386 0 -43893064.184589386 -14695485.673774719 0 0 0 0 -2725411.0679852953 -1870808.5122939579 0 -1870808.5122939579 -1145419.6232912545 0 0 0 0 43696775.54205554 4612714.9896559715 0 4612714.9896559715 20799037.970619202 0 0 0 0 -29572367.83394146 -19175150.095175743 0 -19175150.095175743 -10618838.837316513 0 0 0 0 147676275.70174518 -16132808.321302414 0 -16132808.321302414 -1489086.8998863697 0 0 0 0 53030456.482187748 -728939.59239387512 0 -728939.59239387512 -18535364.97984314 0 0 0 0 -22166844.334048688 -18812747.115030289 0 -18812747.115030289 -19457201.009895325 0 0 0 0 333880679.48202896 89058292.081663132 0 89058292.081663132 -11161864.888681412 0 0 0 0 -84709023.887821674 46037830.964189529 0 46037830.964189529 42473066.083398819 0 0 0 0 342702155.69612479 155550213.00009346 0 155550213.00009346 -92500467.372447968 0 0 0 0 164143232.25072026 219438839.03499031 0 219438839.03499031 172552426.41599941 0 0 0 0 68628494.363909304 45388519.503302276 0 45388519.503302276 46861957.223770142 0 0 0 0 105602829.05509886 106589390.34023094 0 106589390.34023094 134737421.91620111 0 0 0 0 16719660.393374205 -114889062.97015381 0 -114889062.97015381 -125372527.30496979 0 0 0 0 823193.12999548274 376216.63135141809 0 376216.63135141809 -13022.10190898669 0 0 0 0 93783405.283730268 -140999469.6648798 0 -140999469.6648798 -165292185.42372513 0 0 0 0 104315235.80479741 -48310629.734419823 0 -48310629.734419823 -162740982.47125697 0 0 0 0 107375631.96935582 -62951420.312548637 0 -62951420.312548637 -96517238.732637405 0 0 0 0 419980762.10418606 -40862807.348991394 0 -40862807.348991394 -164579081.53883362 0 0 0 0 86397133.797425747 31150686.926072121 0 31150686.926072121 8215323.5234136581 0 0 0 0 383245690.73422343 -168927257.08351266 0 -168927257.08351266 25386372.065975189 0 0 0 0 75301438.14464283 479348847.34113312 0 479348847.34113312 -54976756.59883213 0 0 0 0 526311.4809674432 -441617.35641376115 0 -441617.35641376115 -574757.14038887993 0 0 0 0 -416458.02087671089 -400330.93320592667 0 -400330.93320592667 -145841.58815997653 0 0 0 0 7378285.3969736099 15600842.571498871 0 15600842.571498871 21685712.009361267 0 0 0 0 -2895654.9480785648 -8143949.3467630669 0 -8143949.3467630669 -1481735.7207506413 0 0 0 0 126498934.7603333 978273.60323619843 0 978273.60323619843 -53677202.446895599 0 0 0 0 4155984.2930681305 -3501817.3250922603 0 -3501817.3250922603 -3883277.5057906923 0 0 0 0 37518984.506747961 -31408217.391755104 0 -31408217.391755104 -10936996.643704414 0 0 0 0 49992059.325657129 -62689890.53692627 0 -62689890.53692627 -39018630.636997223 0 0 0 0 54592307.499539375 -59307402.300823212 0 -59307402.300823212 -87938929.037389755 0 0 0 0 41469200.822979927 -70463270.055431366 0 -70463270.055431366 -23894780.005138397 0 0 0 0 42164518.126245975 -69549632.628576279 0 -69549632.628576279 -40702921.915739775 0 0 0 0 49471121.963970423 -51904170.451012135 0 -51904170.451012135 -540228.36954307556 0 0 0 0 12513613.172291279 -51032062.815397739 0 -51032062.815397739 533691.40767669678 0 0 0 0 15545580.469527721 -59725682.655538559 0 -59725682.655538559 25343707.848796844 0 0 0 0 -1789281.3858206272 -37306021.904434204 0 -37306021.904434204 34843402.365060806 0 0 0 0 67508.187282323837 -26711107.328015089 0 -26711107.328015089 6508772.274887085 0 0 0 0 6610678.3269150853 -12590086.019004345 0 -12590086.019004345 -17069573.554718018 0 0 0 0 -3042741.2157707214 -6669882.7906417847 0 -6669882.7906417847 -4472261.2201461792 0 0 0 0 8995057.7985363007 -22632108.886255264 0 -22632108.886255264 7269400.9864412546 0 0 0 0 19990355.733814478 -41943745.314512253 0 -41943745.314512253 11156734.041022301 0 0 0 0 15091947.298994243 -19589205.876706243 0 -19589205.876706243 7767479.3590164185 0 0 0 0 -194148.23156472854 -669255.1964004375 0 -669255.1964004375 -188678.47100312612 0 0 0 0 37169538.657851636 -26487929.324055195 0 -26487929.324055195 188117.11002922058 0 0 0 0 4345941.3378073312 -3817850.1365352203 0 -3817850.1365352203 -4326028.6245883992 0 0 0 0 1743925.8929214478 -6605063.5699795783 0 -6605063.5699795783 75127.385427802801 0 0 0 0 12097118.686145782 -4788681.4215529487 0 -4788681.4215529487 -25109369.650697373 0 0 0 0 793056.84624481201 -20000701.24875924 0 -20000701.24875924 -24132948.050690234 0 0 0 0 -44777681.558677673 47635159.626964092 0 47635159.626964092 80644621.182922363 0 0 0 0 -29267221.69833374 -36445211.638651609 0 -36445211.638651609 2994911.6968514919 0 0 0 0 -24809567.894744873 -41154153.137118846 0 -41154153.137118846 -40995314.279315084 0 0 0 0 489628.54036140442 -4752195.0521271462 0 -4752195.0521271462 15005976.320698153 0 0 0 0 9566075.4430065155 1540356.830718115 0 1540356.830718115 -51405911.794193476 0 0 0 0 4989013.6094228607 -1863980.5659765576 0 -1863980.5659765576 -3303967.5548431152 0 0 0 0 -13421602.11262162 16514408.571017027 0 16514408.571017027 -26962812.861482143 0 0 0 0 5402263.9418076025 -2458477.0037251012 0 -2458477.0037251012 -3397046.3474425217 0 0 0 0 1706539.3119316101 -1749114.0470199585 0 -1749114.0470199585 -1854622.3928881884 0 0 0 0 4321112.6579210665 -1304032.5567460782 0 -1304032.5567460782 -3359910.3890661192 0 0 0 0 17605913.148635864 445317.6697665751 0 445317.6697665751 -80992389.288271427 0 0 0 0 6378405.4875896731 -2834517.357172945 0 -2834517.357172945 -2182870.0057569747 0 0 0 0 58439854.316206932 -9100844.2433624268 0 -9100844.2433624268 -38397524.7106359 0 0 0 0 1768610.9725583186 -1021676.7229975304 0 -1021676.7229975304 -1629384.6063740624 0 0 0 0 -21662887.737319946 -28806907.418888986 0 -28806907.418888986 -15291463.239719748 0 0 0 0 -102603360.57363892 -28732921.896878481 0 -28732921.896878481 28724704.089743257 0 0 0 0 -125399.67359125894 -242771.55633907905 0 -242771.55633907905 -79424.593707312568 0 0 0 0 58809758.8618927 -59127781.209222451 0 -59127781.209222451 -102088599.08723378 0 0 0 0 24937753.554573059 -58386578.345560193 0 -58386578.345560193 -25823324.041021943 0 0 0 0 -2051717.314043045 -92485833.613762528 0 -92485833.613762528 13186589.989320278 0 0 0 0 -133988845.27557182 347970.50254621357 0 347970.50254621357 -2973771.1233158112 0 0 0 0 -18045803.55581665 -61405372.407947302 0 -61405372.407947302 -8557327.0594570637 0 0 0 0 -388196.90330923814 -708129.94921139907 0 -708129.94921139907 -283684.9988124643 0 0 0 0 8338766.4871330261 -11427097.327105999 0 -11427097.327105999 27760394.7199049 0 0 0 0 -34172550.661009789 -76385357.801529288 0 -76385357.801529288 36062467.444615722 0 0 0 0 -23016236.727478027 -74181029.161209583 0 -74181029.161209583 -36094812.188725948 0 0 0 0 -137233552.73485947 -67144747.521719337 0 -67144747.521719337 25639652.625398397 0 0 0 0 -49038587.954055786 -38678171.66198732 0 -38678171.66198732 -1630314.692961216 0 0 0 0 -20966181.586143494 -15020890.169292212 0 -15020890.169292212 11625625.705521345 0 0 0 0 -5699476.6251420975 -5887078.2596657574 0 -5887078.2596657574 -6871074.7644298077 0 0 0 0 38350558.759872437 -9346037.3224885464 0 -9346037.3224885464 -55911734.506867886 0 0 0 0 -351091.58347889734 -238119.06037204107 0 -238119.06037204107 -96592.871365811938 0 0 0 0 -31225029.886699677 -10209884.328914762 0 -10209884.328914762 7112183.568366766 0 0 0 0 -15725327.783981323 -19612611.216602087 0 -19612611.216602087 15616400.662727833 0 0 0 0 -18095898.03704071 -13191569.586634159 0 -13191569.586634159 9115287.565833807 0 0 0 0 -21027332.335952759 -12027974.11505127 0 -12027974.11505127 10798498.889676452 0 0 0 0 4720822.3446350098 -11925497.552799463 0 -11925497.552799463 -9819041.2646522522 0 0 0 0 -1118006.0542106195 -689453.87057722127 0 -689453.87057722127 -243368.9406649067 0 0 0 0 -11891585.592300415 -5744528.1230872273 0 -5744528.1230872273 -519073.17070829868 0 0 0 0 6061444.5826034546 -3371205.7720417976 0 -3371205.7720417976 -8072493.500878334 0 0 0 0 130330.33538097516 -10254239.328741331 0 -10254239.328741331 -4752860.2427978916 0 0 0 0 -5162709.0804824829 -3829874.0791134834 0 -3829874.0791134834 -3359582.0077931881 0 0 0 0 -2062623.7641193205 -1178344.1691530608 0 -1178344.1691530608 -190529.27899080352 0 0 0 0 1465198.765714698 29798.776718320791 0 29798.776718320791 -1339118.0479179001 0 0 0 0 -5907684.007270813 -13240890.558810472 0 -13240890.558810472 -6124480.5174479485 0 0 0 0 1458862.1914253235 -119331.46770453453 0 -119331.46770453453 -755801.84943652153 0 0 0 0 -158809819.32061005 -9417407.8552622944 0 -9417407.8552622944 59545748.018166304 0 0 0 0 -6913848.2312202454 -83125021.128869385 0 -83125021.128869385 37169901.002996683 0 0 0 0 -76970063.782096863 34219446.380448759 0 34219446.380448759 6942585.9367351532 0 0 0 0 -159139933.96148682 -14565707.776352644 0 -14565707.776352644 35756026.60546422 0 0 0 0 -111702933.63896179 -19110300.089831829 0 -19110300.089831829 -6566866.2930254936 0 0 0 0 -240969032.66101074 -97794335.389436603 0 -97794335.389436603 -18736205.696671009 0 0 0 0 -41792.648601807654 -39530.597940685228 0 -39530.597940685228 -56322.654151435127 0 0 0 0 263172179.11460114 -860052.52101027966 0 -860052.52101027966 45433700.997392327 0 0 0 0 112470843.30828857 3605347.7805199623 0 3605347.7805199623 48197133.73138082 0 0 0 0 202797536.1651268 -106682554.50501329 0 -106682554.50501329 -7682303.7230216861 0 0 0 0 296694981.09370804 -178630148.10591245 0 -178630148.10591245 100350090.69720984 0 0 0 0 515990920.70695877 40999790.310984105 0 40999790.310984105 3832109.4839739799 0 0 0 0 1091109018.3261795 -403457075.03584361 0 -403457075.03584361 14515630.828988135 0 0 0 0 1339071573.9015946 573299313.88767493 0 573299313.88767493 -9787608.0949673653 0 0 0 0 674066711.70681 217317459.01143324 0 217317459.01143324 -67377936.568655908 0 0 0 0 379752518.1513176 -66252039.840115488 0 -66252039.840115488 -32347880.753157288 0 0 0 0 158519438.20843315 23923476.223938614 0 23923476.223938614 14561587.830863118 0 0 0 0 -68014888.681282043 -43336730.273654968 0 -43336730.273654968 6079392.8461994231 0 0 0 0 320987404.29550171 75577875.513326854 0 75577875.513326854 -118160558.25327387 0 0 0 0 -12731409.571702957 -44082230.555801228 0 -44082230.555801228 -15082057.131131291 0 0 0 0 4357654.1757186502 -2089914.9731450714 0 -2089914.9731450714 -1454437.7497459978 0 0 0 0 256753306.40654755 181704749.03474686 0 181704749.03474686 97724870.953916192 0 0 0 0 487204527.56155586 155375036.69454283 0 155375036.69454283 -88215307.466621399 0 0 0 0 306221004.10752106 82038909.300889045 0 82038909.300889045 -37765532.697938234 0 0 0 0 478336057.1535759 165100916.52449524 0 165100916.52449524 78043849.342482507 0 0 0 0 759157595.57155228 507375037.04960412 0 507375037.04960412 174061789.88057774 0 0 0 0 2197950098.7858667 1304201521.96908 0 1304201521.96908 611282544.21032131 0 0 0 0 2203247581.7826881 393303293.64510643 0 393303293.64510643 -306259639.19654942 0 0 0 0 1039404.3900283333 -2124.2373671755195 0 -2124.2373671755195 -423108.77070618636 0 0 0 0 738423868.27315521 -237394862.50335166 0 -237394862.50335166 -499961660.45304185 0 0 0 0 582795354.81091976 340581878.41156459 0 340581878.41156459 -65679416.259686589 0 0 0 0 588103456.14813614 362193200.43709803 0 362193200.43709803 -7116353.5302463919 0 0 0 0 558228.38983625825 -112140.74352331599 0 -112140.74352331599 -84411.112230469094 0 0 0 0 429596040.40230179 -722199545.98268831 0 -722199545.98268831 -392195539.09054619 0 0 0 0 2202056296.1280861 871270816.70591784 0 871270816.70591784 -245423475.2604965 0 0 0 0 917377905.41299343 420433419.34524095 0 420433419.34524095 -347858655.4796831 0 0 0 0 1537944281.721529 -84254413.573433727 0 -84254413.573433727 -926825300.23868454 0 0 0 0 1154446286.6738453 -672191084.3935281 0 -672191084.3935281 -54567997.333298683 0 0 0 0 1271273077.3527546 304406588.01450723 0 304406588.01450723 -1138248475.2250233 0 0 0 0 1508169340.6846123 -83031076.73672986 0 -83031076.73672986 -926027195.76302397 0 0 0 0 -175622305.89725113 -829756719.45601737 0 -829756719.45601737 228383776.60396025 0 0 0 0 -116775680.03817749 -391347441.74367046 0 -391347441.74367046 -1275270164.3874979 0 0 0 0 302900518.27944946 -215008898.32652092 0 -215008898.32652092 -494415918.55078173 0 0 0 0 -802399645.82619476 190256024.88866997 0 190256024.88866997 -773448561.62699652 0 0 0 0 109791125.29202652 27318858.395364046 0 27318858.395364046 -756309880.23270988 0 0 0 0 -1200074798.1802177 -666054214.27045822 0 -666054214.27045822 -381823081.007792 0 0 0 0 -451879181.81317139 -787761744.78300238 0 -787761744.78300238 -375090951.52634346 0 0 0 0 -314121890.58215714 -641740220.64064598 0 -641740220.64064598 -274106239.04214764 0 0 0 0 389264295.59131432 -909945998.05536199 0 -909945998.05536199 -177211694.5973185 0 0 0 0 457052026.12034607 -120014191.28490919 0 -120014191.28490919 -467060541.61604309 0 0 0 0 3396781.2758704475 -1751264.8203233364 0 -1751264.8203233364 -1396145.2091321857 0 0 0 0 289436374.07037354 -472983985.35268998 0 -472983985.35268998 452017344.64278543 0 0 0 0 891573346.04389572 -310343525.70765376 0 -310343525.70765376 184830972.28794146 0 0 0 0 721614491.09723639 -972230024.22394836 0 -972230024.22394836 248647822.42725831 0 0 0 0 1026360537.458353 -536281778.74798495 0 -536281778.74798495 563556730.73172736 0 0 0 0 2206473791.824636 -726529326.843642 0 -726529326.843642 -369323770.00631714 0 0 0 0 437616484.64902306 -211435986.5397408 0 -211435986.5397408 319716921.78597945 0 0 0 0 2201156513.898756 -1351780570.9875183 0 -1351780570.9875183 964369487.77427411 0 0 0 0 3545379.4078732072 -1764613.2652304666 0 -1764613.2652304666 -1341825.6865599158 0 0 0 0 2180478538.1201425 -1385829567.0048945 0 -1385829567.0048945 336546418.11299098 0 0 0 0 181844125.59786224 -616924570.44572377 0 -616924570.44572377 1601947984.6674004 0 0 0 0 1468829.2495846581 -1410237.4021276755 0 -1410237.4021276755 -1065234.1989461721 0 0 0 0 -84183277.251770973 -81299534.400361687 0 -81299534.400361687 739318384.25018251 0 0 0 0 174359578.51581955 -396927365.26171941 0 -396927365.26171941 466829612.9974525 0 0 0 0 304598330.2470057 -504775742.6518479 0 -504775742.6518479 551612626.19002843 0 0 0 0 151278698.65416449 -232622326.83873668 0 -232622326.83873668 360824353.53938913 0 0 0 0 125864904.18806744 -110840131.63848236 0 -110840131.63848236 133753883.40529977 0 0 0 0 37345995.577749014 22078399.331960201 0 22078399.331960201 46226531.977902889 0 0 0 0 -11630875.66283989 -91393195.874448448 0 -91393195.874448448 293337330.52767301 0 0 0 0 175359777.81760311 -261882850.3423934 0 -261882850.3423934 270787590.40435755 0 0 0 0 104713393.97039294 -162884045.98332593 0 -162884045.98332593 167911727.52778649 0 0 0 0 67522722.30593586 -201596687.89145446 0 -201596687.89145446 347676607.0746603 0 0 0 0 185890696.64944649 -298050113.47600889 0 -298050113.47600889 290221830.05271053 0 0 0 0 179461630.16591024 -267669369.16800153 0 -267669369.16800153 469666548.36267376 0 0 0 0 92846156.323050261 -279178868.41818976 0 -279178868.41818976 418035961.27824116 0 0 0 0 344877201.90673447 -323022167.56913829 0 -323022167.56913829 354572539.29851985 0 0 0 0 2313575135.9523172 -241780573.16110015 0 -241780573.16110015 -340879191.16690385 0 0 0 0 1217870.1105092289 -487068.12172542082 0 -487068.12172542082 -7143.4593960392522 0 0 0 0 -258899791.34151459 -1216986239.5239329 0 -1216986239.5239329 -758037348.01280713 0 0 0 0 1423859190.8367341 1060217647.7884967 0 1060217647.7884967 -60751667.470173359 0 0 0 0 308544123.13493633 -751879302.35098207 0 -751879302.35098207 -429924813.28962922 0 0 0 0 116366593.7078681 -1150842571.2430093 0 -1150842571.2430093 -754980210.35173869 0 0 0 0 2984704.0823729816 -1690488.4096006879 0 -1690488.4096006879 -1179723.2652798234 0 0 0 0 201481168.78677607 -409823798.03226566 0 -409823798.03226566 487786541.05542094 0 0 0 0 237191612.37041092 -321270827.32383209 0 -321270827.32383209 368415895.29737759 0 0 0 0 55530001.605151176 -269471719.90215969 0 -269471719.90215969 450233805.78832006 0 0 0 0 94707035.149808884 -239658776.84803224 0 -239658776.84803224 415878429.91094661 0 0 0 0 4219631.8119223714 -201867778.17514133 0 -201867778.17514133 608327603.78119397 0 0 0 0 -5654102.6697382554 -240236896.21049261 0 -240236896.21049261 460219796.27892685 0 0 0 0 42336604.411414742 -365940391.77601647 0 -365940391.77601647 518170379.62941313 0 0 0 0 54560433.173411965 -277793586.06370354 0 -277793586.06370354 245457458.04024792 0 0 0 0 -44708059.3065238 -295309390.60364556 0 -295309390.60364556 159568741.71207988 0 0 0 0 -69422109.004245996 -268405686.12225175 0 -268405686.12225175 251561433.98468578 0 0 0 0 72735224.860631853 -184261345.7193813 0 -184261345.7193813 72714550.585843563 0 0 0 0 13137912.106743336 -301227535.62732005 0 -301227535.62732005 434686486.65537882 0 0 0 0 107298230.7880578 -290422814.14906001 0 -290422814.14906001 252124149.03715634 0 0 0 0 50746904.238274574 -197208742.27715516 0 -197208742.27715516 299031235.51467466 0 0 0 0 45720887.976126671 -111741752.33724415 0 -111741752.33724415 162871981.90950328 0 0 0 0 82613866.910206556 -232386353.68894756 0 -232386353.68894756 139270166.79131532 0 0 0 0 18772829.396556616 -17867637.891179413 0 -17867637.891179413 59200522.205949008 0 0 0 0 64949417.343018532 -146816439.80972987 0 -146816439.80972987 14173650.440592051 0 0 0 0 80074889.443789005 -171336307.92349899 0 -171336307.92349899 170152235.74891019 0 0 0 0 65008962.051678658 -28461643.137737393 0 -28461643.137737393 22784128.796652317 0 0 0 0 -6503618.4502410889 -497677.83561778069 0 -497677.83561778069 22801606.126308918 0 0 0 0 22686478.215765953 -33575160.958928108 0 -33575160.958928108 186159882.87692428 0 0 0 0 27274319.457906485 -27277951.565621376 0 -27277951.565621376 32545721.385829449 0 0 0 0 3284256.6502812505 7056396.4772068262 0 7056396.4772068262 19067048.75104332 0 0 0 0 -29877327.318965554 6226793.5648006201 0 6226793.5648006201 15963056.54321146 0 0 0 0 3644330.1562211495 809017.55706677819 0 809017.55706677819 -2779265.3450108762 0 0 0 0 -14126582.044089809 21234260.773778915 0 21234260.773778915 10883830.372599602 0 0 0 0 -23536234.521946073 10648956.871261835 0 10648956.871261835 9703054.7916488647 0 0 0 0 -5783426.0221507549 -4251529.9697756767 0 -4251529.9697756767 6062789.3736599684 0 0 0 0 12708832.338278294 -32752831.515871227 0 -32752831.515871227 29093424.628876016 0 0 0 0 -3812439.9892911315 -17371136.858991623 0 -17371136.858991623 -13814067.251173615 0 0 0 0 -21803988.255098224 -21001528.13291651 0 -21001528.13291651 -1040965.8903244138 0 0 0 0 261757.83497891395 -280655.03352197906 0 -280655.03352197906 -180686.16455343162 0 0 0 0 -180533766.01303822 -114242161.24073958 0 -114242161.24073958 -152653474.2509771 0 0 0 0 3954283.2967344522 -7824365.887966007 0 -7824365.887966007 -7916316.5411548615 0 0 0 0 -15620420.203002095 -13857695.193674684 0 -13857695.193674684 1450333.1574636698 0 0 0 0 48056231.985182106 -184780637.90083316 0 -184780637.90083316 -243662874.91644299 0 0 0 0 40208795.081413746 -153524368.58900416 0 -153524368.58900416 119194783.59413457 0 0 0 0 21073565.895671606 -52570768.368696943 0 -52570768.368696943 -68904872.936662078 0 0 0 0 114700334.34593558 -92610465.443083048 0 -92610465.443083048 -230866388.28183472 0 0 0 0 17966293.305768967 -173995169.75385696 0 -173995169.75385696 -139142688.72742426 0 0 0 0 50559525.29263401 -89288496.592234075 0 -89288496.592234075 -217106701.31635961 0 0 0 0 1138828.8085946189 -4254374.9382143412 0 -4254374.9382143412 -1750602.4440692945 0 0 0 0 2453397.7509837905 -2969927.076506685 0 -2969927.076506685 -1299391.0144589974 0 0 0 0 1813250.6649119854 -2011559.0469120741 0 -2011559.0469120741 -1222057.6104750633 0 0 0 0 2200759.9550874233 -3781936.6418094635 0 -3781936.6418094635 -5226252.5680582523 0 0 0 0 1931456.5480018854 -12747233.992487192 0 -12747233.992487192 7027630.1348075867 0 0 0 0 547050.96830359567 -3955601.8340983801 0 -3955601.8340983801 -467424.09709295002 0 0 0 0 -3342426.5204758644 -4787096.6317625046 0 -4787096.6317625046 8252243.7900711894 0 0 0 0 518326.58026323235 -625911.33199852752 0 -625911.33199852752 -98417.160671165198 0 0 0 0 113182536.18484759 191442850.67145994 0 191442850.67145994 -287392697.30879414 0 0 0 0 -947300.83236980438 -47163554.916022241 0 -47163554.916022241 -98609661.196210384 0 0 0 0 351781788.7806859 -207983367.54091477 0 -207983367.54091477 88051445.173678875 0 0 0 0 213588145.54688787 134358922.00910771 0 134358922.00910771 164138526.98155451 0 0 0 0 177963178.38392448 3552257.0413544178 0 3552257.0413544178 -86102583.275796413 0 0 0 0 242468927.208179 -198083117.4736855 0 -198083117.4736855 169832186.87955284 0 0 0 0 100395674.63284922 -233550395.10823917 0 -233550395.10823917 160978230.6001966 0 0 0 0 751003700.25468159 -556376843.52350593 0 -556376843.52350593 505837633.11793995 0 0 0 0 146610311.10158563 -166874598.72972488 0 -166874598.72972488 381676478.37167025 0 0 0 0 481394883.83577442 149652103.8111794 0 149652103.8111794 523099407.08869457 0 0 0 0 179396585.29257965 -141635970.20218813 0 -141635970.20218813 273483856.68683338 0 0 0 0 290048002.48581386 -224247500.42611635 0 -224247500.42611635 -87805148.549217701 0 0 0 0 484008839.81041813 -601041955.37437415 0 -601041955.37437415 637867351.46916437 0 0 0 0 468546830.29796076 -22165751.014874101 0 -22165751.014874101 -634841475.67850971 0 0 0 0 -3035669.0987462997 -257860778.85989904 0 -257860778.85989904 1479718850.8266931 0 0 0 0 446850.72707749426 -538972.20335775893 0 -538972.20335775893 123539.93456040171 0 0 0 0 -26596951.247502327 -38335729.724645615 0 -38335729.724645615 -342241735.73502898 0 0 0 0 742550951.66351128 -301805565.35434723 0 -301805565.35434723 -463346588.40342426 0 0 0 0 321260985.01991427 -40649055.822011575 0 -40649055.822011575 -267734581.74430513 0 0 0 0 320981876.2756319 -27359778.60056892 0 -27359778.60056892 -427287675.83970881 0 0 0 0 439560403.35028362 -78262978.111871481 0 -78262978.111871481 -300762403.69487739 0 0 0 0 406426117.53471828 -216355915.86671171 0 -216355915.86671171 -92436214.38465929 0 0 0 0 303830526.64387846 -48641452.525596142 0 -48641452.525596142 -74629541.710127354 0 0 0 0 156650029.38041019 -86066447.993925095 0 -86066447.993925095 -42958551.603603244 0 0 0 0 261023313.19320416 -66649270.864478871 0 -66649270.864478871 -219458839.64478731 0 0 0 0 283529126.11300373 -1964304.1824920177 0 -1964304.1824920177 -175623332.07208467 0 0 0 0 -8252492.3510923386 -40520802.089018583 0 -40520802.089018583 45325607.937347174 0 0 0 0 102213331.56573772 120572853.94010398 0 120572853.94010398 -256659544.08365607 0 0 0 0 180402.7524779425 -32604.189333586895 0 -32604.189333586895 -39858.354614446769 0 0 0 0 497635.86466257088 -118874.87369197202 0 -118874.87369197202 -94663.867128028432 0 0 0 0 49408480.1843853 -66091510.991715372 0 -66091510.991715372 -279280311.67964351 0 0 0 0 -116308181.15656662 -102261044.65202826 0 -102261044.65202826 -172225297.47000694 0 0 0 0 -101942062.71755981 -100553230.11986339 0 -100553230.11986339 -273692297.58443338 0 0 0 0 12218346.75877738 -105593870.29866491 0 -105593870.29866491 -545399494.50392747 0 0 0 0 2234978.5709018707 -41933407.062414408 0 -41933407.062414408 -745364362.85140967 0 0 0 0 10165889.36712265 -70280054.207374811 0 -70280054.207374811 -213489252.89390093 0 0 0 0 -115500780.95649147 -232957806.28034973 0 -232957806.28034973 -461861689.85430157 0 0 0 0 -32373856.079017639 23170143.691993833 0 23170143.691993833 -390719838.55138397 0 0 0 0 1185596.6290540767 -1515779.5246378263 0 -1515779.5246378263 304540.98943995032 0 0 0 0 -190725376.42263222 -294479216.57272983 0 -294479216.57272983 -435716547.63694143 0 0 0 0 32228956.756486893 -149096458.59731913 0 -149096458.59731913 535300032.25165272 0 0 0 0 168917.26920163957 -119681.74288598087 0 -119681.74288598087 -143733.72037490737 0 0 0 0 -18185219.296203613 -236325617.20516372 0 -236325617.20516372 -591852046.11691713 0 0 0 0 -13184064.455995357 -153186880.06231725 0 -153186880.06231725 547833561.90565109 0 0 0 0 3031400.8391231704 147990.28594712453 0 147990.28594712453 -598671.58896049438 0 0 0 0 2100295.6621439364 -2131503.8620575923 0 -2131503.8620575923 -1159435.7041606668 0 0 0 0 55589468.487083435 -192739818.67234421 0 -192739818.67234421 415831462.83096069 0 0 0 0 61956817.17181325 -167506087.9035306 0 -167506087.9035306 515474231.57532358 0 0 0 0 -266707658.29388714 -98150302.427188635 0 -98150302.427188635 -38461327.891194403 0 0 0 0 -218828689.93522787 -219492656.44908765 0 -219492656.44908765 265587419.31436482 0 0 0 0 1319009563.2864082 757452154.49011409 0 757452154.49011409 177003554.72687691 0 0 0 0 1297562803.7529943 1388143366.168262 0 1388143366.168262 591980809.35948038 0 0 0 0 1198029846.3146679 757532191.50816846 0 757532191.50816846 402414993.65828562 0 0 0 0 1297014.3205674202 61066.991950663607 0 61066.991950663607 -224640.17461330886 0 0 0 0 1276635370.3377967 629204060.95733464 0 629204060.95733464 116937182.09412073 0 0 0 0 198320079.03797472 -295991298.5508067 0 -295991298.5508067 -495876481.44304287 0 0 0 0 -22057904.66679883 -61174252.053343505 0 -61174252.053343505 -527025074.57640684 0 0 0 0 -154421731.28739405 -39011221.708742321 0 -39011221.708742321 -282928578.87093115 0 0 0 0 -45465065.459915161 -80529410.463100314 0 -80529410.463100314 -291219166.42490399 0 0 0 0 90505345.28644228 72501813.116347909 0 72501813.116347909 -335832620.01593339 0 0 0 0 632711969.24591446 -345593662.18244565 0 -345593662.18244565 -52165289.30411087 0 0 0 0 385826859.55290508 -381861030.09177315 0 -381861030.09177315 -7962613.3858792782 0 0 0 0 2738174.1961746216 -147781273.45158154 0 -147781273.45158154 -45979465.035687625 0 0 0 0 318691.47253213823 -94306.255421781185 0 -94306.255421781185 -59230.815118842627 0 0 0 0 19014205.071489573 -49549964.458133921 0 -49549964.458133921 -465402741.38404453 0 0 0 0 981479687.75733948 188427620.62327802 0 188427620.62327802 -482896670.3819136 0 0 0 0 1153429287.6563663 235936082.8629055 0 235936082.8629055 -29110652.994683698 0 0 0 0 1750444.3791609211 -590580.07228499034 0 -590580.07228499034 105690.39519424591 0 0 0 0 1144542887.8415565 142589898.79694828 0 142589898.79694828 -747538633.85100889 0 0 0 0 1342042012.8960791 112053301.70665526 0 112053301.70665526 45521114.511262655 0 0 0 0 764555998.33492517 -175539263.25937396 0 -175539263.25937396 -81356483.644625902 0 0 0 0 740117609.58324909 -128103689.5660463 0 -128103689.5660463 -164595917.8777422 0 0 0 0 916190198.19143057 -43790164.339792728 0 -43790164.339792728 -200937028.39703447 0 0 0 0 1246364.7210413716 -466512.35608423658 0 -466512.35608423658 -69694.187265986053 0 0 0 0 2205501276.2915812 240823045.78287169 0 240823045.78287169 -131122408.62304491 0 0 0 0 2201173238.3043728 -161694307.58375365 0 -161694307.58375365 -392207099.02620029 0 0 0 0 1220145364.6421511 -298262534.31965184 0 -298262534.31965184 -14178061.691556573 0 0 0 0 1409558698.7167697 -27068175.805989355 0 -27068175.805989355 -221031721.20658129 0 0 0 0 1802653435.2000484 -543376426.08537376 0 -543376426.08537376 -306797087.82022357 0 0 0 0 1457961007.2026167 -90200849.631171897 0 -90200849.631171897 -516856077.63649642 0 0 0 0 2008526823.1573462 687040817.88215637 0 687040817.88215637 -701589083.53992081 0 0 0 0 1182571456.0402122 599226832.34111738 0 599226832.34111738 270920370.36086369 0 0 0 0 1011581170.1707864 234828359.60218239 0 234828359.60218239 459924032.28365898 0 0 0 0 1831994698.0671835 -562785022.75412571 0 -562785022.75412571 744932455.93494081 0 0 0 0 1057099789.5884466 702260152.13040018 0 702260152.13040018 473571674.60452747 0 0 0 0 916204382.54309201 359302115.5576582 0 359302115.5576582 496696836.78582954 0 0 0 0 2098441.6504257889 -442181.3338890216 0 -442181.3338890216 -538290.97322199587 0 0 0 0 1136538518.6575959 655402664.38209105 0 655402664.38209105 248255720.47957611 0 0 0 0 963939231.62842488 622107365.38549662 0 622107365.38549662 407225084.92553902 0 0 0 0 1203821517.5701065 552754907.7993784 0 552754907.7993784 404251059.11601543 0 0 0 0 59379.353147773654 -20982.953245823737 0 -20982.953245823737 -182576.76852055668 0 0 0 0 4072656.5560722351 -71520226.622853994 0 -71520226.622853994 -826959442.5410521 0 0 0 0 -1119031777.7948761 -1405212780.690021 0 -1405212780.690021 -2407704739.8441849 0 0 0 0 2200172527.1314669 -92236391.110335141 0 -92236391.110335141 -1197406630.8496418 0 0 0 0 -484121.20018170075 -1654813.787469621 0 -1654813.787469621 643540.65616662835 0 0 0 0 212601982.34617031 -343748774.48983055 0 -343748774.48983055 550359988.09895146 0 0 0 0 1436717635.3524246 295254932.88133818 0 295254932.88133818 -739055467.46799874 0 0 0 0 138950350.06698355 -150855234.71154404 0 -150855234.71154404 -111108006.78458405 0 0 0 0 -18261528.397391081 -60152434.737124443 0 -60152434.737124443 -126860793.70537496 0 0 0 0 165328130.52323806 -135836786.7643466 0 -135836786.7643466 -137209210.53792286 0 0 0 0 189153528.2557857 -215790871.69301987 0 -215790871.69301987 -80633473.056480885 0 0 0 0 210551046.95971918 -149681263.5502367 0 -149681263.5502367 -111765726.71577454 0 0 0 0 239564959.47114706 -210101838.1357193 0 -210101838.1357193 -83051298.257855415 0 0 0 0 214899408.63275892 -69175580.095400333 0 -69175580.095400333 -94953016.575367928 0 0 0 0 178871097.53845239 -8378022.9060771465 0 -8378022.9060771465 -158613164.35181808 0 0 0 0 126240883.87139797 -103298835.73592281 0 -103298835.73592281 -100485147.32451344 0 0 0 0 81564200.388428688 80488099.413793564 0 80488099.413793564 -115153681.64478207 0 0 0 0 116792881.90434122 111128018.28021908 0 111128018.28021908 -127784105.79102325 0 0 0 0 173683858.20315647 27699516.969632149 0 27699516.969632149 -87729198.283420563 0 0 0 0 101909366.20545053 118608081.4243989 0 118608081.4243989 -60502196.670982361 0 0 0 0 116037779.58029318 94254112.441832542 0 94254112.441832542 -192065193.49957275 0 0 0 0 31992502.55902195 127503245.21377659 0 127503245.21377659 -127977748.17197037 0 0 0 0 10143908.511068344 130274448.25109673 0 130274448.25109673 -188167690.29341388 0 0 0 0 -45061709.987944126 187813046.27770138 0 187813046.27770138 -245783287.39541435 0 0 0 0 33558366.75404501 -69986957.610300064 0 -69986957.610300064 -108293835.69618559 0 0 0 0 67395180.70883131 37415281.153356552 0 37415281.153356552 -176154600.51457977 0 0 0 0 -1404999.9360232353 24838205.209736824 0 24838205.209736824 -165939249.01428413 0 0 0 0 12597346.195592359 -61147821.142043114 0 -61147821.142043114 -230219185.03482628 0 0 0 0 -113368506.38321042 109351148.49130201 0 109351148.49130201 -218940522.45044518 0 0 0 0 -110230695.38382041 126512713.59961987 0 126512713.59961987 -508591845.02091217 0 0 0 0 -182903792.45023906 80471806.021267414 0 80471806.021267414 -225820282.01682281 0 0 0 0 -13772030.578408584 202340172.79419285 0 202340172.79419285 -239061455.2436657 0 0 0 0 -215793511.22067881 25948379.672038078 0 25948379.672038078 -284643356.51620483 0 0 0 0 -251383622.82008839 252090767.04005051 0 252090767.04005051 -234695613.40400219 0 0 0 0 -74543467.381672859 328870172.96049595 0 328870172.96049595 -325671806.84252548 0 0 0 0 17167854.772313595 -47294147.339664936 0 -47294147.339664936 -72633886.709671021 0 0 0 0 478232.31640338898 126896156.01858139 0 126896156.01858139 -411915630.2954216 0 0 0 0 336659.1036136811 -137895.70567147818 0 -137895.70567147818 -384340.98744647391 0 0 0 0 -536589239.8342855 413031817.83272552 0 413031817.83272552 -258112371.57193756 0 0 0 0 -360641172.50789118 368493844.80936623 0 368493844.80936623 -437434277.68849421 0 0 0 0 -183214733.75517064 169661816.15245152 0 169661816.15245152 -286503111.08520508 0 0 0 0 -507181453.34663004 246042322.6738584 0 246042322.6738584 -145524398.4233017 0 0 0 0 -83751019.213607907 75598204.678813934 0 75598204.678813934 -181366450.8210578 0 0 0 0 -96960085.316526532 65077411.457411766 0 65077411.457411766 -54196500.291454315 0 0 0 0 56012722.432532549 -11037467.234622955 0 -11037467.234622955 -160764601.221632 0 0 0 0 -206592444.5688554 159143232.25052309 0 159143232.25052309 -208220726.91776657 0 0 0 0 -41434896.483173817 -1175641.9248151779 0 -1175641.9248151779 -251546670.87794495 0 0 0 0 112067551.64996958 -102057781.97896862 0 -102057781.97896862 -177982690.83796501 0 0 0 0 -60214064.584142745 -3309132.9591064453 0 -3309132.9591064453 -102494917.72838783 0 0 0 0 95822016.737111807 -145492984.16743469 0 -145492984.16743469 -41042207.365982056 0 0 0 0 188238063.64037848 -103462310.59114075 0 -103462310.59114075 -103105853.52648258 0 0 0 0 42071920.005235195 -47408999.220380783 0 -47408999.220380783 18426503.828008652 0 0 0 0 145767454.47989643 -14649281.406394482 0 -14649281.406394482 -66898296.31804657 0 0 0 0 135119404.26818007 -45740174.390437841 0 -45740174.390437841 157657924.43638992 0 0 0 0 328002612.91271544 -154706737.48232269 0 -154706737.48232269 1092755.013092041 0 0 0 0 367307567.63896561 -81996047.729819298 0 -81996047.729819298 24133028.251876831 0 0 0 0 512360383.84848595 -213995824.51784515 0 -213995824.51784515 116336782.80282974 0 0 0 0 659197789.89588165 -193617459.30237579 0 -193617459.30237579 84614878.30340004 0 0 0 0 287263252.19195294 -49982456.160851479 0 -49982456.160851479 263861112.7392807 0 0 0 0 1065490475.8400021 -193727213.23233891 0 -193727213.23233891 28818067.452636719 0 0 0 0 915516343.63907623 -132088736.17821503 0 -132088736.17821503 47077472.224075317 0 0 0 0 720332652.38907456 -22427423.164583206 0 -22427423.164583206 118072174.14512634 0 0 0 0 -68946.189061016368 -601729.93136237632 0 -601729.93136237632 264200.81585321808 0 0 0 0 -29899861.793847948 86818496.535254717 0 86818496.535254717 166531267.38311005 0 0 0 0 10186.800619068323 -47165.724136680132 0 -47165.724136680132 -35870.774763966096 0 0 0 0 500031187.89923763 -57591838.947105408 0 -57591838.947105408 130521743.0762291 0 0 0 0 866225398.36081696 96794093.005723953 0 96794093.005723953 -51959943.184102058 0 0 0 0 1501500.6027841393 -476518.35780843068 0 -476518.35780843068 -3224833.6987952702 0 0 0 0 508686069.51435089 -46183562.749614716 0 -46183562.749614716 -39477793.389183998 0 0 0 0 489521332.32858515 -26448129.357172012 0 -26448129.357172012 -46007559.5663414 0 0 0 0 3817891.4347925186 24996475.479340911 0 24996475.479340911 -60618846.191937923 0 0 0 0 213236843.63367283 -170646622.70917231 0 -170646622.70917231 -17773623.566911697 0 0 0 0 188032300.98083124 -135077845.9466902 0 -135077845.9466902 28508362.162284851 0 0 0 0 327607562.25217581 -121447417.09238243 0 -121447417.09238243 -58484015.016546249 0 0 0 0 357194152.22300458 -170314479.71571684 0 -170314479.71571684 4952069.7431221008 0 0 0 0 -27048899.527403831 9959734.4716215134 0 9959734.4716215134 44244749.026902676 0 0 0 0 65851149.630142689 -16966427.397920609 0 -16966427.397920609 8865743.4423644543 0 0 0 0 731258.67653331312 -2718982.5498159491 0 -2718982.5498159491 -388880.20250270265 0 0 0 0 -18515099.326042175 3017138.698038578 0 3017138.698038578 9450427.087608248 0 0 0 0 -26064269.888115644 -34690724.51623565 0 -34690724.51623565 106544185.8395195 0 0 0 0 11004387.09859848 -8989730.400162816 0 -8989730.400162816 4610344.4169614017 0 0 0 0 15161727.858538628 -21047863.210150361 0 -21047863.210150361 -66788059.134942889 0 0 0 0 91137181.926336765 -53273103.961057544 0 -53273103.961057544 -112406358.75024521 0 0 0 0 -73907690.935394764 156953490.34385175 0 156953490.34385175 44407121.966055632 0 0 0 0 -29217730.267177105 108387004.09634447 0 108387004.09634447 -162859339.67266774 0 0 0 0 -144864994.10840082 55806356.256177664 0 55806356.256177664 42465287.225926161 0 0 0 0 -13327981.40456295 50674556.306396514 0 50674556.306396514 -7200886.3206279278 0 0 0 0 -63296225.961256027 60838310.57371974 0 60838310.57371974 -19070057.331995487 0 0 0 0 -33746585.308079243 -32491867.267878175 0 -32491867.267878175 172577648.25080943 0 0 0 0 66879955.458483815 80046201.585391879 0 80046201.585391879 288591934.82821417 0 0 0 0 265354980.89848948 -184099596.40294218 0 -184099596.40294218 -74039895.501742363 0 0 0 0 236330384.93553412 -109691903.57418904 0 -109691903.57418904 -46999566.049645424 0 0 0 0 974980.95224191691 -484148.68235652812 0 -484148.68235652812 -2120259.8329283576 0 0 0 0 266073541.28691339 -72988763.826385021 0 -72988763.826385021 -3732941.1059653759 0 0 0 0 143292583.36869383 -93417847.106667757 0 -93417847.106667757 -34533739.642611027 0 0 0 0 132749986.55584764 -213525082.36222315 0 -213525082.36222315 -53352279.987867832 0 0 0 0 206916967.52465463 -187324101.54648161 0 -187324101.54648161 -44386811.377233505 0 0 0 0 537765.78817981551 -444936.55543449346 0 -444936.55543449346 -1070521.9100438906 0 0 0 0 -85532031.875350952 -165013080.71193385 0 -165013080.71193385 14810738.982422829 0 0 0 0 -95495236.410250902 -67949580.918085933 0 -67949580.918085933 -75074351.429292679 0 0 0 0 -510168376.56393576 -146190754.2400763 0 -146190754.2400763 128313260.73547268 0 0 0 0 168441.88864817985 -209814.5728513191 0 -209814.5728513191 -298333.55629032082 0 0 0 0 33253837.541740417 -263372165.36400318 0 -263372165.36400318 40715827.785603046 0 0 0 0 107288584.39489746 -169752989.96313405 0 -169752989.96313405 9723850.7358474731 0 0 0 0 210573067.90603447 -315394073.82543576 0 -315394073.82543576 191142284.87823695 0 0 0 0 -220972473.18807098 -54788946.227908671 0 -54788946.227908671 174536478.22493935 0 0 0 0 22448797.069638252 -117988514.95348251 0 -117988514.95348251 -12143650.804325819 0 0 0 0 69774630.766853809 -118617307.61395872 0 -118617307.61395872 -43323187.736619234 0 0 0 0 62414771.407530785 -131640525.4841215 0 -131640525.4841215 -12315409.939293385 0 0 0 0 254991683.70058203 -118296020.11236346 0 -118296020.11236346 -134215446.32801962 0 0 0 0 229320378.97487307 -193674839.345976 0 -193674839.345976 -60813275.153824329 0 0 0 0 128054605.38585806 -104139602.63815618 0 -104139602.63815618 -112359123.13842463 0 0 0 0 136416932.1258297 -182053324.86603552 0 -182053324.86603552 -81889820.708642006 0 0 0 0 -90910606.946463585 -6517604.1345876455 0 -6517604.1345876455 78829124.987588286 0 0 0 0 169545182.76728916 -119758296.81874716 0 -119758296.81874716 34971024.571481436 0 0 0 0 38488751.69418478 -135923962.31714332 0 -135923962.31714332 236914576.93621922 0 0 0 0 -1364719.3098649979 -36480742.291983366 0 -36480742.291983366 -5104742.4573088288 0 0 0 0 113527540.49870491 3888523.2393563986 0 3888523.2393563986 100669867.09816575 0 0 0 0 -162183569.05649018 -245698876.49760652 0 -245698876.49760652 -48254922.109307051 0 0 0 0 6868067.7328085899 97152534.881525874 0 97152534.881525874 7001369.4009628296 0 0 0 0 -43666106.881117582 113378100.45206082 0 113378100.45206082 359450055.53615665 0 0 0 0 -24872067.144136377 132416076.47679244 0 132416076.47679244 544852783.59953666 0 0 0 0 226299226.3090179 74785733.164563298 0 74785733.164563298 335410637.66823292 0 0 0 0 309712396.61236954 -121858832.48841846 0 -121858832.48841846 798663064.86669922 0 0 0 0 392408753.00674748 290553731.21460927 0 290553731.21460927 491324973.72613961 0 0 0 0 589578467.98693156 5164346.0609332323 0 5164346.0609332323 537303707.12486362 0 0 0 0 434313107.955127 -113344165.45554209 0 -113344165.45554209 199260889.53625917 0 0 0 0 498528302.3938086 -283576851.00351894 0 -283576851.00351894 614174593.67342162 0 0 0 0 151011626.35265923 -126559592.43539786 0 -126559592.43539786 537277820.25813639 0 0 0 0 263078052.53345704 -262907501.71082234 0 -262907501.71082234 37401639.921736717 0 0 0 0 273040288.61125422 -157404026.16958976 0 -157404026.16958976 79642337.780221939 0 0 0 0 415597338.91905856 -291052026.41782236 0 -291052026.41782236 204283272.89520049 0 0 0 0 511193147.71490616 -69798806.371636152 0 -69798806.371636152 70210090.279273987 0 0 0 0 445874107.3235606 -150833239.90578318 0 -150833239.90578318 8799095.2552785873 0 0 0 0 341164570.9610396 -82160076.230319157 0 -82160076.230319157 -34832047.480487823 0 0 0 0 344062798.90118253 -256836448.161396 0 -256836448.161396 -8626781.1267843246 0 0 0 0 221368110.73221922 -187949872.20383906 0 -187949872.20383906 -44271223.939912319 0 0 0 0 217989562.59959888 -255802124.01618242 0 -255802124.01618242 -44880713.302753925 0 0 0 0 203353779.78378248 149415219.49877357 0 149415219.49877357 63598744.696109772 0 0 0 0 288292692.22934532 70611092.113317013 0 70611092.113317013 -7975899.6292069256 0 0 0 0 201042260.77049351 132412193.98464632 0 132412193.98464632 11354031.23991394 0 0 0 0 108630575.48313236 140359933.97198772 0 140359933.97198772 12968836.450533867 0 0 0 0 182609916.66062474 84381497.575837135 0 84381497.575837135 -8586649.9186019897 0 0 0 0 197170574.95754862 86581379.303409576 0 86581379.303409576 -54947082.076015472 0 0 0 0 266009407.95961332 53172692.582798958 0 53172692.582798958 -82480151.761594772 0 0 0 0 335185372.14960897 -115472276.66153097 0 -115472276.66153097 -77947108.409433365 0 0 0 0 215512621.27183175 -1661697.1027443409 0 -1661697.1027443409 -28505917.805925369 0 0 0 0 276936114.65204573 81291019.519610882 0 81291019.519610882 65210839.022733688 0 0 0 0 399350306.07388496 -19945800.763436317 0 -19945800.763436317 -26888310.469396353 0 0 0 0 419036452.03847027 59611079.955577612 0 59611079.955577612 65442103.036685944 0 0 0 0 413030914.17864943 8514342.1446318626 0 8514342.1446318626 21926018.753344536 0 0 0 0 568921489.45153332 -73168960.374808311 0 -73168960.374808311 55421487.646751881 0 0 0 0 488979719.45668983 -105041600.88630533 0 -105041600.88630533 194008019.49726391 0 0 0 0 484206904.7546528 145162284.09967625 0 145162284.09967625 170343821.90677595 0 0 0 0 365742970.16142988 220141044.53762341 0 220141044.53762341 177113169.34348297 0 0 0 0 227943219.44944096 219508834.53658628 0 219508834.53658628 283636696.99165154 0 0 0 0 281403453.22343206 118466400.93753195 0 118466400.93753195 70156206.012396812 0 0 0 0 169557274.77473688 158436403.18487167 0 158436403.18487167 121993557.19828892 0 0 0 0 170673104.54830408 171685786.95361102 0 171685786.95361102 244961273.14776564 0 0 0 0 423775123.40153509 372853017.88621986 0 372853017.88621986 549745514.95316434 0 0 0 0 322722179.84570026 175394420.52311659 0 175394420.52311659 274717764.94654328 0 0 0 0 103039339.01523972 153177931.51325446 0 153177931.51325446 544731593.07866168 0 0 0 0 865192102.52637374 -104502166.12960017 0 -104502166.12960017 193751941.08966377 0 0 0 0 781233944.23786128 100987487.46414983 0 100987487.46414983 175601788.5273568 0 0 0 0 1457757290.8714914 -153526690.44711325 0 -153526690.44711325 344889804.50213331 0 0 0 0 685213568.15060091 23248636.025118649 0 23248636.025118649 321220198.88780236 0 0 0 0 37741585.558504343 -70152253.275486827 0 -70152253.275486827 569014741.55649853 0 0 0 0 652494387.70917511 -255137830.07175553 0 -255137830.07175553 1404391754.1319735 0 0 0 0 613297195.88125896 575226518.90178442 0 575226518.90178442 1066331109.7448523 0 0 0 0 1355016814.8745103 450974085.88118023 0 450974085.88118023 718855563.98549628 0 0 0 0 73718131.802863121 79954728.152490854 0 79954728.152490854 564887025.00401163 0 0 0 0 227308976.60016537 84946745.657279372 0 84946745.657279372 632104857.65619481 0 0 0 0 232423136.13485122 82213461.364298105 0 82213461.364298105 424852937.26252878 0 0 0 0 36844522.801511765 -135696609.31880307 0 -135696609.31880307 556770969.26836252 0 0 0 0 48904323.60618782 -74792673.134613514 0 -74792673.134613514 348288363.74915409 0 0 0 0 -23202851.360080719 -19058127.557710171 0 -19058127.557710171 413013065.36851573 0 0 0 0 30632543.323135853 -113029957.90550041 0 -113029957.90550041 334589324.15365696 0 0 0 0 51717457.135844469 -13550341.567364395 0 -13550341.567364395 373917441.46135736 0 0 0 0 -54457696.148784637 51226178.035375968 0 51226178.035375968 316923496.84507543 0 0 0 0 -19353878.379402637 -17006989.611140966 0 -17006989.611140966 295317280.66534424 0 0 0 0 -81874605.108636856 -11358876.36055696 0 -11358876.36055696 232389080.28896666 0 0 0 0 -78874181.16967392 -3743245.887748003 0 -3743245.887748003 248879899.55332124 0 0 0 0 -107186707.5755043 45756287.642428935 0 45756287.642428935 235597851.5697794 0 0 0 0 -57916032.410013199 -38610922.305451751 0 -38610922.305451751 305105655.41648674 0 0 0 0 -78765398.754444122 12778594.223685011 0 12778594.223685011 258585701.13081932 0 0 0 0 -86901517.863740921 96912102.099061728 0 96912102.099061728 238477274.33061695 0 0 0 0 -65661955.855769157 108424271.79661238 0 108424271.79661238 242653786.69791719 0 0 0 0 -20637397.032623291 84434601.930986881 0 84434601.930986881 216263805.66489601 0 0 0 0 740585.28562545776 134494050.92104816 0 134494050.92104816 332455592.75303102 0 0 0 0 41498139.890163422 88758943.721832514 0 88758943.721832514 301487861.83350039 0 0 0 0 104131373.99792361 132864501.65076268 0 132864501.65076268 319562541.3013773 0 0 0 0 -378392.01264953613 82466931.746129274 0 82466931.746129274 463929527.35147536 0 0 0 0 -16532037.859153748 30441816.427074924 0 30441816.427074924 296711833.19624996 0 0 0 0 -71318810.680185199 65181422.158142403 0 65181422.158142403 232273652.16763735 0 0 0 0 -173656697.0991478 34499848.378167272 0 34499848.378167272 233602247.19216147 0 0 0 0 -124828811.64736748 20446738.206913173 0 20446738.206913173 203484155.15560687 0 0 0 0 -130995209.88066006 62468593.188699573 0 62468593.188699573 140337489.52846432 0 0 0 0 -82576994.132125854 107046606.57564712 0 107046606.57564712 109531917.56700492 0 0 0 0 -113288414.43978119 40300417.84066388 0 40300417.84066388 50936420.40623343 0 0 0 0 -156140814.28253555 654041.01515483856 0 654041.01515483856 146189595.65837145 0 0 0 0 -160441960.51201445 108758896.30441919 0 108758896.30441919 282786630.45201206 0 0 0 0 -128108008.74193954 193868577.1640445 0 193868577.1640445 -190579377.7410264 0 0 0 0 -186178026.49363136 102339869.48391461 0 102339869.48391461 76607409.244222045 0 0 0 0 -138507872.06800461 223343603.5926528 0 223343603.5926528 -13179075.340012729 0 0 0 0 -106803407.39488697 103526066.44136739 0 103526066.44136739 -24841232.104902267 0 0 0 0 -126235447.33722115 116240706.07179463 0 116240706.07179463 131290426.53899717 0 0 0 0 -99564737.21029377 173651871.20956874 0 173651871.20956874 -465129.1056470871 0 0 0 0 -104024423.24708939 230094894.53075838 0 230094894.53075838 -25809471.239770889 0 0 0 0 -122558023.10129356 207195959.23320103 0 207195959.23320103 -49450585.823738098 0 0 0 0 -129661457.71971893 215768331.88807201 0 215768331.88807201 -23812772.455709219 0 0 0 0 -205825842.31007099 137281357.9966912 0 137281357.9966912 -40809529.205284595 0 0 0 0 -207629949.09454918 181749677.74652243 0 181749677.74652243 -19507432.12666893 0 0 0 0 6119853.8038349152 181095589.89567423 0 181095589.89567423 143807682.74650216 0 0 0 0 15228941.302165985 186020987.24870539 0 186020987.24870539 59606301.265374184 0 0 0 0 69884857.905686378 200792517.28556049 0 200792517.28556049 273543549.90258169 0 0 0 0 43765765.924734116 137967775.16415048 0 137967775.16415048 122440404.86246538 0 0 0 0 -28479597.86398983 157971534.238065 0 157971534.238065 262797611.42565441 0 0 0 0 -34892135.122158051 115075690.13579249 0 115075690.13579249 118244113.58598852 0 0 0 0 -49102629.719257355 152173984.47066355 0 152173984.47066355 52701235.068147659 0 0 0 0 -72969814.554319382 164506527.89519024 0 164506527.89519024 155213170.1127758 0 0 0 0 -47629137.442232728 164363521.96983543 0 164363521.96983543 58380696.403930664 0 0 0 0 -44730430.565246582 209859760.55045557 0 209859760.55045557 3045987.4385585785 0 0 0 0 -105732975.11445808 187786266.85603237 0 187786266.85603237 72746382.392055988 0 0 0 0 -100187252.36403656 227771967.08620834 0 227771967.08620834 -34534339.777702332 0 0 0 0 -86831274.941883564 186246326.17181396 0 186246326.17181396 -10127390.622907639 0 0 0 0 -1717143.11028862 202834528.29640722 0 202834528.29640722 -16494585.948911667 0 0 0 0 20882775.006218433 147542328.96948838 0 147542328.96948838 -31603183.233386993 0 0 0 0 87225647.43834877 171055323.07216644 0 171055323.07216644 137176790.5375495 0 0 0 0 85966942.623443604 149414751.87553072 0 149414751.87553072 38941798.255063057 0 0 0 0 115820307.76324844 129868720.65663147 0 129868720.65663147 -49461460.973987579 0 0 0 0 35737431.903060913 182513958.73197842 0 182513958.73197842 41486695.830482483 0 0 0 0 35823521.311044693 147404417.27709198 0 147404417.27709198 -48412698.274242759 0 0 0 0 47733840.435743332 147500077.66057348 0 147500077.66057348 -116044310.97378349 0 0 0 0 -20181950.449754715 177335950.72675228 0 177335950.72675228 -38228232.537343979 0 0 0 0 -11593374.6453228 184296756.78662348 0 184296756.78662348 -90738783.549913406 0 0 0 0 -10751359.19529295 160550045.2782135 0 160550045.2782135 -180647063.009058 0 0 0 0 50490252.83908844 143218337.51825905 0 143218337.51825905 -209014305.44499779 0 0 0 0 -25171329.978410721 151831219.39296722 0 151831219.39296722 -115802044.05050135 0 0 0 0 24346696.830983758 200809038.36961269 0 200809038.36961269 -299279819.44755173 0 0 0 0 5609105.343624115 146463312.57307625 0 146463312.57307625 -204858906.57702065 0 0 0 0 12634073.612679482 151431990.95004463 0 151431990.95004463 -291828311.39157867 0 0 0 0 -98861943.692266464 146222868.47131443 0 146222868.47131443 -182643983.57838631 0 0 0 0 58325461.364816666 180101659.9680481 0 180101659.9680481 -393663281.38401794 0 0 0 0 -28792827.099298477 126781894.00516319 0 126781894.00516319 -303904763.72256279 0 0 0 0 -44434116.454393864 74632944.578523159 0 74632944.578523159 -396008607.87380219 0 0 0 0 30958459.554937363 111814084.9431839 0 111814084.9431839 -397214910.01870251 0 0 0 0 30007564.486261368 123660926.94163704 0 123660926.94163704 -454078463.34971619 0 0 0 0 59696783.433494568 201259282.41402626 0 201259282.41402626 -309780660.46700096 0 0 0 0 -183395640.54736471 159958158.79510403 0 159958158.79510403 -326711837.85880661 0 0 0 0 -207957519.57441807 228862915.68742037 0 228862915.68742037 -267108140.69118118 0 0 0 0 -94498791.452690125 210874497.76804733 0 210874497.76804733 -396130163.28903961 0 0 0 0 -120667571.4343338 202831715.11944199 0 202831715.11944199 -397580473.34956932 0 0 0 0 -443679272.35497665 270277591.20809937 0 270277591.20809937 -361712945.89638233 0 0 0 0 -155977488.42683411 208942493.57071877 0 208942493.57071877 -283737550.11177063 0 0 0 0 -83218613.641784668 140199557.28266716 0 140199557.28266716 -236524820.24344218 0 0 0 0 -235696974.19659996 121124624.27856827 0 121124624.27856827 -237491363.42023468 0 0 0 0 -173871003.65752411 185976510.14893055 0 185976510.14893055 -154752525.69183731 0 0 0 0 -122347848.54334259 221245829.95665741 0 221245829.95665741 -203140698.48135471 0 0 0 0 -192089425.55257607 188171901.06630135 0 188171901.06630135 -214727898.16640472 0 0 0 0 -123664129.7097702 216792427.81240845 0 216792427.81240845 -265805431.03237152 0 0 0 0 -133540559.86547661 191397163.29027176 0 191397163.29027176 -155132237.74184036 0 0 0 0 -100046680.3699522 217210289.09994245 0 217210289.09994245 -111498411.44359016 0 0 0 0 -127247393.4223702 227956100.82660317 0 227956100.82660317 -114590386.93882751 0 0 0 0 -86977201.425348282 155337744.49274635 0 155337744.49274635 -101777677.95413399 0 0 0 0 -81974843.308755875 205154907.59766769 0 205154907.59766769 -118679621.03288078 0 0 0 0 -115871330.45973516 170655420.87151313 0 170655420.87151313 -151174263.34548569 0 0 0 0 -66322397.493612289 174875168.14441013 0 174875168.14441013 -28551636.817331314 0 0 0 0 -52520121.437627792 201103468.18937302 0 201103468.18937302 -63429744.79592514 0 0 0 0 -108377149.34503174 188087093.11524296 0 188087093.11524296 -66452043.395553589 0 0 0 0 -112624114.81277466 201015015.72951221 0 201015015.72951221 -57540192.547553062 0 0 0 0 -112381562.36370277 235196280.03928089 0 235196280.03928089 -75320108.803291321 0 0 0 0 -92153331.886207581 198582502.57661057 0 198582502.57661057 -112545934.70989609 0 0 0 0 -93711962.969285965 192783598.2630291 0 192783598.2630291 -132616432.821661 0 0 0 0 -176035990.84532547 171053905.98514271 0 171053905.98514271 -63025041.293606758 0 0 0 0 -77673006.524194717 158280895.559515 0 158280895.559515 -67433496.88024044 0 0 0 0 -14771441.484225988 20069747.545316398 0 20069747.545316398 -31700969.780731201 0 0 0 0 -23839809.715978622 104540544.37343407 0 104540544.37343407 -185787139.31567287 0 0 0 0 -31487627.775403976 84580814.002451897 0 84580814.002451897 -166311228.20252037 0 0 0 0 -105407155.95034409 227074632.32021952 0 227074632.32021952 -197599859.89840698 0 0 0 0 -59150094.158836365 184726396.78316498 0 184726396.78316498 -216170998.1179142 0 0 0 0 -110888940.62513733 225708656.04019594 0 225708656.04019594 -138678516.12024689 0 0 0 0 -131533846.31494904 214949850.72608948 0 214949850.72608948 -188026744.67109108 0 0 0 0 -66456467.008460999 163484788.987463 0 163484788.987463 -123308853.51816082 0 0 0 0 -74432670.167053223 212226404.35640144 0 212226404.35640144 -259841521.99842453 0 0 0 0 -94624646.027381897 200059887.56958008 0 200059887.56958008 -254780842.2907877 0 0 0 0 -5830818.1522903442 98353890.544548035 0 98353890.544548035 -323026108.32426834 0 0 0 0 37682785.775283813 75169709.225738525 0 75169709.225738525 -386334189.27024078 0 0 0 0 -58003651.741962433 211112499.60116196 0 211112499.60116196 -539257870.49385071 0 0 0 0 -13850854.196266174 116739126.75548172 0 116739126.75548172 -337618963.25868607 0 0 0 0 42035164.076313019 99399904.999931335 0 99399904.999931335 -540868902.52310944 0 0 0 0 43775276.856323242 95852543.683094025 0 95852543.683094025 -535467132.0068512 0 0 0 0 9580759.9760574419 1971882.1843959757 0 1971882.1843959757 -1757009.5674539432 0 0 0 0 14124329.963111877 -198253.05232810974 0 -198253.05232810974 -10106703.389445305 0 0 0 0 1447922.5857543945 13457433.49416399 0 13457433.49416399 -9533378.6294326782 0 0 0 0 4973044.2836151123 7196487.0823802948 0 7196487.0823802948 -16044369.507284164 0 0 0 0 36976987.808609962 -2954241.8727862835 0 -2954241.8727862835 -66174556.684669495 0 0 0 0 34737799.325119019 2711917.8753480911 0 2711917.8753480911 -27695190.680692673 0 0 0 0 19549135.397422791 49213582.007936954 0 49213582.007936954 -19841465.030481339 0 0 0 0 21914817.019577026 17200128.663076401 0 17200128.663076401 -39929004.072395325 0 0 0 0 29806769.307670593 69572929.193081856 0 69572929.193081856 13444119.571500778 0 0 0 0 7363328.097869873 17944635.639645576 0 17944635.639645576 -6161761.768245697 0 0 0 0 15366673.154594421 12161466.57274437 0 12161466.57274437 -13870446.941025734 0 0 0 0 -208658.57482910156 16131746.777915001 0 16131746.777915001 -4530693.0130786896 0 0 0 0 -1277467.032913208 11731677.11796093 0 11731677.11796093 -7945653.7224311829 0 0 0 0 1408875.0512084961 13689192.125273228 0 13689192.125273228 -6775014.0308761597 0 0 0 0 128837722.02800846 -357805584.84307384 0 -357805584.84307384 -69135846.404827714 0 0 0 0 222046528.61552334 101828596.3060658 0 101828596.3060658 -16309952.756008148 0 0 0 0 -2386050.6546993256 142483321.64937592 0 142483321.64937592 -150228509.09247971 0 0 0 0 319042.24232243956 272849.86169530882 0 272849.86169530882 329836.85252217669 0 0 0 0 -26390171.810653687 267775584.09756184 0 267775584.09756184 -268744981.44120026 0 0 0 0 52185694.870725632 392412728.677742 0 392412728.677742 -78757883.383564949 0 0 0 0 112455280.36089516 353716770.12731743 0 353716770.12731743 -298511075.70631599 0 0 0 0 -11070764.564575642 270953513.35973161 0 270953513.35973161 -353926774.45648193 0 0 0 0 321735227.879179 490192541.10633087 0 490192541.10633087 -311280879.30737305 0 0 0 0 144781410.55101538 274807806.30171061 0 274807806.30171061 -548491116.16830444 0 0 0 0 464667407.79497051 130128668.94175243 0 130128668.94175243 -828874931.56096649 0 0 0 0 -351761580.77114868 -141092135.95428848 0 -141092135.95428848 -524079772.82065964 0 0 0 0 5896798.7023131168 4047906.9849216919 0 4047906.9849216919 913541.28676498123 0 0 0 0 -67967922.529790878 254800391.20355034 0 254800391.20355034 176127457.48667145 0 0 0 0 -398454949.5125618 -162831225.83314896 0 -162831225.83314896 -126768985.95536423 0 0 0 0 -195485686.85863113 321831788.89256096 0 321831788.89256096 -579473386.84872437 0 0 0 0 -57004378.767547607 248150596.57390594 0 248150596.57390594 -678837227.64099789 0 0 0 0 -633721.62749943696 1513038.1184276696 0 1513038.1184276696 300497.185042798 0 0 0 0 446016856.47639465 -285757684.84450722 0 -285757684.84450722 -1073727.2343845367 0 0 0 0 214110865.68725586 -171558710.7761879 0 -171558710.7761879 -56575687.099367142 0 0 0 0 43011302.951797485 -344685369.52430916 0 -344685369.52430916 11956969.902051926 0 0 0 0 1026112272.0111923 -415907037.99373627 0 -415907037.99373627 -244222858.32861233 0 0 0 0 1159631595.8748932 -139982843.9321537 0 -139982843.9321537 -366601824.90063441 0 0 0 0 605080821.66021729 -75100425.151229858 0 -75100425.151229858 -249891463.34838867 0 0 0 0 723599374.135849 -48605765.570119858 0 -48605765.570119858 -369852345.16668612 0 0 0 0 650076783.14219666 -319552533.86894608 0 -319552533.86894608 -257703240.48843145 0 0 0 0 537743554.50502777 -243535430.84487152 0 -243535430.84487152 -181992247.36914825 0 0 0 0 541741071.20985413 -136900207.5039463 0 -136900207.5039463 -123647945.53504372 0 0 0 0 539430967.57608795 -146650200.34088039 0 -146650200.34088039 -153061924.31687737 0 0 0 0 347086106.88047028 46638334.263210297 0 46638334.263210297 -287877357.6063118 0 0 0 0 591316226.79111099 -211542428.33167934 0 -211542428.33167934 -16048308.013462067 0 0 0 0 927277219.86901855 54318052.168838501 0 54318052.168838501 -158875332.58316803 0 0 0 0 568581095.48957276 -75619259.464913428 0 -75619259.464913428 -176034326.13181305 0 0 0 0 568135953.19290161 -202486593.46168518 0 -202486593.46168518 -203578917.05832386 0 0 0 0 11287131.131450653 131955959.5009737 0 131955959.5009737 9735257.7794647217 0 0 0 0 414216749.39334106 -41135282.557138443 0 -41135282.557138443 -159981225.32106781 0 0 0 0 528593474.77192688 283677689.99702835 0 283677689.99702835 -92340980.745300293 0 0 0 0 593829697.65551758 260305722.47970963 0 260305722.47970963 -85363342.71487236 0 0 0 0 583225730.86637878 243865115.7005558 0 243865115.7005558 -110803176.63576508 0 0 0 0 1189863992.9936676 345732972.92798615 0 345732972.92798615 -96932419.957852364 0 0 0 0 268492.68241343088 246250.65713737486 0 246250.65713737486 -176040.98779898509 0 0 0 0 199545505.93574524 179617808.55234146 0 179617808.55234146 54406380.961128235 0 0 0 0 170313776.08230591 -313044882.37375259 0 -313044882.37375259 -763574880.46076965 0 0 0 0 195710346.74266052 440879762.27460289 0 440879762.27460289 -188950535.51206589 0 0 0 0 149583950.79447937 439022454.28902674 0 439022454.28902674 -18609914.218383789 0 0 0 0 410293364.22610474 377955815.23627472 0 377955815.23627472 -226763621.74924469 0 0 0 0 474761443.94969177 509177113.85682678 0 509177113.85682678 39385202.861740112 0 0 0 0 133194726.21221924 -24070902.394233704 0 -24070902.394233704 -537359015.54149628 0 0 0 0 107342455.27497864 111931973.49547768 0 111931973.49547768 -152024451.72645569 0 0 0 0 92216135.094314575 49490621.407487869 0 49490621.407487869 -406092347.43043995 0 0 0 0 11950374.389302731 1180460335.0820475 0 1180460335.0820475 95424530.791465759 0 0 0 0 18673349.426315308 -55502113.499526978 0 -55502113.499526978 -265252624.4541378 0 0 0 0 22464782.289413452 -23714111.124027252 0 -23714111.124027252 -80689254.845259666 0 0 0 0 -32373507.215126038 -27379022.60588932 0 -27379022.60588932 21693088.923111916 0 0 0 0 1296798.5484058929 -185501.29023156315 0 -185501.29023156315 -1049473.7412595372 0 0 0 0 8804668.2252380326 1744174.1402950536 0 1744174.1402950536 -1683188.2222930018 0 0 0 0 -41546697.54706955 -64266614.869050026 0 -64266614.869050026 -95768457.499513626 0 0 0 0 182002852.88514709 325571289.42182732 0 325571289.42182732 -265070107.37486839 0 0 0 0 -202842679.84151459 -8277269.3539733887 0 -8277269.3539733887 164223528.53887939 0 0 0 0 134580990.45571518 58473965.723583221 0 58473965.723583221 21234277.215679169 0 0 0 0 25993227.355932236 33366532.443539619 0 33366532.443539619 73178515.738876343 0 0 0 0 6065002.2829892095 1962590.5550183491 0 1962590.5550183491 -1094438.0206138806 0 0 0 0 -25134966.216257095 49352662.167657852 0 49352662.167657852 -60463115.851259708 0 0 0 0 3028855.1328805275 -760307.8646044815 0 -760307.8646044815 -2850495.3839340005 0 0 0 0 -249251110.05203629 117910447.43459296 0 117910447.43459296 -13987860.503816366 0 0 0 0 -138969247.78751755 85761194.291847706 0 85761194.291847706 -6779953.343328476 0 0 0 0 287871120.64295959 120285379.31062603 0 120285379.31062603 -10013186.464142799 0 0 0 0 167335068.00769806 97201169.518062115 0 97201169.518062115 30534703.779976845 0 0 0 0 266874903.11906052 145314795.59485817 0 145314795.59485817 -23150500.224216461 0 0 0 0 448421371.55871582 260867675.86740685 0 260867675.86740685 -177894824.4250164 0 0 0 0 408451413.28471375 163693648.03328896 0 163693648.03328896 -101441775.35600853 0 0 0 0 425022946.53807449 281224827.32984543 0 281224827.32984543 -76480376.839611053 0 0 0 0 343692708.05258179 271616904.81374884 0 271616904.81374884 13934087.649524689 0 0 0 0 560495323.10619354 -498898658.11808395 0 -498898658.11808395 99446.951589584351 0 0 0 0 15264913.599510193 122044875.98114586 0 122044875.98114586 469496925.35268021 0 0 0 0 2171553.3449305464 700696.64821105078 0 700696.64821105078 -323029.96460372244 0 0 0 0 436561115.80382538 452683281.88375664 0 452683281.88375664 101614577.41888809 0 0 0 0 94726865.73625946 634117971.26669979 0 634117971.26669979 1490774257.338728 0 0 0 0 481818021.41731644 358867879.53121662 0 358867879.53121662 -177195391.12506104 0 0 0 0 -381240447.86545181 747172989.99860382 0 747172989.99860382 3203124168.1319122 0 0 0 0 825159382.55986023 1298165956.162117 0 1298165956.162117 785984437.54323196 0 0 0 0 2110405231.0650406 1295639394.1674614 0 1295639394.1674614 -1567191423.123909 0 0 0 0 -192119912.2293663 -161732201.37058163 0 -161732201.37058163 -122992957.25519562 0 0 0 0 9119388.4938932564 -7867117.6245697029 0 -7867117.6245697029 5378687.1207004441 0 0 0 0 102863187.80796051 -313267095.73456764 0 -313267095.73456764 -338453805.09564972 0 0 0 0 -198248466.61695224 -152722946.53428572 0 -152722946.53428572 -113925972.19658661 0 0 0 0 947626463.2108078 -229325214.42181969 0 -229325214.42181969 -991143349.18154144 0 0 0 0 -169239621.48862457 -145374665.77554893 0 -145374665.77554893 -129498870.04760933 0 0 0 0 -476364312.62882328 -314572866.03667641 0 -314572866.03667641 -226323417.69044781 0 0 0 0 62236492.360856295 137666030.05495071 0 137666030.05495071 -371924265.85952377 0 0 0 0 -166706398.94072914 -158333510.09932518 0 -158333510.09932518 -148033956.28608322 0 0 0 0 297480267.77248764 203204076.51199484 0 203204076.51199484 90688352.140415192 0 0 0 0 383130296.02959061 182477997.8219161 0 182477997.8219161 42381770.095581055 0 0 0 0 496594880.96792603 215911376.12023163 0 215911376.12023163 37186356.095051765 0 0 0 0 509658417.0933466 188615072.39248931 0 188615072.39248931 -1024409.1713809967 0 0 0 0 469691209.76185608 331685079.36052513 0 331685079.36052513 81168851.330827415 0 0 0 0 609112522.57437134 279952963.10382342 0 279952963.10382342 37176735.156230927 0 0 0 0 -185245694.10220718 -642136184.7248764 0 -642136184.7248764 -149728988.96165466 0 0 0 0 -314347267.45856094 -615061081.15926743 0 -615061081.15926743 41167771.112182617 0 0 0 0 676192.3807876776 -219964.28729876829 0 -219964.28729876829 -428230.27111844812 0 0 0 0 8577374.0598034002 -7401918.1117319893 0 -7401918.1117319893 4024802.3446211107 0 0 0 0 674883612.79917908 134415181.1665678 0 134415181.1665678 88662713.625967026 0 0 0 0 649745459.07015228 167947876.39598751 0 167947876.39598751 44310191.732551575 0 0 0 0 626952210.79374313 49675794.541190147 0 49675794.541190147 232348476.38748741 0 0 0 0 -140607943.84620667 -145886115.72759247 0 -145886115.72759247 -67965397.89289093 0 0 0 0 -126658959.04866028 254560597.96208191 0 254560597.96208191 -745643312.54429245 0 0 0 0 -203129510.10841084 -281718216.13202667 0 -281718216.13202667 -213549172.8948288 0 0 0 0 -237844104.51218796 -351355736.11166191 0 -351355736.11166191 30672724.717964172 0 0 0 0 -369661140.57749653 -632922956.87731934 0 -632922956.87731934 304917548.41155243 0 0 0 0 -228805013.39912224 -321323341.13623047 0 -321323341.13623047 80316512.805099487 0 0 0 0 -223942887.09268761 -469893886.08860207 0 -469893886.08860207 680555455.66936302 0 0 0 0 242031138.55998802 -635819633.9186821 0 -635819633.9186821 259498652.82176208 0 0 0 0 -487924402.23625898 -233570282.30910397 0 -233570282.30910397 53703758.406879425 0 0 0 0 1809563.260120698 -1107088.936324758 0 -1107088.936324758 -1741334.9268060648 0 0 0 0 -165596011.4976635 153952964.5728271 0 153952964.5728271 -35032197.02140522 0 0 0 0 302586177.80456161 38955245.615448952 0 38955245.615448952 9751581.7209320068 0 0 0 0 414294830.89528275 117611283.61010265 0 117611283.61010265 3619946.8254685998 0 0 0 0 416795957.54468918 159959669.13167381 0 159959669.13167381 -28995357.286803246 0 0 0 0 539054753.24724197 99218744.050973892 0 99218744.050973892 67443880.053665161 0 0 0 0 440059408.81870461 69319291.809405208 0 69319291.809405208 91254246.971533775 0 0 0 0 520781927.18904114 141859868.29144669 0 141859868.29144669 152314516.26084328 0 0 0 0 476732082.27269745 351042972.24601269 0 351042972.24601269 380839621.72171462 0 0 0 0 442265942.26847839 183833804.05522251 0 183833804.05522251 154310522.42364407 0 0 0 0 507933007.65161133 151768204.17213249 0 151768204.17213249 410421821.68027496 0 0 0 0 510856169.30378723 157263079.08574796 0 157263079.08574796 156473566.40756989 0 0 0 0 495447904.79424286 390603991.70111704 0 390603991.70111704 227915904.72745317 0 0 0 0 418943774.41305733 183584229.63830441 0 183584229.63830441 -198264223.41187334 0 0 0 0 419303846.82294464 140272263.47936726 0 140272263.47936726 73571484.657176971 0 0 0 0 344346418.33945084 88976928.148938596 0 88976928.148938596 25620267.805354357 0 0 0 0 -616803736.21689034 202533331.33243215 0 202533331.33243215 -1703441.7480891943 0 0 0 0 616484.99451386882 -590685.24358071666 0 -590685.24358071666 -593356.86175530637 0 0 0 0 -169204512.97759438 -61563354.951476336 0 -61563354.951476336 -8256892.5595479012 0 0 0 0 175432826.57282257 613805406.72578943 0 613805406.72578943 -309544325.94208282 0 0 0 0 194968187.87431335 49930208.848659754 0 49930208.848659754 321751332.69415832 0 0 0 0 -332941622.07517433 250805586.08846456 0 250805586.08846456 316397097.96961617 0 0 0 0 -609853798.15270615 -39007609.512168884 0 -39007609.512168884 68129087.837783813 0 0 0 0 578246735.30292511 510815519.80377269 0 510815519.80377269 122999029.74136829 0 0 0 0 612902958.43986893 433952074.60062218 0 433952074.60062218 126862034.47187519 0 0 0 0 7542090.4925559983 -6387067.1688426659 0 -6387067.1688426659 2984295.547602497 0 0 0 0 627116661.36347198 428258079.3462739 0 428258079.3462739 6331467.0465021133 0 0 0 0 557314237.88308716 325813311.91767979 0 325813311.91767979 -53275165.57128489 0 0 0 0 347363122.23423767 342394370.13383257 0 342394370.13383257 24862605.920157433 0 0 0 0 577580920.99880219 507761941.08802646 0 507761941.08802646 -22599307.28545332 0 0 0 0 496408796.41117096 397754062.49990642 0 397754062.49990642 -124949581.58635318 0 0 0 0 412210297.74833488 482814656.98345262 0 482814656.98345262 22493478.028639317 0 0 0 0 -521466976.19107628 -60959002.839889526 0 -60959002.839889526 18835659.655834198 0 0 0 0 -460871939.91997719 16299707.011833191 0 16299707.011833191 -76052024.970434189 0 0 0 0 601750917.30409241 365840055.3079325 0 365840055.3079325 858114614.60309219 0 0 0 0 641317203.97198868 224665716.25541615 0 224665716.25541615 493803.82086038589 0 0 0 0 165188.39815890975 -36906.321565534454 0 -36906.321565534454 64085.803090027184 0 0 0 0 2430627.3767131269 -2612331.0165374167 0 -2612331.0165374167 5688019.8427197207 0 0 0 0 202696765.2522049 237841935.50209188 0 237841935.50209188 161426363.49299622 0 0 0 0 98725825.014225006 344392925.86600256 0 344392925.86600256 479412185.07358932 0 0 0 0 -61613468.344824314 142385687.7293008 0 142385687.7293008 249375707.41083384 0 0 0 0 -18258040.560367584 131789994.66254711 0 131789994.66254711 230847759.32626176 0 0 0 0 -296424573.16785431 -15459685.89140892 0 -15459685.89140892 200788651.543643 0 0 0 0 25976273.01527977 75520507.554078579 0 75520507.554078579 315861142.0621109 0 0 0 0 -173683367.14176464 -117730791.66514778 0 -117730791.66514778 145847940.74935436 0 0 0 0 -332897606.6073513 -41217791.832523346 0 -41217791.832523346 136844956.30710602 0 0 0 0 -196332168.82767725 -24923716.509193897 0 -24923716.509193897 37658587.333740234 0 0 0 0 -351757694.41288662 33961851.650295258 0 33961851.650295258 -162483822.07752991 0 0 0 0 -651299757.87288666 172850308.80026436 0 172850308.80026436 -33984971.306594849 0 0 0 0 -488374005.86930561 -11633997.3058815 0 -11633997.3058815 107946980.86390686 0 0 0 0 -393938508.24824429 -3531199.1928253174 0 -3531199.1928253174 55880382.902328491 0 0 0 0 -513246511.184021 50693194.977416992 0 50693194.977416992 84865606.445869446 0 0 0 0 -364294213.25609112 70749317.744222641 0 70749317.744222641 131140256.22969627 0 0 0 0 -396498563.99232578 147658948.20621538 0 147658948.20621538 9104795.5132141113 0 0 0 0 -409202199.34156704 119659915.23796844 0 119659915.23796844 -31296391.573020935 0 0 0 0 -374523298.12239707 68245565.358070374 0 68245565.358070374 122838653.55412674 0 0 0 0 -454192610.1482687 69821327.045764923 0 69821327.045764923 128387093.93183517 0 0 0 0 -186278882.13020134 103074231.75198555 0 103074231.75198555 65677641.717582703 0 0 0 0 -122533179.36164713 -175949099.08671904 0 -175949099.08671904 318665753.53860855 0 0 0 0 -19174326.337780952 -194688165.87367725 0 -194688165.87367725 184430951.30750847 0 0 0 0 276056189.41001058 -325438220.13363075 0 -325438220.13363075 229444252.61276436 0 0 0 0 308311480.84927416 -158643906.07344723 0 -158643906.07344723 351354953.26189232 0 0 0 0 468159464.17562628 6195713.0110797882 0 6195713.0110797882 309648147.66786957 0 0 0 0 -79951758.593339682 -157447891.82854319 0 -157447891.82854319 540582360.02222443 0 0 0 0 1162676168.5046656 808319088.72378254 0 808319088.72378254 817896355.64269447 0 0 0 0 289337982.35327053 175477698.88458347 0 175477698.88458347 359468836.16642761 0 0 0 0 2026743544.4755015 304432311.507761 0 304432311.507761 -32571919.175451756 0 0 0 0 616020663.92986488 66456248.621871948 0 66456248.621871948 1110269.1604537964 0 0 0 0 101915.25743763521 604472.94985344145 0 604472.94985344145 1064882.7286101533 0 0 0 0 -61043547.1574471 -223005804.20026493 0 -223005804.20026493 1170912698.4012451 0 0 0 0 50752533.804522038 830447006.16271591 0 830447006.16271591 1505542111.8974962 0 0 0 0 1888088657.9842753 168698774.44531345 0 168698774.44531345 144135936.88566208 0 0 0 0 -139615475.85702896 20166270.894584656 0 20166270.894584656 1364673110.7719221 0 0 0 0 740421774.00999498 -436129395.76663589 0 -436129395.76663589 -864174438.05040169 0 0 0 0 2678949.0487547121 750472.78316159174 0 750472.78316159174 -866013.27576765092 0 0 0 0 -200824465.73234046 151794895.23390532 0 151794895.23390532 197694309.24701118 0 0 0 0 20332095.973596573 -67192308.396223068 0 -67192308.396223068 -216118240.38890839 0 0 0 0 58556553.416851282 -13804568.193361282 0 -13804568.193361282 -180268785.31041336 0 0 0 0 38975822.465762019 -32963823.559591293 0 -32963823.559591293 -196640964.84830189 0 0 0 0 51397172.332503676 -7138208.4173984528 0 -7138208.4173984528 -167304031.50267029 0 0 0 0 44106965.559299231 -209644945.00670481 0 -209644945.00670481 -457072185.15929592 0 0 0 0 -18070341.456444025 -52262408.32519722 0 -52262408.32519722 -152476678.55811691 0 0 0 0 448370593.03126621 -66466976.095864534 0 -66466976.095864534 -272937997.54500198 0 0 0 0 140609657.55611524 188658206.49181271 0 188658206.49181271 25921685.24971962 0 0 0 0 -5112166.5198640823 -508695694.66964722 0 -508695694.66964722 110070648.06729984 0 0 0 0 1144179.4348288884 283386.12467170414 0 283386.12467170414 -343084.52239492163 0 0 0 0 -469269968.09869576 -101638593.87770271 0 -101638593.87770271 387535201.41623306 0 0 0 0 30707851.86818409 -40091207.553168297 0 -40091207.553168297 133503727.2276001 0 0 0 0 -101872094.04317093 59283257.78827858 0 59283257.78827858 10737119.820406914 0 0 0 0 68768157.429747581 39790593.806040764 0 39790593.806040764 -111604447.01402664 0 0 0 0 636365.00286380388 973017.32672330737 0 973017.32672330737 -212071.54642019421 0 0 0 0 -53223273.727752686 -45218309.881538391 0 -45218309.881538391 -20794409.417446136 0 0 0 0 60344903.248558044 245075609.48247623 0 245075609.48247623 170608497.01780128 0 0 0 0 236347316.3612957 376150502.72197533 0 376150502.72197533 215098941.33522177 0 0 0 0 -24801895.530744553 147051534.22175026 0 147051534.22175026 280138376.58429384 0 0 0 0 15071045.140354156 143592258.37845039 0 143592258.37845039 130758162.34363174 0 0 0 0 -40917015.039670944 103644778.73942184 0 103644778.73942184 41153315.113651276 0 0 0 0 44146923.398581982 -90467964.241363525 0 -90467964.241363525 101685313.91393566 0 0 0 0 3962033.9800434113 561147568.63746262 0 561147568.63746262 526992544.05111408 0 0 0 0 -66997902.534769058 60374866.737757683 0 60374866.737757683 807732426.87557983 0 0 0 0 173027296.49739408 503585246.5755043 0 503585246.5755043 366039921.53427887 0 0 0 0 2660053.9319571871 1016273.8528916966 0 1016273.8528916966 -995961.77333849669 0 0 0 0 560997074.14708281 264106262.53249645 0 264106262.53249645 -447521147.06771564 0 0 0 0 1157686.1535299644 595740.3971264516 0 595740.3971264516 -504427.51667991374 0 0 0 0 294923183.78996563 662292399.35715008 0 662292399.35715008 569997437.21992779 0 0 0 0 88313211.377278328 503173921.54986668 0 503173921.54986668 372445558.73501015 0 0 0 0 84555523.177112579 212368600.88536024 0 212368600.88536024 214297446.71409035 0 0 0 0 636295523.09915352 348396060.62660074 0 348396060.62660074 206363255.19167396 0 0 0 0 173281265.64764595 151881418.73221207 0 151881418.73221207 201654363.90719986 0 0 0 0 235694557.84191751 30902153.21400547 0 30902153.21400547 410967155.87370491 0 0 0 0 475783067.43262577 255331297.65266395 0 255331297.65266395 48156708.442545891 0 0 0 0 163622547.68122292 216760731.70245361 0 216760731.70245361 153210052.75572872 0 0 0 0 104334927.36089659 200984448.61091137 0 200984448.61091137 149274628.56282043 0 0 0 0 207855161.96438408 318469736.73102236 0 318469736.73102236 384037356.50231266 0 0 0 0 393688522.66385365 -99977478.362987518 0 -99977478.362987518 -141902211.99741793 0 0 0 0 113327894.58223128 16970388.777546823 0 16970388.777546823 -17152807.265006065 0 0 0 0 96244532.653964996 -187195162.9026022 0 -187195162.9026022 -96446966.91926384 0 0 0 0 -22300626.948506355 -75666.241706609726 0 -75666.241706609726 -80394688.255217552 0 0 0 0 -731417.93141555786 -77059907.972449303 0 -77059907.972449303 -28725063.909310341 0 0 0 0 95976743.22851181 -51017532.193229675 0 -51017532.193229675 -37502527.91719532 0 0 0 0 -9632371.6446936131 -40708268.415197849 0 -40708268.415197849 -21834761.585754395 0 0 0 0 -13347976.362488747 -94943358.585981607 0 -94943358.585981607 -125592370.82282013 0 0 0 0 -23933905.612532616 -28820346.499705732 0 -28820346.499705732 -67160652.941916049 0 0 0 0 68361220.344916344 -36364977.638374999 0 -36364977.638374999 -114270751.42060459 0 0 0 0 90153845.613513947 10305671.486058459 0 10305671.486058459 -82453919.204981804 0 0 0 0 78534300.93885994 -33098480.881402016 0 -33098480.881402016 -75345060.442257881 0 0 0 0 77669625.659013748 -42841477.581504107 0 -42841477.581504107 -24735533.91176033 0 0 0 0 191091578.16746616 43594549.648707271 0 43594549.648707271 -75621268.999060154 0 0 0 0 202492447.91587448 51737098.037305355 0 51737098.037305355 -96749652.534491539 0 0 0 0 81517320.738651276 14223295.160995543 0 14223295.160995543 -82308769.001860335 0 0 0 0 46990091.324748516 125922068.16176218 0 125922068.16176218 -68565168.176625252 0 0 0 0 233487524.43418694 202808756.16748524 0 202808756.16748524 38833218.964880943 0 0 0 0 113719160.51731157 95172839.769193411 0 95172839.769193411 -57507382.853295326 0 0 0 0 -116471509.74426877 -100644800.40462685 0 -100644800.40462685 -57961727.221800327 0 0 0 0 110539059.07431293 7829422.6024794579 0 7829422.6024794579 -116755506.80258083 0 0 0 0 708823.37271635374 -133817.68069822167 0 -133817.68069822167 -581793.1042512022 0 0 0 0 -163909741.78941727 -103399704.08688736 0 -103399704.08688736 -43257105.042955399 0 0 0 0 -182875491.82406712 -115057904.68581772 0 -115057904.68581772 -64437452.76804924 0 0 0 0 -150425321.90325356 -93633179.40486145 0 -93633179.40486145 -55829838.481929779 0 0 0 0 -115113263.19798994 -104614803.46280575 0 -104614803.46280575 -92498545.217693329 0 0 0 0 -170471150.91129929 -144074081.72684956 0 -144074081.72684956 -128998460.86353493 0 0 0 0 1302633.8793523354 -344638.40879145777 0 -344638.40879145777 -916775.50520611554 0 0 0 0 -165020328.07512474 -147982761.68834305 0 -147982761.68834305 -126612386.19768715 0 0 0 0 -135923161.90195274 -129068579.39564514 0 -129068579.39564514 -120966152.37887955 0 0 0 0 -197691969.95658836 -134430563.74444938 0 -134430563.74444938 -89469216.407157898 0 0 0 0 4982321.814770937 -24539588.551831722 0 -24539588.551831722 -124731104.01648903 0 0 0 0 -17793346.111996651 -36530233.228054047 0 -36530233.228054047 -109492114.80937004 0 0 0 0 24688199.435312748 -44147954.801716328 0 -44147954.801716328 -108325710.41182745 0 0 0 0 -24096066.267882347 -48072812.133850813 0 -48072812.133850813 -9083720.2861852646 0 0 0 0 60167784.725652099 -99611879.272545695 0 -99611879.272545695 -23559330.349903107 0 0 0 0 29709504.349781513 -15298453.597278595 0 -15298453.597278595 14149735.68188858 0 0 0 0 -4881740.7466769218 -60240336.793612957 0 -60240336.793612957 -44193341.691779137 0 0 0 0 -13761987.886518478 -42631326.37667942 0 -42631326.37667942 -45894749.90934214 0 0 0 0 -19620503.452449799 -45024908.339008331 0 -45024908.339008331 -9891623.7895594835 0 0 0 0 -4111883.6389400959 -56841695.6080212 0 -56841695.6080212 -51452675.33080101 0 0 0 0 20453449.807179451 -50587336.721026421 0 -50587336.721026421 -202417402.22638249 0 0 0 0 -22313704.435117722 -45379718.489265919 0 -45379718.489265919 -55826010.727995634 0 0 0 0 -5949223.585588932 -63365976.066306829 0 -63365976.066306829 -109553900.60952282 0 0 0 0 -10825657.206352234 -30515544.272662401 0 -30515544.272662401 -119493671.31452724 0 0 0 0 19018021.275887489 -36297950.063027143 0 -36297950.063027143 -109186482.8651042 0 0 0 0 4890267.2825593147 2021770.1668608845 0 2021770.1668608845 -3703364.6660469179 0 0 0 0 -3104169.5152511597 -58785672.326836646 0 -58785672.326836646 -120598341.57640123 0 0 0 0 -225467255.31941366 40204082.237837911 0 40204082.237837911 14394625.15422821 0 0 0 0 8866828.840963196 -5083250.5049287537 0 -5083250.5049287537 3478000.3706485359 0 0 0 0 -19289993.507360332 -126397259.67501819 0 -126397259.67501819 -52980010.586675644 0 0 0 0 93645304.468584299 -138578949.94184634 0 -138578949.94184634 4349143.4610617459 0 0 0 0 -21865776.003974199 14064097.648066252 0 14064097.648066252 18696023.762609303 0 0 0 0 1658446.7863868342 678575.63329870778 0 678575.63329870778 -1264728.7360036331 0 0 0 0 -20746925.761953592 -136396303.58706665 0 -136396303.58706665 -45979245.211280823 0 0 0 0 75755665.5058074 -151080491.53226757 0 -151080491.53226757 -76986607.568457127 0 0 0 0 143702827.40507644 -13255811.923576355 0 -13255811.923576355 -176694919.33375931 0 0 0 0 -133581982.15098739 -62676766.13028717 0 -62676766.13028717 -43723242.455493927 0 0 0 0 143571360.56816447 -127892053.48948884 0 -127892053.48948884 -106891529.5886097 0 0 0 0 8853093.3535931837 -6976987.5370842097 0 -6976987.5370842097 5727146.67600815 0 0 0 0 -419483760.85213578 -546028274.13919389 0 -546028274.13919389 548860227.94333649 0 0 0 0 -180435237.33074641 -99824885.719316006 0 -99824885.719316006 -34967472.280600548 0 0 0 0 -188810544.32480705 -51780477.925740719 0 -51780477.925740719 -39333643.028432369 0 0 0 0 387587246.13127899 252218849.35329056 0 252218849.35329056 -347392216.72422981 0 0 0 0 -256082766.02193451 234553491.08365536 0 234553491.08365536 -88575247.685935974 0 0 0 0 71693736.990814209 81369869.289423943 0 81369869.289423943 -29226388.173191547 0 0 0 0 102534905.6764679 115961871.82309246 0 115961871.82309246 -66779893.11042881 0 0 0 0 148185592.18515778 22064051.901741028 0 22064051.901741028 -10684365.161708832 0 0 0 0 145627430.68732452 72902837.474628448 0 72902837.474628448 -73949438.846473694 0 0 0 0 -103889197.57514191 39222130.17509985 0 39222130.17509985 -56182997.908517838 0 0 0 0 4201821.4740909003 -3838092.6745127589 0 -3838092.6745127589 822075.64625106752 0 0 0 0 -66752869.935192108 4460858.4007828236 0 4460858.4007828236 177426726.93257713 0 0 0 0 36242522.926460266 -34689343.856657028 0 -34689343.856657028 138828348.42330694 0 0 0 0 -56261431.039878845 50334975.253248215 0 50334975.253248215 64992714.750029564 0 0 0 0 119299069.48288727 68753634.856510639 0 68753634.856510639 52760962.89748764 0 0 0 0 42696448.590866089 108935291.87551498 0 108935291.87551498 99682764.959264755 0 0 0 0 -374598231.70903015 185510670.6886425 0 185510670.6886425 27443118.166900158 0 0 0 0 137567.42314975616 14858.560417651199 0 14858.560417651199 -175555.15552055137 0 0 0 0 184146469.43981171 97275469.455502987 0 97275469.455502987 -97444588.73465538 0 0 0 0 55517227.853647232 -115784690.82811689 0 -115784690.82811689 249047925.44122219 0 0 0 0 247317571.15922165 10042414.608919621 0 10042414.608919621 -46541014.694860458 0 0 0 0 8713239.8276977539 11497895.209009171 0 11497895.209009171 -8599147.5652028322 0 0 0 0 8910895.3168740273 26815787.100291342 0 26815787.100291342 -32580789.438785553 0 0 0 0 13318038.949237209 -2987064.0850300305 0 -2987064.0850300305 855143.96111812524 0 0 0 0 201261.46660353127 -1901449.9187547776 0 -1901449.9187547776 72721.31001869285 0 0 0 0 -26820748.874732971 -31796785.088912964 0 -31796785.088912964 656048.18433022499 0 0 0 0 26762010.546546936 -35526860.492298543 0 -35526860.492298543 -154999514.00563812 0 0 0 0 13783910.858958565 -2612732.9652568912 0 -2612732.9652568912 -425751.97047107783 0 0 0 0 107205401.60531616 139294819.80059195 0 139294819.80059195 -184901444.71643162 0 0 0 0 -7993677.3024787903 97388823.467404366 0 97388823.467404366 137948296.03140545 0 0 0 0 2756675.0821887515 -634625.96125691943 0 -634625.96125691943 -1195741.463766434 0 0 0 0 -34376532.993972778 355102052.15410042 0 355102052.15410042 -100241081.19399261 0 0 0 0 -17504757.549598694 185893569.68392038 0 185893569.68392038 319798286.95233154 0 0 0 0 -18493134.277427673 34792648.588078499 0 34792648.588078499 -26695304.040491104 0 0 0 0 120409447.41603088 -89217612.666383266 0 -89217612.666383266 -53278978.421854019 0 0 0 0 246949778.88434601 105334209.69551659 0 105334209.69551659 -18587415.056476593 0 0 0 0 -10594805.268203735 15347355.976541519 0 15347355.976541519 -49012768.462539673 0 0 0 0 44351755.81161499 165295721.88050652 0 165295721.88050652 119910056.21939754 0 0 0 0 76500123.892242432 90704871.282502174 0 90704871.282502174 -26915797.985697746 0 0 0 0 -52908649.998550415 90161426.508347511 0 90161426.508347511 62376324.484014511 0 0 0 0 -48823081.228862286 145175072.09913543 0 145175072.09913543 405883473.98369598 0 0 0 0 118995.6094914116 684875.76370791253 0 684875.76370791253 298786.03042663482 0 0 0 0 101917600.04057121 -1682280.6542758942 0 -1682280.6542758942 -19674478.474462509 0 0 0 0 203087529.01374817 -47743644.794478416 0 -47743644.794478416 -11370613.177695751 0 0 0 0 840487.28005165234 -9783.5112945036963 0 -9783.5112945036963 -403147.39564728457 0 0 0 0 148976798.49607468 -143581765.56172347 0 -143581765.56172347 65607800.094085693 0 0 0 0 -89385.681926727295 611050.13795757294 0 611050.13795757294 -782190.56113624573 0 0 0 0 702193.05219894275 644076.48430166533 0 644076.48430166533 99522.334542094497 0 0 0 0 30507886.159858704 -22044372.155508518 0 -22044372.155508518 -58047410.160747528 0 0 0 0 -80049.593048095703 549828.56733322144 0 549828.56733322144 -1468462.3423671722 0 0 0 0 827017.96439094283 281248.30913872598 0 281248.30913872598 -308202.38422594778 0 0 0 0 -57050.776489257812 493033.17915344238 0 493033.17915344238 -769996.57247269154 0 0 0 0 -98773179.307678223 77631398.118793488 0 77631398.118793488 -127084283.65853691 0 0 0 0 1153590.6041902835 386486.84257722553 0 386486.84257722553 -537435.10495744227 0 0 0 0 16615406.819961548 129188046.48532581 0 129188046.48532581 -181784909.17157602 0 0 0 0 -983984.72863769531 -162940.90846633911 0 -162940.90846633911 -5090451.3060450554 0 0 0 0 398213.21244452894 559025.29787131154 0 559025.29787131154 33877.775525287492 0 0 0 0 -45386229.339454651 110462796.97766685 0 110462796.97766685 -90325296.651021957 0 0 0 0 9397912.1415252686 147978346.42863798 0 147978346.42863798 -81711736.287452698 0 0 0 0 -49793422.208251953 75935980.034757614 0 75935980.034757614 -27657636.690340996 0 0 0 0 98784762.08140564 30471079.048100948 0 30471079.048100948 -74360981.121431351 0 0 0 0 83211976.363075256 115801958.50067258 0 115801958.50067258 59233521.589366913 0 0 0 0 81286052.557165146 102507480.21502042 0 102507480.21502042 -29236428.520565033 0 0 0 0 489177.25395738753 108771.98565711733 0 108771.98565711733 -758620.93850318622 0 0 0 0 -68814515.645362854 -54305684.974019051 0 -54305684.974019051 -19491418.338830948 0 0 0 0 -56400973.946960509 64992735.993524775 0 64992735.993524775 -57197753.8875103 0 0 0 0 -79329771.594573975 162578051.97408295 0 162578051.97408295 -88145832.348703861 0 0 0 0 -199824571.24150085 149640654.08006072 0 149640654.08006072 -56833557.135026932 0 0 0 0 29101218.966939211 35412630.749648064 0 35412630.749648064 -36350099.94438982 0 0 0 0 44636653.167100906 31380418.884745121 0 31380418.884745121 -51377149.473482132 0 0 0 0 124842546.24024296 55258074.355301663 0 55258074.355301663 -65583613.792020679 0 0 0 0 62130334.709544659 -970193.9354211688 0 -970193.9354211688 -59434681.465109348 0 0 0 0 -567646.71272087097 -17163965.950028896 0 -17163965.950028896 -41420966.170738935 0 0 0 0 14583036.070669174 -42471169.960068703 0 -42471169.960068703 -61114211.658648252 0 0 0 0 117752611.31621361 -387715750.47947836 0 -387715750.47947836 -108523204.72727203 0 0 0 0 12541294.24115351 -2316668.0716609815 0 -2316668.0716609815 -265463.77693048096 0 0 0 0 31667928.473414421 -33974361.404935122 0 -33974361.404935122 -59534563.918395042 0 0 0 0 30852774.975351334 -28312787.550744161 0 -28312787.550744161 -82908029.750075594 0 0 0 0 -25029454.169558525 -80131005.547776937 0 -80131005.547776937 -91926431.098595679 0 0 0 0 -222907298.68200684 45045787.861496925 0 45045787.861496925 5258777.2019844055 0 0 0 0 615502219.34934998 179755878.95923996 0 179755878.95923996 21248902.391255617 0 0 0 0 232716000.42172241 -399608030.71095896 0 -399608030.71095896 -133803323.36709595 0 0 0 0 596209440.08612061 380910250.57938528 0 380910250.57938528 308945834.11166 0 0 0 0 246803.69056463987 221433.83626713534 0 221433.83626713534 47852.188706220128 0 0 0 0 193414641.9135437 -264849806.8110981 0 -264849806.8110981 135980940.19848251 0 0 0 0 6591319.4107589722 59044558.309799671 0 59044558.309799671 204572600.00731945 0 0 0 0 377391428.47576141 -47887448.683334351 0 -47887448.683334351 -31708498.06893158 0 0 0 0 141764136.75195312 -25232815.83942318 0 -25232815.83942318 -29221997.270419598 0 0 0 0 170116.51005094592 356209.62319527008 0 356209.62319527008 116855.92095997417 0 0 0 0 -73198444.612052917 -80704658.292891264 0 -80704658.292891264 71357231.641417503 0 0 0 0 35238906.613464355 -319392533.30325699 0 -319392533.30325699 -139393344.21334648 0 0 0 0 24731670.842105865 209357516.22004366 0 209357516.22004366 -57192930.910479367 0 0 0 0 11239028.429812083 -1525572.8577625118 0 -1525572.8577625118 -249694.21950369538 0 0 0 0 18539970.420957565 -5107504.165299654 0 -5107504.165299654 -35020547.52637291 0 0 0 0 -15293529.019367218 -52404674.141049385 0 -52404674.141049385 -18383472.456966877 0 0 0 0 16878454.617528915 15810396.762785435 0 15810396.762785435 3280175.9761047363 0 0 0 0 10054438.893920898 2462969.8282217979 0 2462969.8282217979 -11194708.263413429 0 0 0 0 11536147.040115356 8592068.6913223267 0 8592068.6913223267 7001970.1849265099 0 0 0 0 8458038.9027938843 13489317.939317226 0 13489317.939317226 9623802.8422317505 0 0 0 0 2763339.9522247314 3552128.8805656433 0 3552128.8805656433 9880324.1139044762 0 0 0 0 1073723.2207794189 5923445.7189254761 0 5923445.7189254761 6934716.4505977631 0 0 0 0 -21155481.376937866 -14820705.599891663 0 -14820705.599891663 11608710.319206238 0 0 0 0 -16338149.289660931 9336340.5521196127 0 9336340.5521196127 36421522.485589981 0 0 0 0 10676640.300340652 24442768.114586115 0 24442768.114586115 19087089.35384655 0 0 0 0 491026.70435594674 1188669.087060295 0 1188669.087060295 381945.35881862696 0 0 0 0 31441174.973800659 19073133.69930315 0 19073133.69930315 6853283.0456306934 0 0 0 0 -70361460.623977661 -26050258.445467472 0 -26050258.445467472 23984906.22204113 0 0 0 0 8793127.1725616455 13208360.569637299 0 13208360.569637299 5613077.7952728271 0 0 0 0 -23429528.235290527 -4523028.3916168213 0 -4523028.3916168213 -36145648.851581573 0 0 0 0 -21515857.558349609 7251139.7414703369 0 7251139.7414703369 -32207801.861364365 0 0 0 0 -17373413.084350586 14346908.396511078 0 14346908.396511078 -20452109.834967613 0 0 0 0 -30210902.310424805 -6227705.4858703613 0 -6227705.4858703613 -11261100.073959351 0 0 0 0 -28851212.76348877 -15087236.819202423 0 -15087236.819202423 -27239617.615936279 0 0 0 0 -33417494.488845825 -13849401.206766129 0 -13849401.206766129 -19361861.441316605 0 0 0 0 577894.48468089104 13769579.433359861 0 13769579.433359861 3837743.508934021 0 0 0 0 -36930331.571182251 3191961.6402225494 0 3191961.6402225494 6538276.503660202 0 0 0 0 552651.30828857422 12800177.686321259 0 12800177.686321259 -14252595.341146469 0 0 0 0 -18662107.574264526 13614420.800699234 0 13614420.800699234 -3734086.9023170471 0 0 0 0 34014962.140449524 20630469.928318501 0 20630469.928318501 22235598.413200378 0 0 0 0 30980744.339202881 11518172.47177887 0 11518172.47177887 -4037022.4905204773 0 0 0 0 33756932.064098358 -9891723.3215816021 0 -9891723.3215816021 21737638.371126175 0 0 0 0 -13250377.842025757 17386163.273338318 0 17386163.273338318 9231806.8626251221 0 0 0 0 27890912.386444092 3514384.1213626862 0 3514384.1213626862 9110176.6503105536 0 0 0 0 82070374.455673218 62903742.692532539 0 62903742.692532539 -45707584.516971111 0 0 0 0 -86276729.713768959 47408746.297176123 0 47408746.297176123 36030232.503120422 0 0 0 0 109047191.40635681 61064996.478409767 0 61064996.478409767 7342541.9300231934 0 0 0 0 109421239.32191467 18169751.90500164 0 18169751.90500164 -27438984.772650719 0 0 0 0 147413770.20492554 -14149410.490174294 0 -14149410.490174294 -9007697.094997406 0 0 0 0 118341232.71095276 -30246210.94848609 0 -30246210.94848609 33919074.063976288 0 0 0 0 166790.52249434963 114382.01566230599 0 114382.01566230599 -161917.11160118459 0 0 0 0 221436020.03445053 -107724800.8853448 0 -107724800.8853448 3368257.7914428711 0 0 0 0 235197589.00285339 -3852819.3930110931 0 -3852819.3930110931 -45326837.51656723 0 0 0 0 132778567.06091309 -33823860.534777641 0 -33823860.534777641 1413749.4705657959 0 0 0 0 220154355.40760803 -91966712.7923069 0 -91966712.7923069 37903792.79199028 0 0 0 0 7839403.9465484619 -5720461.0912022591 0 -5720461.0912022591 -1138291.7219963074 0 0 0 0 171217.7929914156 202914.3983322978 0 202914.3983322978 -100173.85260851961 0 0 0 0 19185292.703781128 -14080464.590370178 0 -14080464.590370178 -864092.26924395561 0 0 0 0 14303681.134773254 -3654213.5744800568 0 -3654213.5744800568 -2408378.3490657806 0 0 0 0 10136970.243619919 -63552.765639781952 0 -63552.765639781952 -4879103.8108634949 0 0 0 0 4128581.6591415405 3263686.0827817917 0 3263686.0827817917 -2607013.4368200302 0 0 0 0 6341061.6077079773 3884023.0200943947 0 3884023.0200943947 -7109593.9414825439 0 0 0 0 -5877567.3589248657 8231371.9130702019 0 8231371.9130702019 -3765745.3778858185 0 0 0 0 -3153954.4099197388 18005614.012937069 0 18005614.012937069 -1820757.6146030426 0 0 0 0 8630304.9502868652 7206689.0042891502 0 7206689.0042891502 -9673315.8504428864 0 0 0 0 9187880.9648742676 9479108.0116434097 0 9479108.0116434097 -4304585.0222744942 0 0 0 0 11597082.872879028 27862652.941103935 0 27862652.941103935 -641427.06932353973 0 0 0 0 43110033.761375427 5317974.0523672104 0 5317974.0523672104 -10018830.127649307 0 0 0 0 3332501.4602050781 16092136.934752941 0 16092136.934752941 -7766076.8687744141 0 0 0 0 -16853437.602386475 13859282.025470734 0 13859282.025470734 -2069250.8977934122 0 0 0 0 32115.562973022461 623230.62578010559 0 623230.62578010559 509878.70134353638 0 0 0 0 -187428.58761939965 1442373.5578507977 0 1442373.5578507977 1619609.8078273241 0 0 0 0 -27381097.415729523 10193255.711844206 0 10193255.711844206 141575.50218200684 0 0 0 0 -19976430.798248291 19959193.370882988 0 19959193.370882988 -10271067.892082214 0 0 0 0 909348.07028278895 598859.78802158497 0 598859.78802158497 -573259.73769645183 0 0 0 0 7004503.421081543 9851140.6626262665 0 9851140.6626262665 8980036.6760940552 0 0 0 0 1525388.7387900054 2184888.9877809538 0 2184888.9877809538 984705.57535706833 0 0 0 0 -17793269.622360229 8176780.0652685165 0 8176780.0652685165 -1281213.1659832001 0 0 0 0 -2789589.1413192749 -13174060.124046087 0 -13174060.124046087 -49217219.001466751 0 0 0 0 2141735.9969406128 382137.31696176529 0 382137.31696176529 -43997966.971980095 0 0 0 0 -4957720.2801322937 10926785.506212711 0 10926785.506212711 -759805.27063274384 0 0 0 0 1906942.3122900128 2793133.6607823456 0 2793133.6607823456 2244894.202691257 0 0 0 0 -6267470.999382019 4602804.941262722 0 4602804.941262722 12828730.18860817 0 0 0 0 -19414.250935500488 872718.13343258202 0 872718.13343258202 538432.85560275323 0 0 0 0 1649618.8450144455 1327934.2167334603 0 1327934.2167334603 -2149703.1229448253 0 0 0 0 14272278.073776245 30982425.455388069 0 30982425.455388069 -6297034.5497133136 0 0 0 0 1673639.0159849711 1111900.7224948248 0 1111900.7224948248 -1860178.3134099136 0 0 0 0 4190174.7875823975 5860125.7908697128 0 5860125.7908697128 1323677.2692108154 0 0 0 0 8904919.4398803711 9102161.457406044 0 9102161.457406044 2364638.1719622612 0 0 0 0 2567246.4466247559 3877908.2555098534 0 3877908.2555098534 10012799.655292511 0 0 0 0 13841830.592559814 2180772.6935749054 0 2180772.6935749054 -4283224.3800935745 0 0 0 0 6862065.4479675293 6681868.0799255371 0 6681868.0799255371 787103.61934280396 0 0 0 0 4512193.6778635979 289267.13198325038 0 289267.13198325038 -1172968.1891784668 0 0 0 0 7048467.1727380753 9254773.2805720568 0 9254773.2805720568 14985108.056804657 0 0 0 0 325751.49880991876 -11751.81170895556 0 -11751.81170895556 -353755.26762691326 0 0 0 0 -1592642.1247177124 1437847.9780912399 0 1437847.9780912399 -1715455.6716384888 0 0 0 0 1536088.1715933597 703830.97082619276 0 703830.97082619276 -595226.56591164786 0 0 0 0 -1651142.481010437 1238484.0155820847 0 1238484.0155820847 -1499749.6039824486 0 0 0 0 -4176872.6628952026 1718913.3037204742 0 1718913.3037204742 28491.73582649231 0 0 0 0 -7170967.5900344849 -32070067.304055691 0 -32070067.304055691 21798929.811000824 0 0 0 0 94750108.630882263 204348.85953235626 0 204348.85953235626 -8820870.5401582718 0 0 0 0 -60902711.31582737 -5931404.32412076 0 -5931404.32412076 1155481.0051832199 0 0 0 0 -20437118.241809845 -11867688.416064739 0 -11867688.416064739 -8950082.0641622543 0 0 0 0 -131705.05952507071 226749.23560871882 0 226749.23560871882 17376.967355878558 0 0 0 0 -2950201.1267967224 -265733.59517908096 0 -265733.59517908096 1372894.5997543335 0 0 0 0 2769411.8617095947 8357973.7404193878 0 8357973.7404193878 -5395181.1395463943 0 0 0 0 -1642862.0430755615 2105033.010266304 0 2105033.010266304 11682730.237181365 0 0 0 0 5981641.9361629486 17213780.566346049 0 17213780.566346049 13145842.249816895 0 0 0 0 255902306.79666138 39525437.0438447 0 39525437.0438447 -65531640.673043728 0 0 0 0 189689770.20072937 -67456430.127673149 0 -67456430.127673149 7107751.2188644409 0 0 0 0 121636.58733698726 108943.93321985006 0 108943.93321985006 -69684.62027794146 0 0 0 0 83890572.270561218 35715409.701568127 0 35715409.701568127 5239075.651389122 0 0 0 0 208555796.09948349 -108196901.48999274 0 -108196901.48999274 22149923.677377701 0 0 0 0 289334.37211608887 963528.93579673767 0 963528.93579673767 -1472433.9644126892 0 0 0 0 96201983.994522095 -51732817.834365845 0 -51732817.834365845 21405903.155839935 0 0 0 0 192479.50314764492 329347.18507993035 0 329347.18507993035 -70593.419676905731 0 0 0 0 117855266.10847282 -23996478.429108858 0 -23996478.429108858 -31977326.046483994 0 0 0 0 48146843.638587952 6777739.372594595 0 6777739.372594595 -14667177.446218491 0 0 0 0 91942644.013679504 -49641538.009112358 0 -49641538.009112358 6699081.000395298 0 0 0 0 123718497.27237701 -41079577.125967979 0 -41079577.125967979 -2411679.8672218323 0 0 0 0 159775597.79838181 -42876087.689593792 0 -42876087.689593792 3504872.5851206779 0 0 0 0 290663.54629405681 189170.6349545382 0 189170.6349545382 -304834.061064068 0 0 0 0 181136478.32695007 -59809693.395933151 0 -59809693.395933151 -22638152.672786713 0 0 0 0 162863411.87426758 -34259394.590576172 0 -34259394.590576172 16357158.00979805 0 0 0 0 468483.07120670611 532229.40996474493 0 532229.40996474493 -257851.16147455992 0 0 0 0 140710658.63252258 2270674.5627784729 0 2270674.5627784729 17319188.921909332 0 0 0 0 34889623.243423462 -32296460.987967014 0 -32296460.987967014 -11371518.129635811 0 0 0 0 137750766.08230591 -8860418.123342514 0 -8860418.123342514 -24492057.808401108 0 0 0 0 98008976.811882019 -50712853.846728802 0 -50712853.846728802 8858793.8313961029 0 0 0 0 -13419.784612301737 534383.60736723803 0 534383.60736723803 115968.51363751804 0 0 0 0 -12787477.650590897 62025064.105901599 0 62025064.105901599 -31575918.512763977 0 0 0 0 48096513.997016907 -2675452.8903485537 0 -2675452.8903485537 -37036958.874040604 0 0 0 0 -2507053.2127151489 1384245.1240897179 0 1384245.1240897179 -607946.10323190689 0 0 0 0 11626959.520475388 40740882.66912508 0 40740882.66912508 33478322.118971825 0 0 0 0 1541466.3039398459 806654.82256390154 0 806654.82256390154 -498053.20395712322 0 0 0 0 303575327.26655579 -58103526.723361492 0 -58103526.723361492 -21030553.217126846 0 0 0 0 377239947.48307228 56769704.510782123 0 56769704.510782123 -75477036.207283974 0 0 0 0 331045603.53099823 75187342.256221294 0 75187342.256221294 -70473135.817643642 0 0 0 0 342204221.19763565 43125077.027902365 0 43125077.027902365 -77096651.076031685 0 0 0 0 113921964.51693726 -37333586.681205273 0 -37333586.681205273 -9577681.4261822701 0 0 0 0 325031093.78580475 45399259.225846529 0 45399259.225846529 -41345038.258191109 0 0 0 0 -13727.072939867154 82963.883769731037 0 82963.883769731037 7342.4171645808965 0 0 0 0 328780850.65994263 21375912.130815506 0 21375912.130815506 -36657829.92419219 0 0 0 0 41463248.887838364 70177869.110696435 0 70177869.110696435 43661988.289224625 0 0 0 0 148690092.60058784 107910757.75271749 0 107910757.75271749 21539397.073430061 0 0 0 0 328141767.86272049 24046079.335958958 0 24046079.335958958 -27048839.541631699 0 0 0 0 505546937.17020416 2635920.7890334129 0 2635920.7890334129 -25031844.830416679 0 0 0 0 386945926.59483337 -103924413.83024478 0 -103924413.83024478 18662839.715121269 0 0 0 0 162120836.59191895 95293328.853607178 0 95293328.853607178 80715081.99134922 0 0 0 0 260268736.50268555 41700991.379181862 0 41700991.379181862 -20589089.219185829 0 0 0 0 382243682.15781021 164320167.09706235 0 164320167.09706235 -11528826.054019928 0 0 0 0 211009.87306302413 164697.05855582631 0 164697.05855582631 -4034.8473033796763 0 0 0 0 -51268593.550546646 -42185574.207135439 0 -42185574.207135439 47290355.966573715 0 0 0 0 130068214.12565613 31859708.006387234 0 31859708.006387234 27406051.908995867 0 0 0 0 292477848.2399559 -28021640.601057768 0 -28021640.601057768 -9574952.1366035938 0 0 0 0 288488211.28190613 -41451310.431293964 0 -41451310.431293964 36305706.744571686 0 0 0 0 354597102.48249626 -18631760.68465519 0 -18631760.68465519 20341315.190935135 0 0 0 0 151777596.24655151 81147566.299135447 0 81147566.299135447 34821764.476585388 0 0 0 0 109353.32804396562 37084.650301245973 0 37084.650301245973 108117.94267859263 0 0 0 0 68494464.209102631 -39687412.51107645 0 -39687412.51107645 139791535.2258749 0 0 0 0 288541619.42158699 101808120.10821128 0 101808120.10821128 -73556419.561816692 0 0 0 0 314723109.23963928 55819765.612686634 0 55819765.612686634 7189080.0103251934 0 0 0 0 322261942.61563969 56973315.086086988 0 56973315.086086988 -84630023.853093624 0 0 0 0 270735.6402022019 56266.611300585791 0 56266.611300585791 268182.13355186488 0 0 0 0 43419428.791110992 -72794260.48170805 0 -72794260.48170805 46205522.895808697 0 0 0 0 -57833361.262611389 -68537378.836808681 0 -68537378.836808681 -18279100.653299332 0 0 0 0 67688508.131229401 -26814489.505019665 0 -26814489.505019665 -3938782.2036561966 0 0 0 0 -15499593.55304718 -15709473.293400288 0 -15709473.293400288 45141400.856699929 0 0 0 0 -15055098.665588379 50863250.963055134 0 50863250.963055134 -25195955.292121887 0 0 0 0 -20835511.217777252 2603745.2718811035 0 2603745.2718811035 31519173.739833832 0 0 0 0 -52427080.317893982 21627527.532335281 0 21627527.532335281 35846762.253279209 0 0 0 0 -39282461.843299866 7934861.3485798836 0 7934861.3485798836 38135270.954174995 0 0 0 0 -174543890.95404053 53045961.398326874 0 53045961.398326874 23113028.115971565 0 0 0 0 -27521071.317434311 116304941.7681911 0 116304941.7681911 -79416514.89573288 0 0 0 0 32120341.882369995 40073656.052290916 0 40073656.052290916 -27815228.176768303 0 0 0 0 100103379.47645569 75968009.86422348 0 75968009.86422348 -108840808.99828911 0 0 0 0 -3894418.6859436035 62194713.03322053 0 62194713.03322053 -39754654.51634407 0 0 0 0 101090697.20294189 -3118906.914056778 0 -3118906.914056778 -47688522.300824642 0 0 0 0 20956886.976119995 22768787.904483795 0 22768787.904483795 -54115831.767805338 0 0 0 0 -6202021.8460083008 52149795.849992752 0 52149795.849992752 11720727.25571537 0 0 0 0 288828.26656519808 -22659.014359190129 0 -22659.014359190129 -352471.17911092122 0 0 0 0 86853433.106658936 1007139632.1070576 0 1007139632.1070576 -386733546.57850266 0 0 0 0 -18581975.345306396 -182128693.4332819 0 -182128693.4332819 403030731.12746429 0 0 0 0 -153376845.60878372 40059503.460514545 0 40059503.460514545 8738401.8851299286 0 0 0 0 394792.04819459841 633725.76781750191 0 633725.76781750191 -146001.12774082471 0 0 0 0 26227322.683448792 -92749712.720575094 0 -92749712.720575094 -146669687.76780987 0 0 0 0 -132369646.28460693 -5481633.8601913452 0 -5481633.8601913452 4690955.8590064049 0 0 0 0 -850278.5852676779 2387106.6034732624 0 2387106.6034732624 2434941.8864248353 0 0 0 0 -93347831.361564636 -4603654.5900154114 0 -4603654.5900154114 693037.31687164307 0 0 0 0 -83678926.738578796 46054486.403452873 0 46054486.403452873 5462241.56366539 0 0 0 0 -3061794.1508255005 6978873.9123668671 0 6978873.9123668671 -2709109.8762588501 0 0 0 0 -3365163.7168369293 5726272.7348247766 0 5726272.7348247766 -2839688.3059158325 0 0 0 0 -2089170.0583941936 6195376.9210116863 0 6195376.9210116863 -3993690.2934112549 0 0 0 0 -3973622.9003448486 63166716.338944912 0 63166716.338944912 16413712.594090939 0 0 0 0 -19084955.331558228 -15957197.647146225 0 -15957197.647146225 62846146.884554863 0 0 0 0 -25958108.746955872 25702755.990080357 0 25702755.990080357 -74874771.824542999 0 0 0 0 -116136874.16092682 75557906.308812141 0 75557906.308812141 -4523425.9794788361 0 0 0 0 -110343745.01905823 55291355.549512863 0 55291355.549512863 14931630.186820984 0 0 0 0 -28118573.107940674 32328903.006770134 0 32328903.006770134 -1683459.6396226883 0 0 0 0 -87903290.162010193 70299346.375291109 0 70299346.375291109 -40251166.33864975 0 0 0 0 22636340.739555359 63211558.295565605 0 63211558.295565605 4089039.9471914768 0 0 0 0 76483037.460189819 -13923070.012740374 0 -13923070.012740374 20834721.93282032 0 0 0 0 -10655251.931377411 22059858.025979042 0 22059858.025979042 -45993757.736335754 0 0 0 0 -16935504.946777344 99308257.564338684 0 99308257.564338684 -53746350.083938062 0 0 0 0 154092.33131775446 -13838.340044039302 0 -13838.340044039302 -154475.19404957118 0 0 0 0 -99878175.944583893 123711132.64692298 0 123711132.64692298 -14939225.852722168 0 0 0 0 -308360.55733509362 1901011.8911243789 0 1901011.8911243789 1935274.2855341947 0 0 0 0 -8433540.9300994873 10614903.877929688 0 10614903.877929688 -7557714.8857574463 0 0 0 0 -11598581.897224426 6992481.5456953049 0 6992481.5456953049 -5001063.1758365631 0 0 0 0 -7029981.0038604736 7150982.7406330109 0 7150982.7406330109 -9031720.6030540466 0 0 0 0 -109190645.26799464 -43134689.032775104 0 -43134689.032775104 -43781199.623529434 0 0 0 0 -119728970.34200287 212203351.71381283 0 212203351.71381283 -6157683.8300099969 0 0 0 0 -2846453.6535758972 6516498.3616285324 0 6516498.3616285324 -4111533.7917785645 0 0 0 0 -3239368.2873687744 6620265.7488193512 0 6620265.7488193512 -5823496.085829258 0 0 0 0 -3636648.3264884949 7618278.3487405777 0 7618278.3487405777 -5559472.3269500732 0 0 0 0 -9022927.0246543884 8794927.8177814484 0 8794927.8177814484 -4546584.1005897522 0 0 0 0 -6268032.2237052917 6124242.2353448868 0 6124242.2353448868 -2861873.1536407471 0 0 0 0 -5273156.1875 7263747.2386341095 0 7263747.2386341095 -6531550.9325294495 0 0 0 0 -7120416.2661323547 7639657.843331337 0 7639657.843331337 -5668129.3138961792 0 0 0 0 -4987978.7031669617 7443423.1602387428 0 7443423.1602387428 -5777027.683052063 0 0 0 0 -5040388.1119995117 7155507.6320648193 0 7155507.6320648193 -7005301.5450630188 0 0 0 0 -3590017.535949707 6955559.1847362518 0 6955559.1847362518 -6179985.6908359528 0 0 0 0 -3393022.3470153809 7392905.0706281662 0 7392905.0706281662 -6071864.0241413116 0 0 0 0 -2506721.1282501221 7404577.1889219284 0 7404577.1889219284 -6045234.1086540222 0 0 0 0 -1764496.4902348518 7133469.6729459763 0 7133469.6729459763 -6365673.3688163757 0 0 0 0 -1494202.2645153999 8087987.7191777229 0 8087987.7191777229 -5883502.8049049377 0 0 0 0 -4474119.8545455933 8511172.0760412216 0 8511172.0760412216 -4536168.3525295258 0 0 0 0 -5899371.4011459351 7184262.842420578 0 7184262.842420578 -4454872.8710627556 0 0 0 0 -5397845.9521408081 6987759.1410999298 0 6987759.1410999298 -4534656.1881484985 0 0 0 0 -6024034.8168792725 5736191.4845371246 0 5736191.4845371246 -4434304.7668781281 0 0 0 0 -6347445.2827529907 7090960.0106511116 0 7090960.0106511116 -1484600.3448410034 0 0 0 0 -6658710.1174697876 9431858.5970458984 0 9431858.5970458984 -1237696.1826438904 0 0 0 0 -6452970.8643798828 9032582.723195076 0 9032582.723195076 -2372185.6368713379 0 0 0 0 6377941.7363052703 3923312.5319179958 0 3923312.5319179958 -124762.12283883151 0 0 0 0 -6772020.6970252991 10264449.990929604 0 10264449.990929604 -3898268.9291725159 0 0 0 0 -77993348.014660835 68895919.444878101 0 68895919.444878101 39816026.245100021 0 0 0 0 40296.512018378824 1420943.8502433659 0 1420943.8502433659 1331334.2593622222 0 0 0 0 -11806512.796455383 16970907.975440979 0 16970907.975440979 -7133609.9284248352 0 0 0 0 -254496.80379486084 12885264.085346222 0 12885264.085346222 -9334693.0317630768 0 0 0 0 -6637785.5789642334 9025465.1079378128 0 9025465.1079378128 -4641923.2145004272 0 0 0 0 -4737635.3908996582 4062732.517496109 0 4062732.517496109 96453.089246749878 0 0 0 0 -1842272.4538536072 19004417.661117554 0 19004417.661117554 1434171.3099250793 0 0 0 0 -7402556.6152172089 10147976.334119081 0 10147976.334119081 7554764.9354190826 0 0 0 0 1067017.3829269409 -11085251.114916801 0 -11085251.114916801 24770204.820343018 0 0 0 0 -5902485.7911682129 24991899.383244514 0 24991899.383244514 9287937.1400108337 0 0 0 0 -743841.79721069336 41947635.659282684 0 41947635.659282684 47418365.929599762 0 0 0 0 -9120561.7427215576 64473059.748054504 0 64473059.748054504 13097368.195724487 0 0 0 0 235332.18902566284 808819.60206616111 0 808819.60206616111 436380.65198198659 0 0 0 0 -119544714.93998718 109511778.95566177 0 109511778.95566177 338388355.99837732 0 0 0 0 -5502017.0351486206 -53654265.138220787 0 -53654265.138220787 187421131.18541336 0 0 0 0 -435479747.3261795 225004427.21010876 0 225004427.21010876 20790895.139854431 0 0 0 0 36675716.844406128 263094308.32381725 0 263094308.32381725 -57750817.839013457 0 0 0 0 443637.21064170636 4733.9537267042324 0 4733.9537267042324 -336289.17701256648 0 0 0 0 -84128325.228761435 -144698525.70977366 0 -144698525.70977366 -7221007.50111866 0 0 0 0 1090523607.4361496 -342645971.89784622 0 -342645971.89784622 -225760550.04084682 0 0 0 0 376750123.96191406 -428830614.28635216 0 -428830614.28635216 -161873806.96407318 0 0 0 0 1617701185.9927368 797252192.19490814 0 797252192.19490814 1240475524.9473267 0 0 0 0 364509.4937615674 10205.249661999289 0 10205.249661999289 -247782.36263716524 0 0 0 0 61979120.170673847 -262423066.54491365 0 -262423066.54491365 -94092740.068557739 0 0 0 0 63437176.070960999 -189621644.01550961 0 -189621644.01550961 247510460.13612366 0 0 0 0 -185434298.12425232 -229370396.48600674 0 -229370396.48600674 138176450.91170883 0 0 0 0 -216834590.26036072 -319128967.14643431 0 -319128967.14643431 -118386661.48273468 0 0 0 0 209905529.77313232 138698184.40014076 0 138698184.40014076 -214467686.04480362 0 0 0 0 220631645.93136597 218221567.46835327 0 218221567.46835327 113611519.5001626 0 0 0 0 -139103163.65967941 -1206969961.7323122 0 -1206969961.7323122 -368544873.91120148 0 0 0 0 484946134.85507202 452020602.43891335 0 452020602.43891335 320392935.00732994 0 0 0 0 993067332.78275967 -297358410.13443899 0 -297358410.13443899 -1635404.2016925812 0 0 0 0 1446649.9278519861 -1248676.7871147403 0 -1248676.7871147403 283847.20625716506 0 0 0 0 297022061.56643677 326196859.99182796 0 326196859.99182796 669311502.10495615 0 0 0 0 168119739.93344116 -390531441.46993256 0 -390531441.46993256 428455887.71108222 0 0 0 0 126080754.20756531 -77545606.974213839 0 -77545606.974213839 75267780.302707672 0 0 0 0 538390973.08654785 142111233.33267403 0 142111233.33267403 -45688236.013313293 0 0 0 0 28265339.435199738 23646983.328210115 0 23646983.328210115 332235140.36828613 0 0 0 0 250999775.86106873 231498247.91244125 0 231498247.91244125 243892323.97682762 0 0 0 0 1149052994.1954727 407472324.51382875 0 407472324.51382875 73071228.749967575 0 0 0 0 505680028.85694122 63341609.490282536 0 63341609.490282536 -86497275.22688055 0 0 0 0 482011104.18224335 -51991376.2177701 0 -51991376.2177701 -207549289.7750597 0 0 0 0 731484101.2304306 -3358661.5515413284 0 -3358661.5515413284 -218602664.81465244 0 0 0 0 477872316.12355804 -58705942.387117863 0 -58705942.387117863 -217193389.43830872 0 0 0 0 303163413.28565979 87561671.187492371 0 87561671.187492371 -89913062.539707184 0 0 0 0 289263097.25904846 29387360.949849129 0 29387360.949849129 -94251522.458511353 0 0 0 0 243536557.27700806 23457185.699635506 0 23457185.699635506 -91069369.090124607 0 0 0 0 251017743.02204895 79685523.170313835 0 79685523.170313835 -88414628.427048564 0 0 0 0 270919903.06554413 -136145187.90757084 0 -136145187.90757084 -149210402.95397949 0 0 0 0 470487813.51835632 -26725054.82213068 0 -26725054.82213068 -197363002.33018112 0 0 0 0 433954968.63634491 76617756.985435963 0 76617756.985435963 25164109.180908203 0 0 0 0 310019408.96685457 -16289718.991075337 0 -16289718.991075337 -67542319.849155426 0 0 0 0 304698807.67668915 -54068856.319060326 0 -54068856.319060326 -106945778.85170746 0 0 0 0 100681828.59609222 -32449281.021184921 0 -32449281.021184921 -53618292.754851341 0 0 0 0 -32859050.278781891 33143069.436131775 0 33143069.436131775 1864987.2889671326 0 0 0 0 118835093.25100708 5308663.4353871346 0 5308663.4353871346 -28924932.568541527 0 0 0 0 -6691118.8414611816 29698299.169937611 0 29698299.169937611 -66844627.652412415 0 0 0 0 102494776.81547546 -31061778.084909439 0 -31061778.084909439 -57621664.980630875 0 0 0 0 -49170009.116416931 -163320545.42578316 0 -163320545.42578316 -33581973.146223068 0 0 0 0 314227995.08555222 -152136965.76862812 0 -152136965.76862812 -68471103.421823502 0 0 0 0 406826194.93123627 -38602381.754533768 0 -38602381.754533768 -110358220.17476499 0 0 0 0 
</DataArray>
<DataArray type="Float64" Name="cross_section_updated" format="ascii">
1 1 1 1 1 0.10103941931130575 1 1 1 1 1 1 1 0.1000432305174585 1 1 1 1 0.099937897095176878 1 1 0.10192669171378654 1 1 1 1 0.10067384985336059 1 1 1 1 0.10248565279026284 1 1 1 1 1 1 1 1 1 1 1 1 1 0.099966797454839898 1 1 0.099948092440868386 1 1 1 1 1 0.10042100724126825 1 1 1 1 1 1 1 0.1014329088007926 1 1 1 1 0.10151613897297446 1 1 1 1 1 1 1 1 1 0.10135557205515482 1 1 0.100905241746406 1 1 0.1058939872717813 1 1 1 1 0.10021565795976289 1 1 1 1 1 1 1 0.10599237846760717 0.09998215059203068 0.096748526684986777 1 1 0.097672254029810862 1 1 1 1 1 0.10219873640661009 1 1 1 1 1 1 1 1 1 1 1 1 1 0.099709349105228579 1 1 1 0.099036060176658655 1 1 1 1 1 1 0.099790066711245226 1 1 1 1 1 1 1 1 1 1 1 1 1 1 1 1 1 1 1 1 1 1 1 1 1 0.099996086946454413 1 1 1 0.10014700699863968 1 1 0.099625668026748007 1 1 1 1 1 1 1 1 1 1 1 0.10014088367751058 1 1 1 1 1 1 1 1 0.10061927462220135 1 1 1 1 1 1 1 1 0.1012928356620279 1 1 1 1 1 1 1 1 1 0.1000459099191314 1 1 1 1 1 1 1 1 1 1 1 1 1 1 1 1 1 1 1 1 1 1 1 0.10000347874679053 1 1 1 0.10220564100573235 1 0.10001690919522674 1 0.10055036950482335 1 1 0.1054559559419169 1 1 1 0.10034426488249602 1 0.10062293866094189 1 0.10083525087945595 1 0.10092584783804626 0.10460645848245559 1 0.10092710838664865 1 1 0.1025831179124915 1 0.10085014988162352 1 1 1 0.10072275420667431 1 0.1003365902249905 0.1007240433566433 1 1 0.10075260405872551 1 1 1 0.10019994486171527 1 0.1014915994714931 0.10168159152240461 0.099847248738658204 1 0.10047628559799134 1 1 1 0.099983757914500745 1 0.10173954877245701 0.10191742328937391 0.099992801752829319 1 1 0.10478857645797673 0.10510992059093552 1 1 1 1 0.10556521368085495 1 0.099970508956439469 1 1 0.10047766415810676 1 1 1 0.099984050253664455 1 0.10001980113898226 0.10025240805899709 0.09978077909403997 1 1 1 0.10028056768633756 1 0.10038076755431419 0.1014244046531802 0.10037508853806693 0.10105548130226963 1 1 1 0.10022664123892007 0.099999813631128504 1 1 0.099848038915109238 0.10117081494173019 0.10014062853853709 1 0.10003999364410916 1 1 1 1 0.099998986833723699 1 1 1 1 1 1 1 0.10082780553626618 1 1 1 1 1 1 0.10025254850958468 0.09999971621976303 1 1 1 0.10086049604147981 1 1 1 0.10000319050944186 1 0.10002328695082709 1 0.09609295778850685 0.10601932470083127 1 1 1 1 0.099927534409769717 1 1 0.104591650993202 1 1 1 1 0.10001434841722429 1 0.099979473678248859 1 1 1 1 1 0.098813952633485219 0.10596715184328385 1 1 1 1 1 1 1 1 0.099910089856153558 1 1 1 0.099527530985624835 1 1 0.10547965567949028 1 0.099998384500478946 1 1 1 1 1 1 1 1 1 1 1 0.10540660026489668 1 0.10000977533083848 1 0.10507393812574008 1 1 1 0.099337977609746886 1 0.10000135358440873 1 0.10026718847522625 1 1 1 1 1 1 0.10128488865031098 1 0.10168260340167851 1 1 1 0.10104443355849393 1 1 1 0.10145428368847106 1 0.10056629890205109 0.099162786277857268 1 1 1 1 0.1055115821782989 1 1 1 1 0.10336288508815475 0.09907033802976542 1 1 0.099423739488888524 1 0.10048530190321338 1 0.10381842864075072 0.10337117690005376 1 1 1 0.10001632107440236 1 1 1 1 0.10169496721403758 1 1 1 1 1 1 1 1 1 1 1 0.099998500078749677 1 1 1 1 0.1028705372412259 1 1 1 0.10144307468720462 1 0.099876384280807196 0.09970404043858283 0.099999951170476359 1 1 1 0.10075905821708911 0.10564070714563069 1 0.10646716886950931 1 1 0.099704105318092623 1 1 1 1 0.10710754286955912 1 1 1 1 1 1 1 1 1 1 1 0.10718941817855615 0.099424202179495297 1 1 0.1026784314878835 1 1 1 0.099998194859220818 1 1 1 1 1 1 0.10393864236804004 1 1 1 0.094479423737341264 1 1 1 0.10463960701388622 1 1 1 1 1 1 1 1 1 1 1 0.10256941802971056 1 1 1 0.10115663232336108 1 1 1 1 1 1 1 0.099971212550867675 1 1 1 1 1 0.099771384199736732 1 1 1 1 1 1 1 1 1 1 1 1 1 1 1 1 1 1 1 0.10953973450344909 1 1 1 1 0.10717101037026328 1 1 0.10287957878573299 1 1 1 1 1 1 1 0.099824131387463252 1 1 1 1 1 1 1 1 0.099753910869852511 1 0.099177049499685227 1 1 0.10734214845099731 1 1 1 0.1065328212916463 1 1 0.11130884458297011 1 1 1 0.10044516779577015 1 0.10221632473528583 1 1 0.09999590163455048 1 0.11086781185278517 1 1 1 1 1 1 1 1 1 1 1 1 1 1 1 1 1 1 1 1 1 1 0.1004277730611943 1 0.099889818251574808 1 0.099987230019747006 1 1 1 1 1 1 1 1 1 1 1 1 1 1 1 0.10019049101585371 1 1 1 1 1 1 1 1 1 0.10023728204534058 1 1 1 1 1 1 1 1 1 1 1 1 1 1 1 1 1 1 1 1 1 1 1 1 1 1 1 1 1 0.10093052062251183 1 1 0.10086660992099349 1 1 1 0.10426546161501371 0.099878843447689172 1 0.10178020737543331 1 1 1 1 1 0.10446316922317533 1 1 1 1 1 0.10382882647200048 1 1 1 1 1 1 1 1 1 1 1 1 1 1 1 1 1 1 1 1 1 1 1 1 1 1 1 1 1 1 1 1 1 1 1 1 1 1 1 1 1 1 1 1 1 1 1 1 1 0.10095973158491989 1 1 1 1 1 1 1 1 1 1 1 1 1 1 1 0.10252908637263955 1 1 1 1 0.10128681446832938 1 1 1 1 1 1 1 1 1 1 1 1 1 1 1 1 1 1 1 1 1 1 1 1 1 1 1 0.10258782964233967 1 1 0.10006220971302429 1 0.10322463312698335 0.099898386433859065 0.097874165452924988 0.099440412280831503 1 1 0.099955642408235346 1 1 1 1 1 1 1 1 1 1 1 1 1 1 1 1 1 0.103324985928608 1 1 0.10539826665307331 1 0.10195142740424031 1 1 1 1 0.10638142092565162 1 0.098771354151210147 1 1 1 1 0.10000733267835335 1 1 1 0.10068134958956521 1 1 1 1 1 0.10117652628222631 1 0.10225690682568585 1 1 0.09992950726588265 0.10234131470597535 1 0.10131504187449049 1 1 1 1 1 1 1 1 1 1 1 0.10852858165841467 1 1 1 0.10749831924214505 1 1 1 0.10241529212330026 1 1 0.10571573008980653 0.099734701621417857 0.099913524814184251 1 1 1 1 1 1 1 1 1 1 1 0.09999558562884428 1 1 1 1 1 1 1 1 0.10489866353824712 0.10810338512477499 0.10406624863100745 1 1 1 1 1 1 1 1 0.1073732859073144 0.10003598621957142 1 1 1 0.097032716673030331 1 1 0.10018235488105057 1 1 1 1 1 1 1 1 1 1 1 0.10007894410295497 1 1 1 1 1 1 1 1 0.099857309171333022 1 1 1 1 1 1 1 1 1 1 0.099986190840275657 1 0.1026880092972248 0.10646550339152337 0.099336376528694467 1 1 1 1 1 1 1 0.10453274122945998 0.11128333810390935 1 0.099422215392587956 1 1 1 1 1 0.10149074423579428 1 0.09984340573083933 0.10209938950297019 1 1 1 0.10413548483017374 1 0.1057741915025676 1 1 1 1 0.100000884268552 1 1 1 1 1 1 1 1 1 1 1 1 1 1 1 1 1 0.10262959450597794 1 1 1 0.10528725055692405 1 1 1 1 1 0.10111761314784945 1 1 1 1 1 1 0.10381281547335669 1 0.10147217401235177 1 1 1 1 1 1 1 1 0.099345774003242168 1 1 1 0.10209625871932713 1 1 1 1 1 1 1 1 1 1 1 1 1 1 1 1 1 1 1 1 1 1 1 1 1 0.098484920207069088 0.10027958228653301 0.10836920705847733 1 1 1 1 0.096839991850171142 1 1 1 1 0.095007779579282109 1 1 1 1 1 1 1 0.10129765102909495 1 1 1 1 1 1 1 1 0.10229188336654998 1 1 1 1 1 1 1 1 1 1 1 1 0.1018243260973474 1 1 1 1 1 1 0.1000644341297398 1 1 1 1 1 1 1 1 0.098377369611638371 1 1 1 0.10543897640691702 1 1 1 1 1 1 1 1 1 1 1 1 0.10099423233745505 1 1 1 1 1 1 1 1 1 1 1 1 1 1 1 1 1 1 1 1 1 1 1 1 1 1 1 1 1 1 1 1 1 1 1 1 1 1 1 1 1 1 1 1 1 1 1 0.1000597215194745 1 1 1 1 1 1 1 1 1 1 1 1 1 1 1 1 1 1 1 1 1 1 1 1 0.10105741199786505 1 1 1 1 1 1 1 1 1 1 0.10135954296162068 1 1 0.10222093588390441 1 1 1 1 1 1 1 1 1 0.10299539799702995 1 0.10352591888209385 1 1 1 1 0.10235521316498189 1 1 0.10571113248851195 1 0.10076935411211922 1 1 1 1 1 0.10287006686757283 1 1 1 1 1 1 1 1 0.10309783702582948 1 1 1 1 1 1 1 1 1 1 1 1 1 1 0.10653805085716402 1 0.10459678912727982 0.09901459775522696 1 1 1 1 1 0.099657058839989876 1 1 1 1 1 1 1 1 1 1 1 1 1 1 1 0.10237256880004342 1 1 1 1 1 1 1 1 1 1 1 1 1 1 1 1 0.099412856500888949 1 1 1 1 1 0.1092683174927023 0.10039615171382409 1 1 0.10628945956641175 1 1 1 1 1 1 1 1 1 1 0.099991663901786307 1 1 1 1 1 1 1 1 1 0.10055028054704389 1 0.11523234223603589 1 1 1 1 1 0.099819617594953308 1 1 1 1 0.11573587107978216 1 1 1 0.099217327525731744 1 1 1 0.11465526568427695 1 1 0.099068076541459923 1 1 1 1 1 1 1 1 1 1 1 1 1 1 1 1 0.10032360293916107 1 1 1 1 1 1 1 0.098871398607353667 1 1 1 1 1 1 1 1 1 1 1 1 1 1 1 1 1 1 1 1 1 1 1 1 1 1 1 0.11746321612516381 1 1 1 1 0.099709857359078433 1 1 1 0.084137862831344015 1 1 1 1 1 1 1 1 1 0.085691745343760908 1 0.10000261455887061 1 1 1 1 1 1 1 1 1 1 1 1 1 1 1 1 1 1 0.10001331790543579 0.11125677473772803 1 1 1 0.098490957199979828 1 1 0.10580653849837733 1 1 0.10428871564562771 1 1 1 0.099788822942164401 1 1 0.10156322706661426 1 1 1 1 1 1 1 1 1 1 1 1 1 1 1 1 1 1 1 1 0.099201679443053345 1 0.099589321045402787 1 1 1 1 1 1 1 1 1 1 1 0.097834657357288135 1 0.094845174170479996 1 1 1 0.1072027373157424 1 1 1 1 1 0.10013299862010258 1 1 1 1 1 1 0.1043214523510706 1 1 1 1 1 1 1 1 1 1 1 0.10689045450680842 1 1 1 1 1 1 1 1 0.10302437605743861 1 1 1 0.098277847841610214 1 1 0.10937468149553882 1 1 1 1 1 0.10067455485254001 1 1 1 1 1 1 1 1 1 0.10002217657526968 1 1 0.10421539012730985 1 0.10261726734991029 1 0.1004838320626439 0.10097700515084651 0.1003035906086549 1 0.10001342521577555 1 1 1 1 1 1 0.096103867388879036 1 1 1 1 1 1 0.10000149751339157 1 1 1 1 1 1 1 0.093907881756388409 1 1 1 1 0.091685097493684725 1 1 1 1 1 0.1034413426233175 1 0.10001081561496887 1 1 1 1 1 1 1 1 1 1 0.099971485881974326 1 1 1 1 1 1 1 0.11213544034987108 1 1 1 1 1 1 1 0.099996773870396696 1 0.099932681914364316 1 1 1 1 1 1 1 1 0.10969468634144217 1 1 1 0.12414605849219718 0.10000888981869886 1 1 1 1 1 0.10823757163960367 0.099903294342354884 1 0.10570003356442004 1 1 0.099796705481611486 1 1 0.11466643080543354 1 1 1 1 1 1 1 1 0.11095051804130521 1 1 1 1 1 0.11783224190422054 1 1 1 1 0.13391742374896093 1 1 0.12957727757177465 1 1 1 1 1 1 1 1 1 1 1 1 1 1 1 1 1 1 1 1 1 1 1 1 1 1 1 1 1 1 1 1 1 1 1 1 1 1 1 1 1 0.099153066972979625 1 1 0.10003728045084358 1 1 1 1 1 0.10147446042817164 1 1 1 1 0.099399976223613865 1 1 1 1 1 1 1 1 1 1 1 1 1 1 1 1 1 1 1 1 1 1 1 1 0.10117431367672622 1 1 1 0.10049654590999993 1 1 1 1 1 1 0.10011365404628322 1 1 1 1 1 1 1 1 1 1 1 0.10211213079661671 1 0.10013206385144534 0.10100028613993178 1 1 0.10056765646065638 1 1 1 1 1 1 1 1 1 1 1 0.10385464747941614 1 1 0.10209378938337532 1 1 1 1 1 1 1 1 1 1 1 1 1 1 1 0.10290178082540598 1 1 1 1 1 1 1 0.09999364607989053 1 0.10076166675335978 1 1 1 1 0.10014752690095907 1 0.10022667760788281 1 1 1 1 1 1 1 1 1 0.10060968517527631 1 1 1 1 1 1 1 1 1 1 1 1 1 1 1 1 1 0.10009265079424248 1 1 1 1 1 1 1 1 1 1 1 1 1 1 1 1 1 1 1 1 1 1 1 1 1 0.099995478372834609 0.10001189689234249 1 1 1 1 1 1 1 1 1 1 1 0.1001487500428796 1 1 1 1 0.099813437619391029 1 1 1 1 0.0999397301951606 1 1 1 1 1 1 1 1 0.1005466328209135 1 1 1 1 1 1 1 1 1 0.10021125720265808 1 1 1 1 1 1 1 1 1 1 1 1 1 1 1 1 1 1 1 1 0.10559237485041297 1 1 1 1 1 1 1 1 1 1 1 1 1 1 0.099158376604431914 1 0.10009109223017429 1 1 1 1 1 1 1 1 0.1006363075171772 1 1 0.10020474627645749 1 1 1 1 1 1 1 1 1 1 1 1 1 1 1 1 1 1 1 1 1 1 1 1 1 1 1 1 1 1 1 1 1 1 1 1 0.10004843394703122 1 1 0.10010131755864793 1 1 1 1 0.093588039404792905 1 0.11220414263911863 1 1 0.11028788111087955 1 0.10120399782487059 1 1 1 1 1 0.10050969720628336 1 1 1 1 1 1 1 1 1 1 1 1 0.10114498190162935 1 1 1 0.091165825978411233 1 1 1 1 1 1 1 1 1 0.10575720782957913 1 1 1 1 0.10549840099345564 0.096362494162633594 1 1 1 1 1 1 1 1 0.10006457204222849 1 1 1 1 1 0.098301204625606126 1 1 1 0.098720006035119753 1 1 1 0.10426089904207679 1 1 1 1 0.097605347666774034 1 1 1 1 1 1 1 1 1 1 1 1 1 1 0.10241519203704608 1 1 1 1 1 1 0.096067611521325674 1 0.102436879043345 0.10000150815321422 1 0.091056953921910128 1 0.1025315797548762 1 1 1 1 0.099899005982554509 1 1 1 1 0.099665966452897797 1 1 1 1 1 1 1 1 1 0.10062253157807427 1 1 1 1 1 1 1 1 1 1 1 1 1 1 0.10131683219666152 1 1 1 0.10011686798176561 1 1 1 0.10031832036726666 1 0.099983780158851523 1 1 1 1 1 1 1 1 1 1 1 1 1 1 1 1 0.10128804205237275 1 1 1 1 1 1 0.10415993395583989 1 1 1 1 1 1 1 1 1 1 1 1 1 1 1 1 1 1 0.10894146023548223 1 1 1 1 1 1 1 1 1 1 1 1 1 1 1 1 1 1 1 1 1 1 1 1 1 1 1 1 1 1 1 1 1 1 0.098904638340499354 1 1 1 1 0.10011625814268955 1 1 1 1 1 1 1 0.10844566210547783 1 1 1 1 1 1 1 1 1 0.097398717456104331 1 1 0.11409095808682319 1 1 1 1 1 0.099995806463568954 1 1 1 0.099645703253199353 1 1 0.10087732948117976 1 1 1 1 1 1 1 1 1 1 1 1 1 1 1 1 1 1 1 1 0.10065047498786082 1 1 1 1 1 1 1 1 1 1 0.099964517413112755 0.10361335128507376 1 0.12063623591724854 1 1 1 1 1 0.1232614063843292 1 1 1 1 0.099961480580199824 1 1 1 1 1 0.099947104543824966 1 0.099972459177118306 1 1 0.099275382150422045 1 1 1 1 1 1 1 1 0.099761485435729769 1 1 1 1 1 1 0.1001519993173777 1 1 1 1 1 1 0.10029515292868998 1 1 1 1 0.10085390955603872 1 1 0.099968493900198796 1 0.10140937526461924 1 1 0.10018757030248585 1 1 1 1 1 1 0.099991891327387214 1 1 1 1 0.1000574482521507 1 1 1 1 1 1 1 1 0.10098170694120019 0.10198894638530281 1 1 1 1 1 1 1 1 0.10033732907197154 1 1 1 1 1 1 0.10015720719020832 1 1 1 1 1 1 1 0.10117830684228321 1 1 1 0.10332197825069644 1 1 1 1 1 1 1 1 1 1 1 1 0.099622659397453503 1 1 1 1 0.1011917406880819 1 1 0.099454192366890889 1 1 1 1 0.099611312051447118 1 1 1 0.10001164785077429 0.099344355447389815 1 1 1 0.10024761397415266 1 1 1 0.099722131754875334 1 1 1 1 1 1 1 1 1 0.099367859381785426 1 1 1 0.099995825855122386 1 1 1 1 1 1 1 1 1 1 1 1 0.098169487759624141 1 0.10005844737069595 1 1 0.099790226423106781 1 1 0.10059937261588328 1 1 1 1 1 1 1 0.1000063490905182 1 1 1 1 1 0.099988258655366757 1 0.098499252976843893 1 1 1 0.096582506364980336 0.10596791048623193 1 0.1011833712775138 0.097627002937184584 1 0.09937483561474636 1 1 1 1 1 1 0.10012728140043407 1 0.10612757655309558 1 1 1 1 1 1 1 1 1 1 1 1 1 0.099972900440835039 1 1 0.10464006155477699 1 0.10040719087046746 1 1 0.10601266829059573 1 1 1 0.10043102103431811 0.10027477671359636 1 1 0.10609875278900237 1 1 1 1 1 1 1 1 1 1 1 1 1 1 1 1 1 1 1 1 1 1 1 0.099856873505033028 0.099974068549447265 1 0.10015903709998987 1 0.1015624946788458 1 1 0.099999662030031022 0.098420962224881156 1 1 0.099999134012133534 1 1 0.10116502020556895 1 1 0.099389798826615597 1 0.1013676072078445 1 1 1 1 0.099982716234037636 1 1 1 1 0.10015295886398455 1 0.10068316270169556 0.1008106869948337 1 0.099885145306672529 1 1 0.10550205553584718 0.099974006628611861 1 1 1 0.10153349571023483 1 1 1 1 0.1042871889476505 0.10013596535018481 1 1 1 1 1 0.099873976604924988 1 1 1 1 1 1 1 1 1 1 1 0.099055140077075277 1 0.099515915627332363 1 0.10138938498227743 1 1 0.099999306584862335 1 0.1022633380029134 1 1 1 1 1 1 1 1 0.10091920986694507 1 1 0.099189260117430664 1 1 1 1 0.099999839318949901 1 1 1 1 1 1 1 1 1 1 1 1 0.10096287260798331 1 1 1 1 1 1 1 1 1 1 1 0.10004121635090372 1 1 1 1 1 1 0.10000995470894927 1 0.099062007316588485 1 1 0.100116420274031 1 1 1 1 1 1 1 1 1 1 1 1 1 1 1 1 1 0.10006412164653443 0.10293199850448782 1 1 1 0.099976118683266391 1 1 0.10310073909629495 1 1 1 1 1 1 1 1 1 1 1 1 1 1 1 1 1 1 1 1 1 1 1 1 1 0.10000104855548123 0.10139570569734423 1 1 1 1 1 1 1 1 1 1 1 0.10151961808085705 1 1 1 1 1 1 1 1 1 1 1 1 1 1 1 1 1 1 1 1 1 1 1 1 1 1 1 1 1 1 1 1 1 0.10001839894204517 1 1 1 1 1 0.10001785047033246 1 1 0.09979930266215109 1 1 0.10245770298375455 0.098696668674997767 1 1 1 1 1 1 1 1 1 1 1 1 1 0.09878740995670976 1 1 0.099932277778887316 1 1 1 1 1 1 0.099999475788027758 1 1 0.098895973212660873 1 1 1 1 1 1 1 1 1 1 1 1 1 0.099779670188122449 1 1 1 1 1 1 1 0.099999337436446706 1 1 1 1 1 1 1 1 1 1 1 1 0.10001396369022184 1 1 0.10000400898127255 1 1 1 1 1 1 1 1 1 1 1 1 1 1 1 1 1 1 1 1 0.099871128929032507 1 1 0.099997495344637047 1 0.09986650693088589 1 1 1 0.10000077491704998 1 1 0.10102486321491164 1 0.10004309842414622 1 1 1 0.10072422722061974 1 1 1 1 0.10002373295417775 1 1 1 1 1 1 1 0.10006770822421772 1 1 1 0.10027224589258153 1 1 1 1 1 1 1 1 1 1 1 1 0.099987176835651406 1 1 1 1 1 1 1 1 0.10027859771786032 1 1 1 1 1 1 1 1 1 1 1 0.10048724842459489 1 1 1 1 1 1 1 1 1 1 1 1 1 1 1 1 1 1 1 0.10063007481794491 0.10023152682368083 1 1 1 0.10008898503692146 1 1 1 1 1 1 1 1 1 1 1 1 0.10003595315621294 1 1 1 1 1 1 1 1 1 0.10011174305698201 1 1 1 1 1 1 1 1 1 1 1 1 1 1 1 1 0.10437184335481629 1 0.100249896712863 1 1 1 1 1 0.10324140742880637 1 1 1 1 0.10023477666565929 1 1 1 0.099992382741958166 1 1 1 0.1006941056720001 1 1 1 1 1 1 1 1 1 0.10074403070652085 1 1 1 0.10207608976963797 1 1 0.10031742949648033 1 1 1 1 1 1 0.10016443095225944 1 1 1 1 1 1 1 1 0.10052034721760149 1 1 1 0.10025706290553404 1 1 1 1 1 1 1 1 1 1 1 1 1 1 1 1 1 1 1 1 1 1 1 1 1 1 1 0.10019611280895346 1 1 1 1 1 1 1 0.10012153831302076 1 1 1 1 1 1 1 1 1 1 1 1 1 1 1 1 1 1 1 1 1 1 1 1 1 0.10003436855318196 1 0.10002789132083581 1 1 1 1 1 1 0.099999980483119699 1 1 1 0.099947706340580103 1 1 0.099864304678564789 1 1 1 1 1 1 1 1 1 1 1 1 0.10835208192876747 1 1 1 1 1 0.10694388973016242 1 1 1 1 1 1 1 1 1 1 1 1 1 0.099993503250773552 1 1 1 0.099990666831340475 1 1 1 1 1 1 1 1 1 1 1 1 0.099961255183936698 0.10051640208895748 1 1 1 1 0.099908236803662648 1 1 1 1 1 1 1 1 1 0.099967524599463176 0.1025098853462876 1 1 1 1 1 0.10310594259416009 1 1 1 1 1 0.10007077838110931 1 1 1 1 1 0.099994938724477178 1 0.099633911805185063 1 1 1 1 0.10049922456093804 1 0.099556801497489494 1 0.10058660659723981 0.10000141890561022 1 1 1 1 1 1 1 0.099977581749946462 0.10024854226670758 1 1 1 1 1 1 0.099999513417336067 0.10321521236387414 0.10036247395223766 1 0.099662907220085847 0.099515315371390106 1 1 1 0.099729865012320423 1 1 1 1 1 0.10272909948986922 0.10068864194029968 0.099999719821160696 1 0.099437512235161923 1 1 1 0.10000258846291113 1 0.10356802342229038 0.10001028253681693 1 1 1 1 1 1 1 0.10029458000809346 0.099100480420966669 1 1 0.10357983856573022 0.10530540808948199 0.097719101674392669 1 1 1 1 1 1 1 1 1 1 1 1 1 1 1 1 1 1 1 1 1 1 1 1 1 1 1 1 1 1 1 1 1 1 1 1 1 1 1 1 0.10000788385232787 1 1 1 1 1 1 1 1 1 1 0.10006784017330862 1 1 1 1 1 1 0.10016926751972915 1 1 0.099892975397076395 1 1 1 1 1 1 1 1 1 1 1 1 1 0.099971024981084025 1 0.099631650337240002 1 1 1 1 0.10113267907873096 1 1 1 0.10834360136884652 1 1 0.10803574395418769 1 1 1 0.099997628755441215 1 1 0.10002689216477786 1 1 1 1 1 0.10001282604031778 1 1 1 1 1 1 1 0.10000334931896809 1 1 1 1 1 1 1 0.10748609396178938 1 1 0.10686409070520267 1 1 1 1 0.099870993622000553 1 0.099973298496245547 1 1 1 1 1 0.099604122457062405 1 1 1 1 0.10020635665102243 1 1 1 1 1 1 0.10066504734048493 0.097128656449303685 1 1 1 1 1 0.10469329245471722 1 1 0.10167848789144944 1 1 1 1 1 1 1 1 1 1 0.10175889264131316 1 1 1 1 1 1 1 1 1 1 1 1 1 1 1 1 1 1 0.10059219716007034 1 1 1 1 1 1 0.099929078724646847 1 1 1 1 1 1 1 0.097432279610863176 0.099766583918293239 1 1 1 1 0.099975012353410497 1 1 1 1 1 1 1 0.098709640170316484 1 1 0.10045203752101967 1 0.10235897240610166 0.098831814371109453 0.10193122701202473 1 1 1 1 1 1 0.10021669124518143 1 1 1 1 1 0.099998828390946343 1 1 1 1 0.10157679192343365 1 1 1 0.097318725047349994 1 1 1 0.10051468178528031 1 1 1 1 1 1 1 1 1 1 1 1 1 1 1 1 1 1 1 1 1 1 1 1 1 0.10113041594447586 1 1 1 1 1 1 1 0.099944950327105125 1 0.10055381675361932 1 1 1 1 1 1 0.10640353062929331 1 1 0.10022601641928952 1 1 1 0.10001058802601348 1 1 0.10103597101639332 1 1 1 1 1 0.099961494474568938 1 1 1 0.099985492200136375 0.10025981512973735 1 1 1 1 1 1 1 1 1 1 1 1 0.099588563908941496 1 1 1 1 1 1 1 1 1 0.098557553962628469 1 1 1 1 1 0.099982926721035814 0.10099623186229389 1 1 1 1 1 1 1 1 1 0.1001008816465026 1 1 1 1 1 1 1 1 0.10062205774544672 1 1 1 1 1 1 1 1 1 1 1 1 1 1 1 1 1 1 0.10020852515522384 1 1 1 1 0.10048077104780534 1 0.10021296671943997 1 0.10000235561165394 1 1 1 1 1 1 1 1 1 1 1 1 1 1 1 1 1 0.099882639509109389 1 1 1 1 1 0.1011895702129873 1 1 1 0.099569846040809595 0.10155872493204432 1 1 1 1 1 0.10031717386061488 1 1 1 1 0.099626655592931587 1 1 1 1 1 1 1 1 0.10111544694463301 1 1 1 1 1 1 1 0.10061029801910641 1 1 1 1 1 1 1 1 1 0.099868945845781557 1 1 1 1 1 1 1 1 1 1 1 1 1 1 1 1 1 1 0.099948811282797756 1 1 1 1 1 1 1 1 1 1 1 1 1 0.09995266252838135 1 1 1 1 1 1 0.10003348185371792 1 1 0.10026328431206744 1 1 0.10002533792336754 1 1 1 1 1 1 1 1 1 1 1 1 1 1 1 1 1 1 1 1 1 1 1 1 1 1 0.10002358463198427 1 0.10006280441764973 1 0.10000009579398814 0.099152889938004446 1 1 1 0.10102035308148687 1 1 1 1 1 1 1 1 1 0.099856831658817771 0.099857713377166035 1 0.10079362884351134 1 1 1 1 1 1 1 1 1 1 1 1 1 1 0.099999896903566379 1 0.09950096279639109 0.098311213388563121 1 0.10090539475211047 1 1 1 1 1 1 1 1 1 0.097561061468849963 0.099771145167137004 1 1 1 1 1 1 1 1 1 1 1 1 1 1 1 1 1 1 1 1 1 1 0.10078905279529241 1 1 1 1 1 0.099570772088236267 1 1 1 1 1 0.098564438858892087 1 1 1 0.10264776501234882 1 1 1 1 1 1 1 1 1 0.1012518586015876 1 1 1 1 0.10154601586388297 1 1 1 1 1 1 0.097653215578352492 1 1 1 1 1 1 1 0.10017793084204406 1 1 1 1 0.097673833384608111 1 1 1 1 1 1 1 1 1 1 0.10043187947221721 1 1 1 1 0.1015146946624222 1 1 1 0.10388524024501186 1 1 1 1 1 0.098384373327022198 1 1 1 1 1 1 1 1 1 1 1 1 1 1 0.098887796396762859 0.10730853758055178 1 1 0.10493817931776074 1 1 1 1 1 1 1 0.099618025330345153 1 1 1 1 1 1 0.09990209471861948 1 1 1 1 1 1 1 1 1 1 1 1 1 1 1 1 1 1 1 1 1 1 1 0.099992301286891794 1 1 1 1 1 1 1 1 0.10004622069931396 1 1 1 1 0.10013636809217955 1 1 1 1 1 0.10039556354432096 1 0.099995561530088165 1 0.10155824532837633 1 1 1 1 1 1 1 0.099883772856545344 1 1 1 0.10602371265158002 1 1 1 1 1 0.10328708947647595 1 1 1 1 1 0.099746252882475364 1 0.10057227644959021 1 1 0.10087120007049108 1 0.09976135561817083 1 1 1 1 1 0.099837352999998533 1 1 1 0.099349610001812444 1 1 1 1 1 1 1 1 1 1 0.099464510590332442 1 1 1 1 1 1 1 1 1 1 1 1 1 1 1 1 1 1 1 1 1 1 0.10297759055301171 1 1 1 1 1 1 1 1 1 1 1 1 1 1 1 1 1 1 0.10779169322494656 1 1 1 0.11131410792000479 1 1 1 1 1 1 0.1210652468019728 1 1 1 0.10277315182060372 0.10322734132813463 1 0.11258843310225417 1 0.1003458435159832 0.1092213912037534 1 0.10807111453460133 1 1 0.10364622492758514 1 1 0.09797850626728534 0.10391844487686394 1 1 1 1 1 1 1 1 0.10165264786186065 1 0.1015588487346126 1 1 1 1 1 1 1 1 1 1 1 1 1 1 1 1 1 1 1 1 1 1 0.10368025514941197 1 1 1 1 1 1 1 1 0.10540510736406518 1 1 0.10003033686652213 1 1 0.10648761387361547 0.10010331611956526 1 1 0.10002842219773495 1 1 1 1 1 1 1 1 1 1 1 1 1 1 1 1 1 1 1 1 1 1 1 1 1 1 1 1 1 1 1 1 1 1 1 1 1 1 1 0.13140488277870346 1 0.12649274707397623 1 1 1 1 1 1 1 1 1 1 1 1 1 1 1 1 1 1 1 1 1 1 1 1 1 1 1 1 1 1 1 1 1 1 1 1 1 1 1 1 0.10192116973618795 1 1 0.1018540690908743 1 1 1 1 1 0.0996097607512475 1 0.099949169973636481 1 1 0.099415722166545692 1 1 1 1 1 1 0.095680576205384033 1 1 1 1 1 1 1 1 1 1 1 0.099965163706910581 1 1 0.10794247628053771 0.12987728522803269 1 0.13963534196247249 1 1 0.091902816139958654 1 1 1 1 0.13569509630825941 1 1 1 1 1 1 1 1 1 0.10003053407664637 1 0.097913904041136757 1 1 1 1 1 1 1 0.10004314282050823 1 0.094602133339780264 1 1 1 1 1 1 1 1 1 0.099775103775259416 1 0.09610573621140478 1 1 1 1 1 1 1 1 1 1 0.099304897992685021 1 1 1 0.096811856372195276 1 1 0.10000290320692937 1 1 0.10323082157441857 1 1 1 1 0.10191883774075755 1 1 1 0.099991856069649623 1 1 1 1 1 1 1 1 1 1 1 1 1 1 0.10063796070152814 1 1 1 1 1 1 0.10142823842739331 1 0.099355366295633116 1 0.1342341941169217 1 1 1 0.10078208692815988 1 1 1 1 1 1 1 1 0.13810345429842907 1 1 1 1 1 0.10001920784534984 1 1 0.1401466873110716 1 1 1 1 1 1 1 1 1 0.10516339137573257 1 1 1 0.10171918365199513 1 1 1 1 1 1 0.10849290109445794 1 1 1 1 1 1 1 1 1 1 1 1 1 1 1 1 1 1 1 1 1 1 1 1 1 1 1 1 1 1 1 0.10199134677371438 1 1 1 1 1 0.10045360557001803 1 1 0.098448541493062716 0.10128400758871012 1 1 1 1 0.10108155683096418 1 1 1 1 1 0.099785769919049527 1 1 1 1 1 1 1 1 1 1 1 1 1 1 1 1 0.10078940740028124 1 1 1 1 1 1 1 1 0.10135407455015456 0.10308313757708722 1 1 1 1 1 1 0.10263679285588689 1 1 1 1 0.10170175876462133 1 1 1 1 1 1 1 1 1 1 1 1 1 1 1 1 1 1 1 1 1 1 1 1 0.10187815261848698 1 1 0.10067621324505384 1 1 1 1 1 1 1 1 1 1 1 1 1 1 1 1 1 1 1 1 1 1 1 1 1 1 1 0.10087386869947715 1 0.10234904796514838 1 1 1 1 1 0.10486604687217899 1 1 1 1 1 1 1 1 1 1 1 1 1 1 1 1 1 1 1 1 0.10262635262324607 0.10190122077868158 1 0.10373134740958199 1 1 1 1 1 1 1 1 1 1 1 1 1 1 1 1 0.10383690024077769 1 1 1 0.10179641828401084 1 1 1 1 1 1 1 1 1 1 1 1 1 0.10251699890703064 1 1 1 1 1 1 1 1 1 1 1 1 1 1 1 1 1 1 1 1 1 1 0.12422385162115632 1 1 1 1 1 1 1 1 1 1 1 1 1 0.12365665347618757 1 0.11324342916545514 1 1 0.12072338089757825 0.10982238443378697 1 1 1 1 1 1 1 1 1 1 1 1 1 1 1 1 1 1 1 1 0.099324342203344587 1 1 0.11459104660529648 1 1 1 0.10015953466397078 1 1 1 1 1 1 0.11378199914905651 1 1 1 0.10003959466358077 1 1 1 1 1 1 1 1 0.10001619471215015 1 1 0.10136510135901206 1 1 0.10710709898372819 1 0.10480195239254347 1 1 1 1 0.10367167721967496 0.11599046404842439 1 1 0.099209477636865051 0.11630398874575626 1 1 0.10444967405038601 1 1 1 1 0.099865943768966237 1 1 0.10417497257076971 0.099841807368774599 1 0.10000181277135123 1 1 1 1 1 1 1 1 1 1 1 1 1 1 1 1 1 1 1 1 0.099750916137142973 1 1 1 1 0.10033145350226785 1 1 1 1 0.099948792893300054 0.10027865844039535 1 1 1 1 1 1 1 1 1 1 1 1 0.10009883664988591 1 1 1 0.10982726441247423 1 1 1 1 1 1 1 0.11118404555292601 1 1 1 0.099807483577352529 1 1 0.099945123437244307 0.099728352458458694 1 1 1 0.11243480743200289 1 1 1 0.099911018017039027 1 1 1 1 1 1 1 1 1 1 1 1 1 1 1 1 1 1 0.10021257982996509 1 1 1 1 1 1 1 1 1 1 1 1 1 1 1 1 1 1 0.099941782615959637 0.10059072771483867 1 1 1 1 1 0.10089706908498611 0.099838159671486806 1 0.10117059081751192 1 1 1 1 1 1 1 1 1 0.13169691660391733 1 1 1 0.1290952203004089 1 1 1 1 1 1 1 1 1 1 1 1 1 1 0.1116469334039744 1 1 1 1 1 1 1 0.12360028901778719 1 1 0.12639801575959628 1 1 1 1 1 1 0.10582376086857512 1 1 1 1 0.10773087934830811 1 1 1 1 1 1 0.098687387228840823 1 1 1 1 1 1 1 1 0.099901820977824587 0.10398785470390842 1 1 1 0.1016107875569786 0.098206781056464326 1 1 1 1 1 0.10052428443085011 1 1 1 1 1 1 0.10017402507833943 1 1 1 1 0.10009528317116603 1 1 1 1 1 0.1000952018048082 1 1 1 1 0.097354818587612468 1 1 1 1 1 1 1 1 1 1 1 1 1 1 1 1 1 1 1 1 1 1 1 1 1 0.099966230439275092 1 1 1 1 0.11296040332428398 1 0.09932517524943181 1 0.11696067015819328 1 1 0.098581245534535067 1 1 0.099066730247607093 1 1 0.0997505616497186 1 1 1 1 1 1 0.094067110155686404 1 1 0.098549383390666184 1 0.1008572795801578 0.099591461835655787 0.099259822125212865 1 1 0.1001953396466029 1 0.10054158819720713 0.10031710780249022 1 1 1 0.10005808949080625 1 0.099992966413427614 1 1 1 1 1 1 0.10096184687233213 1 1 1 0.09998732042318656 1 1 1 1 1 1 1 0.10164610708950256 1 1 1 0.10280828303711645 1 0.090427110303372554 0.092366305982053615 1 1 1 1 1 1 1 0.10048298122778973 1 1 1 1 1 1 1 1 0.099799510553878271 0.10201933443987281 1 1 1 1 0.10287329007829538 1 1 0.10276905229470171 1 1 1 0.099999880780537259 1 1 1 0.10263120207274755 0.10035467706807916 1 1 1 1 0.099849350222531053 1 1 1 1 1 0.10110676015724435 0.10210209146249344 1 1 1 1 1 1 1 1 1 1 1 1 1 1 1 1 1 1 1 1 1 1 1 1 1 1 1 1 1 1 1 0.10133078502373531 1 1 1 0.10005830938851025 1 1 1 1 1 1 1 1 1 1 1 1 1 1 1 0.10249137420818311 1 0.099782952051095539 0.097696181756431591 1 1 0.10299873180366431 1 1 1 1 1 1 1 1 1 1 1 1 1 1 1 1 1 1 1 1 1 1 1 0.099649008333748901 1 1 0.10183325314251464 0.10002634680209366 1 1 1 1 1 1 1 0.10092741982583475 1 1 1 0.099285275170280379 1 1 1 1 0.099904302030058637 0.099967471004913017 1 1 1 1 1 1 1 0.1023895045591932 1 1 1 1 0.10150200421970222 1 1 1 1 0.10020839580659771 1 1 1 1 1 1 1 1 1 1 1 1 1 1 1 1 1 1 1 0.099630984328854408 1 1 1 1 1 1 1 1 1 1 1 1 1 1 1 1 0.099564918883700962 1 1 1 0.099844463748887599 1 1 1 1 1 1 1 1 1 0.10052391971402365 1 1 1 1 1 1 1 1 1 1 1 1 1 1 1 1 1 1 1 1 1 0.10037843171676983 1 1 1 1 1 1 1 1 1 1 1 1 1 1 1 1 1 0.10100682363169276 1 1 1 1 1 0.09993684404218528 1 1 1 1 1 1 1 1 1 1 1 1 1 1 1 1 1 1 1 1 1 1 1 1 1 1 1 0.099841781045205982 1 1 0.090692085426937158 1 1 1 0.089099967822330803 1 1 1 1 1 1 1 1 1 1 1 1 1 1 1 0.088699765544996645 1 0.10142288960707568 1 1 1 1 1 1 1 1 1 0.091431159795246852 1 1 1 1 1 1 1 1 1 0.098698053228045007 0.094825409310181796 1 1 1 1 1 1 1 1 1 1 1 1 1 1 1 1 1 1 1 1 1 1 1 1 1 1 1 1 1 1 1 1 1 1 1 1 1 1 1 1 1 1 1 1 1 1 1 1 1 1 1 1 1 1 1 1 1 1 1 1 1 1 1 1 1 1 1 1 1 1 1 0.098811168884192294 1 1 1 1 1 1 0.096648517841945655 1 1 1 1 1 1 1 1 1 0.098362147565081492 1 0.096535402185798383 1 1 1 1 1 1 1 1 1 1 1 1 1 1 1 1 1 1 1 1 1 1 1 1 1 1 1 1 1 1 1 1 1 1 0.10101590994321218 1 1 1 0.10068005848717379 0.099501105491478031 1 1 1 1 1 1 1 1 1 1 1 1 1 1 1 1 1 1 1 1 1 1 0.10045074293358044 0.10045130759203312 1 1 1 1 1 1 1 1 0.09842697564554434 1 1 1 1 1 1 0.098856832249435117 1 1 1 1 1 0.10067406724358753 1 1 1 1 0.10023336432288277 1 1 1 0.094233565919073212 1 1 1 0.096261681391839271 1 1 0.098261850095561418 1 1 1 1 1 1 1 1 1 1 1 1 1 0.10023005770193795 1 1 1 1 1 1 1 1 0.10091628156059915 1 1 1 1 1 1 1 1 1 1 1 0.099856946100406102 1 1 1 0.099959227670076173 1 1 1 1 0.10088300397873312 1 1 1 1 1 1 1 1 0.10058364827656165 1 0.098636894036744346 1 1 0.10271956960008181 1 1 1 1 1 0.099658445708344826 1 1 1 1 1 1 1 1 1 1 1 1 0.10029331246696353 1 1 1 1 1 1 1 1 1 0.10097767787958863 1 1 1 1 1 1 0.099608232222356138 1 1 1 1 1 1 1 0.10030473869721382 1 1 1 1 1 0.10059805116417733 1 1 1 1 1 1 1 1 1 1 1 1 1 1 1 1 1 1 1 1 1 1 1 1 1 1 1 1 1 1 1 1 1 1 1 1 1 1 1 1 1 1 1 1 1 1 1 0.10012986425678364 1 0.10016018320181666 1 1 1 1 1 1 1 1 1 1 1 1 1 1 0.099966342365494412 1 1 1 1 1 1 1 1 1 1 1 1 1 1 1 0.1023788467465227 1 1 0.10042719477435325 1 0.098652906393096401 1 1 1 1 1 0.10070735209056986 1 1 1 1 1 1 1 1 1 1 1 1 1 1 1 1 1 1 1 1 0.10349215230435989 1 1 1 1 1 1 1 1 1 1 1 0.1028528237552085 1 0.10004462390253921 1 1 0.10186113795986229 1 0.10833798919043137 1 1 1 1 1 1 1 0.099974963188506391 1 0.10451236549943274 1 1 1 1 0.10443409355854906 1 1 1 1 0.10014285210650335 0.10060811158333428 1 1 0.096341864670682315 1 1 1 1 1 1 1 1 1 1 1 1 1 1 1 1 0.099895660031814201 1 1 1 1 1 1 1 1 1 1 1 1 1 1 0.099695036271006246 1 0.10006405516387526 1 1 1 1 1 1 1 0.10847084838919036 1 0.1089390886903448 1 1 1 1 1 1 1 1 1 0.10002950880958825 0.10812014604222428 1 1 1 0.10620312204299967 1 1 1 1 0.1102226000456519 1 0.10505735699525447 1 1 0.10011773840311458 1 0.10942694768850746 0.10898347949498344 0.10011144641894333 1 1 0.10000082538574863 1 1 1 0.10100231500287021 0.10333826298847906 0.098341904796320517 1 1 1 1 1 1 1 1 1 1 1 0.099034466733450316 1 1 1 1 1 1 0.11123731891708469 1 1 1 0.10003133448466343 1 1 1 1 1 1 1 1 0.099501957084987366 1 1 1 0.09982902323750853 1 1 1 1 1 1 1 1 1 1 1 1 1 1 1 1 1 1 1 1 1 1 1 1 1 1 1 1 1 1 1 1 1 1 1 1 1 1 1 1 1 1 1 1 1 1 1 1 1 1 1 1 1 1 1 1 1 1 1 1 0.10147349162353764 1 1 1 1 1 0.10381964087986301 1 1 1 1 0.10114528493177972 1 1 1 0.10493962388241837 1 1 1 1 1 1 1 1 1 1 1 1 1 1 1 1 1 1 1 1 1 1 1 1 1 1 1 1 1 1 1 1 1 1 1 1 1 1 1 1 0.10231918180812877 1 1 0.10591702984824201 1 1 1 1 1 1 1 0.09965622885096112 1 1 1 1 1 1 1 1 1 1 1 0.098427896070661811 1 1 0.10003614780793516 1 0.10195116318066041 1 1 1 0.10800150303630401 1 1 1 1 1 1 1 1 0.099844581323991932 1 1 1 1 0.099454306143850119 1 1 1 1 0.10725297746506748 1 0.10165673545387946 1 1 1 1 1 1 1 1 1 1 1 1 0.10299973254681496 1 0.10527945493026125 1 1 1 1 1 1 1 1 1 1 1 1 1 0.10011769732827672 1 1 1 1 1 1 1 1 1 0.10031854224373928 1 1 1 0.10020084491546256 1 1 1 1 1 1 1 1 1 1 1 1 1 1 1 1 1 1 1 1 1 1 1 1 1 1 1 1 1 1 1 1 1 1 1 0.10016292334737856 1 1 0.099977192365328621 1 1 1 1 0.10125260528002213 1 1 1 1 1 1 1 1 1 1 1 1 1 1 1 0.10061850602873212 1 1 1 1 1 1 1 1 1 0.10043330033280942 1 0.10031842524052344 1 1 1 1 1 1 1 0.10049327639229044 1 1 1 1 1 1 1 1 1 1 1 1 1 1 0.10105203678510391 1 1 1 1 1 1 1 1 1 1 1 0.10255110796319186 1 1 1 1 1 1 1 1 1 1 1 1 1 1 1 1 1 1 1 1 1 1 1 0.099881235164223453 1 0.099671856093425451 1 1 1 1 1 1 0.10247372418816267 1 0.10171566252662964 1 1 1 0.10250563076250808 1 1 1 0.098332378592486558 1 1 1 0.1026310307173551 1 1 0.098477515890042402 1 1 1 1 1 1 1 0.099305296273576177 1 1 1 1 1 1 1 0.10521651585099352 1 1 1 1 1 1 1 1 1 1 1 1 1 0.10129007418728361 1 1 1 1 1 1 1 1 0.10579684694155708 1 1 1 1 1 1 1 1 1 1 1 1 1 1 1 1 1 1 1 1 0.10361400002584642 1 1 1 1 1 1 1 1 1 1 1 1 1 1 1 1 1 1 1 1 1 1 1 1 1 1 1 1 1 1 1 1 1 1 1 1 1 1 1 1 1 1 1 1 1 1 1 1 1 1 0.099286077540688841 1 0.10300474914214004 1 1 1 0.10016971020795098 1 1 0.099892529985111778 0.10385894231098144 1 0.097789761253331026 1 1 1 1 1 1 1 1 1 1 1 1 1 1 1 1 1 1 1 1 1 1 1 1 1 1 1 1 1 1 1 1 1 1 1 0.099756874334307619 1 1 1 1 0.098681470016887665 1 1 0.10144493596173584 1 1 1 0.10091558020540112 1 1 1 1 0.097343072397924155 1 0.10005684879144802 0.10492078579940387 1 1 1 1 0.10417293680606998 1 1 1 0.096763065406931942 1 1 1 0.10178647260140461 1 1 1 1 1 1 0.099994728588928203 1 1 1 1 1 1 1 1 1 1 1 1 1 1 1 1 1 1 1 1 0.099045579806438119 1 1 1 1 1 1 1 1 1 1 1 1 1 1 1 1 1 1 0.099634505028341591 1 1 0.09899586294470801 1 1 0.11020209794715773 1 1 1 1 1 1 1 1 1 1 1 0.098285020047179261 1 1 1 1 0.10020733607088847 1 1 1 1 0.10199608569904836 1 1 1 0.10133512882956454 1 1 1 1 1 1 1 1 1 1 1 1 1 1 1 1 1 1 1 1 1 1 1 1 1 0.10060213471041171 1 1 1 1 1 1 1 1 0.10133231719659484 1 1 1 0.10953698598266641 1 1 1 1 1 1 1 1 1 1 1 1 1 1 1 1 1 1 1 1 1 1 1 1 0.097745167464256946 1 1 1 0.10179685687328884 1 1 1 1 1 1 1 1 0.098053256750456563 1 1 0.10099044437396415 1 1 1 1 0.10026789062686675 1 1 1 1 1 1 1 0.10873003915120825 1 0.098260092793419657 1 1 0.096559994797295962 1 1 0.11136478706628304 0.099998236381709571 1 1 1 1 1 1 1 1 1 1 1 1 1 1 1 1 1 1 1 1 1 0.10321443274798323 1 1 1 1 0.10597438489164158 1 1 1 1 1 1 1 1 1 1 1 1 1 0.10140825045535359 1 1 0.10000265123387329 1 1 1 1 1 1 1 1 1 1 1 1 1 1 1 1 1 1 1 1 1 1 1 1 1 1 1 1 1 1 1 1 1 1 1 1 1 1 1 1 1 1 1 1 1 1 1 1 1 1 1 1 1 1 1 1 1 1 1 1 1 1 1 1 1 1 1 1 1 1 1 1 1 1 1 1 1 1 1 1 1 1 1 1 1 1 1 1 1 1 1 1 1 1 1 1 1 1 1 1 1 1 1 1 1 1 1 1 1 1 1 1 1 1 1 1 1 1 1 1 1 1 1 1 1 1 1 1 0.099480172596615832 1 1 1 1 1 1 1 0.099281920104682772 1 1 1 1 1 1 1 1 1 0.098220542945289993 1 0.10422055506348554 1 1 1 0.10189121979091445 1 1 0.10269525993832204 1 1 1 1 1 1 1 1 1 1 1 1 1 1 1 1 1 1 1 1 1 1 1 1 1 1 1 1 1 1 1 1 1 1 1 1 1 0.099067764195139199 1 1 0.10254764928708562 0.097044530312044797 1 1 0.099686458435917599 1 1 0.1065096214596775 1 1 1 0.10478983567875516 1 1 1 1 1 1 1 1 1 0.10189858006551403 1 1 1 1 1 1 0.099792515714086441 1 1 1 1 1 1 1 1 1 1 1 1 1 1 1 1 1 1 1 1 1 1 1 1 1 1 1 1 1 1 1 0.098075109948689426 1 1 1 1 1 1 1 1 1 1 1 1 1 1 1 1 1 1 1 1 1 1 1 1 1 1 1 1 1 1 1 1 1 1 1 1 1 1 1 1 1 1 1 1 1 1 0.10697378544234176 1 0.099568315392522116 1 1 1 1 0.10000397441192885 1 1 1 1 0.10553596037704251 1 1 1 1 0.099895269288491226 1 1 1 1 1 1 1 1 0.10004989052200448 1 1 0.10011392436601362 1 0.10012969462308875 1 1 1 1 0.10039395511601083 1 1 0.10094863092478212 0.10171552886163664 1 1 1 1 1 1 0.10000922383444619 1 1 1 1 1 1 1 1 1 1 0.1008373758711196 0.10518193717683641 1 1 1 1 1 0.10545255217940981 1 1 0.099962081119230883 1 1 1 1 0.10076816696679294 1 1 0.10000046269801287 1 1 1 1 1 1 1 1 1 1 1 1 1 1 1 1 1 1 1 1 1 1 1 1 1 1 1 1 1 0.10003150949365816 1 0.10000923107473562 1 1 1 1 1 1 1 1 1 1 1 1 1 0.099980237298562896 1 1 1 1 0.10968542368040474 0.11001746947524367 1 1 1 1 1 1 1 1 1 1 1 1 1 1 1 1 1 1 1 1 1 1 1 1 1 1 1 1 1 1 1 1 1 1 1 1 1 1 1 1 1 1 0.10002599072398669 1 1 1 0.10004575342542379 1 1 1 1 1 1 1 1 1 1 1 1 1 1 1 1 1 1 1 1 0.10932785201657003 1 1 0.10892970735712876 1 1 1 1 1 1 1 1 1 0.10000007876545451 1 1 1 1 1 0.10663356495188532 1 1 1 1 1 0.099943719000766845 1 0.099936596774509195 1 1 1 1 1 1 1 1 1 1 1 1 1 0.1021489505813908 1 1 1 0.10357833030246191 0.10601533412364059 1 1 1 1 1 1 1 1 0.099999579769049968 1 1 0.1045284449138217 1 1 0.10000068749702171 0.10155121431299491 1 1 1 1 1 0.099965237953178632 1 1 1 1 1 1 1 0.10051909319720705 1 1 0.10118600973242264 0.10019020680199614 1 1 1 1 1 1 0.10374254274113895 0.098758313765503994 1 1 1 0.10147669027194681 1 1 1 1 1 1 1 0.10133626023986253 1 1 1 1 1 1 1 1 1 1 1 1 1 1 1 1 1 1 1 1 1 1 1 1 1 1 0.10641297693657503 1 1 1 1 1 1 1 0.10001292904862046 1 1 1 1 1 1 1 1 1 1 1 0.10653173415149916 1 1 1 1 1 1 1 1 0.10114134715912534 1 1 1 1 1 1 1 1 1 1 1 1 1 1 1 1 0.10124992691804156 1 1 1 0.10069995436021156 1 1 1 1 1 0.10315865841115726 1 1 1 1 1 1 1 1 1 1 1 1 1 1 0.099789819602865648 1 1 1 1 0.099298534019429688 1 1 0.09866564060324666 1 1 1 1 1 0.099988012931155057 1 1 1 1 1 1 1 1 1 1 1 1 1 1 0.10007351199790168 1 0.096369110276737724 1 1 1 0.10173218642185397 1 0.10077979449599095 1 0.1017224394874736 1 1 1 1 1 1 0.1000380397488074 0.10358344989922723 1 1 1 1 1 1 0.10393255446091827 1 0.10020978013956119 1 1 1 1 1 1 1 1 1 1 1 1 1 1 1 1 1 0.10330548999173292 1 1 1 0.099893616948895078 0.10312688030856679 1 1 1 1 1 0.1006175320711248 1 1 0.10003712392706549 0.10027082155212945 1 1 1 1 1 1 1 1 1 1 1 1 1 1 1 1 1 1 1 1 1 1 1 1 1 1 1 1 1 1 1 1 1 1 1 1 1 1 1 1 1 1 1 1 0.097075322141959838 1 1 0.10377975173842141 0.10206334333253451 0.10032500359196844 1 1 1 1 1 1 0.099840948100931387 1 1 1 1 1 1 1 1 1 0.10021381369104421 1 1 1 0.099146755029170947 1 1 1 1 1 1 1 1 1 1 1 1 1 1 1 1 1 1 1 1 0.10031678048648282 1 1 1 1 0.10027802667903227 1 1 1 1 1 1 1 1 1 1 1 1 1 1 1 1 1 1 1 1 1 1 1 1 1 1 1 1 1 1 1 1 1 1 0.099659441400578669 1 0.10022222170251938 1 1 1 1 1 1 1 1 0.10043143680895353 1 1 1 0.099322450848764954 1 0.10020921510643417 1 1 1 1 1 1 1 1 0.10529822554312404 1 1 1 1 0.1021066444642746 1 1 1 1 0.10009157361997853 1 1 1 1 1 1 1 0.10092441572293753 1 1 1 1 0.10049585155114528 1 1 1 1 1 1 1 1 1 1 1 1 1 1 1 1 1 1 1 1 1 1 1 1 1 1 1 1 1 1 1 1 1 1 1 1 1 1 1 1 1 1 1 1 1 1 0.10039499146939913 1 1 1 1 0.10000079138246687 0.1002528633215949 1 1 0.1005272433735236 0.1005371119688295 1 1 1 1 1 1 1 1 1 1 1 1 1 1 1 1 1 1 1 0.10025207045351517 1 1 1 0.10006748003699215 0.10000032860854198 1 1 1 1 1 1 1 1 1 1 1 1 1 1 1 1 1 1 1 1 1 1 1 1 1 1 1 0.10018055616835154 1 1 1 1 1 1 1 0.099913237267554328 1 1 1 1 1 1 1 1 1 1 1 1 1 1 1 0.099488299323288301 1 1 1 1 1 1 1 1 0.10037380832467474 1 0.099697052594436203 0.10097071280957086 1 1 1 1 1 1 1 1 1 1 1 1 0.10044139279891379 1 1 1 1 1 1 1 1 1 1 1 1 1 1 1 1 1 1 0.10574795344604516 1 1 1 0.10061784011313406 1 1 1 1 1 1 1 1 0.10020711940209698 1 1 1 1 1 1 1 1 1 1 1 1 1 1 1 0.10105841568791504 1 1 1 0.10036967474142963 1 1 1 1 1 1 1 1 1 1 1 1 1 1 1 1 1 1 1 1 1 1 1 1 1 1 1 1 1 1 1 1 1 0.10032285137254232 1 0.10014245847953622 1 1 1 1 1 1 1 1 0.099982576191560008 1 1 1 1 1 1 1 1 1 0.099917215998945416 1 1 0.099985882619244404 1 1 1 1 1 0.099990545311425177 1 1 1 1 0.099998107171969747 1 1 1 1 0.099435957798879579 1 1 1 0.099926653137739116 1 0.099184615274007043 1 1 0.099643000682819088 1 1 1 1 1 1 1 1 1 1 1 1 1 1 0.09999807108308259 1 1 0.10000367260588343 1 0.099996669220305284 1 1 1 0.10001078788145452 1 1 0.098351367491478145 1 1 1 1 0.10054200098658091 1 0.10023203395195418 1 1 1 1 1 1 0.10008590452378194 1 0.10006265481437641 1 1 1 1 1 0.10752494651480524 1 1 1 1 0.1002606755315299 1 1 1 1 1 1 0.10738750320836914 1 1 1 1 1 1 1 1 1 1 1 1 1 1 1 1 1 1 1 1 1 1 1 1 1 1 1 1 1 1 1 1 1 0.10002826596581235 0.09999507637947698 1 1 1 1 1 1 1 1 1 1 0.10742433509894006 1 1 0.099966417387534451 0.10676851232666652 1 0.099996346151771526 1 1 1 1 1 1 1 0.10660451779065036 1 1 1 1 1 1 1 1 1 1 1 1 0.099306075194136811 1 1 1 1 0.099759760879733303 1 1 1 1 1 1 1 1 1 1 1 1 0.10120254647865137 1 1 1 1 1 1 1 1 1 1 1 1 1 1 1 1 1 0.10104065026097793 1 1 1 1 1 0.10030473417820707 1 1 1 0.10238716623111764 1 1 1 1 1 1 0.10160267748223242 1 0.10154060211579087 1 1 1 0.10105649166841288 1 1 1 1 1 1 1 1 1 0.10300530375127752 1 1 0.10002350163272677 1 1 1 1 1 1 1 0.10063281113236804 1 1 1 1 1 1 1 1 1 1 1 1 1 0.099191890812713748 1 1 0.10004988597352561 1 1 1 1 1 1 0.099932424836473549 1 1 1 1 1 1 0.1043342698846442 1 1 1 1 1 1 1 0.10607842688979377 1 1 1 1 1 1 1 1 1 1 1 1 1 1 1 1 1 1 1 1 1 1 0.10039786044563136 1 1 1 1 1 1 1 1 1 1 0.10177795204549162 1 1 1 1 0.10138833372381043 0.10102409297177843 1 1 1 1 0.10083257588130207 1 1 1 1 1 1 1 1 1 0.10064672217286502 1 1 1 1 1 1 1 1 1 1 1 0.10292007528317224 1 1 1 0.10115955950378477 1 1 1 0.10109834574165363 1 1 1 1 1 1 1 1 1 1 1 1 0.10214084033406196 1 1 1 1 1 0.099994481876910846 1 1 0.099970334804765984 1 1 1 1 1 1 1 1 1 1 1 1 1 1 0.10235182384213382 1 1 1 1 1 1 1 0.10629001692803441 1 1 1 0.10876934917709587 1 1 1 1 1 0.099948156026304594 1 1 1 1 1 1 1 1 1 0.099972303098449455 1 1 1 1 1 1 1 1 0.11020582227289513 1 1 1 1 1 0.10044207944324154 1 1 1 1 1 1 1 0.10017139787979486 1 1 1 1 1 1 1 1 1 1 1 1 1 1 1 1 1 1 1 1 1 1 1 1 1 1 1 1 1 1 1 1 1 1 1 1 1 1 1 1 1 1 1 1 1 1 1 1 0.10141729988125325 1 1 1 1 1 1 1 0.1005201952684051 1 1 1 1 1 1 1 1 1 1 1 1 1 1 1 1 1 1 1 1 1 1 0.10034804939029449 0.10024937197832799 1 1 0.10156127385476771 0.10420348008183489 1 1 1 1 1 1 1 0.10643947555095175 1 1 1 1 1 1 1 1 1 1 1 1 1 1 0.10012981029698552 1 1 1 1 1 1 1 1 0.10001365740099714 1 1 0.10003006516249513 1 1 1 0.1000926962488749 1 1 1 1 1 1 1 1 1 1 1 1 1 1 1 1 1 1 1 1 1 1 1 1 1 1 1 1 0.099900399903090006 1 1 1 1 1 1 1 1 0.09999283354397609 1 1 1 1 1 1 0.099578746865709236 0.099975552184367947 1 1 1 1 0.099995706756763267 1 1 0.099824530750513174 1 1 0.099473473636295884 1 1 1 1 1 1 0.10001319445192244 1 1 1 1 1 1 1 1 0.10000130248504031 1 1 1 1 1 1 1 1 1 1 1 0.10000355641949352 1 1 0.10000225754380795 1 1 1 1 1 1 1 0.10004689971686634 1 1 1 0.10001178644860811 1 0.10004976999616311 1 0.1000336295757836 1 1 1 1 1 1 1 1 1 1 1 1 1 1 1 1 1 0.10011613355773485 1 0.099999955518787459 1 1 1 1 1 1 1 1 1 1 0.10007954881643648 1 1 1 1 1 1 1 0.10005921021719005 1 1 1 0.099998896093879824 1 0.10077286384865533 0.10152410982610938 1 1 0.10276081493102544 1 1 1 1 0.10097645325995817 1 1 1 0.1015925341893196 1 1 1 0.10060628290546919 1 0.10364943924261971 0.097983264074569684 1 1 1 1 1 1 0.10382071479220951 1 1 1 1 1 1 1 1 0.097300207364649366 0.10000018219578061 0.098858051761933449 1 0.096661769536120518 1 1 0.10513837212782512 0.10000046905353754 1 1 0.11121689240931175 1 1 1 1 1 1 1 1 1 1 1 0.099985241657174664 1 1 1 1 1 1 1 1 1 1 1 1 1 0.09956611241577612 0.097924225493888212 1 1 1 1 0.09933874356302004 1 1 1 0.10055408996861627 1 1 1 1 1 0.098963789447964842 0.099998873576285383 1 1 1 0.10108802032673558 1 1 1 1 1 1 1 1 1 1 1 1 1 1 1 0.10060410412839027 1 1 1 0.10071511038931749 1 1 1 0.10028818833141168 1 1 1 1 1 1 0.10235810405629869 1 1 1 1 1 0.1018904068041972 1 1 1 1 1 1 1 1 0.100002300895628 1 1 1 1 1 1 1 1 1 0.10001692760772826 1 1 1 1 0.099996108698226727 1 0.10000439793741978 1 1 0.099813095366878518 1 0.10030474281092812 1 1 1 1 1 1 0.10018424141211674 1 0.10000110832822659 0.10043126548441104 1 1 1 1 1 1 1 1 0.10277821463308118 1 0.10009863794684203 1 0.10002990549918284 1 0.099605592994237005 1 1 1 1 1 1 1 1 1 1 1 0.10029088840159742 1 1 1 0.10025336742184225 1 1 1 1 1 1 1 1 0.099962479020244827 1 1 1 1 1 1 1 1 1 0.10031847540536422 1 1 1 1 0.10295629532676934 1 1 0.10753072824749235 1 1 1 1 1 1 1 1 1 0.11136114942401515 1 1 1 0.11007985195562839 1 1 1 1 1 1 1 1 1 1 1 1 1 1 1 1 1 1 1 0.11190354015011929 1 1 1 1 1 1 1 1 1 1 0.099759705679836996 1 1 1 1 1 1 1 1 1 1 1 1 1 1 1 1 1 1 1 1 1 1 1 1 1 1 1 1 1 1 1 1 1 1 1 1 1 1 1 1 1 1 1 1 1 0.097105837876104051 0.1000076422318603 1 1 1 1 1 1 1 1 1 1 1 1 1 0.096160113120841467 0.10581200662102527 1 1 1 0.10507295480200407 1 1 0.097233337312146478 1 1 1 0.096136867203383117 1 1 1 0.097614772873484981 1 1 1 1 1 1 1 1 0.10003632181094006 1 1 0.099659753122129602 1 0.10180487814518367 0.099833733000252292 1 1 1 1 1 1 0.097736546367710772 1 0.1008239224608386 0.099890802281034183 0.099976201583636043 1 1 0.10049416037843288 1 1 0.097178219734839533 0.097317471976147249 1 1 1 1 1 1 1 1 1 1 1 1 1 1 1 1 1 1 1 1 1 0.11232174840093666 1 1 1 1 1 1 1 1 1 0.10016943342674628 1 1 1 1 1 1 1 0.10064582140770373 0.11259356446228777 1 1 1 1 1 1 1 1 1 1 1 1 1 1 1 1 1 1 1 1 1 1 1 0.099586069664904076 1 0.10001100076557483 1 1 1 1 1 1 1 0.09925948186646931 1 1 1 0.10241149649584262 0.11576711833874062 1 1 0.10141385024759088 1 1 1 1 0.10210685454583039 1 1 1 0.11426308723290315 1 1 1 0.097825675564569822 1 1 1 1 1 1 1 1 1 0.096224636910925337 0.10199507656232096 1 1 1 1 1 0.099006128915703553 1 1 0.10109066500056019 0.096107851158572732 0.096428272856706618 1 1 1 1 1 0.11249212927560015 1 1 1 1 1 1 1 1 1 0.1001479707509941 1 0.10006310806660139 1 1 1 1 1 1 1 1 1 1 1 1 1 1 1 1 1 1 1 1 1 1 1 1 0.10100804381401701 1 1 1 1 0.098692640269200327 0.10304187724717612 1 1 1 0.096923250962945004 1 1 1 1 1 1 1 1 1 1 1 1 1 1 1 1 0.10846057971712672 1 1 1 0.10001476717108174 1 1 0.11057758804897391 1 1 1 1 1 1 1 1 1 1 1 1 1 0.10504900148914388 1 1 0.10546420375237392 1 1 1 0.10612200983445938 1 0.099434959589631139 1 0.10014132768227323 1 0.097349069616879502 0.10740655938790643 0.10003988688678574 1 1 1 1 1 1 1 1 0.10046262774236833 1 1 1 1 1 1 1 1 0.11241272822786645 1 1 0.092433175650109001 1 1 1 1 1 1 1 1 1 1 1 1 1 1 1 1 1 1 1 1 1 0.10294357392510023 1 1 1 1 1 1 1 1 1 1 0.10182680348857862 1 0.095300433748217311 1 1 0.10068582514507364 1 0.10482261377222554 1 0.099968417366912296 1 1 0.099956512376992671 1 0.11000804064557396 1 1 0.10164073853151516 1 1 1 0.09952372033196491 1 1 1 1 1 1 1 1 1 1 1 1 1 1 1 1 1 1 1 1 1 1 1 1 1 1 1 1 1 1 1 1 1 1 1 1 1 1 1 1 1 1 1 1 1 1 1 1 1 1 1 1 1 1 1 1 1 1 1 1 1 0.103127170684677 1 1 0.10778413711861477 1 1 1 1 1 1 0.098280442967005929 0.10567566270166409 1 1 1 1 1 1 1 1 1 1 1 1 1 1 1 1 1 1 0.1056684788478657 1 1 1 0.10005002896878708 1 1 1 1 1 1 1 1 1 1 1 1 1 1 1 1 0.099977931172161583 1 1 1 1 1 1 1 0.10776374418575729 1 1 1 1 1 1 1 1 0.10581505331533392 1 0.10016028283174309 1 1 1 1 1 1 1 1 1 1 1 1 1 1 1 1 0.1032071447953616 1 1 1 1 1 1 1 0.10848711660567187 1 1 1 1 0.098922321419375486 1 1 1 1 1 1 1 0.096081432062930072 1 1 0.10459655221581171 0.10003046476432265 1 1 0.11028662289124233 1 1 1 1 1 1 0.11231432758745477 1 1 1 1 1 1 1 1 1 0.097275623004664899 1 1 0.10004584403272207 1 1 0.099928925032247207 1 1 0.10379738767910986 1 1 1 1 1 0.10297444540267142 1 1 1 1 1 1 1 1 0.10001974626175242 1 1 1 1 1 1 1 0.10004003517719109 1 1 1 1 1 1 1 1 1 1 1 1 0.10063584812744442 1 1 1 1 1 1 1 0.099916183292484251 0.099934512854202198 1 0.085456874633651592 1 0.095604732916978935 1 1 1 1 1 1 1 1 1 1 1 1 1 1 1 0.09999704801322512 1 0.095058748817380842 1 1 1 1 1 1 1 1 0.10849146936650761 1 0.10083635507552109 1 0.095468018176915262 1 0.11113024297662705 1 0.099713894732513159 1 1 0.099991133378664387 1 1 1 1 1 0.09989272173515451 1 1 1 1 1 1 1 1 0.10006689696163723 1 1 1 1 1 0.10020929737988694 1 1 0.085533426374852298 1 0.1005518127969255 0.097968567244476182 1 1 1 1 1 1 1 1 0.099972887096326346 1 1 1 1 1 1 1 1 1 1 1 1 1 0.10767520779217922 1 1 1 1 1 1 1 0.10060239966457951 1 1 1 0.10060154616584843 1 1 1 1 1 1 1 1 1 1 1 1 1 1 1 1 1 0.099677630648700291 1 1 1 1 1 1 1 0.099833832674886117 1 1 0.10288954533028638 1 1 1 1 1 1 1 1 1 1 1 1 1 1 1 0.10217866491545294 1 1 1 1 0.099510879468826488 1 1 1 1 1 1 1 1 1 1 1 1 1 1 1 1 1 1 1 1 1 1 1 1 1 0.095431748566702224 1 1 1 1 1 1 0.099848806726092837 1 1 1 1 1 1 1 1 1 0.09425948487140981 0.10465131285017258 1 1 1 0.10192250216422272 1 0.099621469496642606 1 1 1 1 1 1 1 1 1 1 1 1 1 1 1 0.10106706182504707 1 1 1 1 1 1 1 1 1 1 1 1 0.10027453400030939 0.10074940887383504 1 1 1 1 1 1 1 1 0.10289048709745206 1 1 0.099886938490448079 1 1 0.10439728901514385 0.097988738438678072 1 1 1 1 1 1 1 0.10188571181702753 1 1 1 1 1 1 1 1 1 0.10047487487352567 1 1 1 0.10060071747879329 1 1 1 1 1 0.10023229931789805 1 1 1 1 1 1 1 1 1 1 1 1 0.099546901614134931 1 1 1 0.099735655902422046 1 1 1 0.10155777607555205 1 1 1 1 1 1 1 1 1 1 1 1 1 1 1 1 1 1 1 1 1 1 1 1 1 1 1 1 1 1 1 1 0.099441069617697248 1 1 1 1 1 1 1 1 1 1 1 1 1 1 1 1 1 1 1 1 1 1 1 1 0.10052174792721827 1 0.10002834798558102 1 1 0.094985819874531863 1 1 1 1 1 1 1 1 1 0.10188046612336153 1 1 1 1 1 1 1 1 1 1 1 1 1 1 0.096732740103136858 1 1 1 1 0.098385206410735046 1 1 1 0.099564901917973681 1 1 1 1 1 1 1 1 1 1 1 1 1 1 1 1 1 1 1 1 1 1 1 1 1 1 1 1 1 1 1 1 1 1 1 1 1 1 1 1 1 1 1 1 1 1 1 1 1 1 1 1 1 1 1 1 1 1 1 1 1 1 1 1 1 1 1 1 1 1 1 1 1 1 1 1 1 1 1 1 1 1 1 1 1 1 1 1 1 1 1 1 1 1 1 1 1 1 1 1 1 1 1 1 1 1 1 1 1 1 1 1 1 1 1 1 1 1 1 1 1 1 1 1 1 1 1 1 1 1 1 1 1 1 1 1 1 1 1 1 1 1 1 1 1 1 1 1 1 1 1 1 1 1 1 1 1 1 1 1 1 1 1 1 1 1 1 1 1 1 1 1 1 1 1 1 1 1 1 1 1 1 1 1 1 1 1 1 1 0.11562580401228356 1 1 1 1 1 1 1 1 1 1 1 1 1 1 1 1 0.10094794975858089 1 1 1 1 1 1 1 1 0.11050304144698631 1 1 1 1 0.099441634419156877 1 1 1 1 1 1 1 1 1 1 1 1 1 1 1 1 1 1 1 1 1 1 0.10040432011245584 1 1 1 1 1 1 1 1 1 1 1 1 1 0.098397653208479 0.11433957686861033 1 1 1 1 1 0.11009747922979189 1 0.095703406085800385 1 1 1 1 1 1 1 1 1 1 1 0.10361569658980314 1 1 1 1 1 1 1 0.12073545501482677 1 1 1 1 1 1 1 1 1 1 1 1 1 1 1 0.10050867863585473 0.11826703017847116 1 1 1 1 1 1 1 1 1 1 1 1 0.097524804652127872 1 1 1 1 1 1 1 1 1 1 1 1 1 1 1 1 0.099206367878043877 1 1 1 1 1 1 1 0.11523167251629368 1 1 1 1 1 1 1 1 1 1 0.10011320180888876 0.11132858039254785 1 1 1 1 1 1 1 1 1 1 1 1 1 1 1 1 1 1 1 1 1 1 1 1 1 1 1 1 1 1 0.10215090264135857 1 1 1 1 1 0.10306338315318098 1 1 1 1 1 1 1 1 1 1 0.10134595728023792 1 1 1 1 0.099557918032134041 1 1 1 1 1 1 1 1 1 1 0.10277593823474279 1 0.10105851236179972 1 1 1 1 1 1 1 1 1 1 1 1 1 1 1 1 1 1 1 1 1 1 1 1 1 1 1 1 1 1 1 0.10026985156236495 1 1 1 1 1 0.1007785301982197 1 1 1 1 1 1 1 1 1 1 1 1 1 1 1 1 1 1 0.10040035358347453 1 1 0.11455824236374328 1 1 1 0.10014177474223064 1 1 1 1 1 0.11983392951996885 1 1 1 1 1 1 1 1 1 1 0.10573063774267999 1 1 1 1 1 1 0.099758491171180325 1 1 1 1 1 0.12032167856311264 0.099868037622283731 1 1 0.11852719268063447 1 1 0.10050615882666461 1 1 1 1 1 1 1 1 1 1 0.10072723273529247 1 1 0.10089952358772689 1 1 0.10154597857751425 1 1 0.10129471250207403 1 1 0.09956615130871907 1 1 0.10102191164860141 1 1 1 1 1 1 0.098979259331136146 1 1 1 1 1 1 1 1 1 1 1 0.11682927919046041 1 1 1 1 1 1 1 0.10061202421614207 1 1 1 1 0.099838442018058915 1 1 1 0.11426036107045787 1 1 1 1 1 1 1 1 1 1 1 0.099435985525146625 1 1 1 1 1 1 1 1 1 1 1 1 1 1 1 1 1 1 1 1 1 1 1 1 0.099965560555223543 1 1 1 1 1 0.099998521746650942 1 1 1 1 1 1 1 1 1 1 1 1 1 1 0.10080623436479684 1 1 0.098962813733422278 1 0.10548444359036568 1 1 1 1 0.10768827613440757 1 0.09988211678669201 0.096568779950696376 1 0.097212761911227921 1 1 1 1 1 1 1 0.10000630166902448 1 0.09973826000480418 1 1 1 1 1 1 0.1001359188606831 1 1 1 1 1 1 0.10021288325706731 1 1 1 1 0.10061774470338275 1 1 1 1 1 0.0998979853916971 1 1 0.10000498973726669 1 1 1 1 0.10093044460351001 1 1 1 1 0.099958116198358996 1 1 1 1 1 1 0.10009312395624693 1 1 1 1 1 1 1 1 1 0.10043933286951631 1 1 1 1 1 1 0.10023072791799352 1 1 1 1 0.10051583630901131 1 1 1 1 1 1 1 1 1 1 1 1 1 1 1 1 0.099834436526788417 1 1 1 0.099708479888470314 1 1 0.10540759011733009 1 1 1 1 1 1 1 1 1 1 1 1 1 1 1 1 0.099991165688593245 1 0.1045498523929498 1 1 1 1 1 1 1 1 1 1 1 1 1 1 1 1 1 1 1 1 1 1 1 1 1 1 0.10954069169130447 1 1 0.10347646128094315 1 1 1 1 1 1 1 1 1 1 0.10182610877103021 1 1 1 1 0.10012657494162534 1 1 1 1 0.1001354092530321 1 1 1 1 1 1 1 1 1 0.10199024173055936 1 1 1 1 1 1 1 1 1 1 1 1 1 1 1 1 1 1 1 1 1 1 1 1 1 1 1 1 
</DataArray>
</CellData>
</Piece>
</UnstructuredGrid>
</VTKFile>
