<?xml version="1.0"?>
<VTKFile type="UnstructuredGrid" version="0.1" byte_order="LittleEndian">
<UnstructuredGrid>
<Piece NumberOfPoints="31898" NumberOfCells="11152">
<Points>
<DataArray type="Float64" NumberOfComponents="3" format="ascii">
-0.5 -0.5 0 -0.47620991077874902 -0.44978878706170539 0 -0.49999999999999473 -0.42132396840504388 0 -0.5 -0.5 0 -0.47160970827802529 -0.4793630013852106 0 -0.47620991077874902 -0.44978878706170539 0 -0.5 -0.5 0 -0.47160970827802529 -0.4793630013852106 0 -0.44860394795025399 -0.5 0 -0.47160970827802529 -0.4793630013852106 0 -0.44860394795025399 -0.5 0 -0.4490820238307246 -0.45820516232899983 0 -0.44860394795025399 -0.5 0 -0.4490820238307246 -0.45820516232899983 0 -0.42881687682924802 -0.47781464288736519 0 -0.4490820238307246 -0.45820516232899983 0 -0.45555437223955858 -0.42914059360647611 0 -0.4490820238307246 -0.45820516232899983 0 -0.45555437223955858 -0.42914059360647611 0 -0.43867285131603428 -0.4271457417558665 0 -0.4490820238307246 -0.45820516232899983 0 -0.43867285131603428 -0.4271457417558665 0 -0.4263356171060747 -0.44269880333887462 0 -0.47160970827802529 -0.4793630013852106 0 -0.4490820238307246 -0.45820516232899983 0 -0.47620991077874902 -0.44978878706170539 0 -0.4490820238307246 -0.45820516232899983 0 -0.47620991077874902 -0.44978878706170539 0 -0.45555437223955858 -0.42914059360647611 0 -0.47620991077874902 -0.44978878706170539 0 -0.48101336032419229 -0.41069999664450008 0 -0.45555437223955858 -0.42914059360647611 0 -0.47620991077874902 -0.44978878706170539 0 -0.49999999999999473 -0.42132396840504388 0 -0.48101336032419229 -0.41069999664450008 0 -0.49999999999999473 -0.42132396840504388 0 -0.48101336032419229 -0.41069999664450008 0 -0.5 -0.393886241813306 0 -0.49999999999999473 -0.42132396840504388 0 -0.48101336032419229 -0.41069999664450008 0 -0.5 -0.393886241813306 0 -0.47854472220918332 -0.38978458738689759 0 -0.48422759779560409 -0.37130120630367158 0 -0.5 -0.393886241813306 0 -0.5 -0.36644851522156802 0 -0.48422759779560409 -0.37130120630367158 0 -0.48101336032419229 -0.41069999664450008 0 -0.5 -0.393886241813306 0 -0.47854472220918332 -0.38978458738689759 0 -0.48101336032419229 -0.41069999664450008 0 -0.47854472220918332 -0.38978458738689759 0 -0.46202672064839212 -0.40007602488395211 0 -0.48101336032419229 -0.41069999664450008 0 -0.46202672064839212 -0.40007602488395211 0 -0.47854472220918332 -0.38978458738689759 0 -0.46725442735267431 -0.37660061361585562 0 -0.46202672064839212 -0.40007602488395211 0 -0.47854472220918332 -0.38978458738689759 0 -0.46725442735267431 -0.37660061361585562 0 -0.48422759779560409 -0.37130120630367158 0 -0.46725442735267431 -0.37660061361585562 0 -0.46202672064839212 -0.40007602488395211 0 -0.46725442735267431 -0.37660061361585562 0 -0.45645674801697989 -0.38644133236760531 0 -0.46202672064839212 -0.40007602488395211 0 -0.46725442735267431 -0.37660061361585562 0 -0.45645674801697989 -0.38644133236760531 0 -0.4540003998136638 -0.37455519391687309 0 -0.45645674801697989 -0.38644133236760531 0 -0.46202672064839212 -0.40007602488395211 0 -0.44257020456291563 -0.38918913383950271 0 -0.46202672064839212 -0.40007602488395211 0 -0.44257020456291563 -0.38918913383950271 0 -0.44727608925983742 -0.41095911152778891 0 -0.46202672064839212 -0.40007602488395211 0 -0.44257020456291563 -0.38918913383950271 0 -0.44257020456291563 -0.38918913383950271 0 -0.44727608925983742 -0.41095911152778891 0 -0.43479358559901082 -0.4041454901736512 0 -0.44257020456291563 -0.38918913383950271 0 -0.4540003998136638 -0.37455519391687309 0 -0.44172858264042247 -0.37082207246888088 0 -0.45645674801697989 -0.38644133236760531 0 -0.44257020456291563 -0.38918913383950271 0 -0.4540003998136638 -0.37455519391687309 0 -0.46202672064839212 -0.40007602488395211 0 -0.45555437223955858 -0.42914059360647611 0 -0.44727608925983742 -0.41095911152778891 0 -0.46202672064839212 -0.40007602488395211 0 -0.45555437223955858 -0.42914059360647611 0 -0.48101336032419229 -0.41069999664450008 0 -0.46202672064839212 -0.40007602488395211 0 -0.45555437223955858 -0.42914059360647611 0 -0.44727608925983742 -0.41095911152778891 0 -0.43867285131603428 -0.4271457417558665 0 -0.43676601469929588 -0.41441201227470881 0 -0.44727608925983742 -0.41095911152778891 0 -0.43676601469929588 -0.41441201227470881 0 -0.43479358559901082 -0.4041454901736512 0 -0.45555437223955858 -0.42914059360647611 0 -0.44727608925983742 -0.41095911152778891 0 -0.43867285131603428 -0.4271457417558665 0 -0.43867285131603428 -0.4271457417558665 0 -0.42681803064840879 -0.42717069814352421 0 -0.4263356171060747 -0.44269880333887462 0 -0.42681803064840879 -0.42717069814352421 0 -0.41531815884496182 -0.42985383783075998 0 -0.4263356171060747 -0.44269880333887462 0 -0.42681803064840879 -0.42717069814352421 0 -0.42624289495594048 -0.42089725947505818 0 -0.42083332353326591 -0.42146747131641099 0 -0.42681803064840879 -0.42717069814352421 0 -0.43096994786351572 -0.41951492446283251 0 -0.42624289495594048 -0.42089725947505818 0 -0.43867285131603428 -0.4271457417558665 0 -0.42681803064840879 -0.42717069814352421 0 -0.43096994786351572 -0.41951492446283251 0 -0.43867285131603428 -0.4271457417558665 0 -0.43676601469929588 -0.41441201227470881 0 -0.43096994786351572 -0.41951492446283251 0 -0.43676601469929588 -0.41441201227470881 0 -0.43096994786351572 -0.41951492446283251 0 -0.42907264086257813 -0.41311715872526122 0 -0.43676601469929588 -0.41441201227470881 0 -0.42907264086257813 -0.41311715872526122 0 -0.43479358559901082 -0.4041454901736512 0 -0.42907264086257813 -0.41311715872526122 0 -0.43479358559901082 -0.4041454901736512 0 -0.42460885511582858 -0.40417321677700252 0 -0.42907264086257813 -0.41311715872526122 0 -0.41997834854398469 -0.41180534796019508 0 -0.42907264086257813 -0.41311715872526122 0 -0.42635027777857132 -0.41543594397746519 0 -0.41997834854398469 -0.41180534796019508 0 -0.42907264086257813 -0.41311715872526122 0 -0.41997834854398469 -0.41180534796019508 0 -0.42460885511582858 -0.40417321677700252 0 -0.42635027777857132 -0.41543594397746519 0 -0.41997834854398469 -0.41180534796019508 0 -0.42635027777857132 -0.41543594397746519 0 -0.42083332353326591 -0.42146747131641099 0 -0.41997834854398469 -0.41180534796019508 0 -0.43096994786351572 -0.41951492446283251 0 -0.42624289495594048 -0.42089725947505818 0 -0.42635027777857132 -0.41543594397746519 0 -0.43096994786351572 -0.41951492446283251 0 -0.42907264086257813 -0.41311715872526122 0 -0.42635027777857132 -0.41543594397746519 0 -0.42624289495594048 -0.42089725947505818 0 -0.42635027777857132 -0.41543594397746519 0 -0.42083332353326591 -0.42146747131641099 0 -0.42083332353326591 -0.42146747131641099 0 -0.41997834854398469 -0.41180534796019508 0 -0.40992282953163789 -0.42011435591993562 0 -0.41997834854398469 -0.41180534796019508 0 -0.39756877647335259 -0.40857286797681719 0 -0.41997834854398469 -0.41180534796019508 0 -0.40992282953163789 -0.42011435591993562 0 -0.39756877647335259 -0.40857286797681719 0 -0.40992282953163789 -0.42011435591993562 0 -0.41531815884496182 -0.42985383783075998 0 -0.39591554026262499 -0.42887225451549271 0 -0.41531815884496182 -0.42985383783075998 0 -0.39591554026262499 -0.42887225451549271 0 -0.41160927495564159 -0.44339431233754628 0 -0.42083332353326591 -0.42146747131641099 0 -0.40992282953163789 -0.42011435591993562 0 -0.41531815884496182 -0.42985383783075998 0 -0.42681803064840879 -0.42717069814352421 0 -0.42083332353326591 -0.42146747131641099 0 -0.41531815884496182 -0.42985383783075998 0 -0.44257020456291563 -0.38918913383950271 0 -0.42311368847744002 -0.37830224279505142 0 -0.42594061475171041 -0.39368797999533162 0 -0.44257020456291563 -0.38918913383950271 0 -0.42311368847744002 -0.37830224279505142 0 -0.44172858264042247 -0.37082207246888088 0 -0.44257020456291563 -0.38918913383950271 0 -0.42311368847744002 -0.37830224279505142 0 -0.42311368847744002 -0.37830224279505142 0 -0.42594061475171041 -0.39368797999533162 0 -0.416587075656149 -0.38785930376960043 0 -0.44257020456291563 -0.38918913383950271 0 -0.42594061475171041 -0.39368797999533162 0 -0.43479358559901082 -0.4041454901736512 0 -0.42594061475171041 -0.39368797999533162 0 -0.43479358559901082 -0.4041454901736512 0 -0.42460885511582858 -0.40417321677700252 0 -0.41997834854398469 -0.41180534796019508 0 -0.41325908582185972 -0.39811010703057192 0 -0.39770572831670092 -0.39911486077581648 0 -0.41997834854398469 -0.41180534796019508 0 -0.39770572831670092 -0.39911486077581648 0 -0.42594061475171041 -0.39368797999533162 0 -0.42460885511582858 -0.40417321677700252 0 -0.41325908582185972 -0.39811010703057192 0 -0.41997834854398469 -0.41180534796019508 0 -0.42460885511582858 -0.40417321677700252 0 -0.41325908582185972 -0.39811010703057192 0 -0.42594061475171041 -0.39368797999533162 0 -0.41325908582185972 -0.39811010703057192 0 -0.416587075656149 -0.38785930376960043 0 -0.41325908582185972 -0.39811010703057192 0 -0.416587075656149 -0.38785930376960043 0 -0.40403491357358612 -0.38133688525744702 0 -0.42311368847744002 -0.37830224279505142 0 -0.40403491357358612 -0.38133688525744702 0 -0.40365717239196519 -0.36741535175059892 0 -0.42311368847744002 -0.37830224279505142 0 -0.416587075656149 -0.38785930376960043 0 -0.40403491357358612 -0.38133688525744702 0 -0.40403491357358612 -0.38133688525744702 0 -0.39190790742475001 -0.38540387676521748 0 -0.39770572831670092 -0.39911486077581648 0 -0.40403491357358612 -0.38133688525744702 0 -0.39190790742475001 -0.38540387676521748 0 -0.3904578797192948 -0.37473938743617019 0 -0.41325908582185972 -0.39811010703057192 0 -0.40403491357358612 -0.38133688525744702 0 -0.39770572831670092 -0.39911486077581648 0 -0.39770572831670092 -0.39911486077581648 0 -0.37543310808941849 -0.38642437359143528 0 -0.39770572831670092 -0.39911486077581648 0 -0.37515920440272033 -0.40534038799344108 0 -0.37543310808941849 -0.38642437359143528 0 -0.39770572831670092 -0.39911486077581648 0 -0.37515920440272033 -0.40534038799344108 0 -0.39756877647335259 -0.40857286797681719 0 -0.37515920440272033 -0.40534038799344108 0 -0.37543310808941849 -0.38642437359143528 0 -0.37543310808941849 -0.38642437359143528 0 -0.3904578797192948 -0.37473938743617019 0 -0.37568304780698558 -0.36916333065311507 0 -0.39190790742475001 -0.38540387676521748 0 -0.37543310808941849 -0.38642437359143528 0 -0.3904578797192948 -0.37473938743617019 0 -0.37543310808941849 -0.38642437359143528 0 -0.37568304780698558 -0.36916333065311507 0 -0.39190790742475001 -0.38540387676521748 0 -0.39770572831670092 -0.39911486077581648 0 -0.37543310808941849 -0.38642437359143528 0 -0.41997834854398469 -0.41180534796019508 0 -0.39770572831670092 -0.39911486077581648 0 -0.39756877647335259 -0.40857286797681719 0 -0.40992282953163789 -0.42011435591993562 0 -0.39591554026262499 -0.42887225451549271 0 -0.39756877647335259 -0.40857286797681719 0 -0.37515920440272033 -0.40534038799344108 0 -0.39591554026262499 -0.42887225451549271 0 -0.39756877647335259 -0.40857286797681719 0 -0.37515920440272033 -0.40534038799344108 0 -0.39756877647335259 -0.40857286797681719 0 -0.37515920440272033 -0.40534038799344108 0 -0.39591554026262499 -0.42887225451549271 0 -0.37472313619600889 -0.43545561783144832 0 -0.39591554026262499 -0.42887225451549271 0 -0.39301703415267508 -0.44654444244683272 0 -0.37472313619600889 -0.43545561783144832 0 -0.39301703415267508 -0.44654444244683272 0 -0.37428706798929601 -0.46557084766945539 0 -0.37472313619600889 -0.43545561783144832 0 -0.39591554026262499 -0.42887225451549271 0 -0.39301703415267508 -0.44654444244683272 0 -0.41160927495564159 -0.44339431233754628 0 -0.39301703415267508 -0.44654444244683272 0 -0.40396056051613372 -0.45751466911048011 0 -0.41160927495564159 -0.44339431233754628 0 -0.40396056051613372 -0.45751466911048011 0 -0.39245383412573559 -0.47875733455523922 0 -0.41207507163844148 -0.46917161410542801 0 -0.40396056051613372 -0.45751466911048011 0 -0.38912381425271458 -0.46154275838996711 0 -0.39245383412573559 -0.47875733455523922 0 -0.40396056051613372 -0.45751466911048011 0 -0.39245383412573559 -0.47875733455523922 0 -0.40396056051613372 -0.45751466911048011 0 -0.40649676728151513 -0.45682610390212369 0 -0.40396056051613372 -0.45751466911048011 0 -0.38912381425271458 -0.46154275838996711 0 -0.39301703415267508 -0.44654444244683272 0 -0.40396056051613372 -0.45751466911048011 0 -0.38912381425271458 -0.46154275838996711 0 -0.39301703415267508 -0.44654444244683272 0 -0.38912381425271458 -0.46154275838996711 0 -0.37428706798929601 -0.46557084766945539 0 -0.38912381425271458 -0.46154275838996711 0 -0.37428706798929601 -0.46557084766945539 0 -0.38912381425271458 -0.46154275838996711 0 -0.38378714202547332 -0.47159002408209011 0 -0.37428706798929601 -0.46557084766945539 0 -0.38378714202547332 -0.47159002408209011 0 -0.39245383412573559 -0.47875733455523922 0 -0.37411677223754131 -0.47733161267270968 0 -0.39245383412573559 -0.47875733455523922 0 -0.37240076261097882 -0.48974555046165519 0 -0.37411677223754131 -0.47733161267270968 0 -0.38378714202547332 -0.47159002408209011 0 -0.37411677223754131 -0.47733161267270968 0 -0.37428706798929601 -0.46557084766945539 0 -0.38912381425271458 -0.46154275838996711 0 -0.38378714202547332 -0.47159002408209011 0 -0.39245383412573559 -0.47875733455523922 0 -0.38094710773533791 -0.49999999999999839 0 -0.39245383412573559 -0.47875733455523922 0 -0.38094710773533791 -0.49999999999999839 0 -0.39245383412573559 -0.47875733455523922 0 -0.37240076261097882 -0.48974555046165519 0 -0.38094710773533791 -0.49999999999999839 0 -0.39245383412573559 -0.47875733455523922 0 -0.40997732063196057 -0.5 0 -0.39245383412573559 -0.47875733455523922 0 -0.41207507163844148 -0.46917161410542801 0 -0.40997732063196057 -0.5 0 -0.41207507163844148 -0.46917161410542801 0 -0.40997732063196057 -0.5 0 -0.42881687682924802 -0.47781464288736519 0 -0.44860394795025399 -0.5 0 -0.40997732063196057 -0.5 0 -0.42881687682924802 -0.47781464288736519 0 -0.41207507163844148 -0.46917161410542801 0 -0.42881687682924802 -0.47781464288736519 0 -0.42627766738448791 -0.46032764904509182 0 -0.4490820238307246 -0.45820516232899983 0 -0.42881687682924802 -0.47781464288736519 0 -0.42627766738448791 -0.46032764904509182 0 -0.4490820238307246 -0.45820516232899983 0 -0.42627766738448791 -0.46032764904509182 0 -0.4263356171060747 -0.44269880333887462 0 -0.42627766738448791 -0.46032764904509182 0 -0.4263356171060747 -0.44269880333887462 0 -0.41655419253802572 -0.45404861160063659 0 -0.4263356171060747 -0.44269880333887462 0 -0.41160927495564159 -0.44339431233754628 0 -0.41655419253802572 -0.45404861160063659 0 -0.41531815884496182 -0.42985383783075998 0 -0.4263356171060747 -0.44269880333887462 0 -0.41160927495564159 -0.44339431233754628 0 -0.40396056051613372 -0.45751466911048011 0 -0.41160927495564159 -0.44339431233754628 0 -0.40649676728151513 -0.45682610390212369 0 -0.41160927495564159 -0.44339431233754628 0 -0.40649676728151513 -0.45682610390212369 0 -0.41655419253802572 -0.45404861160063659 0 -0.40396056051613372 -0.45751466911048011 0 -0.41160927495564159 -0.44339431233754628 0 -0.41207507163844148 -0.46917161410542801 0 -0.40649676728151513 -0.45682610390212369 0 -0.41655419253802572 -0.45404861160063659 0 -0.40396056051613372 -0.45751466911048011 0 -0.41207507163844148 -0.46917161410542801 0 -0.40649676728151513 -0.45682610390212369 0 -0.41207507163844148 -0.46917161410542801 0 -0.42627766738448791 -0.46032764904509182 0 -0.41655419253802572 -0.45404861160063659 0 -0.45662330498375908 -0.25656877445722759 0 -0.43445882011373449 -0.25478651907497341 0 -0.45662330498375908 -0.25656877445722759 0 -0.43445882011373449 -0.25478651907497341 0 -0.45034617445999431 -0.24335722649563979 0 -0.44999384684511368 -0.2755750489792308 0 -0.45662330498375908 -0.25656877445722759 0 -0.43445882011373449 -0.25478651907497341 0 -0.44999384684511368 -0.2755750489792308 0 -0.43077531442077321 -0.27459050524281542 0 -0.43445882011373449 -0.25478651907497341 0 -0.44999384684511368 -0.2755750489792308 0 -0.441361257405879 -0.29303276451920029 0 -0.43077531442077321 -0.27459050524281542 0 -0.44999384684511368 -0.2755750489792308 0 -0.4670541169931961 -0.26846056693166809 0 -0.46910519348062618 -0.28320526693770848 0 -0.44999384684511368 -0.2755750489792308 0 -0.4670541169931961 -0.26846056693166809 0 -0.45662330498375908 -0.25656877445722759 0 -0.45662330498375908 -0.25656877445722759 0 -0.47878778985378329 -0.25835102983948688 0 -0.4670541169931961 -0.26846056693166809 0 -0.45662330498375908 -0.25656877445722759 0 -0.47878778985378329 -0.25835102983948688 0 -0.45662330498375908 -0.25656877445722759 0 -0.47878778985378329 -0.25835102983948688 0 -0.47142395938804471 -0.23802335247430181 0 -0.47878778985378329 -0.25835102983948688 0 -0.5 -0.25669760885461612 0 -0.48361763707807442 -0.27426406281091331 0 -0.47878778985378329 -0.25835102983948688 0 -0.5 -0.25669760885461612 0 -0.4875835208682564 -0.24248539692068891 0 -0.5 -0.25669760885461612 0 -0.48361763707807442 -0.27426406281091331 0 -0.5 -0.28413533544635422 0 -0.4670541169931961 -0.26846056693166809 0 -0.47878778985378329 -0.25835102983948688 0 -0.48361763707807442 -0.27426406281091331 0 -0.4670541169931961 -0.26846056693166809 0 -0.48361763707807442 -0.27426406281091331 0 -0.46910519348062618 -0.28320526693770848 0 -0.46910519348062618 -0.28320526693770848 0 -0.48580896399913942 -0.29193665231809679 0 -0.47164434439118558 -0.29859902487093259 0 -0.48361763707807442 -0.27426406281091331 0 -0.46910519348062618 -0.28320526693770848 0 -0.48580896399913942 -0.29193665231809679 0 -0.5 -0.28413533544635422 0 -0.48580896399913942 -0.29193665231809679 0 -0.5 -0.3115730620380921 0 -0.48361763707807442 -0.27426406281091331 0 -0.5 -0.28413533544635422 0 -0.48580896399913942 -0.29193665231809679 0 -0.48580896399913942 -0.29193665231809679 0 -0.5 -0.3115730620380921 0 -0.48293754746551898 -0.30617437981156609 0 -0.48293754746551898 -0.30617437981156609 0 -0.47164434439118558 -0.29859902487093259 0 -0.47203566342767839 -0.31514771464943409 0 -0.48580896399913942 -0.29193665231809679 0 -0.48293754746551898 -0.30617437981156609 0 -0.47164434439118558 -0.29859902487093259 0 -0.47164434439118558 -0.29859902487093259 0 -0.46096111539772322 -0.3069557537098867 0 -0.47203566342767839 -0.31514771464943409 0 -0.46096111539772322 -0.3069557537098867 0 -0.44739706002137658 -0.30395698434733032 0 -0.45229582611609759 -0.31444164243390338 0 -0.46096111539772322 -0.3069557537098867 0 -0.45682111422556548 -0.29317658806621089 0 -0.44739706002137658 -0.30395698434733032 0 -0.47164434439118558 -0.29859902487093259 0 -0.46096111539772322 -0.3069557537098867 0 -0.45682111422556548 -0.29317658806621089 0 -0.44999384684511368 -0.2755750489792308 0 -0.46910519348062618 -0.28320526693770848 0 -0.45682111422556548 -0.29317658806621089 0 -0.46910519348062618 -0.28320526693770848 0 -0.47164434439118558 -0.29859902487093259 0 -0.45682111422556548 -0.29317658806621089 0 -0.44999384684511368 -0.2755750489792308 0 -0.45682111422556548 -0.29317658806621089 0 -0.441361257405879 -0.29303276451920029 0 -0.45682111422556548 -0.29317658806621089 0 -0.441361257405879 -0.29303276451920029 0 -0.44739706002137658 -0.30395698434733032 0 -0.441361257405879 -0.29303276451920029 0 -0.44739706002137658 -0.30395698434733032 0 -0.43527018611072049 -0.30465000121327751 0 -0.44739706002137658 -0.30395698434733032 0 -0.44024276041750632 -0.31887045497680111 0 -0.43527018611072049 -0.30465000121327751 0 -0.44739706002137658 -0.30395698434733032 0 -0.45229582611609759 -0.31444164243390338 0 -0.44024276041750632 -0.31887045497680111 0 -0.44024276041750632 -0.31887045497680111 0 -0.45653421084860168 -0.32646185290925811 0 -0.44024276041750632 -0.31887045497680111 0 -0.43930980958642257 -0.33554338078202212 0 -0.45653421084860168 -0.32646185290925811 0 -0.45229582611609759 -0.31444164243390338 0 -0.44024276041750632 -0.31887045497680111 0 -0.45653421084860168 -0.32646185290925811 0 -0.43930980958642257 -0.33554338078202212 0 -0.44966367396753332 -0.33841986907325933 0 -0.46855294336124231 -0.32873531729210143 0 -0.43930980958642257 -0.33554338078202212 0 -0.4507851133594416 -0.34910720111649318 0 -0.43930980958642257 -0.33554338078202212 0 -0.44966367396753332 -0.33841986907325933 0 -0.4507851133594416 -0.34910720111649318 0 -0.44966367396753332 -0.33841986907325933 0 -0.46855294336124231 -0.32873531729210143 0 -0.46386644800117471 -0.33586508895417932 0 -0.43930980958642257 -0.33554338078202212 0 -0.46855294336124231 -0.32873531729210143 0 -0.43930980958642257 -0.33554338078202212 0 -0.46855294336124231 -0.32873531729210143 0 -0.45653421084860168 -0.32646185290925811 0 -0.44966367396753332 -0.33841986907325933 0 -0.4586808436472537 -0.3401528003513713 0 -0.45711636988675219 -0.34547487934353349 0 -0.44966367396753332 -0.33841986907325933 0 -0.4586808436472537 -0.3401528003513713 0 -0.46386644800117471 -0.33586508895417932 0 -0.4586808436472537 -0.3401528003513713 0 -0.46472493826860672 -0.34236766697450172 0 -0.45711636988675219 -0.34547487934353349 0 -0.4586808436472537 -0.3401528003513713 0 -0.46472493826860672 -0.34236766697450172 0 -0.46386644800117471 -0.33586508895417932 0 -0.46855294336124231 -0.32873531729210143 0 -0.46207595183026873 -0.31834845619891672 0 -0.47203566342767839 -0.31514771464943409 0 -0.46855294336124231 -0.32873531729210143 0 -0.45653421084860168 -0.32646185290925811 0 -0.46207595183026873 -0.31834845619891672 0 -0.46096111539772322 -0.3069557537098867 0 -0.45229582611609759 -0.31444164243390338 0 -0.46207595183026873 -0.31834845619891672 0 -0.45229582611609759 -0.31444164243390338 0 -0.45653421084860168 -0.32646185290925811 0 -0.46207595183026873 -0.31834845619891672 0 -0.46096111539772322 -0.3069557537098867 0 -0.46207595183026873 -0.31834845619891672 0 -0.47203566342767839 -0.31514771464943409 0 -0.48293754746551898 -0.30617437981156609 0 -0.47203566342767839 -0.31514771464943409 0 -0.47770984076123751 -0.32964979107966252 0 -0.48293754746551898 -0.30617437981156609 0 -0.47770984076123751 -0.32964979107966252 0 -0.48293754746551898 -0.30617437981156609 0 -0.48763303240419292 -0.31981883507337211 0 -0.47770984076123751 -0.32964979107966252 0 -0.46855294336124231 -0.32873531729210143 0 -0.47203566342767839 -0.31514771464943409 0 -0.47770984076123751 -0.32964979107966252 0 -0.5 -0.3115730620380921 0 -0.5 -0.33901078862982997 0 -0.49048543526404831 -0.32960291085151988 0 -0.5 -0.3115730620380921 0 -0.48763303240419292 -0.31981883507337211 0 -0.49048543526404831 -0.32960291085151988 0 -0.5 -0.3115730620380921 0 -0.48293754746551898 -0.30617437981156609 0 -0.48763303240419292 -0.31981883507337211 0 -0.48763303240419292 -0.31981883507337211 0 -0.49048543526404831 -0.32960291085151988 0 -0.47770984076123751 -0.32964979107966252 0 -0.49048543526404831 -0.32960291085151988 0 -0.47770984076123751 -0.32964979107966252 0 -0.48708430315481122 -0.3479620774366432 0 -0.5 -0.33901078862982997 0 -0.49048543526404831 -0.32960291085151988 0 -0.48708430315481122 -0.3479620774366432 0 -0.47770984076123751 -0.32964979107966252 0 -0.47248213405695583 -0.35312520234775913 0 -0.47770984076123751 -0.32964979107966252 0 -0.47248213405695583 -0.35312520234775913 0 -0.48708430315481122 -0.3479620774366432 0 -0.46472493826860672 -0.34236766697450172 0 -0.47770984076123751 -0.32964979107966252 0 -0.47248213405695583 -0.35312520234775913 0 -0.46855294336124231 -0.32873531729210143 0 -0.46386644800117471 -0.33586508895417932 0 -0.47770984076123751 -0.32964979107966252 0 -0.46472493826860672 -0.34236766697450172 0 -0.46386644800117471 -0.33586508895417932 0 -0.47770984076123751 -0.32964979107966252 0 -0.47248213405695583 -0.35312520234775913 0 -0.48708430315481122 -0.3479620774366432 0 -0.48422759779560409 -0.37130120630367158 0 -0.5 -0.33901078862982997 0 -0.48708430315481122 -0.3479620774366432 0 -0.5 -0.36644851522156802 0 -0.48708430315481122 -0.3479620774366432 0 -0.5 -0.36644851522156802 0 -0.48422759779560409 -0.37130120630367158 0 -0.46725442735267431 -0.37660061361585562 0 -0.47248213405695583 -0.35312520234775913 0 -0.48422759779560409 -0.37130120630367158 0 -0.46725442735267431 -0.37660061361585562 0 -0.47248213405695583 -0.35312520234775913 0 -0.46725442735267431 -0.37660061361585562 0 -0.4540003998136638 -0.37455519391687309 0 -0.46226041713245919 -0.36267102145096558 0 -0.46725442735267431 -0.37660061361585562 0 -0.47248213405695583 -0.35312520234775913 0 -0.46226041713245919 -0.36267102145096558 0 -0.4540003998136638 -0.37455519391687309 0 -0.46226041713245919 -0.36267102145096558 0 -0.45167034254705118 -0.36337553476545958 0 -0.47248213405695583 -0.35312520234775913 0 -0.46226041713245919 -0.36267102145096558 0 -0.46130034509645268 -0.35111989715704561 0 -0.46472493826860672 -0.34236766697450172 0 -0.47248213405695583 -0.35312520234775913 0 -0.46130034509645268 -0.35111989715704561 0 -0.46472493826860672 -0.34236766697450172 0 -0.46130034509645268 -0.35111989715704561 0 -0.45711636988675219 -0.34547487934353349 0 -0.46130034509645268 -0.35111989715704561 0 -0.45711636988675219 -0.34547487934353349 0 -0.4507851133594416 -0.34910720111649318 0 -0.46226041713245919 -0.36267102145096558 0 -0.4507851133594416 -0.34910720111649318 0 -0.45167034254705118 -0.36337553476545958 0 -0.46226041713245919 -0.36267102145096558 0 -0.46130034509645268 -0.35111989715704561 0 -0.4507851133594416 -0.34910720111649318 0 -0.46226041713245919 -0.36267102145096558 0 -0.4507851133594416 -0.34910720111649318 0 -0.4507851133594416 -0.34910720111649318 0 -0.44504098357239391 -0.35771747353496869 0 -0.45167034254705118 -0.36337553476545958 0 -0.44966367396753332 -0.33841986907325933 0 -0.45711636988675219 -0.34547487934353349 0 -0.4507851133594416 -0.34910720111649318 0 -0.4507851133594416 -0.34910720111649318 0 -0.44408457896710762 -0.34741130507322732 0 -0.44504098357239391 -0.35771747353496869 0 -0.43930980958642257 -0.33554338078202212 0 -0.4507851133594416 -0.34910720111649318 0 -0.44408457896710762 -0.34741130507322732 0 -0.44408457896710762 -0.34741130507322732 0 -0.43834809566141358 -0.35386966642967582 0 -0.4310745521241639 -0.35060051531725012 0 -0.44408457896710762 -0.34741130507322732 0 -0.43834809566141358 -0.35386966642967582 0 -0.44504098357239391 -0.35771747353496869 0 -0.43834809566141358 -0.35386966642967582 0 -0.44504098357239391 -0.35771747353496869 0 -0.43256408976529492 -0.36260533289695268 0 -0.44504098357239391 -0.35771747353496869 0 -0.44172858264042247 -0.37082207246888088 0 -0.43256408976529492 -0.36260533289695268 0 -0.4540003998136638 -0.37455519391687309 0 -0.44172858264042247 -0.37082207246888088 0 -0.45167034254705118 -0.36337553476545958 0 -0.44504098357239391 -0.35771747353496869 0 -0.44172858264042247 -0.37082207246888088 0 -0.45167034254705118 -0.36337553476545958 0 -0.42311368847744002 -0.37830224279505142 0 -0.44172858264042247 -0.37082207246888088 0 -0.43256408976529492 -0.36260533289695268 0 -0.42311368847744002 -0.37830224279505142 0 -0.43256408976529492 -0.36260533289695268 0 -0.41867380740831611 -0.36398836527224071 0 -0.43256408976529492 -0.36260533289695268 0 -0.42210656065146929 -0.35476551363046099 0 -0.41867380740831611 -0.36398836527224071 0 -0.44408457896710762 -0.34741130507322732 0 -0.4310745521241639 -0.35060051531725012 0 -0.42443636388738298 -0.3390060521705498 0 -0.43834809566141358 -0.35386966642967582 0 -0.43256408976529492 -0.36260533289695268 0 -0.4310745521241639 -0.35060051531725012 0 -0.4310745521241639 -0.35060051531725012 0 -0.42266042161335821 -0.34652378860874011 0 -0.42210656065146929 -0.35476551363046099 0 -0.4310745521241639 -0.35060051531725012 0 -0.42266042161335821 -0.34652378860874011 0 -0.42443636388738298 -0.3390060521705498 0 -0.43256408976529492 -0.36260533289695268 0 -0.4310745521241639 -0.35060051531725012 0 -0.42210656065146929 -0.35476551363046099 0 -0.42210656065146929 -0.35476551363046099 0 -0.41243440171204931 -0.35621682403100541 0 -0.41867380740831611 -0.36398836527224071 0 -0.41243440171204931 -0.35621682403100541 0 -0.40365717239196519 -0.36741535175059892 0 -0.40302160193259851 -0.3439916005776541 0 -0.42210656065146929 -0.35476551363046099 0 -0.41714587076776338 -0.34786779488983011 0 -0.41243440171204931 -0.35621682403100541 0 -0.42266042161335821 -0.34652378860874011 0 -0.42210656065146929 -0.35476551363046099 0 -0.41714587076776338 -0.34786779488983011 0 -0.42266042161335821 -0.34652378860874011 0 -0.41714587076776338 -0.34786779488983011 0 -0.41853876063601031 -0.34037906703560689 0 -0.41714587076776338 -0.34786779488983011 0 -0.41853876063601031 -0.34037906703560689 0 -0.41714587076776338 -0.34786779488983011 0 -0.41243440171204931 -0.35621682403100541 0 -0.40302160193259851 -0.3439916005776541 0 -0.41714587076776338 -0.34786779488983011 0 -0.40302160193259851 -0.3439916005776541 0 -0.41853876063601031 -0.34037906703560689 0 -0.42311368847744002 -0.37830224279505142 0 -0.41867380740831611 -0.36398836527224071 0 -0.40365717239196519 -0.36741535175059892 0 -0.42311368847744002 -0.37830224279505142 0 -0.40365717239196519 -0.36741535175059892 0 -0.41243440171204931 -0.35621682403100541 0 -0.41867380740831611 -0.36398836527224071 0 -0.40365717239196519 -0.36741535175059892 0 -0.40403491357358612 -0.38133688525744702 0 -0.40365717239196519 -0.36741535175059892 0 -0.40403491357358612 -0.38133688525744702 0 -0.40365717239196519 -0.36741535175059892 0 -0.3904578797192948 -0.37473938743617019 0 -0.40365717239196519 -0.36741535175059892 0 -0.38979507995825918 -0.35965881973269581 0 -0.40365717239196519 -0.36741535175059892 0 -0.3904578797192948 -0.37473938743617019 0 -0.38979507995825918 -0.35965881973269581 0 -0.3904578797192948 -0.37473938743617019 0 -0.38979507995825918 -0.35965881973269581 0 -0.37568304780698558 -0.36916333065311507 0 -0.37568304780698558 -0.36916333065311507 0 -0.37593298752455201 -0.35190228771479481 0 -0.38979507995825918 -0.35965881973269581 0 -0.37568304780698558 -0.36916333065311507 0 -0.37593298752455201 -0.35190228771479481 0 -0.38979507995825918 -0.35965881973269581 0 -0.37595629511297179 -0.35029264644438168 0 -0.40302160193259851 -0.3439916005776541 0 -0.37595629511297179 -0.35029264644438168 0 -0.40302160193259851 -0.3439916005776541 0 -0.38842354837557669 -0.33756560667471242 0 -0.37595629511297179 -0.35029264644438168 0 -0.40302160193259851 -0.3439916005776541 0 -0.37595629511297179 -0.35029264644438168 0 -0.37607676276689278 -0.3419730509543204 0 -0.37390838074359528 -0.35076941925389299 0 -0.37595629511297179 -0.35029264644438168 0 -0.37607676276689278 -0.3419730509543204 0 -0.37595629511297179 -0.35029264644438168 0 -0.37593298752455201 -0.35190228771479481 0 -0.37390838074359528 -0.35076941925389299 0 -0.37595629511297179 -0.35029264644438168 0 -0.37593298752455201 -0.35190228771479481 0 -0.38979507995825918 -0.35965881973269581 0 -0.37595629511297179 -0.35029264644438168 0 -0.37593298752455201 -0.35190228771479481 0 -0.38979507995825918 -0.35965881973269581 0 -0.37593298752455201 -0.35190228771479481 0 -0.40365717239196519 -0.36741535175059892 0 -0.40302160193259851 -0.3439916005776541 0 -0.40365717239196519 -0.36741535175059892 0 -0.38979507995825918 -0.35965881973269581 0 -0.40302160193259851 -0.3439916005776541 0 -0.40302160193259851 -0.3439916005776541 0 -0.40263324863316441 -0.32967896077653092 0 -0.40263324863316441 -0.32967896077653092 0 -0.38842354837557669 -0.33756560667471242 0 -0.38442983343225828 -0.32189177462067481 0 -0.40302160193259851 -0.3439916005776541 0 -0.40263324863316441 -0.32967896077653092 0 -0.38842354837557669 -0.33756560667471242 0 -0.37607676276689278 -0.3419730509543204 0 -0.37641717267996733 -0.3184640617331177 0 -0.38842354837557669 -0.33756560667471242 0 -0.37607676276689278 -0.3419730509543204 0 -0.38442983343225828 -0.32189177462067481 0 -0.37607676276689278 -0.3419730509543204 0 -0.38442983343225828 -0.32189177462067481 0 -0.37595629511297179 -0.35029264644438168 0 -0.38842354837557669 -0.33756560667471242 0 -0.37607676276689278 -0.3419730509543204 0 -0.37607676276689278 -0.3419730509543204 0 -0.37641717267996733 -0.3184640617331177 0 -0.38442983343225828 -0.32189177462067481 0 -0.37641717267996733 -0.3184640617331177 0 -0.38442983343225828 -0.32189177462067481 0 -0.3841914044669909 -0.30132118344037401 0 -0.37641717267996733 -0.3184640617331177 0 -0.38442983343225828 -0.32189177462067481 0 -0.40263324863316441 -0.32967896077653092 0 -0.38442983343225828 -0.32189177462067481 0 -0.40185461233875269 -0.30098256284660307 0 -0.40263324863316441 -0.32967896077653092 0 -0.38442983343225828 -0.32189177462067481 0 -0.40263324863316441 -0.32967896077653092 0 -0.40185461233875269 -0.30098256284660307 0 -0.40263324863316441 -0.32967896077653092 0 -0.41242695344044827 -0.31820451366256841 0 -0.40185461233875269 -0.30098256284660307 0 -0.41242695344044827 -0.31820451366256841 0 -0.41920998916455232 -0.33677027649670849 0 -0.42301959421646518 -0.31628833020920039 0 -0.41920998916455232 -0.33677027649670849 0 -0.42301959421646518 -0.31628833020920039 0 -0.41242695344044827 -0.31820451366256841 0 -0.42301959421646518 -0.31628833020920039 0 -0.41541732284930832 -0.30730243798379953 0 -0.40302160193259851 -0.3439916005776541 0 -0.41920998916455232 -0.33677027649670849 0 -0.41853876063601031 -0.34037906703560689 0 -0.40302160193259851 -0.3439916005776541 0 -0.40263324863316441 -0.32967896077653092 0 -0.41920998916455232 -0.33677027649670849 0 -0.40263324863316441 -0.32967896077653092 0 -0.41920998916455232 -0.33677027649670849 0 -0.40263324863316441 -0.32967896077653092 0 -0.41242695344044827 -0.31820451366256841 0 -0.41920998916455232 -0.33677027649670849 0 -0.40302160193259851 -0.3439916005776541 0 -0.41853876063601031 -0.34037906703560689 0 -0.41853876063601031 -0.34037906703560689 0 -0.42443636388738298 -0.3390060521705498 0 -0.41920998916455232 -0.33677027649670849 0 -0.42443636388738298 -0.3390060521705498 0 -0.41920998916455232 -0.33677027649670849 0 -0.41853876063601031 -0.34037906703560689 0 -0.42443636388738298 -0.3390060521705498 0 -0.41920998916455232 -0.33677027649670849 0 -0.41853876063601031 -0.34037906703560689 0 -0.43930980958642257 -0.33554338078202212 0 -0.44408457896710762 -0.34741130507322732 0 -0.42443636388738298 -0.3390060521705498 0 -0.43930980958642257 -0.33554338078202212 0 -0.42443636388738298 -0.3390060521705498 0 -0.42301959421646518 -0.31628833020920039 0 -0.41920998916455232 -0.33677027649670849 0 -0.42443636388738298 -0.3390060521705498 0 -0.42301959421646518 -0.31628833020920039 0 -0.44408457896710762 -0.34741130507322732 0 -0.42443636388738298 -0.3390060521705498 0 -0.42266042161335821 -0.34652378860874011 0 -0.41853876063601031 -0.34037906703560689 0 -0.42443636388738298 -0.3390060521705498 0 -0.43930980958642257 -0.33554338078202212 0 -0.42443636388738298 -0.3390060521705498 0 -0.43930980958642257 -0.33554338078202212 0 -0.42301959421646518 -0.31628833020920039 0 -0.44024276041750632 -0.31887045497680111 0 -0.42395130998641067 -0.31127905704434472 0 -0.44024276041750632 -0.31887045497680111 0 -0.43930980958642257 -0.33554338078202212 0 -0.42301959421646518 -0.31628833020920039 0 -0.44024276041750632 -0.31887045497680111 0 -0.42301959421646518 -0.31628833020920039 0 -0.42395130998641067 -0.31127905704434472 0 -0.42301959421646518 -0.31628833020920039 0 -0.42395130998641067 -0.31127905704434472 0 -0.42395130998641067 -0.31127905704434472 0 -0.42709180872781188 -0.29439449141065738 0 -0.44024276041750632 -0.31887045497680111 0 -0.42395130998641067 -0.31127905704434472 0 -0.43527018611072049 -0.30465000121327751 0 -0.42395130998641067 -0.31127905704434472 0 -0.42709180872781188 -0.29439449141065738 0 -0.41541732284930832 -0.30730243798379953 0 -0.42395130998641067 -0.31127905704434472 0 -0.43527018611072049 -0.30465000121327751 0 -0.42709180872781188 -0.29439449141065738 0 -0.441361257405879 -0.29303276451920029 0 -0.43527018611072049 -0.30465000121327751 0 -0.42709180872781188 -0.29439449141065738 0 -0.42709180872781188 -0.29439449141065738 0 -0.43077531442077321 -0.27459050524281542 0 -0.42709180872781188 -0.29439449141065738 0 -0.41684225135067149 -0.28376244362903152 0 -0.43077531442077321 -0.27459050524281542 0 -0.441361257405879 -0.29303276451920029 0 -0.42709180872781188 -0.29439449141065738 0 -0.441361257405879 -0.29303276451920029 0 -0.42709180872781188 -0.29439449141065738 0 -0.43077531442077321 -0.27459050524281542 0 -0.42709180872781188 -0.29439449141065738 0 -0.41684225135067149 -0.28376244362903152 0 -0.40618483967714292 -0.29638963380315841 0 -0.42709180872781188 -0.29439449141065738 0 -0.40618483967714292 -0.29638963380315841 0 -0.41684225135067149 -0.28376244362903152 0 -0.40690107601488551 -0.28490397733270861 0 -0.40618483967714292 -0.29638963380315841 0 -0.41541732284930832 -0.30730243798379953 0 -0.40185461233875269 -0.30098256284660307 0 -0.40618483967714292 -0.29638963380315841 0 -0.42709180872781188 -0.29439449141065738 0 -0.41541732284930832 -0.30730243798379953 0 -0.40618483967714292 -0.29638963380315841 0 -0.41541732284930832 -0.30730243798379953 0 -0.40618483967714292 -0.29638963380315841 0 -0.41242695344044827 -0.31820451366256841 0 -0.41541732284930832 -0.30730243798379953 0 -0.40185461233875269 -0.30098256284660307 0 -0.41541732284930832 -0.30730243798379953 0 -0.40185461233875269 -0.30098256284660307 0 -0.42301959421646518 -0.31628833020920039 0 -0.41541732284930832 -0.30730243798379953 0 -0.42395130998641067 -0.31127905704434472 0 -0.41541732284930832 -0.30730243798379953 0 -0.42301959421646518 -0.31628833020920039 0 -0.42395130998641067 -0.31127905704434472 0 -0.41541732284930832 -0.30730243798379953 0 -0.38442983343225828 -0.32189177462067481 0 -0.40185461233875269 -0.30098256284660307 0 -0.39448508010510541 -0.297525044214214 0 -0.40185461233875269 -0.30098256284660307 0 -0.40174149504185092 -0.29681366012781812 0 -0.40618483967714292 -0.29638963380315841 0 -0.40185461233875269 -0.30098256284660307 0 -0.40174149504185092 -0.29681366012781812 0 -0.40185461233875269 -0.30098256284660307 0 -0.39448508010510541 -0.297525044214214 0 -0.40174149504185092 -0.29681366012781812 0 -0.40185461233875269 -0.30098256284660307 0 -0.39448508010510541 -0.297525044214214 0 -0.39448508010510541 -0.297525044214214 0 -0.40174149504185092 -0.29681366012781812 0 -0.37641717267996733 -0.3184640617331177 0 -0.37669606201677502 -0.29920373422444158 0 -0.38442983343225828 -0.32189177462067481 0 -0.39448508010510541 -0.297525044214214 0 -0.38442983343225828 -0.32189177462067481 0 -0.39448508010510541 -0.297525044214214 0 -0.3841914044669909 -0.30132118344037401 0 -0.37641717267996733 -0.3184640617331177 0 -0.3841914044669909 -0.30132118344037401 0 -0.37669606201677502 -0.29920373422444158 0 -0.39448508010510541 -0.297525044214214 0 -0.3841914044669909 -0.30132118344037401 0 -0.37928718982873688 -0.29895646409505849 0 -0.39448508010510541 -0.297525044214214 0 -0.37928718982873688 -0.29895646409505849 0 -0.3841914044669909 -0.30132118344037401 0 -0.37928718982873688 -0.29895646409505849 0 -0.3841914044669909 -0.30132118344037401 0 -0.37928718982873688 -0.29895646409505849 0 -0.37669606201677502 -0.29920373422444158 0 -0.37928718982873688 -0.29895646409505849 0 -0.37669606201677502 -0.29920373422444158 0 -0.37671758341694961 -0.29771744858697219 0 -0.37928718982873688 -0.29895646409505849 0 -0.37671758341694961 -0.29771744858697219 0 -0.37928718982873688 -0.29895646409505849 0 -0.37669606201677502 -0.29920373422444158 0 -0.37669606201677502 -0.29920373422444158 0 -0.37671758341694961 -0.29771744858697219 0 -0.37671758341694961 -0.29771744858697219 0 -0.38607699004493318 -0.28757386461908069 0 -0.38483052758877101 -0.28123782127595193 0 -0.37671758341694961 -0.29771744858697219 0 -0.3770412393053626 -0.27536550612006683 0 -0.37671758341694961 -0.29771744858697219 0 -0.38483052758877101 -0.28123782127595193 0 -0.3770412393053626 -0.27536550612006683 0 -0.37928718982873688 -0.29895646409505849 0 -0.37671758341694961 -0.29771744858697219 0 -0.38467000758835601 -0.29297497791584359 0 -0.37671758341694961 -0.29771744858697219 0 -0.38467000758835601 -0.29297497791584359 0 -0.38607699004493318 -0.28757386461908069 0 -0.39448508010510541 -0.297525044214214 0 -0.37928718982873688 -0.29895646409505849 0 -0.38467000758835601 -0.29297497791584359 0 -0.39448508010510541 -0.297525044214214 0 -0.38467000758835601 -0.29297497791584359 0 -0.39448508010510541 -0.297525044214214 0 -0.38467000758835601 -0.29297497791584359 0 -0.39217701296355612 -0.28987936211692023 0 -0.38467000758835601 -0.29297497791584359 0 -0.38607699004493318 -0.28757386461908069 0 -0.39217701296355612 -0.28987936211692023 0 -0.38607699004493318 -0.28757386461908069 0 -0.39049541959166939 -0.28414526237041138 0 -0.39217701296355612 -0.28987936211692023 0 -0.39049541959166939 -0.28414526237041138 0 -0.39420405367365152 -0.27853706101481662 0 -0.38483052758877101 -0.28123782127595193 0 -0.38607699004493318 -0.28757386461908069 0 -0.39049541959166939 -0.28414526237041138 0 -0.38483052758877101 -0.28123782127595193 0 -0.39597078832761667 -0.28551153658085893 0 -0.40174149504185092 -0.29681366012781812 0 -0.40123596036735593 -0.27818233727432817 0 -0.39049541959166939 -0.28414526237041138 0 -0.39597078832761667 -0.28551153658085893 0 -0.39420405367365152 -0.27853706101481662 0 -0.40174149504185092 -0.29681366012781812 0 -0.40123596036735593 -0.27818233727432817 0 -0.40174149504185092 -0.29681366012781812 0 -0.40322207619149192 -0.29288764445213411 0 -0.40123596036735593 -0.27818233727432817 0 -0.39049541959166939 -0.28414526237041138 0 -0.39597078832761667 -0.28551153658085893 0 -0.39217701296355612 -0.28987936211692023 0 -0.39597078832761667 -0.28551153658085893 0 -0.39217701296355612 -0.28987936211692023 0 -0.40174149504185092 -0.29681366012781812 0 -0.39448508010510541 -0.297525044214214 0 -0.39217701296355612 -0.28987936211692023 0 -0.40174149504185092 -0.29681366012781812 0 -0.40690107601488551 -0.28490397733270861 0 -0.40322207619149192 -0.29288764445213411 0 -0.40618483967714292 -0.29638963380315841 0 -0.40174149504185092 -0.29681366012781812 0 -0.40322207619149192 -0.29288764445213411 0 -0.40618483967714292 -0.29638963380315841 0 -0.40174149504185092 -0.29681366012781812 0 -0.40618483967714292 -0.29638963380315841 0 -0.40322207619149192 -0.29288764445213411 0 -0.40618483967714292 -0.29638963380315841 0 -0.40690107601488551 -0.28490397733270861 0 -0.40322207619149192 -0.29288764445213411 0 -0.40123596036735593 -0.27818233727432817 0 -0.39420405367365152 -0.27853706101481662 0 -0.37710287173325818 -0.2711091198417086 0 -0.40073042569286338 -0.25955101442083811 0 -0.40123596036735593 -0.27818233727432817 0 -0.39420405367365152 -0.27853706101481662 0 -0.40073042569286338 -0.25955101442083811 0 -0.40123596036735593 -0.27818233727432817 0 -0.40073042569286338 -0.25955101442083811 0 -0.40123596036735593 -0.27818233727432817 0 -0.40073042569286338 -0.25955101442083811 0 -0.41341650638623911 -0.27076301679274262 0 -0.39597078832761667 -0.28551153658085893 0 -0.40123596036735593 -0.27818233727432817 0 -0.39420405367365152 -0.27853706101481662 0 -0.39420405367365152 -0.27853706101481662 0 -0.37710287173325818 -0.2711091198417086 0 -0.3770412393053626 -0.27536550612006683 0 -0.39420405367365152 -0.27853706101481662 0 -0.3770412393053626 -0.27536550612006683 0 -0.39420405367365152 -0.27853706101481662 0 -0.38483052758877101 -0.28123782127595193 0 -0.3770412393053626 -0.27536550612006683 0 -0.37710287173325818 -0.2711091198417086 0 -0.3770412393053626 -0.27536550612006683 0 -0.37710287173325818 -0.2711091198417086 0 -0.38543722149146659 -0.25821727905458303 0 -0.40073042569286338 -0.25955101442083811 0 -0.37710287173325818 -0.2711091198417086 0 -0.37747963509906429 -0.24508953120583671 0 -0.37710287173325818 -0.2711091198417086 0 -0.40073042569286338 -0.25955101442083811 0 -0.37710287173325818 -0.2711091198417086 0 -0.38543722149146659 -0.25821727905458303 0 -0.37747963509906429 -0.24508953120583671 0 -0.38543722149146659 -0.25821727905458303 0 -0.3938256931015453 -0.25037754026629511 0 -0.37747963509906429 -0.24508953120583671 0 -0.38543722149146659 -0.25821727905458303 0 -0.3938256931015453 -0.25037754026629511 0 -0.40073042569286338 -0.25955101442083811 0 -0.40073042569286338 -0.25955101442083811 0 -0.40282532782868952 -0.25224285689579767 0 -0.40022281387448849 -0.24084313907701979 0 -0.40073042569286338 -0.25955101442083811 0 -0.40022281387448849 -0.24084313907701979 0 -0.3938256931015453 -0.25037754026629511 0 -0.40073042569286338 -0.25955101442083811 0 -0.40022281387448849 -0.24084313907701979 0 -0.40073042569286338 -0.25955101442083811 0 -0.40282532782868952 -0.25224285689579767 0 -0.41385673751816382 -0.25312989710486528 0 -0.40073042569286338 -0.25955101442083811 0 -0.41385673751816382 -0.25312989710486528 0 -0.40073042569286338 -0.25955101442083811 0 -0.41385673751816382 -0.25312989710486528 0 -0.41341650638623911 -0.27076301679274262 0 -0.41385673751816382 -0.25312989710486528 0 -0.41341650638623911 -0.27076301679274262 0 -0.42312684460972783 -0.26331748455384929 0 -0.41385673751816382 -0.25312989710486528 0 -0.41679144862722167 -0.25169429778568547 0 -0.43445882011373449 -0.25478651907497341 0 -0.40282532782868952 -0.25224285689579767 0 -0.41385673751816382 -0.25312989710486528 0 -0.4086566941719203 -0.24778871483445111 0 -0.40282532782868952 -0.25224285689579767 0 -0.41385673751816382 -0.25312989710486528 0 -0.41385673751816382 -0.25312989710486528 0 -0.41679144862722167 -0.25169429778568547 0 -0.41627810448972868 -0.24641300060905449 0 -0.41385673751816382 -0.25312989710486528 0 -0.41679144862722167 -0.25169429778568547 0 -0.41684225135067149 -0.28376244362903152 0 -0.41341650638623911 -0.27076301679274262 0 -0.43077531442077321 -0.27459050524281542 0 -0.40690107601488551 -0.28490397733270861 0 -0.40123596036735593 -0.27818233727432817 0 -0.41341650638623911 -0.27076301679274262 0 -0.41684225135067149 -0.28376244362903152 0 -0.40690107601488551 -0.28490397733270861 0 -0.41341650638623911 -0.27076301679274262 0 -0.41341650638623911 -0.27076301679274262 0 -0.43077531442077321 -0.27459050524281542 0 -0.42312684460972783 -0.26331748455384929 0 -0.43077531442077321 -0.27459050524281542 0 -0.42312684460972783 -0.26331748455384929 0 -0.43445882011373449 -0.25478651907497341 0 -0.41385673751816382 -0.25312989710486528 0 -0.43445882011373449 -0.25478651907497341 0 -0.43077531442077321 -0.27459050524281542 0 -0.43445882011373449 -0.25478651907497341 0 -0.41385673751816382 -0.25312989710486528 0 -0.42312684460972783 -0.26331748455384929 0 -0.43445882011373449 -0.25478651907497341 0 -0.41679144862722167 -0.25169429778568547 0 -0.43445882011373449 -0.25478651907497341 0 -0.42335340856967768 -0.24893549408922019 0 -0.32580796388430833 -0.26195871891040218 0 -0.34139866608006603 -0.2687790352098644 0 -0.31202674084989918 -0.26335133138269068 0 -0.32580796388430833 -0.26195871891040218 0 -0.33345250408021371 -0.25331871279766999 0 -0.32023222063025569 -0.2489608815952247 0 -0.32580796388430833 -0.26195871891040218 0 -0.31664960680882542 -0.25714232151458272 0 -0.32023222063025569 -0.2489608815952247 0 -0.31664960680882542 -0.25714232151458272 0 -0.30853150187083839 -0.25429835417001312 0 -0.32023222063025569 -0.2489608815952247 0 -0.32580796388430833 -0.26195871891040218 0 -0.31664960680882542 -0.25714232151458272 0 -0.31202674084989918 -0.26335133138269068 0 -0.33223611708196649 -0.27626932861073827 0 -0.31972670239926188 -0.28454160199560091 0 -0.31187737399160442 -0.27618124236115132 0 -0.34139866608006603 -0.2687790352098644 0 -0.31202674084989918 -0.26335133138269068 0 -0.33223611708196649 -0.27626932861073827 0 -0.31202674084989918 -0.26335133138269068 0 -0.3062135479255173 -0.26372173898871692 0 -0.33223611708196649 -0.27626932861073827 0 -0.31187737399160442 -0.27618124236115132 0 -0.3062135479255173 -0.26372173898871692 0 -0.33260241140844943 -0.2743168067351805 0 -0.33223611708196649 -0.27626932861073827 0 -0.31202674084989918 -0.26335133138269068 0 -0.33223611708196649 -0.27626932861073827 0 -0.3062135479255173 -0.26372173898871692 0 -0.33260241140844943 -0.2743168067351805 0 -0.34139866608006603 -0.2687790352098644 0 -0.31202674084989918 -0.26335133138269068 0 -0.33223611708196649 -0.27626932861073827 0 -0.34139866608006603 -0.2687790352098644 0 -0.34951875912658742 -0.28460269103381453 0 -0.33223611708196649 -0.27626932861073827 0 -0.34951875912658742 -0.28460269103381453 0 -0.33260241140844943 -0.2743168067351805 0 -0.33223611708196649 -0.27626932861073827 0 -0.34139866608006603 -0.2687790352098644 0 -0.33260241140844943 -0.2743168067351805 0 -0.33223611708196649 -0.27626932861073827 0 -0.34139866608006603 -0.2687790352098644 0 -0.3363084638556994 -0.26041051377605268 0 -0.34457472137820933 -0.25758558818627408 0 -0.32580796388430833 -0.26195871891040218 0 -0.34139866608006603 -0.2687790352098644 0 -0.3363084638556994 -0.26041051377605268 0 -0.32580796388430833 -0.26195871891040218 0 -0.3363084638556994 -0.26041051377605268 0 -0.33345250408021371 -0.25331871279766999 0 -0.3363084638556994 -0.26041051377605268 0 -0.33345250408021371 -0.25331871279766999 0 -0.34457472137820933 -0.25758558818627408 0 -0.33345250408021371 -0.25331871279766999 0 -0.34457472137820933 -0.25758558818627408 0 -0.34395992200845399 -0.24382677409400949 0 -0.34139866608006603 -0.2687790352098644 0 -0.34457472137820933 -0.25758558818627408 0 -0.35733732661955131 -0.26288598862094092 0 -0.34457472137820933 -0.25758558818627408 0 -0.35872453044413888 -0.25078889886649508 0 -0.34395992200845399 -0.24382677409400949 0 -0.34457472137820933 -0.25758558818627408 0 -0.35733732661955131 -0.26288598862094092 0 -0.35872453044413888 -0.25078889886649508 0 -0.37710287173325818 -0.2711091198417086 0 -0.36828299104124951 -0.26081605551440462 0 -0.37747963509906429 -0.24508953120583671 0 -0.35872453044413888 -0.25078889886649508 0 -0.36828299104124951 -0.26081605551440462 0 -0.37747963509906429 -0.24508953120583671 0 -0.35733732661955131 -0.26288598862094092 0 -0.35872453044413888 -0.25078889886649508 0 -0.36828299104124951 -0.26081605551440462 0 -0.37077059131023282 -0.27420673903703829 0 -0.34951875912658742 -0.28460269103381453 0 -0.37710287173325818 -0.2711091198417086 0 -0.3770412393053626 -0.27536550612006683 0 -0.37077059131023282 -0.27420673903703829 0 -0.3770412393053626 -0.27536550612006683 0 -0.37077059131023282 -0.27420673903703829 0 -0.37710287173325818 -0.2711091198417086 0 -0.36828299104124951 -0.26081605551440462 0 -0.37077059131023282 -0.27420673903703829 0 -0.37710287173325818 -0.2711091198417086 0 -0.37077059131023282 -0.27420673903703829 0 -0.35733732661955131 -0.26288598862094092 0 -0.36828299104124951 -0.26081605551440462 0 -0.37077059131023282 -0.27420673903703829 0 -0.34139866608006603 -0.2687790352098644 0 -0.35733732661955131 -0.26288598862094092 0 -0.37077059131023282 -0.27420673903703829 0 -0.34139866608006603 -0.2687790352098644 0 -0.37077059131023282 -0.27420673903703829 0 -0.34951875912658742 -0.28460269103381453 0 -0.34139866608006603 -0.2687790352098644 0 -0.37077059131023282 -0.27420673903703829 0 -0.34951875912658742 -0.28460269103381453 0 -0.3581763596052473 -0.30097106086504849 0 -0.34010739644885768 -0.2892065328944351 0 -0.34951875912658742 -0.28460269103381453 0 -0.34010739644885768 -0.2892065328944351 0 -0.37671758341694961 -0.29771744858697219 0 -0.37077059131023282 -0.27420673903703829 0 -0.34951875912658742 -0.28460269103381453 0 -0.37671758341694961 -0.29771744858697219 0 -0.34951875912658742 -0.28460269103381453 0 -0.37671758341694961 -0.29771744858697219 0 -0.3770412393053626 -0.27536550612006683 0 -0.37077059131023282 -0.27420673903703829 0 -0.37671758341694961 -0.29771744858697219 0 -0.34951875912658742 -0.28460269103381453 0 -0.3581763596052473 -0.30097106086504849 0 -0.37669606201677502 -0.29920373422444158 0 -0.37671758341694961 -0.29771744858697219 0 -0.3581763596052473 -0.30097106086504849 0 -0.37641717267996733 -0.3184640617331177 0 -0.37669606201677502 -0.29920373422444158 0 -0.36799370156123501 -0.30592930732763762 0 -0.37641717267996733 -0.3184640617331177 0 -0.36799370156123501 -0.30592930732763762 0 -0.35803691493684492 -0.31060122461938489 0 -0.37669606201677502 -0.29920373422444158 0 -0.36799370156123501 -0.30592930732763762 0 -0.3581763596052473 -0.30097106086504849 0 -0.37669606201677502 -0.29920373422444158 0 -0.3581763596052473 -0.30097106086504849 0 -0.36799370156123501 -0.30592930732763762 0 -0.35803691493684492 -0.31060122461938489 0 -0.3581763596052473 -0.30097106086504849 0 -0.35803691493684492 -0.31060122461938489 0 -0.33965665719371979 -0.30273838750565862 0 -0.35803691493684492 -0.31060122461938489 0 -0.33965665719371979 -0.30273838750565862 0 -0.34514704515453298 -0.31300544250539297 0 -0.3581763596052473 -0.30097106086504849 0 -0.33965665719371979 -0.30273838750565862 0 -0.34010739644885768 -0.2892065328944351 0 -0.35803691493684492 -0.31060122461938489 0 -0.3581763596052473 -0.30097106086504849 0 -0.33965665719371979 -0.30273838750565862 0 -0.3581763596052473 -0.30097106086504849 0 -0.33965665719371979 -0.30273838750565862 0 -0.33676996251121621 -0.31158184422573892 0 -0.33965665719371979 -0.30273838750565862 0 -0.34514704515453298 -0.31300544250539297 0 -0.33676996251121621 -0.31158184422573892 0 -0.33965665719371979 -0.30273838750565862 0 -0.32704471803945162 -0.30394193902942662 0 -0.33676996251121621 -0.31158184422573892 0 -0.32594772137393307 -0.30978944971135602 0 -0.32704471803945162 -0.30394193902942662 0 -0.33965665719371979 -0.30273838750565862 0 -0.32704471803945162 -0.30394193902942662 0 -0.32819068517220462 -0.29783339261299951 0 -0.33965665719371979 -0.30273838750565862 0 -0.32704471803945162 -0.30394193902942662 0 -0.32819068517220462 -0.29783339261299951 0 -0.33965665719371979 -0.30273838750565862 0 -0.33223611708196649 -0.27626932861073827 0 -0.32819068517220462 -0.29783339261299951 0 -0.33223611708196649 -0.27626932861073827 0 -0.32819068517220462 -0.29783339261299951 0 -0.34010739644885768 -0.2892065328944351 0 -0.33223611708196649 -0.27626932861073827 0 -0.34951875912658742 -0.28460269103381453 0 -0.34010739644885768 -0.2892065328944351 0 -0.32819068517220462 -0.29783339261299951 0 -0.33965665719371979 -0.30273838750565862 0 -0.34010739644885768 -0.2892065328944351 0 -0.32819068517220462 -0.29783339261299951 0 -0.31972670239926188 -0.28454160199560091 0 -0.31332574866090718 -0.291474364566292 0 -0.32819068517220462 -0.29783339261299951 0 -0.31332574866090718 -0.291474364566292 0 -0.33223611708196649 -0.27626932861073827 0 -0.32819068517220462 -0.29783339261299951 0 -0.31972670239926188 -0.28454160199560091 0 -0.31972670239926188 -0.28454160199560091 0 -0.31332574866090718 -0.291474364566292 0 -0.30937392239009109 -0.28339120160471948 0 -0.31972670239926188 -0.28454160199560091 0 -0.30937392239009109 -0.28339120160471948 0 -0.31187737399160442 -0.27618124236115132 0 -0.31992409361072222 -0.30462145692723192 0 -0.32594772137393307 -0.30978944971135602 0 -0.31307430431717392 -0.31869978567557272 0 -0.31992409361072222 -0.30462145692723192 0 -0.32594772137393307 -0.30978944971135602 0 -0.32594772137393307 -0.30978944971135602 0 -0.32704471803945162 -0.30394193902942662 0 -0.31992409361072222 -0.30462145692723192 0 -0.32594772137393307 -0.30978944971135602 0 -0.32704471803945162 -0.30394193902942662 0 -0.32819068517220462 -0.29783339261299951 0 -0.31332574866090718 -0.291474364566292 0 -0.31992409361072222 -0.30462145692723192 0 -0.32819068517220462 -0.29783339261299951 0 -0.32704471803945162 -0.30394193902942662 0 -0.32819068517220462 -0.29783339261299951 0 -0.31992409361072222 -0.30462145692723192 0 -0.32704471803945162 -0.30394193902942662 0 -0.31992409361072222 -0.30462145692723192 0 -0.32704471803945162 -0.30394193902942662 0 -0.32594772137393307 -0.30978944971135602 0 -0.31307430431717392 -0.31869978567557272 0 -0.32184288384298337 -0.33167017375041419 0 -0.32594772137393307 -0.30978944971135602 0 -0.32184288384298337 -0.33167017375041419 0 -0.32184288384298337 -0.33167017375041419 0 -0.31773804631203251 -0.35355089778947202 0 -0.32184288384298337 -0.33167017375041419 0 -0.34475024534571441 -0.34586667392980902 0 -0.31773804631203251 -0.35355089778947202 0 -0.32184288384298337 -0.33167017375041419 0 -0.34612464597635118 -0.32710031367078812 0 -0.34475024534571441 -0.34586667392980902 0 -0.33676996251121621 -0.31158184422573892 0 -0.32594772137393307 -0.30978944971135602 0 -0.34612464597635118 -0.32710031367078812 0 -0.32594772137393307 -0.30978944971135602 0 -0.34612464597635118 -0.32710031367078812 0 -0.32594772137393307 -0.30978944971135602 0 -0.32184288384298337 -0.33167017375041419 0 -0.34612464597635118 -0.32710031367078812 0 -0.33676996251121621 -0.31158184422573892 0 -0.34514704515453298 -0.31300544250539297 0 -0.34612464597635118 -0.32710031367078812 0 -0.35803691493684492 -0.31060122461938489 0 -0.34514704515453298 -0.31300544250539297 0 -0.34612464597635118 -0.32710031367078812 0 -0.35803691493684492 -0.31060122461938489 0 -0.34612464597635118 -0.32710031367078812 0 -0.35600230731325749 -0.33324145173106873 0 -0.37641717267996733 -0.3184640617331177 0 -0.35803691493684492 -0.31060122461938489 0 -0.37641717267996733 -0.3184640617331177 0 -0.35803691493684492 -0.31060122461938489 0 -0.36719759625642318 -0.33008752154143739 0 -0.35803691493684492 -0.31060122461938489 0 -0.36719759625642318 -0.33008752154143739 0 -0.35600230731325749 -0.33324145173106873 0 -0.37607676276689278 -0.3419730509543204 0 -0.37641717267996733 -0.3184640617331177 0 -0.36719759625642318 -0.33008752154143739 0 -0.37607676276689278 -0.3419730509543204 0 -0.3688763256213185 -0.34309961767568647 0 -0.36719759625642318 -0.33008752154143739 0 -0.36719759625642318 -0.33008752154143739 0 -0.36118874601324108 -0.3436521492952741 0 -0.35600230731325749 -0.33324145173106873 0 -0.3688763256213185 -0.34309961767568647 0 -0.36719759625642318 -0.33008752154143739 0 -0.36118874601324108 -0.3436521492952741 0 -0.34612464597635118 -0.32710031367078812 0 -0.35600230731325749 -0.33324145173106873 0 -0.34475024534571441 -0.34586667392980902 0 -0.36118874601324108 -0.3436521492952741 0 -0.35600230731325749 -0.33324145173106873 0 -0.34475024534571441 -0.34586667392980902 0 -0.36118874601324108 -0.3436521492952741 0 -0.34475024534571441 -0.34586667392980902 0 -0.35925477447714671 -0.35134479444962452 0 -0.34475024534571441 -0.34586667392980902 0 -0.35480891830463612 -0.3592101017575729 0 -0.33937201587241012 -0.36587749477948078 0 -0.34475024534571441 -0.34586667392980902 0 -0.35480891830463612 -0.3592101017575729 0 -0.35925477447714671 -0.35134479444962452 0 -0.36118874601324108 -0.3436521492952741 0 -0.37225797237559449 -0.35115364910559932 0 -0.36118874601324108 -0.3436521492952741 0 -0.35925477447714671 -0.35134479444962452 0 -0.36985982957495511 -0.35171195823109852 0 -0.37568304780698558 -0.36916333065311507 0 -0.37593298752455201 -0.35190228771479481 0 -0.37225797237559449 -0.35115364910559932 0 -0.35480891830463612 -0.3592101017575729 0 -0.35925477447714671 -0.35134479444962452 0 -0.36985982957495511 -0.35171195823109852 0 -0.37607676276689278 -0.3419730509543204 0 -0.3688763256213185 -0.34309961767568647 0 -0.37225797237559449 -0.35115364910559932 0 -0.37607676276689278 -0.3419730509543204 0 -0.37225797237559449 -0.35115364910559932 0 -0.37607676276689278 -0.3419730509543204 0 -0.37390838074359528 -0.35076941925389299 0 -0.37225797237559449 -0.35115364910559932 0 -0.37593298752455201 -0.35190228771479481 0 -0.37390838074359528 -0.35076941925389299 0 -0.37225797237559449 -0.35115364910559932 0 -0.3688763256213185 -0.34309961767568647 0 -0.36118874601324108 -0.3436521492952741 0 -0.37225797237559449 -0.35115364910559932 0 -0.37593298752455201 -0.35190228771479481 0 -0.37390838074359528 -0.35076941925389299 0 -0.36118874601324108 -0.3436521492952741 0 -0.36985982957495511 -0.35171195823109852 0 -0.37225797237559449 -0.35115364910559932 0 -0.37595629511297179 -0.35029264644438168 0 -0.37390838074359528 -0.35076941925389299 0 -0.37390838074359528 -0.35076941925389299 0 -0.37225797237559449 -0.35115364910559932 0 -0.36985982957495511 -0.35171195823109852 0 -0.37225797237559449 -0.35115364910559932 0 -0.37568304780698558 -0.36916333065311507 0 -0.37225797237559449 -0.35115364910559932 0 -0.36100598543278789 -0.37820409176948921 0 -0.35480891830463612 -0.3592101017575729 0 -0.36985982957495511 -0.35171195823109852 0 -0.36100598543278789 -0.37820409176948921 0 -0.36985982957495511 -0.35171195823109852 0 -0.37225797237559449 -0.35115364910559932 0 -0.36100598543278789 -0.37820409176948921 0 -0.37225797237559449 -0.35115364910559932 0 -0.36100598543278789 -0.37820409176948921 0 -0.33937201587241012 -0.36587749477948078 0 -0.36100598543278789 -0.37820409176948921 0 -0.35480891830463612 -0.3592101017575729 0 -0.33937201587241012 -0.36587749477948078 0 -0.36100598543278789 -0.37820409176948921 0 -0.33937201587241012 -0.36587749477948078 0 -0.31773804631203251 -0.35355089778947202 0 -0.33937201587241012 -0.36587749477948078 0 -0.31773804631203251 -0.35355089778947202 0 -0.32803705280137402 -0.37447550275240871 0 -0.34475024534571441 -0.34586667392980902 0 -0.33937201587241012 -0.36587749477948078 0 -0.31773804631203251 -0.35355089778947202 0 -0.31773804631203251 -0.35355089778947202 0 -0.31381007312398762 -0.37448885129246268 0 -0.31773804631203251 -0.35355089778947202 0 -0.31381007312398762 -0.37448885129246268 0 -0.32803705280137402 -0.37447550275240871 0 -0.31381007312398762 -0.37448885129246268 0 -0.29871455833571747 -0.36148408621311728 0 -0.29196992941862432 -0.3825632544476108 0 -0.31773804631203251 -0.35355089778947202 0 -0.31381007312398762 -0.37448885129246268 0 -0.29871455833571747 -0.36148408621311728 0 -0.31773804631203251 -0.35355089778947202 0 -0.29871455833571747 -0.36148408621311728 0 -0.29282778547957722 -0.33935753649529382 0 -0.31773804631203251 -0.35355089778947202 0 -0.29282778547957722 -0.33935753649529382 0 -0.29871455833571747 -0.36148408621311728 0 -0.27675503022224163 -0.36681377825091099 0 -0.29282778547957722 -0.33935753649529382 0 -0.29871455833571747 -0.36148408621311728 0 -0.27675503022224163 -0.36681377825091099 0 -0.29196992941862432 -0.3825632544476108 0 -0.27675503022224163 -0.36681377825091099 0 -0.25757508569408222 -0.36424633604315798 0 -0.26546808025963542 -0.34847395767735678 0 -0.27675503022224163 -0.36681377825091099 0 -0.25757508569408222 -0.36424633604315798 0 -0.25812358553267323 -0.37605355791306738 0 -0.25757508569408222 -0.36424633604315798 0 -0.24839247009954951 -0.37292447016044328 0 -0.24532753696728959 -0.36501789644951049 0 -0.25757508569408222 -0.36424633604315798 0 -0.25812358553267323 -0.37605355791306738 0 -0.24839247009954951 -0.37292447016044328 0 -0.25757508569408222 -0.36424633604315798 0 -0.26546808025963542 -0.34847395767735678 0 -0.24650166737573331 -0.3569693529562265 0 -0.26546808025963542 -0.34847395767735678 0 -0.24650166737573331 -0.3569693529562265 0 -0.24881121389389799 -0.33838995723746451 0 -0.27675503022224163 -0.36681377825091099 0 -0.26546808025963542 -0.34847395767735678 0 -0.29282778547957722 -0.33935753649529382 0 -0.26791752464712137 -0.32516417520111718 0 -0.27544300416693679 -0.31995488319631832 0 -0.29282778547957722 -0.33935753649529382 0 -0.26546808025963542 -0.34847395767735678 0 -0.26791752464712137 -0.32516417520111718 0 -0.29282778547957722 -0.33935753649529382 0 -0.26791752464712137 -0.32516417520111718 0 -0.29282778547957722 -0.33935753649529382 0 -0.26791752464712137 -0.32516417520111718 0 -0.24881121389389799 -0.33838995723746451 0 -0.26546808025963542 -0.34847395767735678 0 -0.26791752464712137 -0.32516417520111718 0 -0.24881121389389799 -0.33838995723746451 0 -0.26791752464712137 -0.32516417520111718 0 -0.24881121389389799 -0.33838995723746451 0 -0.2441082332202735 -0.32380704628422963 0 -0.26791752464712137 -0.32516417520111718 0 -0.2444966906846206 -0.31181945912301329 0 -0.26791752464712137 -0.32516417520111718 0 -0.26963915832665503 -0.30942012505775762 0 -0.2444966906846206 -0.31181945912301329 0 -0.26791752464712137 -0.32516417520111718 0 -0.2441082332202735 -0.32380704628422963 0 -0.2444966906846206 -0.31181945912301329 0 -0.26791752464712137 -0.32516417520111718 0 -0.27544300416693679 -0.31995488319631832 0 -0.26963915832665503 -0.30942012505775762 0 -0.26791752464712137 -0.32516417520111718 0 -0.27544300416693679 -0.31995488319631832 0 -0.27544300416693679 -0.31995488319631832 0 -0.29403167998309421 -0.32125824908992018 0 -0.29478162596868879 -0.30702079099249591 0 -0.27544300416693679 -0.31995488319631832 0 -0.29403167998309421 -0.32125824908992018 0 -0.29282778547957722 -0.33935753649529382 0 -0.31307430431717392 -0.31869978567557272 0 -0.32184288384298337 -0.33167017375041419 0 -0.29282778547957722 -0.33935753649529382 0 -0.32184288384298337 -0.33167017375041419 0 -0.31773804631203251 -0.35355089778947202 0 -0.29282778547957722 -0.33935753649529382 0 -0.31307430431717392 -0.31869978567557272 0 -0.29403167998309421 -0.32125824908992018 0 -0.29282778547957722 -0.33935753649529382 0 -0.31307430431717392 -0.31869978567557272 0 -0.29403167998309421 -0.32125824908992018 0 -0.29478162596868879 -0.30702079099249591 0 -0.31992409361072222 -0.30462145692723192 0 -0.29478162596868879 -0.30702079099249591 0 -0.31992409361072222 -0.30462145692723192 0 -0.31307430431717392 -0.31869978567557272 0 -0.29478162596868879 -0.30702079099249591 0 -0.31992409361072222 -0.30462145692723192 0 -0.30687808727867438 -0.29770175581860719 0 -0.29478162596868879 -0.30702079099249591 0 -0.30687808727867438 -0.29770175581860719 0 -0.29813438661480679 -0.29530641477552327 0 -0.29478162596868879 -0.30702079099249591 0 -0.31992409361072222 -0.30462145692723192 0 -0.2984608121496099 -0.28511533651958437 0 -0.31992409361072222 -0.30462145692723192 0 -0.30687808727867438 -0.29770175581860719 0 -0.2984608121496099 -0.28511533651958437 0 -0.31332574866090718 -0.291474364566292 0 -0.31992409361072222 -0.30462145692723192 0 -0.2984608121496099 -0.28511533651958437 0 -0.31332574866090718 -0.291474364566292 0 -0.30937392239009109 -0.28339120160471948 0 -0.2984608121496099 -0.28511533651958437 0 -0.31332574866090718 -0.291474364566292 0 -0.2984608121496099 -0.28511533651958437 0 -0.30937392239009109 -0.28339120160471948 0 -0.2984608121496099 -0.28511533651958437 0 -0.30347897474907187 -0.279643462580969 0 -0.30687808727867438 -0.29770175581860719 0 -0.29951482580247829 -0.29240083595456018 0 -0.29813438661480679 -0.29530641477552327 0 -0.30687808727867438 -0.29770175581860719 0 -0.2984608121496099 -0.28511533651958437 0 -0.29951482580247829 -0.29240083595456018 0 -0.29951482580247829 -0.29240083595456018 0 -0.29813438661480679 -0.29530641477552327 0 -0.29499124589990039 -0.29073588210889412 0 -0.2984608121496099 -0.28511533651958437 0 -0.29951482580247829 -0.29240083595456018 0 -0.29499124589990039 -0.29073588210889412 0 -0.29499124589990039 -0.29073588210889412 0 -0.29148170063899659 -0.29460773718781319 0 -0.28586576089235322 -0.28577101837165192 0 -0.29813438661480679 -0.29530641477552327 0 -0.29499124589990039 -0.29073588210889412 0 -0.29148170063899659 -0.29460773718781319 0 -0.2984608121496099 -0.28511533651958437 0 -0.29499124589990039 -0.29073588210889412 0 -0.28586576089235322 -0.28577101837165192 0 -0.29148170063899659 -0.29460773718781319 0 -0.28586576089235322 -0.28577101837165192 0 -0.2798353156189245 -0.29508903771003908 0 -0.29148170063899659 -0.29460773718781319 0 -0.29478162596868879 -0.30702079099249591 0 -0.2798353156189245 -0.29508903771003908 0 -0.29478162596868879 -0.30702079099249591 0 -0.26963915832665503 -0.30942012505775762 0 -0.2798353156189245 -0.29508903771003908 0 -0.29478162596868879 -0.30702079099249591 0 -0.26963915832665503 -0.30942012505775762 0 -0.29813438661480679 -0.29530641477552327 0 -0.29148170063899659 -0.29460773718781319 0 -0.29478162596868879 -0.30702079099249591 0 -0.27544300416693679 -0.31995488319631832 0 -0.29478162596868879 -0.30702079099249591 0 -0.26963915832665503 -0.30942012505775762 0 -0.26963915832665503 -0.30942012505775762 0 -0.26057201890547982 -0.29344093798311832 0 -0.2798353156189245 -0.29508903771003908 0 -0.26963915832665503 -0.30942012505775762 0 -0.2444966906846206 -0.31181945912301329 0 -0.26963915832665503 -0.30942012505775762 0 -0.26057201890547982 -0.29344093798311832 0 -0.2444966906846206 -0.31181945912301329 0 -0.26057201890547982 -0.29344093798311832 0 -0.27108878797196961 -0.28331686931735522 0 -0.25298377122075039 -0.27518622721876451 0 -0.26057201890547982 -0.29344093798311832 0 -0.25298377122075039 -0.27518622721876451 0 -0.2435111179254994 -0.29490773243705071 0 -0.26057201890547982 -0.29344093798311832 0 -0.27108878797196961 -0.28331686931735522 0 -0.2798353156189245 -0.29508903771003908 0 -0.28586576089235322 -0.28577101837165192 0 -0.27108878797196961 -0.28331686931735522 0 -0.2798353156189245 -0.29508903771003908 0 -0.27108878797196961 -0.28331686931735522 0 -0.27618707322233982 -0.26709712530320262 0 -0.25298377122075039 -0.27518622721876451 0 -0.28586576089235322 -0.28577101837165192 0 -0.27108878797196961 -0.28331686931735522 0 -0.27618707322233982 -0.26709712530320262 0 -0.27618707322233982 -0.26709712530320262 0 -0.25431856302814809 -0.24833495949118861 0 -0.27618707322233982 -0.26709712530320262 0 -0.25298377122075039 -0.27518622721876451 0 -0.25431856302814809 -0.24833495949118861 0 -0.27618707322233982 -0.26709712530320262 0 -0.27309361240676189 -0.24179026653703889 0 -0.25431856302814809 -0.24833495949118861 0 -0.27618707322233982 -0.26709712530320262 0 -0.2907170577323625 -0.25177677077710309 0 -0.27309361240676189 -0.24179026653703889 0 -0.27618707322233982 -0.26709712530320262 0 -0.2907170577323625 -0.25177677077710309 0 -0.29477899871119112 -0.26293378760569941 0 -0.2984608121496099 -0.28511533651958437 0 -0.28586576089235322 -0.28577101837165192 0 -0.27618707322233982 -0.26709712530320262 0 -0.2984608121496099 -0.28511533651958437 0 -0.27618707322233982 -0.26709712530320262 0 -0.27618707322233982 -0.26709712530320262 0 -0.29477899871119112 -0.26293378760569941 0 -0.29948479845841441 -0.27338487519771032 0 -0.2984608121496099 -0.28511533651958437 0 -0.27618707322233982 -0.26709712530320262 0 -0.29948479845841441 -0.27338487519771032 0 -0.29477899871119112 -0.26293378760569941 0 -0.29948479845841441 -0.27338487519771032 0 -0.30156079933714469 -0.26765617134954151 0 -0.30156079933714469 -0.26765617134954151 0 -0.30403476516136241 -0.27459464834518948 0 -0.30588444940973558 -0.27063474712059482 0 -0.29948479845841441 -0.27338487519771032 0 -0.30156079933714469 -0.26765617134954151 0 -0.30403476516136241 -0.27459464834518948 0 -0.30156079933714469 -0.26765617134954151 0 -0.30588444940973558 -0.27063474712059482 0 -0.3062135479255173 -0.26372173898871692 0 -0.2984608121496099 -0.28511533651958437 0 -0.29948479845841441 -0.27338487519771032 0 -0.30347897474907187 -0.279643462580969 0 -0.29948479845841441 -0.27338487519771032 0 -0.30403476516136241 -0.27459464834518948 0 -0.30347897474907187 -0.279643462580969 0 -0.30937392239009109 -0.28339120160471948 0 -0.30347897474907187 -0.279643462580969 0 -0.31187737399160442 -0.27618124236115132 0 -0.30403476516136241 -0.27459464834518948 0 -0.30347897474907187 -0.279643462580969 0 -0.31187737399160442 -0.27618124236115132 0 -0.30403476516136241 -0.27459464834518948 0 -0.31187737399160442 -0.27618124236115132 0 -0.30588444940973558 -0.27063474712059482 0 -0.31187737399160442 -0.27618124236115132 0 -0.30588444940973558 -0.27063474712059482 0 -0.3062135479255173 -0.26372173898871692 0 -0.31664960680882542 -0.25714232151458272 0 -0.31202674084989918 -0.26335133138269068 0 -0.30853150187083839 -0.25429835417001312 0 -0.2907170577323625 -0.25177677077710309 0 -0.29477899871119112 -0.26293378760569941 0 -0.30853150187083839 -0.25429835417001312 0 -0.31202674084989918 -0.26335133138269068 0 -0.3062135479255173 -0.26372173898871692 0 -0.30853150187083839 -0.25429835417001312 0 -0.29477899871119112 -0.26293378760569941 0 -0.30156079933714469 -0.26765617134954151 0 -0.3062135479255173 -0.26372173898871692 0 -0.29477899871119112 -0.26293378760569941 0 -0.3062135479255173 -0.26372173898871692 0 -0.30853150187083839 -0.25429835417001312 0 -0.33709504481289931 -0.46474263175187808 0 -0.33075086723682939 -0.45093918684289991 0 -0.35302422329502631 -0.44785824460859458 0 -0.33709504481289931 -0.46474263175187808 0 -0.33075086723682939 -0.45093918684289991 0 -0.32054712240525829 -0.47546959342145068 0 -0.33075086723682939 -0.45093918684289991 0 -0.34095461206840061 -0.42640878026434909 0 -0.33075086723682939 -0.45093918684289991 0 -0.35302422329502631 -0.44785824460859458 0 -0.34095461206840061 -0.42640878026434909 0 -0.33075086723682939 -0.45093918684289991 0 -0.32054706720266329 -0.44859283512714471 0 -0.3206124180200437 -0.43193612962395289 0 -0.33075086723682939 -0.45093918684289991 0 -0.32054706720266329 -0.44859283512714471 0 -0.31571728338184601 -0.45752087103574601 0 -0.32054706720266329 -0.44859283512714471 0 -0.31571728338184601 -0.45752087103574601 0 -0.30706080135445341 -0.45057148265483188 0 -0.33075086723682939 -0.45093918684289991 0 -0.32054712240525829 -0.47546959342145068 0 -0.33075086723682939 -0.45093918684289991 0 -0.31571728338184601 -0.45752087103574601 0 -0.32054712240525829 -0.47546959342145068 0 -0.32054712240525829 -0.47546959342145068 0 -0.32750579650535672 -0.48798687004089669 0 -0.32933965142182292 -0.47777380670114528 0 -0.32054712240525829 -0.47546959342145068 0 -0.31034337757368669 -0.50000000000000133 0 -0.32750579650535672 -0.48798687004089669 0 -0.33387795429423722 -0.5 0 -0.31034337757368669 -0.50000000000000133 0 -0.32054712240525829 -0.47546959342145068 0 -0.32750579650535672 -0.48798687004089669 0 -0.31034337757368669 -0.50000000000000133 0 -0.32750579650535672 -0.48798687004089669 0 -0.34342087683177741 -0.48669095008188618 0 -0.33387795429423722 -0.5 0 -0.33709504481289931 -0.46474263175187808 0 -0.32933965142182292 -0.47777380670114528 0 -0.35181335970555933 -0.47167232718529989 0 -0.34342087683177741 -0.48669095008188618 0 -0.32933965142182292 -0.47777380670114528 0 -0.35181335970555933 -0.47167232718529989 0 -0.32750579650535672 -0.48798687004089669 0 -0.34342087683177741 -0.48669095008188618 0 -0.32933965142182292 -0.47777380670114528 0 -0.33709504481289931 -0.46474263175187808 0 -0.32054712240525829 -0.47546959342145068 0 -0.32933965142182292 -0.47777380670114528 0 -0.32933965142182292 -0.47777380670114528 0 -0.35181335970555933 -0.47167232718529989 0 -0.34342087683177741 -0.48669095008188618 0 -0.35181335970555933 -0.47167232718529989 0 -0.35979455825166368 -0.48519290092039941 0 -0.34342087683177741 -0.48669095008188618 0 -0.35741253101478748 -0.5 0 -0.35979455825166368 -0.48519290092039941 0 -0.34342087683177741 -0.48669095008188618 0 -0.33387795429423722 -0.5 0 -0.35741253101478748 -0.5 0 -0.38094710773533791 -0.49999999999999839 0 -0.35741253101478748 -0.5 0 -0.37240076261097882 -0.48974555046165519 0 -0.35741253101478748 -0.5 0 -0.35979455825166368 -0.48519290092039941 0 -0.37240076261097882 -0.48974555046165519 0 -0.35181335970555933 -0.47167232718529989 0 -0.35979455825166368 -0.48519290092039941 0 -0.37411677223754131 -0.47733161267270968 0 -0.35181335970555933 -0.47167232718529989 0 -0.37411677223754131 -0.47733161267270968 0 -0.37428706798929601 -0.46557084766945539 0 -0.35979455825166368 -0.48519290092039941 0 -0.37240076261097882 -0.48974555046165519 0 -0.37411677223754131 -0.47733161267270968 0 -0.37411677223754131 -0.47733161267270968 0 -0.37428706798929601 -0.46557084766945539 0 -0.35181335970555933 -0.47167232718529989 0 -0.37428706798929601 -0.46557084766945539 0 -0.35302422329502631 -0.44785824460859458 0 -0.35181335970555933 -0.47167232718529989 0 -0.37428706798929601 -0.46557084766945539 0 -0.33709504481289931 -0.46474263175187808 0 -0.35181335970555933 -0.47167232718529989 0 -0.35302422329502631 -0.44785824460859458 0 -0.37428706798929601 -0.46557084766945539 0 -0.35302422329502631 -0.44785824460859458 0 -0.37472313619600889 -0.43545561783144832 0 -0.37428706798929601 -0.46557084766945539 0 -0.37472313619600889 -0.43545561783144832 0 -0.35302422329502631 -0.44785824460859458 0 -0.37472313619600889 -0.43545561783144832 0 -0.36076670325611282 -0.42019275678090617 0 -0.37515920440272033 -0.40534038799344108 0 -0.37472313619600889 -0.43545561783144832 0 -0.36076670325611282 -0.42019275678090617 0 -0.37515920440272033 -0.40534038799344108 0 -0.36076670325611282 -0.42019275678090617 0 -0.35115835689997099 -0.40187837368579798 0 -0.37515920440272033 -0.40534038799344108 0 -0.37472313619600889 -0.43545561783144832 0 -0.36076670325611282 -0.42019275678090617 0 -0.35115835689997099 -0.40187837368579798 0 -0.34095461206840061 -0.42640878026434909 0 -0.34815033243380111 -0.40144447968524521 0 -0.35115835689997099 -0.40187837368579798 0 -0.34095461206840061 -0.42640878026434909 0 -0.35115835689997099 -0.40187837368579798 0 -0.34095461206840061 -0.42640878026434909 0 -0.35302422329502631 -0.44785824460859458 0 -0.36076670325611282 -0.42019275678090617 0 -0.34095461206840061 -0.42640878026434909 0 -0.37543310808941849 -0.38642437359143528 0 -0.36100598543278789 -0.37820409176948921 0 -0.35115835689997099 -0.40187837368579798 0 -0.37543310808941849 -0.38642437359143528 0 -0.37568304780698558 -0.36916333065311507 0 -0.36100598543278789 -0.37820409176948921 0 -0.37543310808941849 -0.38642437359143528 0 -0.36100598543278789 -0.37820409176948921 0 -0.37515920440272033 -0.40534038799344108 0 -0.37543310808941849 -0.38642437359143528 0 -0.35115835689997099 -0.40187837368579798 0 -0.37515920440272033 -0.40534038799344108 0 -0.35115835689997099 -0.40187837368579798 0 -0.35115835689997099 -0.40187837368579798 0 -0.34646966066369161 -0.38533898881774881 0 -0.34316085436749 -0.39382471367395527 0 -0.34815033243380111 -0.40144447968524521 0 -0.35115835689997099 -0.40187837368579798 0 -0.34316085436749 -0.39382471367395527 0 -0.34815033243380111 -0.40144447968524521 0 -0.35115835689997099 -0.40187837368579798 0 -0.33937201587241012 -0.36587749477948078 0 -0.36100598543278789 -0.37820409176948921 0 -0.34646966066369161 -0.38533898881774881 0 -0.36100598543278789 -0.37820409176948921 0 -0.35115835689997099 -0.40187837368579798 0 -0.36100598543278789 -0.37820409176948921 0 -0.35115835689997099 -0.40187837368579798 0 -0.34646966066369161 -0.38533898881774881 0 -0.33937201587241012 -0.36587749477948078 0 -0.32803705280137402 -0.37447550275240871 0 -0.34646966066369161 -0.38533898881774881 0 -0.32803705280137402 -0.37447550275240871 0 -0.34646966066369161 -0.38533898881774881 0 -0.32931529664348408 -0.38869437358142001 0 -0.34646966066369161 -0.38533898881774881 0 -0.32931529664348408 -0.38869437358142001 0 -0.34316085436749 -0.39382471367395527 0 -0.34815033243380111 -0.40144447968524521 0 -0.33486919938690762 -0.39884665705885908 0 -0.32944617452305069 -0.41182817437998842 0 -0.32931529664348408 -0.38869437358142001 0 -0.34316085436749 -0.39382471367395527 0 -0.33486919938690762 -0.39884665705885908 0 -0.32931529664348408 -0.38869437358142001 0 -0.33486919938690762 -0.39884665705885908 0 -0.32365381597648563 -0.39942827076698811 0 -0.34815033243380111 -0.40144447968524521 0 -0.34316085436749 -0.39382471367395527 0 -0.33486919938690762 -0.39884665705885908 0 -0.33486919938690762 -0.39884665705885908 0 -0.32365381597648563 -0.39942827076698811 0 -0.32944617452305069 -0.41182817437998842 0 -0.32931529664348408 -0.38869437358142001 0 -0.32365381597648563 -0.39942827076698811 0 -0.30988209993594379 -0.39542680479545339 0 -0.32365381597648563 -0.39942827076698811 0 -0.30595412674790001 -0.41636475829844438 0 -0.30988209993594379 -0.39542680479545339 0 -0.31381007312398762 -0.37448885129246268 0 -0.32931529664348408 -0.38869437358142001 0 -0.30988209993594379 -0.39542680479545339 0 -0.31381007312398762 -0.37448885129246268 0 -0.32803705280137402 -0.37447550275240871 0 -0.32931529664348408 -0.38869437358142001 0 -0.34095461206840061 -0.42640878026434909 0 -0.32944617452305069 -0.41182817437998842 0 -0.3206124180200437 -0.43193612962395289 0 -0.33075086723682939 -0.45093918684289991 0 -0.34095461206840061 -0.42640878026434909 0 -0.3206124180200437 -0.43193612962395289 0 -0.34815033243380111 -0.40144447968524521 0 -0.34095461206840061 -0.42640878026434909 0 -0.32944617452305069 -0.41182817437998842 0 -0.32944617452305069 -0.41182817437998842 0 -0.3206124180200437 -0.43193612962395289 0 -0.30595412674790001 -0.41636475829844438 0 -0.32365381597648563 -0.39942827076698811 0 -0.32944617452305069 -0.41182817437998842 0 -0.30595412674790001 -0.41636475829844438 0 -0.3206124180200437 -0.43193612962395289 0 -0.30595412674790001 -0.41636475829844438 0 -0.29602166034141808 -0.43748304283089118 0 -0.30595412674790001 -0.41636475829844438 0 -0.28680587137917263 -0.41476105187328532 0 -0.29502227998321778 -0.40112933436643161 0 -0.30595412674790001 -0.41636475829844438 0 -0.28680587137917263 -0.41476105187328532 0 -0.29602166034141808 -0.43748304283089118 0 -0.28680587137917263 -0.41476105187328532 0 -0.29602166034141808 -0.43748304283089118 0 -0.27149625348017281 -0.42637325053463759 0 -0.29602166034141808 -0.43748304283089118 0 -0.27149625348017281 -0.42637325053463759 0 -0.29602166034141808 -0.43748304283089118 0 -0.27149625348017281 -0.42637325053463759 0 -0.27906578537949278 -0.44687665772048962 0 -0.31381007312398762 -0.37448885129246268 0 -0.30988209993594379 -0.39542680479545339 0 -0.31381007312398762 -0.37448885129246268 0 -0.30988209993594379 -0.39542680479545339 0 -0.29196992941862432 -0.3825632544476108 0 -0.30595412674790001 -0.41636475829844438 0 -0.30988209993594379 -0.39542680479545339 0 -0.30595412674790001 -0.41636475829844438 0 -0.30988209993594379 -0.39542680479545339 0 -0.29502227998321778 -0.40112933436643161 0 -0.30988209993594379 -0.39542680479545339 0 -0.29502227998321778 -0.40112933436643161 0 -0.29196992941862432 -0.3825632544476108 0 -0.28680587137917263 -0.41476105187328532 0 -0.29502227998321778 -0.40112933436643161 0 -0.2806661672136338 -0.39648987600255969 0 -0.29502227998321778 -0.40112933436643161 0 -0.29196992941862432 -0.3825632544476108 0 -0.2806661672136338 -0.39648987600255969 0 -0.27675503022224163 -0.36681377825091099 0 -0.29196992941862432 -0.3825632544476108 0 -0.26924588117792803 -0.38334910629271668 0 -0.29196992941862432 -0.3825632544476108 0 -0.26924588117792803 -0.38334910629271668 0 -0.2806661672136338 -0.39648987600255969 0 -0.27675503022224163 -0.36681377825091099 0 -0.26924588117792803 -0.38334910629271668 0 -0.25812358553267323 -0.37605355791306738 0 -0.28680587137917263 -0.41476105187328532 0 -0.2806661672136338 -0.39648987600255969 0 -0.26326431180229581 -0.40282557300305732 0 -0.26924588117792803 -0.38334910629271668 0 -0.2806661672136338 -0.39648987600255969 0 -0.26326431180229581 -0.40282557300305732 0 -0.26326431180229581 -0.40282557300305732 0 -0.2504897110532438 -0.38524934403489181 0 -0.24394706363899241 -0.39877073912243299 0 -0.26326431180229581 -0.40282557300305732 0 -0.24697084661892749 -0.41526345823838401 0 -0.24394706363899241 -0.39877073912243299 0 -0.26924588117792803 -0.38334910629271668 0 -0.26326431180229581 -0.40282557300305732 0 -0.2504897110532438 -0.38524934403489181 0 -0.26924588117792803 -0.38334910629271668 0 -0.2504897110532438 -0.38524934403489181 0 -0.25812358553267323 -0.37605355791306738 0 -0.2504897110532438 -0.38524934403489181 0 -0.25812358553267323 -0.37605355791306738 0 -0.24839247009954951 -0.37292447016044328 0 -0.28680587137917263 -0.41476105187328532 0 -0.26326431180229581 -0.40282557300305732 0 -0.27149625348017281 -0.42637325053463759 0 -0.27149625348017281 -0.42637325053463759 0 -0.24697084661892749 -0.41526345823838401 0 -0.26326431180229581 -0.40282557300305732 0 -0.27149625348017281 -0.42637325053463759 0 -0.24697084661892749 -0.41526345823838401 0 -0.27149625348017281 -0.42637325053463759 0 -0.25687425522332558 -0.44642006451091643 0 -0.24697084661892749 -0.41526345823838401 0 -0.25687425522332558 -0.44642006451091643 0 -0.27607931301277078 -0.46657199895299017 0 -0.25409384940020791 -0.47271975939701871 0 -0.25687425522332558 -0.44642006451091643 0 -0.27607931301277078 -0.46657199895299017 0 -0.27906578537949278 -0.44687665772048962 0 -0.27149625348017281 -0.42637325053463759 0 -0.25687425522332558 -0.44642006451091643 0 -0.27906578537949278 -0.44687665772048962 0 -0.29602166034141808 -0.43748304283089118 0 -0.27906578537949278 -0.44687665772048962 0 -0.29968055871002541 -0.46203125713240301 0 -0.27607931301277078 -0.46657199895299017 0 -0.27906578537949278 -0.44687665772048962 0 -0.29968055871002541 -0.46203125713240301 0 -0.31571728338184601 -0.45752087103574601 0 -0.29968055871002541 -0.46203125713240301 0 -0.30706080135445341 -0.45057148265483188 0 -0.31571728338184601 -0.45752087103574601 0 -0.32054712240525829 -0.47546959342145068 0 -0.29968055871002541 -0.46203125713240301 0 -0.32054706720266329 -0.44859283512714471 0 -0.29602166034141808 -0.43748304283089118 0 -0.32054706720266329 -0.44859283512714471 0 -0.3206124180200437 -0.43193612962395289 0 -0.29602166034141808 -0.43748304283089118 0 -0.32054706720266329 -0.44859283512714471 0 -0.29602166034141808 -0.43748304283089118 0 -0.30706080135445341 -0.45057148265483188 0 -0.29602166034141808 -0.43748304283089118 0 -0.29968055871002541 -0.46203125713240301 0 -0.30706080135445341 -0.45057148265483188 0 -0.32054712240525829 -0.47546959342145068 0 -0.31034337757368669 -0.50000000000000133 0 -0.2941570887960146 -0.48201569375099518 0 -0.32054712240525829 -0.47546959342145068 0 -0.29968055871002541 -0.46203125713240301 0 -0.2941570887960146 -0.48201569375099518 0 -0.27607931301277078 -0.46657199895299017 0 -0.29968055871002541 -0.46203125713240301 0 -0.2941570887960146 -0.48201569375099518 0 -0.2941570887960146 -0.48201569375099518 0 -0.28248249767631262 -0.5 0 -0.27039562620846602 -0.48462576079096858 0 -0.31034337757368669 -0.50000000000000133 0 -0.2941570887960146 -0.48201569375099518 0 -0.28248249767631262 -0.5 0 -0.28248249767631262 -0.5 0 -0.27039562620846602 -0.48462576079096858 0 -0.25462161777893849 -0.5 0 -0.27607931301277078 -0.46657199895299017 0 -0.2941570887960146 -0.48201569375099518 0 -0.27039562620846602 -0.48462576079096858 0 -0.27607931301277078 -0.46657199895299017 0 -0.27039562620846602 -0.48462576079096858 0 -0.25409384940020791 -0.47271975939701871 0 -0.27039562620846602 -0.48462576079096858 0 -0.25409384940020791 -0.47271975939701871 0 -0.25462161777893849 -0.5 0 -0.25462161777893849 -0.5 0 -0.23155232774708009 -0.47932355884050398 0 -0.22676073788156451 -0.5 0 -0.25409384940020791 -0.47271975939701871 0 -0.25462161777893849 -0.5 0 -0.23155232774708009 -0.47932355884050398 0 -0.25409384940020791 -0.47271975939701871 0 -0.23155232774708009 -0.47932355884050398 0 -0.2350399564306665 -0.45937717328673289 0 -0.23155232774708009 -0.47932355884050398 0 -0.2350399564306665 -0.45937717328673289 0 -0.2080224731694312 -0.47403962225972662 0 -0.23155232774708009 -0.47932355884050398 0 -0.22676073788156451 -0.5 0 -0.2080224731694312 -0.47403962225972662 0 -0.25687425522332558 -0.44642006451091643 0 -0.2350399564306665 -0.45937717328673289 0 -0.23180750449586429 -0.4343742486430574 0 -0.25687425522332558 -0.44642006451091643 0 -0.25409384940020791 -0.47271975939701871 0 -0.2350399564306665 -0.45937717328673289 0 -0.2350399564306665 -0.45937717328673289 0 -0.21590660946663959 -0.44883644739355771 0 -0.2080224731694312 -0.47403962225972662 0 -0.2350399564306665 -0.45937717328673289 0 -0.21590660946663959 -0.44883644739355771 0 -0.23180750449586429 -0.4343742486430574 0 -0.21590660946663959 -0.44883644739355771 0 -0.1943898331460783 -0.4473597119794826 0 -0.20910912931781811 -0.42543372189632289 0 -0.21590660946663959 -0.44883644739355771 0 -0.1943898331460783 -0.4473597119794826 0 -0.2080224731694312 -0.47403962225972662 0 -0.1943898331460783 -0.4473597119794826 0 -0.2080224731694312 -0.47403962225972662 0 -0.17967053697433849 -0.46928570206264231 0 -0.22676073788156451 -0.5 0 -0.2080224731694312 -0.47403962225972662 0 -0.19889985798419041 -0.5 0 -0.2080224731694312 -0.47403962225972662 0 -0.1821948971586228 -0.48648437486529872 0 -0.17967053697433849 -0.46928570206264231 0 -0.2080224731694312 -0.47403962225972662 0 -0.19889985798419041 -0.5 0 -0.1821948971586228 -0.48648437486529872 0 -0.19889985798419041 -0.5 0 -0.1821948971586228 -0.48648437486529872 0 -0.17103897808681609 -0.49999999999999778 0 -0.1821948971586228 -0.48648437486529872 0 -0.17103897808681609 -0.49999999999999778 0 -0.16495124080259491 -0.49121169214579941 0 -0.17103897808681609 -0.49999999999999778 0 -0.16495124080259491 -0.49121169214579941 0 -0.17103897808681609 -0.49999999999999778 0 -0.16495124080259491 -0.49121169214579941 0 -0.15905149781887321 -0.49999999999999961 0 -0.16495124080259491 -0.49121169214579941 0 -0.15905149781887321 -0.49999999999999961 0 -0.1545750311736096 -0.49062041690426861 0 -0.16495124080259491 -0.49121169214579941 0 -0.15905149781887321 -0.49999999999999961 0 -0.16495124080259491 -0.49121169214579941 0 -0.16530166315622061 -0.47155300009798301 0 -0.17967053697433849 -0.46928570206264231 0 -0.16495124080259491 -0.49121169214579941 0 -0.16530166315622061 -0.47155300009798301 0 -0.15083103946930049 -0.47082765280793248 0 -0.16495124080259491 -0.49121169214579941 0 -0.1545750311736096 -0.49062041690426861 0 -0.15083103946930049 -0.47082765280793248 0 -0.16495124080259491 -0.49121169214579941 0 -0.15083103946930049 -0.47082765280793248 0 -0.16495124080259491 -0.49121169214579941 0 -0.17967053697433849 -0.46928570206264231 0 -0.1821948971586228 -0.48648437486529872 0 -0.16495124080259491 -0.49121169214579941 0 -0.17967053697433849 -0.46928570206264231 0 -0.1943898331460783 -0.4473597119794826 0 -0.17967053697433849 -0.46928570206264231 0 -0.1943898331460783 -0.4473597119794826 0 -0.17967053697433849 -0.46928570206264231 0 -0.1657538353786501 -0.45488695337555668 0 -0.1943898331460783 -0.4473597119794826 0 -0.1657538353786501 -0.45488695337555668 0 -0.1755027511393909 -0.43471579892562301 0 -0.1657538353786501 -0.45488695337555668 0 -0.15761868306950341 -0.43586407366366631 0 -0.1755027511393909 -0.43471579892562301 0 -0.16530166315622061 -0.47155300009798301 0 -0.1657538353786501 -0.45488695337555668 0 -0.15083103946930049 -0.47082765280793248 0 -0.16530166315622061 -0.47155300009798301 0 -0.17967053697433849 -0.46928570206264231 0 -0.1657538353786501 -0.45488695337555668 0 -0.13671083813600751 -0.45044361347006462 0 -0.15083103946930049 -0.47082765280793248 0 -0.13671083813600751 -0.45044361347006462 0 -0.13441782301728619 -0.47175980973682791 0 -0.15083103946930049 -0.47082765280793248 0 -0.1657538353786501 -0.45488695337555668 0 -0.13671083813600751 -0.45044361347006462 0 -0.15083103946930049 -0.47082765280793248 0 -0.13671083813600751 -0.45044361347006462 0 -0.13816776916695811 -0.432543871779144 0 -0.15761868306950341 -0.43586407366366631 0 -0.1657538353786501 -0.45488695337555668 0 -0.13671083813600751 -0.45044361347006462 0 -0.15761868306950341 -0.43586407366366631 0 -0.13671083813600751 -0.45044361347006462 0 -0.13816776916695811 -0.432543871779144 0 -0.1225906368027144 -0.43005957413219659 0 -0.13671083813600751 -0.45044361347006462 0 -0.1225906368027144 -0.43005957413219659 0 -0.13671083813600751 -0.45044361347006462 0 -0.13441782301728619 -0.47175980973682791 0 -0.1201929706126502 -0.46127799294672761 0 -0.13441782301728619 -0.47175980973682791 0 -0.12605423818426559 -0.48707922202292669 0 -0.14429533434837091 -0.48908967660720287 0 -0.13441782301728619 -0.47175980973682791 0 -0.12605423818426559 -0.48707922202292669 0 -0.1201929706126502 -0.46127799294672761 0 -0.1295391708778694 -0.5 0 -0.12605423818426559 -0.48707922202292669 0 -0.14429533434837091 -0.48908967660720287 0 -0.15905149781887321 -0.49999999999999961 0 -0.1295391708778694 -0.5 0 -0.14429533434837091 -0.48908967660720287 0 -0.15905149781887321 -0.49999999999999961 0 -0.14429533434837091 -0.48908967660720287 0 -0.1545750311736096 -0.49062041690426861 0 -0.14429533434837091 -0.48908967660720287 0 -0.1545750311736096 -0.49062041690426861 0 -0.15083103946930049 -0.47082765280793248 0 -0.13441782301728619 -0.47175980973682791 0 -0.14429533434837091 -0.48908967660720287 0 -0.15083103946930049 -0.47082765280793248 0 -0.15345949684661231 -0.4053237642064671 0 -0.15136585988972451 -0.39002590355483568 0 -0.13982663417143551 -0.39933000433158738 0 -0.15136585988972451 -0.39002590355483568 0 -0.1368738238800834 -0.3880397179408614 0 -0.13982663417143551 -0.39933000433158738 0 -0.15345949684661231 -0.4053237642064671 0 -0.13982663417143551 -0.39933000433158738 0 -0.1398029654186671 -0.41064466143528439 0 -0.15136585988972451 -0.39002590355483568 0 -0.1368738238800834 -0.3880397179408614 0 -0.13959568407155781 -0.37291875636350952 0 -0.15136585988972451 -0.39002590355483568 0 -0.15951650330528561 -0.37856285477961621 0 -0.13959568407155781 -0.37291875636350952 0 -0.1368738238800834 -0.3880397179408614 0 -0.12625141541498519 -0.38197991289387551 0 -0.13959568407155781 -0.37291875636350952 0 -0.1368738238800834 -0.3880397179408614 0 -0.12625141541498519 -0.38197991289387551 0 -0.1273295258527142 -0.39594401256049883 0 -0.1368738238800834 -0.3880397179408614 0 -0.1273295258527142 -0.39594401256049883 0 -0.13982663417143551 -0.39933000433158738 0 -0.13982663417143551 -0.39933000433158738 0 -0.1295768038857959 -0.40463739140698729 0 -0.1398029654186671 -0.41064466143528439 0 -0.1273295258527142 -0.39594401256049883 0 -0.13982663417143551 -0.39933000433158738 0 -0.1295768038857959 -0.40463739140698729 0 -0.1273295258527142 -0.39594401256049883 0 -0.1295768038857959 -0.40463739140698729 0 -0.1219584454402414 -0.40406961642135292 0 -0.1295768038857959 -0.40463739140698729 0 -0.1296119374269841 -0.41417592727859581 0 -0.1225700411049412 -0.40994677461386392 0 -0.1296119374269841 -0.41417592727859581 0 -0.12315425937001 -0.41747458531602638 0 -0.1225700411049412 -0.40994677461386392 0 -0.1296119374269841 -0.41417592727859581 0 -0.13713184062407599 -0.42036644340313623 0 -0.12908399078123631 -0.42243277819987513 0 -0.1296119374269841 -0.41417592727859581 0 -0.12908399078123631 -0.42243277819987513 0 -0.12315425937001 -0.41747458531602638 0 -0.1296119374269841 -0.41417592727859581 0 -0.13713184062407599 -0.42036644340313623 0 -0.1398029654186671 -0.41064466143528439 0 -0.1295768038857959 -0.40463739140698729 0 -0.1296119374269841 -0.41417592727859581 0 -0.1398029654186671 -0.41064466143528439 0 -0.12908399078123631 -0.42243277819987513 0 -0.13816776916695811 -0.432543871779144 0 -0.1225906368027144 -0.43005957413219659 0 -0.13713184062407599 -0.42036644340313623 0 -0.12908399078123631 -0.42243277819987513 0 -0.13816776916695811 -0.432543871779144 0 -0.13816776916695811 -0.432543871779144 0 -0.14921107955709881 -0.42003443798493328 0 -0.15761868306950341 -0.43586407366366631 0 -0.13713184062407599 -0.42036644340313623 0 -0.13816776916695811 -0.432543871779144 0 -0.14921107955709881 -0.42003443798493328 0 -0.15345949684661231 -0.4053237642064671 0 -0.1398029654186671 -0.41064466143528439 0 -0.14921107955709881 -0.42003443798493328 0 -0.13713184062407599 -0.42036644340313623 0 -0.1398029654186671 -0.41064466143528439 0 -0.14921107955709881 -0.42003443798493328 0 -0.15345949684661231 -0.4053237642064671 0 -0.14921107955709881 -0.42003443798493328 0 -0.17009787391258249 -0.41611158199907422 0 -0.14921107955709881 -0.42003443798493328 0 -0.17009787391258249 -0.41611158199907422 0 -0.15761868306950341 -0.43586407366366631 0 -0.17009787391258249 -0.41611158199907422 0 -0.15761868306950341 -0.43586407366366631 0 -0.1755027511393909 -0.43471579892562301 0 -0.1943898331460783 -0.4473597119794826 0 -0.1755027511393909 -0.43471579892562301 0 -0.18951413900105801 -0.42212105940109063 0 -0.17009787391258249 -0.41611158199907422 0 -0.1755027511393909 -0.43471579892562301 0 -0.18951413900105801 -0.42212105940109063 0 -0.17009787391258249 -0.41611158199907422 0 -0.18562609472684241 -0.40161550393767448 0 -0.18951413900105801 -0.42212105940109063 0 -0.18562609472684241 -0.40161550393767448 0 -0.16863204450281991 -0.39380366607865908 0 -0.18254917963999329 -0.38971973427100182 0 -0.17009787391258249 -0.41611158199907422 0 -0.18562609472684241 -0.40161550393767448 0 -0.16863204450281991 -0.39380366607865908 0 -0.18562609472684241 -0.40161550393767448 0 -0.18254917963999329 -0.38971973427100182 0 -0.19364364155811911 -0.391297223908462 0 -0.15345949684661231 -0.4053237642064671 0 -0.17009787391258249 -0.41611158199907422 0 -0.16863204450281991 -0.39380366607865908 0 -0.15345949684661231 -0.4053237642064671 0 -0.15136585988972451 -0.39002590355483568 0 -0.16863204450281991 -0.39380366607865908 0 -0.15951650330528561 -0.37856285477961621 0 -0.17625218554490921 -0.38180729220612769 0 -0.1663610822414904 -0.3702523776444529 0 -0.16863204450281991 -0.39380366607865908 0 -0.15951650330528561 -0.37856285477961621 0 -0.17625218554490921 -0.38180729220612769 0 -0.15136585988972451 -0.39002590355483568 0 -0.16863204450281991 -0.39380366607865908 0 -0.15951650330528561 -0.37856285477961621 0 -0.17625218554490921 -0.38180729220612769 0 -0.1663610822414904 -0.3702523776444529 0 -0.18579747934449059 -0.37379744869579251 0 -0.16863204450281991 -0.39380366607865908 0 -0.17625218554490921 -0.38180729220612769 0 -0.18254917963999329 -0.38971973427100182 0 -0.17625218554490921 -0.38180729220612769 0 -0.18254917963999329 -0.38971973427100182 0 -0.18859193186727599 -0.38007498522408562 0 -0.17625218554490921 -0.38180729220612769 0 -0.18859193186727599 -0.38007498522408562 0 -0.18579747934449059 -0.37379744869579251 0 -0.18859193186727599 -0.38007498522408562 0 -0.2014200033848125 -0.37119512976538899 0 -0.18859193186727599 -0.38007498522408562 0 -0.2014200033848125 -0.37119512976538899 0 -0.18579747934449059 -0.37379744869579251 0 -0.18859193186727599 -0.38007498522408562 0 -0.1989719328316337 -0.38216032023399737 0 -0.2014200033848125 -0.37119512976538899 0 -0.1989719328316337 -0.38216032023399737 0 -0.20694960464083431 -0.38128159833907621 0 -0.2014200033848125 -0.37119512976538899 0 -0.1989719328316337 -0.38216032023399737 0 -0.19364364155811911 -0.391297223908462 0 -0.20620014074293039 -0.39180645285032889 0 -0.18859193186727599 -0.38007498522408562 0 -0.1989719328316337 -0.38216032023399737 0 -0.19364364155811911 -0.391297223908462 0 -0.18254917963999329 -0.38971973427100182 0 -0.18859193186727599 -0.38007498522408562 0 -0.19364364155811911 -0.391297223908462 0 -0.18562609472684241 -0.40161550393767448 0 -0.19364364155811911 -0.391297223908462 0 -0.20208872018367391 -0.4070926974887904 0 -0.19364364155811911 -0.391297223908462 0 -0.20620014074293039 -0.39180645285032889 0 -0.20208872018367391 -0.4070926974887904 0 -0.20620014074293039 -0.39180645285032889 0 -0.21479853281951461 -0.38638530273916921 0 -0.22382842548955789 -0.4035077318131633 0 -0.20620014074293039 -0.39180645285032889 0 -0.20208872018367391 -0.4070926974887904 0 -0.22382842548955789 -0.4035077318131633 0 -0.21479853281951461 -0.38638530273916921 0 -0.20694960464083431 -0.38128159833907621 0 -0.21335741342528061 -0.3748607861064962 0 -0.21479853281951461 -0.38638530273916921 0 -0.22412886374227589 -0.38235217247817599 0 -0.21335741342528061 -0.3748607861064962 0 -0.20694960464083431 -0.38128159833907621 0 -0.2014200033848125 -0.37119512976538899 0 -0.21335741342528061 -0.3748607861064962 0 -0.20620014074293039 -0.39180645285032889 0 -0.21479853281951461 -0.38638530273916921 0 -0.20694960464083431 -0.38128159833907621 0 -0.1989719328316337 -0.38216032023399737 0 -0.20620014074293039 -0.39180645285032889 0 -0.20694960464083431 -0.38128159833907621 0 -0.1943898331460783 -0.4473597119794826 0 -0.20910912931781811 -0.42543372189632289 0 -0.1943898331460783 -0.4473597119794826 0 -0.18951413900105801 -0.42212105940109063 0 -0.20910912931781811 -0.42543372189632289 0 -0.18951413900105801 -0.42212105940109063 0 -0.20208872018367391 -0.4070926974887904 0 -0.20910912931781811 -0.42543372189632289 0 -0.18562609472684241 -0.40161550393767448 0 -0.18951413900105801 -0.42212105940109063 0 -0.20208872018367391 -0.4070926974887904 0 -0.20208872018367391 -0.4070926974887904 0 -0.20910912931781811 -0.42543372189632289 0 -0.22382842548955789 -0.4035077318131633 0 -0.20910912931781811 -0.42543372189632289 0 -0.22382842548955789 -0.4035077318131633 0 -0.21590660946663959 -0.44883644739355771 0 -0.20910912931781811 -0.42543372189632289 0 -0.23180750449586429 -0.4343742486430574 0 -0.20910912931781811 -0.42543372189632289 0 -0.23180750449586429 -0.4343742486430574 0 -0.22382842548955789 -0.4035077318131633 0 -0.23180750449586429 -0.4343742486430574 0 -0.24697084661892749 -0.41526345823838401 0 -0.22382842548955789 -0.4035077318131633 0 -0.25687425522332558 -0.44642006451091643 0 -0.23180750449586429 -0.4343742486430574 0 -0.24697084661892749 -0.41526345823838401 0 -0.22412886374227589 -0.38235217247817599 0 -0.2351820232309369 -0.38700758852266848 0 -0.22952037500089251 -0.37311519752493849 0 -0.22412886374227589 -0.38235217247817599 0 -0.22186900287429051 -0.37074082218821958 0 -0.21335741342528061 -0.3748607861064962 0 -0.22412886374227589 -0.38235217247817599 0 -0.22952037500089251 -0.37311519752493849 0 -0.22186900287429051 -0.37074082218821958 0 -0.22382842548955789 -0.4035077318131633 0 -0.24394706363899241 -0.39877073912243299 0 -0.2351820232309369 -0.38700758852266848 0 -0.21479853281951461 -0.38638530273916921 0 -0.22412886374227589 -0.38235217247817599 0 -0.22382842548955789 -0.4035077318131633 0 -0.22412886374227589 -0.38235217247817599 0 -0.22382842548955789 -0.4035077318131633 0 -0.2351820232309369 -0.38700758852266848 0 -0.24697084661892749 -0.41526345823838401 0 -0.22382842548955789 -0.4035077318131633 0 -0.24394706363899241 -0.39877073912243299 0 -0.2504897110532438 -0.38524934403489181 0 -0.24394706363899241 -0.39877073912243299 0 -0.2351820232309369 -0.38700758852266848 0 -0.2504897110532438 -0.38524934403489181 0 -0.2351820232309369 -0.38700758852266848 0 -0.24036284435674521 -0.37772398595485779 0 -0.2351820232309369 -0.38700758852266848 0 -0.24036284435674521 -0.37772398595485779 0 -0.22952037500089251 -0.37311519752493849 0 -0.2504897110532438 -0.38524934403489181 0 -0.24036284435674521 -0.37772398595485779 0 -0.24839247009954951 -0.37292447016044328 0 -0.24839247009954951 -0.37292447016044328 0 -0.24532753696728959 -0.36501789644951049 0 -0.23861636880082099 -0.36955921174380651 0 -0.24036284435674521 -0.37772398595485779 0 -0.24839247009954951 -0.37292447016044328 0 -0.23861636880082099 -0.36955921174380651 0 -0.25757508569408222 -0.36424633604315798 0 -0.24532753696728959 -0.36501789644951049 0 -0.24650166737573331 -0.3569693529562265 0 -0.24532753696728959 -0.36501789644951049 0 -0.24234943749700691 -0.36154613291017651 0 -0.24650166737573331 -0.3569693529562265 0 -0.24532753696728959 -0.36501789644951049 0 -0.24234943749700691 -0.36154613291017651 0 -0.23928568589256061 -0.36455139619594779 0 -0.24234943749700691 -0.36154613291017651 0 -0.23928568589256061 -0.36455139619594779 0 -0.23696933381926599 -0.3585493042599866 0 -0.24532753696728959 -0.36501789644951049 0 -0.23928568589256061 -0.36455139619594779 0 -0.23861636880082099 -0.36955921174380651 0 -0.23928568589256061 -0.36455139619594779 0 -0.23861636880082099 -0.36955921174380651 0 -0.23345080570298909 -0.36409891217005902 0 -0.23928568589256061 -0.36455139619594779 0 -0.23345080570298909 -0.36409891217005902 0 -0.23696933381926599 -0.3585493042599866 0 -0.24036284435674521 -0.37772398595485779 0 -0.23861636880082099 -0.36955921174380651 0 -0.22952037500089251 -0.37311519752493849 0 -0.23345080570298909 -0.36409891217005902 0 -0.22186900287429051 -0.37074082218821958 0 -0.21424807490234879 -0.36231527430669241 0 -0.22952037500089251 -0.37311519752493849 0 -0.23345080570298909 -0.36409891217005902 0 -0.22186900287429051 -0.37074082218821958 0 -0.23696933381926599 -0.3585493042599866 0 -0.21424807490234879 -0.36231527430669241 0 -0.23861636880082099 -0.36955921174380651 0 -0.22952037500089251 -0.37311519752493849 0 -0.23345080570298909 -0.36409891217005902 0 -0.23345080570298909 -0.36409891217005902 0 -0.23696933381926599 -0.3585493042599866 0 -0.21424807490234879 -0.36231527430669241 0 -0.22913587473404851 -0.35200963246311751 0 -0.2097464541822805 -0.33582260124732738 0 -0.22913587473404851 -0.35200963246311751 0 -0.23696933381926599 -0.3585493042599866 0 -0.21424807490234879 -0.36231527430669241 0 -0.22913587473404851 -0.35200963246311751 0 -0.21998707993494029 -0.33959044394559312 0 -0.22913587473404851 -0.35200963246311751 0 -0.21424807490234879 -0.36231527430669241 0 -0.22913587473404851 -0.35200963246311751 0 -0.23696933381926599 -0.3585493042599866 0 -0.22913587473404851 -0.35200963246311751 0 -0.24881121389389799 -0.33838995723746451 0 -0.22913587473404851 -0.35200963246311751 0 -0.23696933381926599 -0.3585493042599866 0 -0.24650166737573331 -0.3569693529562265 0 -0.22913587473404851 -0.35200963246311751 0 -0.24650166737573331 -0.3569693529562265 0 -0.24881121389389799 -0.33838995723746451 0 -0.23696933381926599 -0.3585493042599866 0 -0.24650166737573331 -0.3569693529562265 0 -0.24234943749700691 -0.36154613291017651 0 -0.23696933381926599 -0.3585493042599866 0 -0.24650166737573331 -0.3569693529562265 0 -0.22913587473404851 -0.35200963246311751 0 -0.24881121389389799 -0.33838995723746451 0 -0.2325545649384867 -0.33453283978227571 0 -0.24881121389389799 -0.33838995723746451 0 -0.2441082332202735 -0.32380704628422963 0 -0.2325545649384867 -0.33453283978227571 0 -0.23613058105125781 -0.31890710479075163 0 -0.2279063026952847 -0.3135077128279592 0 -0.2444966906846206 -0.31181945912301329 0 -0.2441082332202735 -0.32380704628422963 0 -0.23498207165859719 -0.32537142019391418 0 -0.23613058105125781 -0.31890710479075163 0 -0.2441082332202735 -0.32380704628422963 0 -0.23498207165859719 -0.32537142019391418 0 -0.2325545649384867 -0.33453283978227571 0 -0.2441082332202735 -0.32380704628422963 0 -0.23613058105125781 -0.31890710479075163 0 -0.2444966906846206 -0.31181945912301329 0 -0.2279063026952847 -0.3135077128279592 0 -0.2193464910840433 -0.31976030368968739 0 -0.21134622408423179 -0.310554889255794 0 -0.23613058105125781 -0.31890710479075163 0 -0.2279063026952847 -0.3135077128279592 0 -0.22829430606921119 -0.32293804105388452 0 -0.23498207165859719 -0.32537142019391418 0 -0.22829430606921119 -0.32293804105388452 0 -0.2325545649384867 -0.33453283978227571 0 -0.23498207165859719 -0.32537142019391418 0 -0.23613058105125781 -0.31890710479075163 0 -0.22829430606921119 -0.32293804105388452 0 -0.22829430606921119 -0.32293804105388452 0 -0.2193464910840433 -0.31976030368968739 0 -0.22209033975117781 -0.32887735541776358 0 -0.2279063026952847 -0.3135077128279592 0 -0.22829430606921119 -0.32293804105388452 0 -0.2193464910840433 -0.31976030368968739 0 -0.22913587473404851 -0.35200963246311751 0 -0.2325545649384867 -0.33453283978227571 0 -0.21998707993494029 -0.33959044394559312 0 -0.22913587473404851 -0.35200963246311751 0 -0.21998707993494029 -0.33959044394559312 0 -0.2097464541822805 -0.33582260124732738 0 -0.22829430606921119 -0.32293804105388452 0 -0.2325545649384867 -0.33453283978227571 0 -0.22209033975117781 -0.32887735541776358 0 -0.2325545649384867 -0.33453283978227571 0 -0.22209033975117781 -0.32887735541776358 0 -0.21998707993494029 -0.33959044394559312 0 -0.21998707993494029 -0.33959044394559312 0 -0.21026925672920721 -0.32756514861737779 0 -0.22209033975117781 -0.32887735541776358 0 -0.21998707993494029 -0.33959044394559312 0 -0.21026925672920721 -0.32756514861737779 0 -0.21998707993494029 -0.33959044394559312 0 -0.2097464541822805 -0.33582260124732738 0 -0.21026925672920721 -0.32756514861737779 0 -0.2097464541822805 -0.33582260124732738 0 -0.21026925672920721 -0.32756514861737779 0 -0.21026925672920721 -0.32756514861737779 0 -0.21134622408423179 -0.310554889255794 0 -0.19267178705524021 -0.30578920503631912 0 -0.21026925672920721 -0.32756514861737779 0 -0.21134622408423179 -0.310554889255794 0 -0.2097464541822805 -0.33582260124732738 0 -0.21026925672920721 -0.32756514861737779 0 -0.19254159852174429 -0.31996122112867409 0 -0.2193464910840433 -0.31976030368968739 0 -0.21026925672920721 -0.32756514861737779 0 -0.21134622408423179 -0.310554889255794 0 -0.2193464910840433 -0.31976030368968739 0 -0.22209033975117781 -0.32887735541776358 0 -0.21026925672920721 -0.32756514861737779 0 -0.2097464541822805 -0.33582260124732738 0 -0.1943588054861482 -0.32297640251143073 0 -0.19254159852174429 -0.31996122112867409 0 -0.21026925672920721 -0.32756514861737779 0 -0.19267178705524021 -0.30578920503631912 0 -0.21026925672920721 -0.32756514861737779 0 -0.19254159852174429 -0.31996122112867409 0 -0.19267178705524021 -0.30578920503631912 0 -0.2097464541822805 -0.33582260124732738 0 -0.19254159852174429 -0.31996122112867409 0 -0.1943588054861482 -0.32297640251143073 0 -0.18737083868624629 -0.33075534874643497 0 -0.18479650728396149 -0.32227615663527998 0 -0.1943588054861482 -0.32297640251143073 0 -0.19254159852174429 -0.31996122112867409 0 -0.1789711567900161 -0.3101302037755338 0 -0.2097464541822805 -0.33582260124732738 0 -0.19466829689393059 -0.33824472710720138 0 -0.19565175395430129 -0.3512554891803924 0 -0.2097464541822805 -0.33582260124732738 0 -0.1943588054861482 -0.32297640251143073 0 -0.19466829689393059 -0.33824472710720138 0 -0.2097464541822805 -0.33582260124732738 0 -0.1943588054861482 -0.32297640251143073 0 -0.1943588054861482 -0.32297640251143073 0 -0.19466829689393059 -0.33824472710720138 0 -0.18737083868624629 -0.33075534874643497 0 -0.19466829689393059 -0.33824472710720138 0 -0.18164424501215659 -0.34621916084723381 0 -0.18737083868624629 -0.33075534874643497 0 -0.19466829689393059 -0.33824472710720138 0 -0.19565175395430129 -0.3512554891803924 0 -0.18164424501215659 -0.34621916084723381 0 -0.20800359978069241 -0.36335027445133922 0 -0.18480326185087809 -0.36719565018674682 0 -0.19565175395430129 -0.3512554891803924 0 -0.20800359978069241 -0.36335027445133922 0 -0.18480326185087809 -0.36719565018674682 0 -0.2014200033848125 -0.37119512976538899 0 -0.18480326185087809 -0.36719565018674682 0 -0.18579747934449059 -0.37379744869579251 0 -0.2014200033848125 -0.37119512976538899 0 -0.20800359978069241 -0.36335027445133922 0 -0.18480326185087809 -0.36719565018674682 0 -0.2014200033848125 -0.37119512976538899 0 -0.20800359978069241 -0.36335027445133922 0 -0.20803809997708481 -0.36661394692190907 0 -0.20800359978069241 -0.36335027445133922 0 -0.20803809997708481 -0.36661394692190907 0 -0.21424807490234879 -0.36231527430669241 0 -0.20800359978069241 -0.36335027445133922 0 -0.20803809997708481 -0.36661394692190907 0 -0.2014200033848125 -0.37119512976538899 0 -0.20803809997708481 -0.36661394692190907 0 -0.21335741342528061 -0.3748607861064962 0 -0.2014200033848125 -0.37119512976538899 0 -0.20803809997708481 -0.36661394692190907 0 -0.20803809997708481 -0.36661394692190907 0 -0.21335741342528061 -0.3748607861064962 0 -0.21424807490234879 -0.36231527430669241 0 -0.22186900287429051 -0.37074082218821958 0 -0.21335741342528061 -0.3748607861064962 0 -0.21424807490234879 -0.36231527430669241 0 -0.20800359978069241 -0.36335027445133922 0 -0.21424807490234879 -0.36231527430669241 0 -0.20803809997708481 -0.36661394692190907 0 -0.21424807490234879 -0.36231527430669241 0 -0.2097464541822805 -0.33582260124732738 0 -0.19565175395430129 -0.3512554891803924 0 -0.20800359978069241 -0.36335027445133922 0 -0.2097464541822805 -0.33582260124732738 0 -0.20800359978069241 -0.36335027445133922 0 -0.2097464541822805 -0.33582260124732738 0 -0.20800359978069241 -0.36335027445133922 0 -0.21424807490234879 -0.36231527430669241 0 -0.22913587473404851 -0.35200963246311751 0 -0.2097464541822805 -0.33582260124732738 0 -0.21424807490234879 -0.36231527430669241 0 -0.2335542019388327 -0.26090262277066528 0 -0.21472073189145299 -0.25725591714607071 0 -0.22837296648480071 -0.23789375384220129 0 -0.2335542019388327 -0.26090262277066528 0 -0.21357196166535461 -0.27540027352014051 0 -0.21472073189145299 -0.25725591714607071 0 -0.25298377122075039 -0.27518622721876451 0 -0.2335542019388327 -0.26090262277066528 0 -0.25431856302814809 -0.24833495949118861 0 -0.25298377122075039 -0.27518622721876451 0 -0.2335542019388327 -0.26090262277066528 0 -0.23093648268818689 -0.28342115129973 0 -0.2335542019388327 -0.26090262277066528 0 -0.23093648268818689 -0.28342115129973 0 -0.21357196166535461 -0.27540027352014051 0 -0.23093648268818689 -0.28342115129973 0 -0.21242319143925911 -0.29354462989421048 0 -0.21357196166535461 -0.27540027352014051 0 -0.23093648268818689 -0.28342115129973 0 -0.2435111179254994 -0.29490773243705071 0 -0.2284599410619414 -0.30268204450860919 0 -0.23093648268818689 -0.28342115129973 0 -0.2284599410619414 -0.30268204450860919 0 -0.21242319143925911 -0.29354462989421048 0 -0.25298377122075039 -0.27518622721876451 0 -0.23093648268818689 -0.28342115129973 0 -0.2435111179254994 -0.29490773243705071 0 -0.2444966906846206 -0.31181945912301329 0 -0.2284599410619414 -0.30268204450860919 0 -0.2435111179254994 -0.29490773243705071 0 -0.2444966906846206 -0.31181945912301329 0 -0.2284599410619414 -0.30268204450860919 0 -0.26057201890547982 -0.29344093798311832 0 -0.2435111179254994 -0.29490773243705071 0 -0.2444966906846206 -0.31181945912301329 0 -0.2279063026952847 -0.3135077128279592 0 -0.2444966906846206 -0.31181945912301329 0 -0.2284599410619414 -0.30268204450860919 0 -0.2284599410619414 -0.30268204450860919 0 -0.21242319143925911 -0.29354462989421048 0 -0.2279063026952847 -0.3135077128279592 0 -0.2284599410619414 -0.30268204450860919 0 -0.21134622408423179 -0.310554889255794 0 -0.2284599410619414 -0.30268204450860919 0 -0.21134622408423179 -0.310554889255794 0 -0.21242319143925911 -0.29354462989421048 0 -0.21134622408423179 -0.310554889255794 0 -0.19267178705524021 -0.30578920503631912 0 -0.21242319143925911 -0.29354462989421048 0 -0.21134622408423179 -0.310554889255794 0 -0.21242319143925911 -0.29354462989421048 0 -0.19267178705524021 -0.30578920503631912 0 -0.19410774352861071 -0.2831088592208712 0 -0.21242319143925911 -0.29354462989421048 0 -0.19410774352861071 -0.2831088592208712 0 -0.21242319143925911 -0.29354462989421048 0 -0.21357196166535461 -0.27540027352014051 0 -0.19410774352861071 -0.2831088592208712 0 -0.21242319143925911 -0.29354462989421048 0 -0.21242319143925911 -0.29354462989421048 0 -0.21357196166535461 -0.27540027352014051 0 -0.21357196166535461 -0.27540027352014051 0 -0.21472073189145299 -0.25725591714607071 0 -0.19410774352861071 -0.2831088592208712 0 -0.21357196166535461 -0.27540027352014051 0 -0.1965391795889786 -0.26204425282134669 0 -0.19410774352861071 -0.2831088592208712 0 -0.1965391795889786 -0.26204425282134669 0 -0.17579229561796161 -0.27267308854753308 0 -0.1965391795889786 -0.26204425282134669 0 -0.20565562739327201 -0.24334207984173631 0 -0.18863044441395099 -0.24733650333174401 0 -0.1965391795889786 -0.26204425282134669 0 -0.18340152769721799 -0.25642831405215172 0 -0.18863044441395099 -0.24733650333174401 0 -0.1965391795889786 -0.26204425282134669 0 -0.21472073189145299 -0.25725591714607071 0 -0.20565562739327201 -0.24334207984173631 0 -0.21357196166535461 -0.27540027352014051 0 -0.1965391795889786 -0.26204425282134669 0 -0.21472073189145299 -0.25725591714607071 0 -0.15747684770731041 -0.26223731787419863 0 -0.16344648285301799 -0.25937253054906129 0 -0.17579229561796161 -0.27267308854753308 0 -0.1593809120407062 -0.25278805690175971 0 -0.16344648285301799 -0.25937253054906129 0 -0.1534429259631987 -0.25724555178864622 0 -0.1593809120407062 -0.25278805690175971 0 -0.16344648285301799 -0.25937253054906129 0 -0.16709258238786229 -0.25188408856254202 0 -0.1593809120407062 -0.25278805690175971 0 -0.16709258238786229 -0.25188408856254202 0 -0.1601832428566283 -0.24550858739866141 0 -0.15747684770731041 -0.26223731787419863 0 -0.16344648285301799 -0.25937253054906129 0 -0.1534429259631987 -0.25724555178864622 0 -0.16344648285301799 -0.25937253054906129 0 -0.1534429259631987 -0.25724555178864622 0 -0.16344648285301799 -0.25937253054906129 0 -0.17379217291466831 -0.25992581321180469 0 -0.17579229561796161 -0.27267308854753308 0 -0.16344648285301799 -0.25937253054906129 0 -0.16709258238786229 -0.25188408856254202 0 -0.17379217291466831 -0.25992581321180469 0 -0.16709258238786229 -0.25188408856254202 0 -0.17679077873490559 -0.25046109420941731 0 -0.17379217291466831 -0.25992581321180469 0 -0.1965391795889786 -0.26204425282134669 0 -0.18340152769721799 -0.25642831405215172 0 -0.17579229561796161 -0.27267308854753308 0 -0.17679077873490559 -0.25046109420941731 0 -0.18340152769721799 -0.25642831405215172 0 -0.17379217291466831 -0.25992581321180469 0 -0.18340152769721799 -0.25642831405215172 0 -0.17379217291466831 -0.25992581321180469 0 -0.17579229561796161 -0.27267308854753308 0 -0.17679077873490559 -0.25046109420941731 0 -0.18340152769721799 -0.25642831405215172 0 -0.18863044441395099 -0.24733650333174401 0 -0.19410774352861071 -0.2831088592208712 0 -0.17579229561796161 -0.27267308854753308 0 -0.17507431738127369 -0.28401326145526029 0 -0.19410774352861071 -0.2831088592208712 0 -0.17579229561796161 -0.27267308854753308 0 -0.15747684770731041 -0.26223731787419863 0 -0.17507431738127369 -0.28401326145526029 0 -0.15747684770731041 -0.26223731787419863 0 -0.17579229561796161 -0.27267308854753308 0 -0.15747684770731041 -0.26223731787419863 0 -0.17579229561796161 -0.27267308854753308 0 -0.17507431738127369 -0.28401326145526029 0 -0.15747684770731041 -0.26223731787419863 0 -0.1596399504195592 -0.27820623095404468 0 -0.17507431738127369 -0.28401326145526029 0 -0.1596399504195592 -0.27820623095404468 0 -0.1624028041075358 -0.29248408411088062 0 -0.1494793968803598 -0.28070198605355251 0 -0.1624028041075358 -0.29248408411088062 0 -0.15973767967650701 -0.30493196891575292 0 -0.15108397830665751 -0.29236825921418419 0 -0.1624028041075358 -0.29248408411088062 0 -0.17507431738127369 -0.28401326145526029 0 -0.17391538329452061 -0.29489800819007239 0 -0.1596399504195592 -0.27820623095404468 0 -0.1624028041075358 -0.29248408411088062 0 -0.17507431738127369 -0.28401326145526029 0 -0.19267178705524021 -0.30578920503631912 0 -0.19410774352861071 -0.2831088592208712 0 -0.17507431738127369 -0.28401326145526029 0 -0.19267178705524021 -0.30578920503631912 0 -0.17507431738127369 -0.28401326145526029 0 -0.17391538329452061 -0.29489800819007239 0 -0.19267178705524021 -0.30578920503631912 0 -0.17507431738127369 -0.28401326145526029 0 -0.17391538329452061 -0.29489800819007239 0 -0.17532621133471249 -0.30426618216820789 0 -0.19254159852174429 -0.31996122112867409 0 -0.19267178705524021 -0.30578920503631912 0 -0.17532621133471249 -0.30426618216820789 0 -0.19267178705524021 -0.30578920503631912 0 -0.17391538329452061 -0.29489800819007239 0 -0.17532621133471249 -0.30426618216820789 0 -0.19254159852174429 -0.31996122112867409 0 -0.17532621133471249 -0.30426618216820789 0 -0.1789711567900161 -0.3101302037755338 0 -0.19254159852174429 -0.31996122112867409 0 -0.17532621133471249 -0.30426618216820789 0 -0.17532621133471249 -0.30426618216820789 0 -0.15973767967650701 -0.30493196891575292 0 -0.16582550601247259 -0.31644195918285489 0 -0.1624028041075358 -0.29248408411088062 0 -0.17532621133471249 -0.30426618216820789 0 -0.15973767967650701 -0.30493196891575292 0 -0.1624028041075358 -0.29248408411088062 0 -0.17532621133471249 -0.30426618216820789 0 -0.1624028041075358 -0.29248408411088062 0 -0.17391538329452061 -0.29489800819007239 0 -0.17532621133471249 -0.30426618216820789 0 -0.144593184228827 -0.30237793828586917 0 -0.15261731536399281 -0.31699983390472031 0 -0.1327552185807534 -0.31482398186879779 0 -0.15973767967650701 -0.30493196891575292 0 -0.144593184228827 -0.30237793828586917 0 -0.15261731536399281 -0.31699983390472031 0 -0.15973767967650701 -0.30493196891575292 0 -0.144593184228827 -0.30237793828586917 0 -0.15108397830665751 -0.29236825921418419 0 -0.144593184228827 -0.30237793828586917 0 -0.1304175251842298 -0.30012492429455973 0 -0.1327552185807534 -0.31482398186879779 0 -0.1304175251842298 -0.30012492429455973 0 -0.1327552185807534 -0.31482398186879779 0 -0.11567190875339491 -0.3081878681979589 0 -0.1304175251842298 -0.30012492429455973 0 -0.13697378053928061 -0.28594316463020741 0 -0.11725087491461519 -0.29108504565108578 0 -0.144593184228827 -0.30237793828586917 0 -0.1304175251842298 -0.30012492429455973 0 -0.13697378053928061 -0.28594316463020741 0 -0.13697378053928061 -0.28594316463020741 0 -0.15108397830665751 -0.29236825921418419 0 -0.1494793968803598 -0.28070198605355251 0 -0.144593184228827 -0.30237793828586917 0 -0.13697378053928061 -0.28594316463020741 0 -0.15108397830665751 -0.29236825921418419 0 -0.1624028041075358 -0.29248408411088062 0 -0.15108397830665751 -0.29236825921418419 0 -0.1494793968803598 -0.28070198605355251 0 -0.1624028041075358 -0.29248408411088062 0 -0.1494793968803598 -0.28070198605355251 0 -0.15747684770731041 -0.26223731787419863 0 -0.1596399504195592 -0.27820623095404468 0 -0.1503927610565664 -0.27179087804580171 0 -0.1596399504195592 -0.27820623095404468 0 -0.1494793968803598 -0.28070198605355251 0 -0.1503927610565664 -0.27179087804580171 0 -0.15747684770731041 -0.26223731787419863 0 -0.1503927610565664 -0.27179087804580171 0 -0.1469785187108 -0.2635474229235048 0 -0.1503927610565664 -0.27179087804580171 0 -0.13966748117377659 -0.26847157538705668 0 -0.1469785187108 -0.2635474229235048 0 -0.1503927610565664 -0.27179087804580171 0 -0.14153524490660671 -0.2763029116229278 0 -0.13966748117377659 -0.26847157538705668 0 -0.1494793968803598 -0.28070198605355251 0 -0.1503927610565664 -0.27179087804580171 0 -0.14153524490660671 -0.2763029116229278 0 -0.13697378053928061 -0.28594316463020741 0 -0.1494793968803598 -0.28070198605355251 0 -0.14153524490660671 -0.2763029116229278 0 -0.13697378053928061 -0.28594316463020741 0 -0.14153524490660671 -0.2763029116229278 0 -0.13219795163187159 -0.27110871778552531 0 -0.13697378053928061 -0.28594316463020741 0 -0.1173011125765811 -0.2721428964285707 0 -0.13697378053928061 -0.28594316463020741 0 -0.13219795163187159 -0.27110871778552531 0 -0.1173011125765811 -0.2721428964285707 0 -0.13219795163187159 -0.27110871778552531 0 -0.1333337708168415 -0.26377523499205202 0 -0.12600056203783161 -0.26301541000095829 0 -0.13219795163187159 -0.27110871778552531 0 -0.12600056203783161 -0.26301541000095829 0 -0.1173011125765811 -0.2721428964285707 0 -0.13219795163187159 -0.27110871778552531 0 -0.13966748117377659 -0.26847157538705668 0 -0.1333337708168415 -0.26377523499205202 0 -0.14153524490660671 -0.2763029116229278 0 -0.13219795163187159 -0.27110871778552531 0 -0.13966748117377659 -0.26847157538705668 0 -0.13966748117377659 -0.26847157538705668 0 -0.13807993829988649 -0.25979154560904222 0 -0.1333337708168415 -0.26377523499205202 0 -0.13807993829988649 -0.25979154560904222 0 -0.1333337708168415 -0.26377523499205202 0 -0.13072292094084129 -0.25648892617767749 0 -0.12600056203783161 -0.26301541000095829 0 -0.13072292094084129 -0.25648892617767749 0 -0.1187556211832122 -0.25814451816493872 0 -0.1333337708168415 -0.26377523499205202 0 -0.12600056203783161 -0.26301541000095829 0 -0.13072292094084129 -0.25648892617767749 0 -0.13072292094084129 -0.25648892617767749 0 -0.13218950310710981 -0.25272660122947088 0 -0.1187556211832122 -0.25814451816493872 0 -0.13072292094084129 -0.25648892617767749 0 -0.13218950310710981 -0.25272660122947088 0 -0.13218950310710981 -0.25272660122947088 0 -0.1459019403517107 -0.25564217047089421 0 -0.13375162957080131 -0.24871916986845621 0 -0.13218950310710981 -0.25272660122947088 0 -0.1459019403517107 -0.25564217047089421 0 -0.13218950310710981 -0.25272660122947088 0 -0.13375162957080131 -0.24871916986845621 0 -0.1459019403517107 -0.25564217047089421 0 -0.13375162957080131 -0.24871916986845621 0 -0.13807993829988649 -0.25979154560904222 0 -0.13218950310710981 -0.25272660122947088 0 -0.1459019403517107 -0.25564217047089421 0 -0.13807993829988649 -0.25979154560904222 0 -0.13072292094084129 -0.25648892617767749 0 -0.13218950310710981 -0.25272660122947088 0 -0.1459019403517107 -0.25564217047089421 0 -0.1534429259631987 -0.25724555178864622 0 -0.1378886282313006 -0.2381062402767252 0 -0.13966748117377659 -0.26847157538705668 0 -0.13807993829988649 -0.25979154560904222 0 -0.1469785187108 -0.2635474229235048 0 -0.13807993829988649 -0.25979154560904222 0 -0.1459019403517107 -0.25564217047089421 0 -0.1469785187108 -0.2635474229235048 0 -0.15747684770731041 -0.26223731787419863 0 -0.1459019403517107 -0.25564217047089421 0 -0.1534429259631987 -0.25724555178864622 0 -0.15747684770731041 -0.26223731787419863 0 -0.1459019403517107 -0.25564217047089421 0 -0.1469785187108 -0.2635474229235048 0 -0.15747684770731041 -0.26223731787419863 0 -0.1459019403517107 -0.25564217047089421 0 -0.15747684770731041 -0.26223731787419863 0 -0.1534429259631987 -0.25724555178864622 0 -0.1593809120407062 -0.25278805690175971 0 -0.1534429259631987 -0.25724555178864622 0 -0.15289321433053751 -0.246830478479277 0 -0.1459019403517107 -0.25564217047089421 0 -0.1534429259631987 -0.25724555178864622 0 -0.17143624801538501 -0.35840063883308271 0 -0.1580141783998408 -0.34710035810185619 0 -0.15489216358121211 -0.36256913283011211 0 -0.17143624801538501 -0.35840063883308271 0 -0.1580141783998408 -0.34710035810185619 0 -0.18164424501215659 -0.34621916084723381 0 -0.17143624801538501 -0.35840063883308271 0 -0.1663610822414904 -0.3702523776444529 0 -0.15489216358121211 -0.36256913283011211 0 -0.15951650330528561 -0.37856285477961621 0 -0.1663610822414904 -0.3702523776444529 0 -0.15489216358121211 -0.36256913283011211 0 -0.17143624801538501 -0.35840063883308271 0 -0.1663610822414904 -0.3702523776444529 0 -0.18480326185087809 -0.36719565018674682 0 -0.1663610822414904 -0.3702523776444529 0 -0.18480326185087809 -0.36719565018674682 0 -0.1663610822414904 -0.3702523776444529 0 -0.18480326185087809 -0.36719565018674682 0 -0.18579747934449059 -0.37379744869579251 0 -0.18480326185087809 -0.36719565018674682 0 -0.18579747934449059 -0.37379744869579251 0 -0.18480326185087809 -0.36719565018674682 0 -0.18164424501215659 -0.34621916084723381 0 -0.19565175395430129 -0.3512554891803924 0 -0.18480326185087809 -0.36719565018674682 0 -0.18164424501215659 -0.34621916084723381 0 -0.17143624801538501 -0.35840063883308271 0 -0.18480326185087809 -0.36719565018674682 0 -0.18164424501215659 -0.34621916084723381 0 -0.18164424501215659 -0.34621916084723381 0 -0.17848522817343529 -0.32524267150772068 0 -0.1629610955137164 -0.33076913941787212 0 -0.18164424501215659 -0.34621916084723381 0 -0.17848522817343529 -0.32524267150772068 0 -0.18164424501215659 -0.34621916084723381 0 -0.18737083868624629 -0.33075534874643497 0 -0.17848522817343529 -0.32524267150772068 0 -0.17532621133471249 -0.30426618216820789 0 -0.17848522817343529 -0.32524267150772068 0 -0.17532621133471249 -0.30426618216820789 0 -0.1789711567900161 -0.3101302037755338 0 -0.17848522817343529 -0.32524267150772068 0 -0.17532621133471249 -0.30426618216820789 0 -0.17848522817343529 -0.32524267150772068 0 -0.16582550601247259 -0.31644195918285489 0 -0.1943588054861482 -0.32297640251143073 0 -0.1789711567900161 -0.3101302037755338 0 -0.18479650728396149 -0.32227615663527998 0 -0.1789711567900161 -0.3101302037755338 0 -0.18479650728396149 -0.32227615663527998 0 -0.17848522817343529 -0.32524267150772068 0 -0.1943588054861482 -0.32297640251143073 0 -0.1789711567900161 -0.3101302037755338 0 -0.18737083868624629 -0.33075534874643497 0 -0.18479650728396149 -0.32227615663527998 0 -0.17848522817343529 -0.32524267150772068 0 -0.17848522817343529 -0.32524267150772068 0 -0.16582550601247259 -0.31644195918285489 0 -0.1629610955137164 -0.33076913941787212 0 -0.16582550601247259 -0.31644195918285489 0 -0.1629610955137164 -0.33076913941787212 0 -0.15261731536399281 -0.31699983390472031 0 -0.15973767967650701 -0.30493196891575292 0 -0.16582550601247259 -0.31644195918285489 0 -0.15261731536399281 -0.31699983390472031 0 -0.1580141783998408 -0.34710035810185619 0 -0.18164424501215659 -0.34621916084723381 0 -0.1629610955137164 -0.33076913941787212 0 -0.1580141783998408 -0.34710035810185619 0 -0.1629610955137164 -0.33076913941787212 0 -0.14559484309128301 -0.3331209990743299 0 -0.14559484309128301 -0.3331209990743299 0 -0.15261731536399281 -0.31699983390472031 0 -0.1327552185807534 -0.31482398186879779 0 -0.1629610955137164 -0.33076913941787212 0 -0.14559484309128301 -0.3331209990743299 0 -0.15261731536399281 -0.31699983390472031 0 -0.14559484309128301 -0.3331209990743299 0 -0.1327552185807534 -0.31482398186879779 0 -0.12678352480283511 -0.3369129194106073 0 -0.14559484309128301 -0.3331209990743299 0 -0.12678352480283511 -0.3369129194106073 0 -0.14043772588655989 -0.35211976174212622 0 -0.12678352480283511 -0.3369129194106073 0 -0.14043772588655989 -0.35211976174212622 0 -0.1203130985899742 -0.35955571918490481 0 -0.1580141783998408 -0.34710035810185619 0 -0.14043772588655989 -0.35211976174212622 0 -0.15489216358121211 -0.36256913283011211 0 -0.1580141783998408 -0.34710035810185619 0 -0.14559484309128301 -0.3331209990743299 0 -0.14043772588655989 -0.35211976174212622 0 -0.14043772588655989 -0.35211976174212622 0 -0.15489216358121211 -0.36256913283011211 0 -0.13959568407155781 -0.37291875636350952 0 -0.15951650330528561 -0.37856285477961621 0 -0.15489216358121211 -0.36256913283011211 0 -0.13959568407155781 -0.37291875636350952 0 -0.12625141541498519 -0.38197991289387551 0 -0.13959568407155781 -0.37291875636350952 0 -0.1203130985899742 -0.35955571918490481 0 -0.14043772588655989 -0.35211976174212622 0 -0.13959568407155781 -0.37291875636350952 0 -0.1203130985899742 -0.35955571918490481 0 -0.1203130985899742 -0.35955571918490481 0 -0.11384267237711319 -0.38219851895920232 0 -0.1203130985899742 -0.35955571918490481 0 -0.10849363524981311 -0.36442991456039969 0 -0.11384267237711319 -0.38219851895920232 0 -0.12625141541498519 -0.38197991289387551 0 -0.1203130985899742 -0.35955571918490481 0 -0.11384267237711319 -0.38219851895920232 0 -0.10849363524981311 -0.36442991456039969 0 -0.096157591159299352 -0.35547454281719221 0 -0.10176491866177829 -0.38015793077534599 0 -0.096157591159299352 -0.35547454281719221 0 -0.10176491866177829 -0.38015793077534599 0 -0.096157591159299352 -0.35547454281719221 0 -0.10176491866177829 -0.38015793077534599 0 -0.085276019388031976 -0.37619188405436782 0 -0.096157591159299352 -0.35547454281719221 0 -0.10964553082547281 -0.34513317088572909 0 -0.090550263656820479 -0.33079115485903843 0 -0.10849363524981311 -0.36442991456039969 0 -0.096157591159299352 -0.35547454281719221 0 -0.10964553082547281 -0.34513317088572909 0 -0.1203130985899742 -0.35955571918490481 0 -0.10849363524981311 -0.36442991456039969 0 -0.10964553082547281 -0.34513317088572909 0 -0.12678352480283511 -0.3369129194106073 0 -0.1203130985899742 -0.35955571918490481 0 -0.10964553082547281 -0.34513317088572909 0 -0.12678352480283511 -0.3369129194106073 0 -0.1203130985899742 -0.35955571918490481 0 -0.12678352480283511 -0.3369129194106073 0 -0.10964553082547281 -0.34513317088572909 0 -0.1112875311940303 -0.32576775904759792 0 -0.1327552185807534 -0.31482398186879779 0 -0.12678352480283511 -0.3369129194106073 0 -0.1112875311940303 -0.32576775904759792 0 -0.1327552185807534 -0.31482398186879779 0 -0.1112875311940303 -0.32576775904759792 0 -0.11567190875339491 -0.3081878681979589 0 -0.1112875311940303 -0.32576775904759792 0 -0.1011365257202933 -0.31403431577096802 0 -0.11567190875339491 -0.3081878681979589 0 -0.1112875311940303 -0.32576775904759792 0 -0.1011365257202933 -0.31403431577096802 0 -0.090550263656820479 -0.33079115485903843 0 -0.10964553082547281 -0.34513317088572909 0 -0.1112875311940303 -0.32576775904759792 0 -0.090550263656820479 -0.33079115485903843 0 -0.096157591159299352 -0.35547454281719221 0 -0.090550263656820479 -0.33079115485903843 0 -0.096157591159299352 -0.35547454281719221 0 -0.090550263656820479 -0.33079115485903843 0 -0.073144777225565616 -0.33606175945158517 0 -0.090550263656820479 -0.33079115485903843 0 -0.084942936154341619 -0.30610776690088481 0 -0.090550263656820479 -0.33079115485903843 0 -0.073144777225565616 -0.33606175945158517 0 -0.084942936154341619 -0.30610776690088481 0 -0.1011365257202933 -0.31403431577096802 0 -0.090550263656820479 -0.33079115485903843 0 -0.084942936154341619 -0.30610776690088481 0 -0.073144777225565616 -0.33606175945158517 0 -0.084942936154341619 -0.30610776690088481 0 -0.060613113796085999 -0.32288269869712272 0 -0.073144777225565616 -0.33606175945158517 0 -0.076755031766953086 -0.35884624094615858 0 -0.063306301319701316 -0.35299520754669739 0 -0.076755031766953086 -0.35884624094615858 0 -0.063306301319701316 -0.35299520754669739 0 -0.065890469742167113 -0.37350781086095058 0 -0.076755031766953086 -0.35884624094615858 0 -0.065890469742167113 -0.37350781086095058 0 -0.085276019388031976 -0.37619188405436782 0 -0.096157591159299352 -0.35547454281719221 0 -0.076755031766953086 -0.35884624094615858 0 -0.085276019388031976 -0.37619188405436782 0 -0.096157591159299352 -0.35547454281719221 0 -0.073144777225565616 -0.33606175945158517 0 -0.076755031766953086 -0.35884624094615858 0 -0.097628444613881649 -0.25834262822693399 0 -0.1173011125765811 -0.2721428964285707 0 -0.097628444613881649 -0.25834262822693399 0 -0.1187556211832122 -0.25814451816493872 0 -0.1098930818979398 -0.24798588601512411 0 -0.13218950310710981 -0.25272660122947088 0 -0.1187556211832122 -0.25814451816493872 0 -0.1098930818979398 -0.24798588601512411 0 -0.097628444613881649 -0.25834262822693399 0 -0.1187556211832122 -0.25814451816493872 0 -0.1173011125765811 -0.2721428964285707 0 -0.13218950310710981 -0.25272660122947088 0 -0.1098930818979398 -0.24798588601512411 0 -0.12600056203783161 -0.26301541000095829 0 -0.1187556211832122 -0.25814451816493872 0 -0.1173011125765811 -0.2721428964285707 0 -0.097628444613881649 -0.25834262822693399 0 -0.1173011125765811 -0.2721428964285707 0 -0.090762408808148426 -0.27102181932101072 0 -0.1173011125765811 -0.2721428964285707 0 -0.096655829275762523 -0.28444542957314378 0 -0.090762408808148426 -0.27102181932101072 0 -0.096655829275762523 -0.28444542957314378 0 -0.10322998884287909 -0.29931702984935987 0 -0.084942936154341619 -0.30610776690088481 0 -0.096655829275762523 -0.28444542957314378 0 -0.11725087491461519 -0.29108504565108578 0 -0.10322998884287909 -0.29931702984935987 0 -0.13697378053928061 -0.28594316463020741 0 -0.1173011125765811 -0.2721428964285707 0 -0.11725087491461519 -0.29108504565108578 0 -0.1173011125765811 -0.2721428964285707 0 -0.096655829275762523 -0.28444542957314378 0 -0.11725087491461519 -0.29108504565108578 0 -0.11725087491461519 -0.29108504565108578 0 -0.11567190875339491 -0.3081878681979589 0 -0.10322998884287909 -0.29931702984935987 0 -0.1304175251842298 -0.30012492429455973 0 -0.11725087491461519 -0.29108504565108578 0 -0.11567190875339491 -0.3081878681979589 0 -0.1011365257202933 -0.31403431577096802 0 -0.10322998884287909 -0.29931702984935987 0 -0.084942936154341619 -0.30610776690088481 0 -0.1011365257202933 -0.31403431577096802 0 -0.11567190875339491 -0.3081878681979589 0 -0.10322998884287909 -0.29931702984935987 0 -0.084942936154341619 -0.30610776690088481 0 -0.066237696895848033 -0.30175990202967712 0 -0.078368201618682937 -0.28822753231137022 0 -0.084942936154341619 -0.30610776690088481 0 -0.066237696895848033 -0.30175990202967712 0 -0.060613113796085999 -0.32288269869712272 0 -0.066237696895848033 -0.30175990202967712 0 -0.078368201618682937 -0.28822753231137022 0 -0.057136779716869042 -0.28712205926022771 0 -0.078368201618682937 -0.28822753231137022 0 -0.072744725061100565 -0.27289296274949931 0 -0.057136779716869042 -0.28712205926022771 0 -0.096655829275762523 -0.28444542957314378 0 -0.084942936154341619 -0.30610776690088481 0 -0.078368201618682937 -0.28822753231137022 0 -0.096655829275762523 -0.28444542957314378 0 -0.078368201618682937 -0.28822753231137022 0 -0.090762408808148426 -0.27102181932101072 0 -0.078368201618682937 -0.28822753231137022 0 -0.090762408808148426 -0.27102181932101072 0 -0.072744725061100565 -0.27289296274949931 0 -0.090762408808148426 -0.27102181932101072 0 -0.072744725061100565 -0.27289296274949931 0 -0.081281336266817772 -0.26097832242812891 0 -0.072744725061100565 -0.27289296274949931 0 -0.067161912638977472 -0.25903173736147111 0 -0.055745381016590281 -0.2682223094504298 0 -0.072744725061100565 -0.27289296274949931 0 -0.067161912638977472 -0.25903173736147111 0 -0.081281336266817772 -0.26097832242812891 0 -0.067161912638977472 -0.25903173736147111 0 -0.081281336266817772 -0.26097832242812891 0 -0.077955776651182085 -0.24454236002529731 0 -0.067161912638977472 -0.25903173736147111 0 -0.056939497423126581 -0.24878681181634871 0 -0.077955776651182085 -0.24454236002529731 0 -0.097628444613881649 -0.25834262822693399 0 -0.081281336266817772 -0.26097832242812891 0 -0.077955776651182085 -0.24454236002529731 0 -0.097628444613881649 -0.25834262822693399 0 -0.090762408808148426 -0.27102181932101072 0 -0.081281336266817772 -0.26097832242812891 0 -0.097628444613881649 -0.25834262822693399 0 -0.077955776651182085 -0.24454236002529731 0 -0.025857267464119819 -0.25506418495113531 0 -0.050191684441297867 -0.2485850187836515 0 -0.034199021844566052 -0.25740496373097072 0 -0.056939497423126581 -0.24878681181634871 0 -0.034199021844566052 -0.25740496373097072 0 -0.041398382443623198 -0.25192549838374201 0 -0.056939497423126581 -0.24878681181634871 0 -0.041398382443623198 -0.25192549838374201 0 -0.025857267464119819 -0.25506418495113531 0 -0.050191684441297867 -0.2485850187836515 0 -0.034199021844566052 -0.25740496373097072 0 -0.048255079716108998 -0.25800015923011232 0 -0.056939497423126581 -0.24878681181634871 0 -0.034199021844566052 -0.25740496373097072 0 -0.041398382443623198 -0.25192549838374201 0 -0.025857267464119819 -0.25506418495113531 0 -0.041398382443623198 -0.25192549838374201 0 -0.025857267464119819 -0.25506418495113531 0 -0.034199021844566052 -0.25740496373097072 0 -0.037307574571523318 -0.26201401924185519 0 -0.024854767991187229 -0.26705994663832661 0 -0.037307574571523318 -0.26201401924185519 0 -0.048255079716108998 -0.25800015923011232 0 -0.046606779304586107 -0.26584835010199509 0 -0.034199021844566052 -0.25740496373097072 0 -0.037307574571523318 -0.26201401924185519 0 -0.048255079716108998 -0.25800015923011232 0 -0.05702546769870083 -0.25851025446459042 0 -0.048255079716108998 -0.25800015923011232 0 -0.056939497423126581 -0.24878681181634871 0 -0.041398382443623198 -0.25192549838374201 0 -0.056939497423126581 -0.24878681181634871 0 -0.067161912638977472 -0.25903173736147111 0 -0.05702546769870083 -0.25851025446459042 0 -0.056939497423126581 -0.24878681181634871 0 -0.067161912638977472 -0.25903173736147111 0 -0.05702546769870083 -0.25851025446459042 0 -0.055745381016590281 -0.2682223094504298 0 -0.05702546769870083 -0.25851025446459042 0 -0.048255079716108998 -0.25800015923011232 0 -0.055745381016590281 -0.2682223094504298 0 -0.048255079716108998 -0.25800015923011232 0 -0.055745381016590281 -0.2682223094504298 0 -0.046606779304586107 -0.26584835010199509 0 -0.055745381016590281 -0.2682223094504298 0 -0.045119081914121867 -0.27515691248558288 0 -0.046606779304586107 -0.26584835010199509 0 -0.055745381016590281 -0.2682223094504298 0 -0.045119081914121867 -0.27515691248558288 0 -0.057136779716869042 -0.28712205926022771 0 -0.072744725061100565 -0.27289296274949931 0 -0.055745381016590281 -0.2682223094504298 0 -0.057136779716869042 -0.28712205926022771 0 -0.037307574571523318 -0.26201401924185519 0 -0.034478529498429812 -0.28951379058442123 0 -0.037307574571523318 -0.26201401924185519 0 -0.034478529498429812 -0.28951379058442123 0 -0.024854767991187229 -0.26705994663832661 0 -0.037307574571523318 -0.26201401924185519 0 -0.045119081914121867 -0.27515691248558288 0 -0.034478529498429812 -0.28951379058442123 0 -0.037307574571523318 -0.26201401924185519 0 -0.045119081914121867 -0.27515691248558288 0 -0.046606779304586107 -0.26584835010199509 0 -0.045119081914121867 -0.27515691248558288 0 -0.034478529498429812 -0.28951379058442123 0 -0.057136779716869042 -0.28712205926022771 0 -0.034478529498429812 -0.28951379058442123 0 -0.057136779716869042 -0.28712205926022771 0 -0.05012745319326059 -0.30445945297878008 0 -0.066237696895848033 -0.30175990202967712 0 -0.05012745319326059 -0.30445945297878008 0 -0.060613113796085999 -0.32288269869712272 0 -0.066237696895848033 -0.30175990202967712 0 -0.057136779716869042 -0.28712205926022771 0 -0.05012745319326059 -0.30445945297878008 0 -0.034478529498429812 -0.28951379058442123 0 -0.05012745319326059 -0.30445945297878008 0 -0.031649484425336299 -0.31701356192698721 0 -0.034478529498429812 -0.28951379058442123 0 -0.031649484425336299 -0.31701356192698721 0 -0.034478529498429812 -0.28951379058442123 0 -0.020284114256294641 -0.29759304008048471 0 -0.031649484425336299 -0.31701356192698721 0 -0.020284114256294641 -0.29759304008048471 0 -0.01007927323019326 -0.3103345258507364 0 -0.031649484425336299 -0.31701356192698721 0 -0.020284114256294641 -0.29759304008048471 0 -0.01007927323019326 -0.3103345258507364 0 -0.0080748459131490501 -0.2914060437848453 0 -0.01007927323019326 -0.3103345258507364 0 -0.0080748459131490501 -0.2914060437848453 0 0.0017563221397047381 -0.2997067901486577 0 -0.020284114256294641 -0.29759304008048471 0 -0.0080748459131490501 -0.2914060437848453 0 -0.017138438214364771 -0.27969727825543328 0 -0.0080748459131490501 -0.2914060437848453 0 -0.002848760243290064 -0.27761611820401882 0 0.0066437179820165657 -0.2861171845936395 0 -0.0080748459131490501 -0.2914060437848453 0 -0.017138438214364771 -0.27969727825543328 0 -0.002848760243290064 -0.27761611820401882 0 -0.034478529498429812 -0.28951379058442123 0 -0.020284114256294641 -0.29759304008048471 0 -0.017138438214364771 -0.27969727825543328 0 -0.034478529498429812 -0.28951379058442123 0 -0.024854767991187229 -0.26705994663832661 0 -0.017138438214364771 -0.27969727825543328 0 -0.024854767991187229 -0.26705994663832661 0 -0.01588915841142927 -0.27169793716392882 0 -0.01145854626600548 -0.26602311564559261 0 -0.024854767991187229 -0.26705994663832661 0 -0.01588915841142927 -0.27169793716392882 0 -0.017138438214364771 -0.27969727825543328 0 -0.017138438214364771 -0.27969727825543328 0 -0.011833725783772399 -0.27375861231724341 0 -0.002848760243290064 -0.27761611820401882 0 -0.01145854626600548 -0.26602311564559261 0 0.01128192931255503 -0.27464126756021451 0 -0.002848760243290064 -0.27761611820401882 0 -0.01145854626600548 -0.26602311564559261 0 0.01128192931255503 -0.27464126756021451 0 -0.01588915841142927 -0.27169793716392882 0 -0.017138438214364771 -0.27969727825543328 0 -0.011833725783772399 -0.27375861231724341 0 -0.011833725783772399 -0.27375861231724341 0 -0.002848760243290064 -0.27761611820401882 0 -0.01145854626600548 -0.26602311564559261 0 -0.01588915841142927 -0.27169793716392882 0 -0.011833725783772399 -0.27375861231724341 0 -0.01145854626600548 -0.26602311564559261 0 -0.01269776775011346 -0.25850600500130039 0 -0.0051360078472848583 -0.25701396995817721 0 0.0057158633005241696 -0.26337829885565528 0 -0.01145854626600548 -0.26602311564559261 0 -0.01269776775011346 -0.25850600500130039 0 0.0057158633005241696 -0.26337829885565528 0 -0.01269776775011346 -0.25850600500130039 0 0.0057158633005241696 -0.26337829885565528 0 -0.0009620894167222515 -0.25496392916579452 0 -0.0051360078472848583 -0.25701396995817721 0 0.0057158633005241696 -0.26337829885565528 0 -0.0071971320314794382 -0.2528457057960789 0 -0.01082738352359053 -0.24876902592697839 0 -0.0029313858115674811 -0.24854412401401971 0 -0.0009620894167222515 -0.25496392916579452 0 -0.0071971320314794382 -0.2528457057960789 0 -0.0029313858115674811 -0.24854412401401971 0 -0.0009620894167222515 -0.25496392916579452 0 -0.0051360078472848583 -0.25701396995817721 0 -0.0071971320314794382 -0.2528457057960789 0 -0.0051360078472848583 -0.25701396995817721 0 -0.0071971320314794382 -0.2528457057960789 0 -0.0094143843739788544 -0.25459574361389747 0 -0.0071971320314794382 -0.2528457057960789 0 -0.0094143843739788544 -0.25459574361389747 0 -0.01082738352359053 -0.24876902592697839 0 -0.01269776775011346 -0.25850600500130039 0 -0.0094143843739788544 -0.25459574361389747 0 -0.01082738352359053 -0.24876902592697839 0 -0.01269776775011346 -0.25850600500130039 0 -0.0051360078472848583 -0.25701396995817721 0 -0.0094143843739788544 -0.25459574361389747 0 -0.01269776775011346 -0.25850600500130039 0 -0.025857267464119819 -0.25506418495113531 0 -0.034199021844566052 -0.25740496373097072 0 -0.01145854626600548 -0.26602311564559261 0 -0.025857267464119819 -0.25506418495113531 0 -0.01269776775011346 -0.25850600500130039 0 -0.025857267464119819 -0.25506418495113531 0 -0.02368513365757598 -0.23851275990414511 0 -0.034199021844566052 -0.25740496373097072 0 -0.024854767991187229 -0.26705994663832661 0 -0.01145854626600548 -0.26602311564559261 0 -0.034199021844566052 -0.25740496373097072 0 -0.01145854626600548 -0.26602311564559261 0 -0.01145854626600548 -0.26602311564559261 0 -0.01269776775011346 -0.25850600500130039 0 -0.025857267464119819 -0.25506418495113531 0 -0.046940286889098168 -0.35955036210978841 0 -0.050269733973634309 -0.3392354021108881 0 -0.02882043935224279 -0.34451333326955308 0 -0.046940286889098168 -0.35955036210978841 0 -0.02882043935224279 -0.34451333326955308 0 -0.026419717968229769 -0.36867473508972981 0 -0.046940286889098168 -0.35955036210978841 0 -0.026419717968229769 -0.36867473508972981 0 -0.046935058978613817 -0.3783756837809118 0 -0.065890469742167113 -0.37350781086095058 0 -0.046940286889098168 -0.35955036210978841 0 -0.046935058978613817 -0.3783756837809118 0 -0.063306301319701316 -0.35299520754669739 0 -0.065890469742167113 -0.37350781086095058 0 -0.046940286889098168 -0.35955036210978841 0 -0.063306301319701316 -0.35299520754669739 0 -0.046940286889098168 -0.35955036210978841 0 -0.050269733973634309 -0.3392354021108881 0 -0.073144777225565616 -0.33606175945158517 0 -0.063306301319701316 -0.35299520754669739 0 -0.050269733973634309 -0.3392354021108881 0 -0.073144777225565616 -0.33606175945158517 0 -0.050269733973634309 -0.3392354021108881 0 -0.060613113796085999 -0.32288269869712272 0 -0.050269733973634309 -0.3392354021108881 0 -0.060613113796085999 -0.32288269869712272 0 -0.031649484425336299 -0.31701356192698721 0 -0.05012745319326059 -0.30445945297878008 0 -0.060613113796085999 -0.32288269869712272 0 -0.031649484425336299 -0.31701356192698721 0 -0.050269733973634309 -0.3392354021108881 0 -0.031649484425336299 -0.31701356192698721 0 -0.02882043935224279 -0.34451333326955308 0 -0.031649484425336299 -0.31701356192698721 0 -0.02882043935224279 -0.34451333326955308 0 -0.031649484425336299 -0.31701356192698721 0 -0.0038616663111063101 -0.33241552487502413 0 -0.02882043935224279 -0.34451333326955308 0 -0.01007927323019326 -0.3103345258507364 0 -0.031649484425336299 -0.31701356192698721 0 -0.0038616663111063101 -0.33241552487502413 0 -0.01007927323019326 -0.3103345258507364 0 -0.0038616663111063101 -0.33241552487502413 0 0.0094652366165251054 -0.31053241408104548 0 -0.0038616663111063101 -0.33241552487502413 0 -0.0043130761299947744 -0.35643483176966217 0 -0.02882043935224279 -0.34451333326955308 0 -0.0043130761299947744 -0.35643483176966217 0 -0.02882043935224279 -0.34451333326955308 0 -0.026419717968229769 -0.36867473508972981 0 -0.0043130761299947744 -0.35643483176966217 0 -0.026419717968229769 -0.36867473508972981 0 -0.0064694903547723136 -0.38059021958606692 0 -0.0064694903547723136 -0.38059021958606692 0 -0.0080625817845775948 -0.40608726553411861 0 -0.026496984295852101 -0.39226102623928111 0 -0.0064694903547723136 -0.38059021958606692 0 -0.0080625817845775948 -0.40608726553411861 0 0.009690974369139977 -0.39295199195252922 0 -0.0080625817845775948 -0.40608726553411861 0 -0.026496984295852101 -0.39226102623928111 0 -0.029852467816379728 -0.41236872525256307 0 -0.026419717968229769 -0.36867473508972981 0 -0.0064694903547723136 -0.38059021958606692 0 -0.026496984295852101 -0.39226102623928111 0 -0.026496984295852101 -0.39226102623928111 0 -0.048213792324517578 -0.39768762776665978 0 -0.046935058978613817 -0.3783756837809118 0 -0.026419717968229769 -0.36867473508972981 0 -0.026496984295852101 -0.39226102623928111 0 -0.046935058978613817 -0.3783756837809118 0 -0.026496984295852101 -0.39226102623928111 0 -0.048213792324517578 -0.39768762776665978 0 -0.029852467816379728 -0.41236872525256307 0 -0.048213792324517578 -0.39768762776665978 0 -0.065379196062645584 -0.39052657147488062 0 -0.06528413140028641 -0.40548789039177052 0 -0.048213792324517578 -0.39768762776665978 0 -0.046935058978613817 -0.3783756837809118 0 -0.065379196062645584 -0.39052657147488062 0 -0.065890469742167113 -0.37350781086095058 0 -0.046935058978613817 -0.3783756837809118 0 -0.065379196062645584 -0.39052657147488062 0 -0.052630130657334448 -0.42871109396582502 0 -0.036803499053157718 -0.43392585985635063 0 -0.055908543568221357 -0.44353945242809251 0 -0.052630130657334448 -0.42871109396582502 0 -0.048282499091199083 -0.41684649723306111 0 -0.065713266975248902 -0.42040157794015642 0 -0.052630130657334448 -0.42871109396582502 0 -0.055908543568221357 -0.44353945242809251 0 -0.077753046024815156 -0.43509142098737241 0 -0.048282499091199083 -0.41684649723306111 0 -0.06528413140028641 -0.40548789039177052 0 -0.065713266975248902 -0.42040157794015642 0 -0.048213792324517578 -0.39768762776665978 0 -0.048282499091199083 -0.41684649723306111 0 -0.06528413140028641 -0.40548789039177052 0 -0.048213792324517578 -0.39768762776665978 0 -0.048282499091199083 -0.41684649723306111 0 -0.029852467816379728 -0.41236872525256307 0 -0.048282499091199083 -0.41684649723306111 0 -0.036803499053157718 -0.43392585985635063 0 -0.029852467816379728 -0.41236872525256307 0 -0.052630130657334448 -0.42871109396582502 0 -0.048282499091199083 -0.41684649723306111 0 -0.036803499053157718 -0.43392585985635063 0 -0.036803499053157718 -0.43392585985635063 0 -0.01686747062211669 -0.42668809062348251 0 -0.022482277956740859 -0.44034230556013138 0 -0.036803499053157718 -0.43392585985635063 0 -0.01686747062211669 -0.42668809062348251 0 -0.029852467816379728 -0.41236872525256307 0 -0.0080625817845775948 -0.40608726553411861 0 -0.01686747062211669 -0.42668809062348251 0 -0.029852467816379728 -0.41236872525256307 0 -0.0080625817845775948 -0.40608726553411861 0 -0.01686747062211669 -0.42668809062348251 0 0.01224976062295041 -0.42183763890738629 0 -0.01686747062211669 -0.42668809062348251 0 -0.008216644178786571 -0.4466179140804285 0 0.01224976062295041 -0.42183763890738629 0 -0.008216644178786571 -0.4466179140804285 0 -0.0021957942935651631 -0.46571035637089769 0 -0.016151777162071251 -0.46269316979172348 0 -0.0021957942935651631 -0.46571035637089769 0 -0.016151777162071251 -0.46269316979172348 0 -0.01292321871024151 -0.47600360382280887 0 -0.008216644178786571 -0.4466179140804285 0 -0.016151777162071251 -0.46269316979172348 0 -0.028753682251359231 -0.45370767630375852 0 -0.016151777162071251 -0.46269316979172348 0 -0.030722049445265721 -0.46513815794063051 0 -0.025757536927686689 -0.47561542944709773 0 -0.016151777162071251 -0.46269316979172348 0 -0.030722049445265721 -0.46513815794063051 0 -0.028753682251359231 -0.45370767630375852 0 -0.036803499053157718 -0.43392585985635063 0 -0.028753682251359231 -0.45370767630375852 0 -0.022482277956740859 -0.44034230556013138 0 -0.01686747062211669 -0.42668809062348251 0 -0.008216644178786571 -0.4466179140804285 0 -0.022482277956740859 -0.44034230556013138 0 -0.008216644178786571 -0.4466179140804285 0 -0.028753682251359231 -0.45370767630375852 0 -0.022482277956740859 -0.44034230556013138 0 -0.011489863113854141 -0.5 0 -0.010144146689038991 -0.48941639725935437 0 0.012735562036971701 -0.48508522326900949 0 -0.010144146689038991 -0.48941639725935437 0 -0.00065605929082254884 -0.47874224407546379 0 -0.01292321871024151 -0.47600360382280887 0 -0.010144146689038991 -0.48941639725935437 0 -0.01292321871024151 -0.47600360382280887 0 -0.022633997898264431 -0.48384402599231691 0 -0.0021957942935651631 -0.46571035637089769 0 -0.00065605929082254884 -0.47874224407546379 0 -0.01292321871024151 -0.47600360382280887 0 -0.016151777162071251 -0.46269316979172348 0 -0.01292321871024151 -0.47600360382280887 0 -0.025757536927686689 -0.47561542944709773 0 -0.025757536927686689 -0.47561542944709773 0 -0.022633997898264431 -0.48384402599231691 0 -0.032724513000240443 -0.48384135401243772 0 -0.01292321871024151 -0.47600360382280887 0 -0.025757536927686689 -0.47561542944709773 0 -0.022633997898264431 -0.48384402599231691 0 -0.011489863113854141 -0.5 0 -0.010144146689038991 -0.48941639725935437 0 -0.033023855415049652 -0.49374757124969931 0 -0.010144146689038991 -0.48941639725935437 0 -0.022633997898264431 -0.48384402599231691 0 -0.033023855415049652 -0.49374757124969931 0 -0.011489863113854141 -0.5 0 -0.041002190054857779 -0.5 0 -0.033023855415049652 -0.49374757124969931 0 -0.010144146689038991 -0.48941639725935437 0 -0.033023855415049652 -0.49374757124969931 0 -0.022633997898264431 -0.48384402599231691 0 -0.033023855415049652 -0.49374757124969931 0 -0.032724513000240443 -0.48384135401243772 0 -0.041002190054857779 -0.5 0 -0.040644419244316249 -0.48874723383863622 0 -0.055758353525359711 -0.48944453406372251 0 -0.041002190054857779 -0.5 0 -0.033023855415049652 -0.49374757124969931 0 -0.040644419244316249 -0.48874723383863622 0 -0.033023855415049652 -0.49374757124969931 0 -0.040644419244316249 -0.48874723383863622 0 -0.032724513000240443 -0.48384135401243772 0 -0.040644419244316249 -0.48874723383863622 0 -0.040713184226073652 -0.47670270986732172 0 -0.055758353525359711 -0.48944453406372251 0 -0.040644419244316249 -0.48874723383863622 0 -0.040713184226073652 -0.47670270986732172 0 -0.032724513000240443 -0.48384135401243772 0 -0.025757536927686689 -0.47561542944709773 0 -0.040713184226073652 -0.47670270986732172 0 -0.032724513000240443 -0.48384135401243772 0 -0.030722049445265721 -0.46513815794063051 0 -0.025757536927686689 -0.47561542944709773 0 -0.040713184226073652 -0.47670270986732172 0 -0.040713184226073652 -0.47670270986732172 0 -0.05604151524233808 -0.47085547185542692 0 -0.042137987481662489 -0.46199998676314519 0 -0.040713184226073652 -0.47670270986732172 0 -0.05604151524233808 -0.47085547185542692 0 -0.055758353525359711 -0.48944453406372251 0 -0.05604151524233808 -0.47085547185542692 0 -0.055758353525359711 -0.48944453406372251 0 -0.068357021366280857 -0.47830767763467641 0 -0.041002190054857779 -0.5 0 -0.055758353525359711 -0.48944453406372251 0 -0.070514516995861642 -0.5 0 -0.036803499053157718 -0.43392585985635063 0 -0.028753682251359231 -0.45370767630375852 0 -0.042591220718736618 -0.44931976272637059 0 -0.036803499053157718 -0.43392585985635063 0 -0.042591220718736618 -0.44931976272637059 0 -0.055908543568221357 -0.44353945242809251 0 -0.028753682251359231 -0.45370767630375852 0 -0.042591220718736618 -0.44931976272637059 0 -0.042137987481662489 -0.46199998676314519 0 -0.030722049445265721 -0.46513815794063051 0 -0.028753682251359231 -0.45370767630375852 0 -0.042137987481662489 -0.46199998676314519 0 -0.030722049445265721 -0.46513815794063051 0 -0.040713184226073652 -0.47670270986732172 0 -0.042137987481662489 -0.46199998676314519 0 -0.042591220718736618 -0.44931976272637059 0 -0.042137987481662489 -0.46199998676314519 0 -0.054601469153056192 -0.45704509188174619 0 -0.05604151524233808 -0.47085547185542692 0 -0.054601469153056192 -0.45704509188174619 0 -0.071896784036839162 -0.45711427830285839 0 -0.05604151524233808 -0.47085547185542692 0 -0.042137987481662489 -0.46199998676314519 0 -0.054601469153056192 -0.45704509188174619 0 -0.054601469153056192 -0.45704509188174619 0 -0.055908543568221357 -0.44353945242809251 0 -0.071896784036839162 -0.45711427830285839 0 -0.042591220718736618 -0.44931976272637059 0 -0.054601469153056192 -0.45704509188174619 0 -0.055908543568221357 -0.44353945242809251 0 -0.055908543568221357 -0.44353945242809251 0 -0.071896784036839162 -0.45711427830285839 0 -0.077753046024815156 -0.43509142098737241 0 -0.071896784036839162 -0.45711427830285839 0 -0.087573937031005744 -0.47412410395137422 0 -0.093954286744555499 -0.45179652052777369 0 -0.087573937031005744 -0.47412410395137422 0 -0.093954286744555499 -0.45179652052777369 0 -0.071896784036839162 -0.45711427830285839 0 -0.093954286744555499 -0.45179652052777369 0 -0.077753046024815156 -0.43509142098737241 0 -0.093954286744555499 -0.45179652052777369 0 -0.10033463645810529 -0.42946893710417328 0 -0.077753046024815156 -0.43509142098737241 0 -0.055758353525359711 -0.48944453406372251 0 -0.070514516995861642 -0.5 0 -0.068357021366280857 -0.47830767763467641 0 -0.05604151524233808 -0.47085547185542692 0 -0.071896784036839162 -0.45711427830285839 0 -0.068357021366280857 -0.47830767763467641 0 -0.071896784036839162 -0.45711427830285839 0 -0.068357021366280857 -0.47830767763467641 0 -0.087573937031005744 -0.47412410395137422 0 -0.070514516995861642 -0.5 0 -0.068357021366280857 -0.47830767763467641 0 -0.087573937031005744 -0.47412410395137422 0 -0.070514516995861642 -0.5 0 -0.087573937031005744 -0.47412410395137422 0 -0.10002684393686551 -0.5 0 -0.087573937031005744 -0.47412410395137422 0 -0.10002684393686551 -0.5 0 -0.10780494223314389 -0.47765854937150709 0 -0.087573937031005744 -0.47412410395137422 0 -0.10780494223314389 -0.47765854937150709 0 -0.1029954147344513 -0.46359439800738522 0 -0.12605423818426559 -0.48707922202292669 0 -0.10780494223314389 -0.47765854937150709 0 -0.1201929706126502 -0.46127799294672761 0 -0.12605423818426559 -0.48707922202292669 0 -0.1201929706126502 -0.46127799294672761 0 -0.12605423818426559 -0.48707922202292669 0 -0.10002684393686551 -0.5 0 -0.10780494223314389 -0.47765854937150709 0 -0.1295391708778694 -0.5 0 -0.12605423818426559 -0.48707922202292669 0 -0.10002684393686551 -0.5 0 -0.093954286744555499 -0.45179652052777369 0 -0.10033463645810529 -0.42946893710417328 0 -0.10636180231815941 -0.44832292249131772 0 -0.11433170304103479 -0.43547676387052858 0 -0.10033463645810529 -0.42946893710417328 0 -0.10636180231815941 -0.44832292249131772 0 -0.093954286744555499 -0.45179652052777369 0 -0.10033463645810529 -0.42946893710417328 0 -0.087573937031005744 -0.47412410395137422 0 -0.093954286744555499 -0.45179652052777369 0 -0.1029954147344513 -0.46359439800738522 0 -0.10636180231815941 -0.44832292249131772 0 -0.093954286744555499 -0.45179652052777369 0 -0.1029954147344513 -0.46359439800738522 0 -0.10780494223314389 -0.47765854937150709 0 -0.1029954147344513 -0.46359439800738522 0 -0.1201929706126502 -0.46127799294672761 0 -0.10636180231815941 -0.44832292249131772 0 -0.1029954147344513 -0.46359439800738522 0 -0.1201929706126502 -0.46127799294672761 0 -0.13671083813600751 -0.45044361347006462 0 -0.1201929706126502 -0.46127799294672761 0 -0.11433170304103479 -0.43547676387052858 0 -0.10636180231815941 -0.44832292249131772 0 -0.1201929706126502 -0.46127799294672761 0 -0.11433170304103479 -0.43547676387052858 0 -0.13671083813600751 -0.45044361347006462 0 -0.1225906368027144 -0.43005957413219659 0 -0.11433170304103479 -0.43547676387052858 0 -0.1201929706126502 -0.46127799294672761 0 -0.11433170304103479 -0.43547676387052858 0 -0.1225906368027144 -0.43005957413219659 0 -0.11433170304103479 -0.43547676387052858 0 -0.10847043546942051 -0.40967553479432928 0 -0.11433170304103479 -0.43547676387052858 0 -0.10847043546942051 -0.40967553479432928 0 -0.12908399078123631 -0.42243277819987513 0 -0.1225906368027144 -0.43005957413219659 0 -0.12315425937001 -0.41747458531602638 0 -0.11433170304103479 -0.43547676387052858 0 -0.10033463645810529 -0.42946893710417328 0 -0.10847043546942051 -0.40967553479432928 0 -0.10033463645810529 -0.42946893710417328 0 -0.094107383989168333 -0.41562629379671062 0 -0.1067149861716557 -0.40714135368057303 0 -0.10033463645810529 -0.42946893710417328 0 -0.1067149861716557 -0.40714135368057303 0 -0.10847043546942051 -0.40967553479432928 0 -0.10033463645810529 -0.42946893710417328 0 -0.1067149861716557 -0.40714135368057303 0 -0.094107383989168333 -0.41562629379671062 0 -0.1067149861716557 -0.40714135368057303 0 -0.093615658715422545 -0.40476526464288082 0 -0.10847043546942051 -0.40967553479432928 0 -0.1105756132387118 -0.40676785322215941 0 -0.1073722461642546 -0.40484131873350049 0 -0.10847043546942051 -0.40967553479432928 0 -0.1073722461642546 -0.40484131873350049 0 -0.1067149861716557 -0.40714135368057303 0 -0.10847043546942051 -0.40967553479432928 0 -0.1073722461642546 -0.40484131873350049 0 -0.1067149861716557 -0.40714135368057303 0 -0.10847043546942051 -0.40967553479432928 0 -0.1225906368027144 -0.43005957413219659 0 -0.1163272184937543 -0.41351727508190028 0 -0.12315425937001 -0.41747458531602638 0 -0.10847043546942051 -0.40967553479432928 0 -0.1125412123036873 -0.40894162881917728 0 -0.1163272184937543 -0.41351727508190028 0 -0.1125412123036873 -0.40894162881917728 0 -0.1105756132387118 -0.40676785322215941 0 -0.1147915820128618 -0.40580585217832088 0 -0.1225906368027144 -0.43005957413219659 0 -0.10847043546942051 -0.40967553479432928 0 -0.1163272184937543 -0.41351727508190028 0 -0.10847043546942051 -0.40967553479432928 0 -0.1125412123036873 -0.40894162881917728 0 -0.1105756132387118 -0.40676785322215941 0 -0.1225906368027144 -0.43005957413219659 0 -0.10847043546942051 -0.40967553479432928 0 -0.1125412123036873 -0.40894162881917728 0 -0.1163272184937543 -0.41351727508190028 0 -0.1147915820128618 -0.40580585217832088 0 -0.1225700411049412 -0.40994677461386392 0 -0.1219584454402414 -0.40406961642135292 0 -0.1147915820128618 -0.40580585217832088 0 -0.1163272184937543 -0.41351727508190028 0 -0.1225700411049412 -0.40994677461386392 0 -0.1147915820128618 -0.40580585217832088 0 -0.1163272184937543 -0.41351727508190028 0 -0.12315425937001 -0.41747458531602638 0 -0.1225700411049412 -0.40994677461386392 0 -0.1273295258527142 -0.39594401256049883 0 -0.1219584454402414 -0.40406961642135292 0 -0.1190781430676657 -0.39944145851713192 0 -0.11305295545189779 -0.39895005080087959 0 -0.11384267237711319 -0.38219851895920232 0 -0.1073722461642546 -0.40484131873350049 0 -0.1295768038857959 -0.40463739140698729 0 -0.1225700411049412 -0.40994677461386392 0 -0.1219584454402414 -0.40406961642135292 0 -0.1182582065806136 -0.392437760624607 0 -0.11305295545189779 -0.39895005080087959 0 -0.11384267237711319 -0.38219851895920232 0 -0.11384267237711319 -0.38219851895920232 0 -0.1073722461642546 -0.40484131873350049 0 -0.1219584454402414 -0.40406961642135292 0 -0.1190781430676657 -0.39944145851713192 0 -0.1147915820128618 -0.40580585217832088 0 -0.1273295258527142 -0.39594401256049883 0 -0.1190781430676657 -0.39944145851713192 0 -0.1182582065806136 -0.392437760624607 0 -0.1190781430676657 -0.39944145851713192 0 -0.1182582065806136 -0.392437760624607 0 -0.11305295545189779 -0.39895005080087959 0 -0.1105756132387118 -0.40676785322215941 0 -0.1114480992169309 -0.40409126873371493 0 -0.1073722461642546 -0.40484131873350049 0 -0.1105756132387118 -0.40676785322215941 0 -0.1114480992169309 -0.40409126873371493 0 -0.1147915820128618 -0.40580585217832088 0 -0.11305295545189779 -0.39895005080087959 0 -0.1114480992169309 -0.40409126873371493 0 -0.1147915820128618 -0.40580585217832088 0 -0.11305295545189779 -0.39895005080087959 0 -0.1114480992169309 -0.40409126873371493 0 -0.1073722461642546 -0.40484131873350049 0 -0.1190781430676657 -0.39944145851713192 0 -0.11305295545189779 -0.39895005080087959 0 -0.1147915820128618 -0.40580585217832088 0 -0.12625141541498519 -0.38197991289387551 0 -0.1182582065806136 -0.392437760624607 0 -0.11384267237711319 -0.38219851895920232 0 -0.12625141541498519 -0.38197991289387551 0 -0.1273295258527142 -0.39594401256049883 0 -0.1182582065806136 -0.392437760624607 0 -0.11384267237711319 -0.38219851895920232 0 -0.10176491866177829 -0.38015793077534599 0 -0.1073722461642546 -0.40484131873350049 0 -0.10176491866177829 -0.38015793077534599 0 -0.095995502779844255 -0.39166661886747001 0 -0.085276019388031976 -0.37619188405436782 0 -0.10849363524981311 -0.36442991456039969 0 -0.11384267237711319 -0.38219851895920232 0 -0.10176491866177829 -0.38015793077534599 0 -0.10176491866177829 -0.38015793077534599 0 -0.1073722461642546 -0.40484131873350049 0 -0.095995502779844255 -0.39166661886747001 0 -0.10176491866177829 -0.38015793077534599 0 -0.1073722461642546 -0.40484131873350049 0 -0.1067149861716557 -0.40714135368057303 0 -0.1073722461642546 -0.40484131873350049 0 -0.095995502779844255 -0.39166661886747001 0 -0.1067149861716557 -0.40714135368057303 0 -0.1073722461642546 -0.40484131873350049 0 -0.1067149861716557 -0.40714135368057303 0 -0.095995502779844255 -0.39166661886747001 0 -0.1067149861716557 -0.40714135368057303 0 -0.095995502779844255 -0.39166661886747001 0 -0.093615658715422545 -0.40476526464288082 0 -0.093615658715422545 -0.40476526464288082 0 -0.081664681120336771 -0.39582842074610342 0 -0.082451352827770552 -0.41163664718976212 0 -0.095995502779844255 -0.39166661886747001 0 -0.093615658715422545 -0.40476526464288082 0 -0.081664681120336771 -0.39582842074610342 0 -0.095995502779844255 -0.39166661886747001 0 -0.081664681120336771 -0.39582842074610342 0 -0.085276019388031976 -0.37619188405436782 0 -0.081664681120336771 -0.39582842074610342 0 -0.085276019388031976 -0.37619188405436782 0 -0.074552591578295357 -0.38401367178407558 0 -0.095995502779844255 -0.39166661886747001 0 -0.085276019388031976 -0.37619188405436782 0 -0.081664681120336771 -0.39582842074610342 0 -0.065379196062645584 -0.39052657147488062 0 -0.074552591578295357 -0.38401367178407558 0 -0.065890469742167113 -0.37350781086095058 0 -0.085276019388031976 -0.37619188405436782 0 -0.074552591578295357 -0.38401367178407558 0 -0.065890469742167113 -0.37350781086095058 0 -0.065379196062645584 -0.39052657147488062 0 -0.074552591578295357 -0.38401367178407558 0 -0.081664681120336771 -0.39582842074610342 0 -0.06528413140028641 -0.40548789039177052 0 -0.082451352827770552 -0.41163664718976212 0 -0.081664681120336771 -0.39582842074610342 0 -0.065379196062645584 -0.39052657147488062 0 -0.06528413140028641 -0.40548789039177052 0 -0.065713266975248902 -0.42040157794015642 0 -0.085028608260126398 -0.42320905853578622 0 -0.082451352827770552 -0.41163664718976212 0 -0.06528413140028641 -0.40548789039177052 0 -0.065713266975248902 -0.42040157794015642 0 -0.082451352827770552 -0.41163664718976212 0 -0.065713266975248902 -0.42040157794015642 0 -0.077753046024815156 -0.43509142098737241 0 -0.085028608260126398 -0.42320905853578622 0 -0.052630130657334448 -0.42871109396582502 0 -0.065713266975248902 -0.42040157794015642 0 -0.077753046024815156 -0.43509142098737241 0 -0.10033463645810529 -0.42946893710417328 0 -0.077753046024815156 -0.43509142098737241 0 -0.085028608260126398 -0.42320905853578622 0 -0.10033463645810529 -0.42946893710417328 0 -0.094107383989168333 -0.41562629379671062 0 -0.085028608260126398 -0.42320905853578622 0 -0.094107383989168333 -0.41562629379671062 0 -0.085028608260126398 -0.42320905853578622 0 -0.082451352827770552 -0.41163664718976212 0 -0.094107383989168333 -0.41562629379671062 0 -0.093615658715422545 -0.40476526464288082 0 -0.082451352827770552 -0.41163664718976212 0 -0.080832567710134945 -0.085265223789800185 0 -0.09573268077664969 -0.090624673380050064 0 -0.094924188455715333 -0.074372309221374736 0 -0.080832567710134945 -0.085265223789800185 0 -0.0944050220014645 -0.1050702242089397 0 -0.09573268077664969 -0.090624673380050064 0 -0.094924188455715333 -0.074372309221374736 0 -0.077079431972146645 -0.050953682142663811 0 -0.080832567710134945 -0.085265223789800185 0 -0.077460787511610923 -0.070469280456870842 0 -0.094924188455715333 -0.074372309221374736 0 -0.077460787511610923 -0.070469280456870842 0 -0.094924188455715333 -0.074372309221374736 0 -0.078535685693175539 -0.061573663464548622 0 -0.080832567710134945 -0.085265223789800185 0 -0.072736864716213656 -0.076885636419884412 0 -0.077460787511610923 -0.070469280456870842 0 -0.072736864716213656 -0.076885636419884412 0 -0.077460787511610923 -0.070469280456870842 0 -0.067174029152377468 -0.071022972744677337 0 -0.077460787511610923 -0.070469280456870842 0 -0.067174029152377468 -0.071022972744677337 0 -0.070308423821052124 -0.061023041189074957 0 -0.077460787511610923 -0.070469280456870842 0 -0.078535685693175539 -0.061573663464548622 0 -0.070308423821052124 -0.061023041189074957 0 -0.067174029152377468 -0.071022972744677337 0 -0.070308423821052124 -0.061023041189074957 0 -0.060830035872249492 -0.064558057335980773 0 -0.072736864716213656 -0.076885636419884412 0 -0.067174029152377468 -0.071022972744677337 0 -0.063732237529271596 -0.080733089011810297 0 -0.067174029152377468 -0.071022972744677337 0 -0.063732237529271596 -0.080733089011810297 0 -0.058000192015007383 -0.073011667883306972 0 -0.080832567710134945 -0.085265223789800185 0 -0.063732237529271596 -0.080733089011810297 0 -0.066023591375222151 -0.09957098179305135 0 -0.080832567710134945 -0.085265223789800185 0 -0.072736864716213656 -0.076885636419884412 0 -0.063732237529271596 -0.080733089011810297 0 -0.066023591375222151 -0.09957098179305135 0 -0.069466171350113709 -0.1135628440840601 0 -0.0944050220014645 -0.1050702242089397 0 -0.066023591375222151 -0.09957098179305135 0 -0.069466171350113709 -0.1135628440840601 0 -0.054384952187449757 -0.110609208962567 0 -0.077516787342341589 -0.1242022911324857 0 -0.069466171350113709 -0.1135628440840601 0 -0.059238207921678762 -0.13024384051707169 0 -0.077516787342341589 -0.1242022911324857 0 -0.093262550211769629 -0.1231040070079162 0 -0.0944050220014645 -0.1050702242089397 0 -0.077516787342341589 -0.1242022911324857 0 -0.069466171350113709 -0.1135628440840601 0 -0.0944050220014645 -0.1050702242089397 0 -0.066023591375222151 -0.09957098179305135 0 -0.0944050220014645 -0.1050702242089397 0 -0.080832567710134945 -0.085265223789800185 0 -0.066023591375222151 -0.09957098179305135 0 -0.0944050220014645 -0.1050702242089397 0 -0.0944050220014645 -0.1050702242089397 0 -0.1071147179002416 -0.1244919901550422 0 -0.11276894493928399 -0.097790936300085646 0 -0.0944050220014645 -0.1050702242089397 0 -0.11276894493928399 -0.097790936300085646 0 -0.09573268077664969 -0.090624673380050064 0 -0.093262550211769629 -0.1231040070079162 0 -0.0944050220014645 -0.1050702242089397 0 -0.1071147179002416 -0.1244919901550422 0 -0.1071147179002416 -0.1244919901550422 0 -0.11276894493928399 -0.097790936300085646 0 -0.1306137014228527 -0.1212095633787966 0 -0.11276894493928399 -0.097790936300085646 0 -0.1306137014228527 -0.1212095633787966 0 -0.112702195828283 -0.076339248342475546 0 -0.13438499311011279 -0.096174695905308166 0 -0.11276894493928399 -0.097790936300085646 0 -0.112702195828283 -0.076339248342475546 0 -0.13438499311011279 -0.096174695905308166 0 -0.11276894493928399 -0.097790936300085646 0 -0.094924188455715333 -0.074372309221374736 0 -0.112702195828283 -0.076339248342475546 0 -0.11276894493928399 -0.097790936300085646 0 -0.094924188455715333 -0.074372309221374736 0 -0.11276894493928399 -0.097790936300085646 0 -0.09573268077664969 -0.090624673380050064 0 -0.094924188455715333 -0.074372309221374736 0 -0.094924188455715333 -0.074372309221374736 0 -0.1026030192468113 -0.064894788769428779 0 -0.112702195828283 -0.076339248342475546 0 -0.094924188455715333 -0.074372309221374736 0 -0.1026030192468113 -0.064894788769428779 0 -0.090333769324138391 -0.059362086744932152 0 -0.1026030192468113 -0.064894788769428779 0 -0.112702195828283 -0.076339248342475546 0 -0.1158705629695205 -0.060236298698018297 0 -0.112702195828283 -0.076339248342475546 0 -0.1158705629695205 -0.060236298698018297 0 -0.13497135686491851 -0.078315161523928284 0 -0.1158705629695205 -0.060236298698018297 0 -0.1150956899200111 -0.045830426672337207 0 -0.1070798181065768 -0.041876824406217303 0 -0.1158705629695205 -0.060236298698018297 0 -0.1150956899200111 -0.045830426672337207 0 -0.12809376798702951 -0.047905065599393698 0 -0.1163329610324388 -0.034474533447810513 0 -0.12530131535501859 -0.034952786400489197 0 -0.12809376798702951 -0.047905065599393698 0 -0.11023593420079281 -0.033339602888773932 0 -0.1150956899200111 -0.045830426672337207 0 -0.12809376798702951 -0.047905065599393698 0 -0.11023593420079281 -0.033339602888773932 0 -0.1163329610324388 -0.034474533447810513 0 -0.12809376798702951 -0.047905065599393698 0 -0.11023593420079281 -0.033339602888773932 0 -0.12809376798702951 -0.047905065599393698 0 -0.1163329610324388 -0.034474533447810513 0 -0.1221370268088495 -0.025998648103035 0 -0.12530131535501859 -0.034952786400489197 0 -0.11023593420079281 -0.033339602888773932 0 -0.1150956899200111 -0.045830426672337207 0 -0.1070798181065768 -0.041876824406217303 0 -0.11023593420079281 -0.033339602888773932 0 -0.1163329610324388 -0.034474533447810513 0 -0.097427134368436918 -0.027820357899848831 0 -0.11023593420079281 -0.033339602888773932 0 -0.1070798181065768 -0.041876824406217303 0 -0.097427134368436918 -0.027820357899848831 0 -0.1070798181065768 -0.041876824406217303 0 -0.096769769074122519 -0.04215743587210824 0 -0.097427134368436918 -0.027820357899848831 0 -0.1158705629695205 -0.060236298698018297 0 -0.1070798181065768 -0.041876824406217303 0 -0.096769769074122519 -0.04215743587210824 0 -0.1026030192468113 -0.064894788769428779 0 -0.1158705629695205 -0.060236298698018297 0 -0.099264754381345577 -0.055060356505970513 0 -0.1158705629695205 -0.060236298698018297 0 -0.096769769074122519 -0.04215743587210824 0 -0.099264754381345577 -0.055060356505970513 0 -0.096769769074122519 -0.04215743587210824 0 -0.099264754381345577 -0.055060356505970513 0 -0.090746651292135133 -0.048651172445365112 0 -0.1158705629695205 -0.060236298698018297 0 -0.096769769074122519 -0.04215743587210824 0 -0.1026030192468113 -0.064894788769428779 0 -0.099264754381345577 -0.055060356505970513 0 -0.090333769324138391 -0.059362086744932152 0 -0.1029392013539359 -0.0085751277431150782 0 -0.12735709500343681 0.004015926865657337 0 -0.1236693299605585 -0.0137973575501921 0 -0.1110604598185659 -0.0207882196779367 0 -0.1029392013539359 -0.0085751277431150782 0 -0.1236693299605585 -0.0137973575501921 0 -0.1029392013539359 -0.0085751277431150782 0 -0.12735709500343681 0.004015926865657337 0 -0.1236693299605585 -0.0137973575501921 0 -0.1110604598185659 -0.0207882196779367 0 -0.1221370268088495 -0.025998648103035 0 -0.1163329610324388 -0.034474533447810513 0 -0.1221370268088495 -0.025998648103035 0 -0.11173939550707281 -0.027270439782157759 0 -0.1110604598185659 -0.0207882196779367 0 -0.1221370268088495 -0.025998648103035 0 -0.11173939550707281 -0.027270439782157759 0 -0.1163329610324388 -0.034474533447810513 0 -0.097427134368436918 -0.027820357899848831 0 -0.1110604598185659 -0.0207882196779367 0 -0.097427134368436918 -0.027820357899848831 0 -0.1029392013539359 -0.0085751277431150782 0 -0.1163329610324388 -0.034474533447810513 0 -0.11173939550707281 -0.027270439782157759 0 -0.097427134368436918 -0.027820357899848831 0 -0.1110604598185659 -0.0207882196779367 0 -0.11173939550707281 -0.027270439782157759 0 -0.097427134368436918 -0.027820357899848831 0 -0.1029392013539359 -0.0085751277431150782 0 -0.086097875964997059 -0.0058870606910941042 0 -0.078521307704434995 -0.021166182351887271 0 -0.1029392013539359 -0.0085751277431150782 0 -0.078521307704434995 -0.021166182351887271 0 -0.1029392013539359 -0.0085751277431150782 0 -0.086097875964997059 -0.0058870606910941042 0 -0.091682611010439896 0.0063963380850077774 0 -0.086097875964997059 -0.0058870606910941042 0 -0.073830544796709738 -0.0078542708917730738 0 -0.078933949510919491 0.00072378658541613432 0 -0.086097875964997059 -0.0058870606910941042 0 -0.078521307704434995 -0.021166182351887271 0 -0.073830544796709738 -0.0078542708917730738 0 -0.097427134368436918 -0.027820357899848831 0 -0.078521307704434995 -0.021166182351887271 0 -0.097427134368436918 -0.027820357899848831 0 -0.078521307704434995 -0.021166182351887271 0 -0.077668975178724509 -0.024078573046198169 0 -0.097427134368436918 -0.027820357899848831 0 -0.1029392013539359 -0.0085751277431150782 0 -0.078521307704434995 -0.021166182351887271 0 -0.078521307704434995 -0.021166182351887271 0 -0.055132092173872667 -0.033226800447327051 0 -0.05822397002114936 -0.01402224463886402 0 -0.078521307704434995 -0.021166182351887271 0 -0.055132092173872667 -0.033226800447327051 0 -0.077668975178724509 -0.024078573046198169 0 -0.075465350998538308 -0.032772608828030472 0 -0.055132092173872667 -0.033226800447327051 0 -0.078521307704434995 -0.021166182351887271 0 -0.077668975178724509 -0.024078573046198169 0 -0.055132092173872667 -0.033226800447327051 0 -0.078521307704434995 -0.021166182351887271 0 -0.05822397002114936 -0.01402224463886402 0 -0.078521307704434995 -0.021166182351887271 0 -0.073830544796709738 -0.0078542708917730738 0 -0.05822397002114936 -0.01402224463886402 0 -0.073830544796709738 -0.0078542708917730738 0 -0.05822397002114936 -0.01402224463886402 0 -0.068462160169621672 0.0025537029525893409 0 -0.073830544796709738 -0.0078542708917730738 0 -0.078933949510919491 0.00072378658541613432 0 -0.068462160169621672 0.0025537029525893409 0 -0.094924188455715333 -0.074372309221374736 0 -0.090333769324138391 -0.059362086744932152 0 -0.077079431972146645 -0.050953682142663811 0 -0.094924188455715333 -0.074372309221374736 0 -0.078535685693175539 -0.061573663464548622 0 -0.077079431972146645 -0.050953682142663811 0 -0.084868245962835154 -0.053326759561897898 0 -0.090333769324138391 -0.059362086744932152 0 -0.077079431972146645 -0.050953682142663811 0 -0.084868245962835154 -0.053326759561897898 0 -0.080876314157704687 -0.04955372347343575 0 -0.082849096915408454 -0.045583035938281863 0 -0.080876314157704687 -0.04955372347343575 0 -0.078708481780428496 -0.048351416250899462 0 -0.082849096915408454 -0.045583035938281863 0 -0.080876314157704687 -0.04955372347343575 0 -0.078708481780428496 -0.048351416250899462 0 -0.077079431972146645 -0.050953682142663811 0 -0.084868245962835154 -0.053326759561897898 0 -0.080876314157704687 -0.04955372347343575 0 -0.077079431972146645 -0.050953682142663811 0 -0.084868245962835154 -0.053326759561897898 0 -0.090746651292135133 -0.048651172445365112 0 -0.082849096915408454 -0.045583035938281863 0 -0.084868245962835154 -0.053326759561897898 0 -0.090333769324138391 -0.059362086744932152 0 -0.090746651292135133 -0.048651172445365112 0 -0.099264754381345577 -0.055060356505970513 0 -0.090333769324138391 -0.059362086744932152 0 -0.090746651292135133 -0.048651172445365112 0 -0.096769769074122519 -0.04215743587210824 0 -0.088481073739883592 -0.043344290748051233 0 -0.083558777677868248 -0.036985518736449702 0 -0.096769769074122519 -0.04215743587210824 0 -0.097427134368436918 -0.027820357899848831 0 -0.077668975178724509 -0.024078573046198169 0 -0.096769769074122519 -0.04215743587210824 0 -0.077668975178724509 -0.024078573046198169 0 -0.083558777677868248 -0.036985518736449702 0 -0.096769769074122519 -0.04215743587210824 0 -0.077668975178724509 -0.024078573046198169 0 -0.090746651292135133 -0.048651172445365112 0 -0.088481073739883592 -0.043344290748051233 0 -0.082849096915408454 -0.045583035938281863 0 -0.096769769074122519 -0.04215743587210824 0 -0.090746651292135133 -0.048651172445365112 0 -0.088481073739883592 -0.043344290748051233 0 -0.077668975178724509 -0.024078573046198169 0 -0.083558777677868248 -0.036985518736449702 0 -0.075465350998538308 -0.032772608828030472 0 -0.083558777677868248 -0.036985518736449702 0 -0.082849096915408454 -0.045583035938281863 0 -0.075062618692292638 -0.040325846155841297 0 -0.088481073739883592 -0.043344290748051233 0 -0.083558777677868248 -0.036985518736449702 0 -0.082849096915408454 -0.045583035938281863 0 -0.082849096915408454 -0.045583035938281863 0 -0.078067002861142085 -0.04575568247049161 0 -0.075062618692292638 -0.040325846155841297 0 -0.078708481780428496 -0.048351416250899462 0 -0.082849096915408454 -0.045583035938281863 0 -0.078067002861142085 -0.04575568247049161 0 -0.075647814056438792 -0.048762431536943832 0 -0.055132092173872667 -0.033226800447327051 0 -0.078067002861142085 -0.04575568247049161 0 -0.075062618692292638 -0.040325846155841297 0 -0.075647814056438792 -0.048762431536943832 0 -0.075062618692292638 -0.040325846155841297 0 -0.075465350998538308 -0.032772608828030472 0 -0.055132092173872667 -0.033226800447327051 0 -0.075647814056438792 -0.048762431536943832 0 -0.061428605263776047 -0.046553119166432878 0 -0.055132092173872667 -0.033226800447327051 0 -0.075062618692292638 -0.040325846155841297 0 -0.075647814056438792 -0.048762431536943832 0 -0.055132092173872667 -0.033226800447327051 0 -0.083558777677868248 -0.036985518736449702 0 -0.075062618692292638 -0.040325846155841297 0 -0.075465350998538308 -0.032772608828030472 0 -0.065722760200719738 -0.052253177456942877 0 -0.075647814056438792 -0.048762431536943832 0 -0.061428605263776047 -0.046553119166432878 0 -0.065722760200719738 -0.052253177456942877 0 -0.07269306068786438 -0.052406879740114577 0 -0.069833853901725543 -0.055329661047837618 0 -0.065722760200719738 -0.052253177456942877 0 -0.07269306068786438 -0.052406879740114577 0 -0.075647814056438792 -0.048762431536943832 0 -0.07269306068786438 -0.052406879740114577 0 -0.073703714626092445 -0.056102563442451223 0 -0.069833853901725543 -0.055329661047837618 0 -0.07269306068786438 -0.052406879740114577 0 -0.077079431972146645 -0.050953682142663811 0 -0.073703714626092445 -0.056102563442451223 0 -0.078708481780428496 -0.048351416250899462 0 -0.077079431972146645 -0.050953682142663811 0 -0.075647814056438792 -0.048762431536943832 0 -0.07269306068786438 -0.052406879740114577 0 -0.077079431972146645 -0.050953682142663811 0 -0.075647814056438792 -0.048762431536943832 0 -0.078708481780428496 -0.048351416250899462 0 -0.078067002861142085 -0.04575568247049161 0 -0.075647814056438792 -0.048762431536943832 0 -0.078535685693175539 -0.061573663464548622 0 -0.073703714626092445 -0.056102563442451223 0 -0.070308423821052124 -0.061023041189074957 0 -0.078535685693175539 -0.061573663464548622 0 -0.077079431972146645 -0.050953682142663811 0 -0.073703714626092445 -0.056102563442451223 0 -0.073703714626092445 -0.056102563442451223 0 -0.070308423821052124 -0.061023041189074957 0 -0.069833853901725543 -0.055329661047837618 0 -0.070308423821052124 -0.061023041189074957 0 -0.064391701294429504 -0.057679717025484439 0 -0.060830035872249492 -0.064558057335980773 0 -0.070308423821052124 -0.061023041189074957 0 -0.069833853901725543 -0.055329661047837618 0 -0.064391701294429504 -0.057679717025484439 0 -0.065722760200719738 -0.052253177456942877 0 -0.069833853901725543 -0.055329661047837618 0 -0.064391701294429504 -0.057679717025484439 0 -0.064391701294429504 -0.057679717025484439 0 -0.055978059279945473 -0.056388284161067823 0 -0.060830035872249492 -0.064558057335980773 0 -0.065722760200719738 -0.052253177456942877 0 -0.064391701294429504 -0.057679717025484439 0 -0.055978059279945473 -0.056388284161067823 0 -0.055978059279945473 -0.056388284161067823 0 -0.041230103293456458 -0.058058117591144771 0 -0.049479852383656611 -0.067543566470139038 0 -0.055978059279945473 -0.056388284161067823 0 -0.049741921456861897 -0.048697412542500033 0 -0.041230103293456458 -0.058058117591144771 0 -0.055978059279945473 -0.056388284161067823 0 -0.049741921456861897 -0.048697412542500033 0 -0.061428605263776047 -0.046553119166432878 0 -0.065722760200719738 -0.052253177456942877 0 -0.055978059279945473 -0.056388284161067823 0 -0.061428605263776047 -0.046553119166432878 0 -0.049741921456861897 -0.048697412542500033 0 -0.061428605263776047 -0.046553119166432878 0 -0.055132092173872667 -0.033226800447327051 0 -0.049741921456861897 -0.048697412542500033 0 -0.055132092173872667 -0.033226800447327051 0 -0.032367863380537598 -0.044965144957206583 0 -0.055132092173872667 -0.033226800447327051 0 -0.032367863380537598 -0.044965144957206583 0 -0.055132092173872667 -0.033226800447327051 0 -0.032367863380537598 -0.044965144957206583 0 -0.031233838643279398 -0.031193199633022049 0 -0.049741921456861897 -0.048697412542500033 0 -0.032367863380537598 -0.044965144957206583 0 -0.041230103293456458 -0.058058117591144771 0 -0.032367863380537598 -0.044965144957206583 0 -0.041230103293456458 -0.058058117591144771 0 -0.026902341230915561 -0.060374551747501753 0 -0.05822397002114936 -0.01402224463886402 0 -0.057836245250817257 0.0062936453779614283 0 -0.044352522143416888 0.0050416822031405977 0 -0.05822397002114936 -0.01402224463886402 0 -0.037926632337863607 -0.0068783069258408786 0 -0.05822397002114936 -0.01402224463886402 0 -0.068462160169621672 0.0025537029525893409 0 -0.057836245250817257 0.0062936453779614283 0 -0.055132092173872667 -0.033226800447327051 0 -0.05822397002114936 -0.01402224463886402 0 -0.036243114184870161 -0.018923029155399909 0 -0.055132092173872667 -0.033226800447327051 0 -0.036243114184870161 -0.018923029155399909 0 -0.031233838643279398 -0.031193199633022049 0 -0.055132092173872667 -0.033226800447327051 0 -0.036243114184870161 -0.018923029155399909 0 -0.05822397002114936 -0.01402224463886402 0 -0.036243114184870161 -0.018923029155399909 0 -0.037926632337863607 -0.0068783069258408786 0 -0.05822397002114936 -0.01402224463886402 0 -0.037926632337863607 -0.0068783069258408786 0 -0.044352522143416888 0.0050416822031405977 0 -0.036243114184870161 -0.018923029155399909 0 -0.037926632337863607 -0.0068783069258408786 0 -0.029121832422534862 -0.0067169982391169078 0 -0.037926632337863607 -0.0068783069258408786 0 -0.029539197120254941 -0.00051038393964639519 0 -0.029121832422534862 -0.0067169982391169078 0 -0.037926632337863607 -0.0068783069258408786 0 -0.029539197120254941 -0.00051038393964639519 0 -0.03614709390981162 0.0015378833132510439 0 -0.037926632337863607 -0.0068783069258408786 0 -0.03614709390981162 0.0015378833132510439 0 -0.044352522143416888 0.0050416822031405977 0 -0.036243114184870161 -0.018923029155399909 0 -0.017354136195868258 -0.0046192578634720229 0 -0.01819617019275287 -0.0061732580868559192 0 -0.036243114184870161 -0.018923029155399909 0 -0.017354136195868258 -0.0046192578634720229 0 -0.029121832422534862 -0.0067169982391169078 0 -0.036243114184870161 -0.018923029155399909 0 -0.01819617019275287 -0.0061732580868559192 0 -0.019637671972121611 -0.02148729346067638 0 -0.036243114184870161 -0.018923029155399909 0 -0.017354136195868258 -0.0046192578634720229 0 -0.017354136195868258 -0.0046192578634720229 0 -0.01819617019275287 -0.0061732580868559192 0 -0.013500839782477779 -0.0058155532537883976 0 -0.017354136195868258 -0.0046192578634720229 0 -0.01819617019275287 -0.0061732580868559192 0 -0.017354136195868258 -0.0046192578634720229 0 -0.024546082273817361 -0.00265401331122534 0 -0.02112675760807068 0.0030512678310729521 0 -0.024546082273817361 -0.00265401331122534 0 -0.029539197120254941 -0.00051038393964639519 0 -0.02112675760807068 0.0030512678310729521 0 -0.017354136195868258 -0.0046192578634720229 0 -0.024546082273817361 -0.00265401331122534 0 -0.029121832422534862 -0.0067169982391169078 0 -0.024546082273817361 -0.00265401331122534 0 -0.029539197120254941 -0.00051038393964639519 0 -0.029121832422534862 -0.0067169982391169078 0 -0.01819617019275287 -0.0061732580868559192 0 -0.019637671972121611 -0.02148729346067638 0 -0.011008321991883009 -0.01057962122923565 0 -0.036243114184870161 -0.018923029155399909 0 -0.019637671972121611 -0.02148729346067638 0 -0.031233838643279398 -0.031193199633022049 0 -0.019637671972121611 -0.02148729346067638 0 -0.031233838643279398 -0.031193199633022049 0 -0.016064986363794779 -0.036441041599790329 0 -0.0077215053668332834 -0.022860670268973711 0 -0.00118246574067416 -0.01324232368796026 0 0.0015263381015913891 -0.033415212413580753 0 -0.0077215053668332834 -0.022860670268973711 0 -0.016064986363794779 -0.036441041599790329 0 0.0015263381015913891 -0.033415212413580753 0 -0.019637671972121611 -0.02148729346067638 0 -0.0077215053668332834 -0.022860670268973711 0 -0.016064986363794779 -0.036441041599790329 0 -0.019637671972121611 -0.02148729346067638 0 -0.0077215053668332834 -0.022860670268973711 0 -0.011008321991883009 -0.01057962122923565 0 -0.011008321991883009 -0.01057962122923565 0 -0.00118246574067416 -0.01324232368796026 0 -0.0072764121498596901 -0.0036325873431357339 0 -0.0077215053668332834 -0.022860670268973711 0 -0.011008321991883009 -0.01057962122923565 0 -0.00118246574067416 -0.01324232368796026 0 -0.00118246574067416 -0.01324232368796026 0 -0.0072764121498596901 -0.0036325873431357339 0 0.0012074066645448821 -0.00065723147797176382 0 -0.0072764121498596901 -0.0036325873431357339 0 -0.013500839782477779 -0.0058155532537883976 0 -0.013607688627124061 -0.00178224205395049 0 -0.011008321991883009 -0.01057962122923565 0 -0.0072764121498596901 -0.0036325873431357339 0 -0.013500839782477779 -0.0058155532537883976 0 -0.01819617019275287 -0.0061732580868559192 0 -0.011008321991883009 -0.01057962122923565 0 -0.013500839782477779 -0.0058155532537883976 0 -0.017354136195868258 -0.0046192578634720229 0 -0.013500839782477779 -0.0058155532537883976 0 -0.013607688627124061 -0.00178224205395049 0 -0.017354136195868258 -0.0046192578634720229 0 -0.013607688627124061 -0.00178224205395049 0 -0.032367863380537598 -0.044965144957206583 0 -0.0096036345872028556 -0.056703489467087059 0 -0.032367863380537598 -0.044965144957206583 0 -0.026902341230915561 -0.060374551747501753 0 -0.0096036345872028556 -0.056703489467087059 0 -0.032367863380537598 -0.044965144957206583 0 -0.031233838643279398 -0.031193199633022049 0 -0.016064986363794779 -0.036441041599790329 0 -0.032367863380537598 -0.044965144957206583 0 -0.016064986363794779 -0.036441041599790329 0 -0.0096036345872028556 -0.056703489467087059 0 -0.0096036345872028556 -0.056703489467087059 0 0.0015263381015913891 -0.033415212413580753 0 -0.016064986363794779 -0.036441041599790329 0 -0.0096036345872028556 -0.056703489467087059 0 0.0015263381015913891 -0.033415212413580753 0 -0.0096036345872028556 -0.056703489467087059 0 0.0015263381015913891 -0.033415212413580753 0 0.007298405735321048 -0.051477207310420908 0 -0.0096036345872028556 -0.056703489467087059 0 0.0052181775422467033 -0.064346337314722044 0 -0.0096036345872028556 -0.056703489467087059 0 -0.0043762627118289626 -0.071729097412358583 0 0.0052181775422467033 -0.064346337314722044 0 -0.0043762627118289626 -0.071729097412358583 0 -0.0092607301227374331 -0.088572496961274561 0 -0.01646375475339092 -0.071057556949349329 0 -0.0096036345872028556 -0.056703489467087059 0 -0.01646375475339092 -0.071057556949349329 0 -0.0096036345872028556 -0.056703489467087059 0 -0.0043762627118289626 -0.071729097412358583 0 -0.01646375475339092 -0.071057556949349329 0 -0.0092607301227374331 -0.088572496961274561 0 -0.00044729776891663488 -0.1011528385718463 0 0.0042106568376920582 -0.081118225430045127 0 -0.0043762627118289626 -0.071729097412358583 0 -0.0092607301227374331 -0.088572496961274561 0 0.0042106568376920582 -0.081118225430045127 0 -0.0092607301227374331 -0.088572496961274561 0 -0.037642160748979789 -0.094071739377162955 0 -0.0092607301227374331 -0.088572496961274561 0 -0.023323874919582349 -0.085411624431610003 0 -0.01646375475339092 -0.071057556949349329 0 -0.0092607301227374331 -0.088572496961274561 0 -0.023323874919582349 -0.085411624431610003 0 -0.037642160748979789 -0.094071739377162955 0 -0.023323874919582349 -0.085411624431610003 0 -0.01646375475339092 -0.071057556949349329 0 -0.023323874919582349 -0.085411624431610003 0 -0.01646375475339092 -0.071057556949349329 0 -0.034846350139989962 -0.07108844977272101 0 -0.026902341230915561 -0.060374551747501753 0 -0.01646375475339092 -0.071057556949349329 0 -0.034846350139989962 -0.07108844977272101 0 -0.026902341230915561 -0.060374551747501753 0 -0.0096036345872028556 -0.056703489467087059 0 -0.01646375475339092 -0.071057556949349329 0 -0.041230103293456458 -0.058058117591144771 0 -0.026902341230915561 -0.060374551747501753 0 -0.034846350139989962 -0.07108844977272101 0 -0.041230103293456458 -0.058058117591144771 0 -0.034846350139989962 -0.07108844977272101 0 -0.049479852383656611 -0.067543566470139038 0 -0.034846350139989962 -0.07108844977272101 0 -0.048784805137481749 -0.081200653853927454 0 -0.049479852383656611 -0.067543566470139038 0 -0.023323874919582349 -0.085411624431610003 0 -0.034846350139989962 -0.07108844977272101 0 -0.036149297736508462 -0.082943116858855345 0 -0.023323874919582349 -0.085411624431610003 0 -0.036149297736508462 -0.082943116858855345 0 -0.037642160748979789 -0.094071739377162955 0 -0.036149297736508462 -0.082943116858855345 0 -0.048784805137481749 -0.081200653853927454 0 -0.037642160748979789 -0.094071739377162955 0 -0.034846350139989962 -0.07108844977272101 0 -0.036149297736508462 -0.082943116858855345 0 -0.048784805137481749 -0.081200653853927454 0 -0.063732237529271596 -0.080733089011810297 0 -0.066023591375222151 -0.09957098179305135 0 -0.048784805137481749 -0.081200653853927454 0 -0.066023591375222151 -0.09957098179305135 0 -0.048784805137481749 -0.081200653853927454 0 -0.037642160748979789 -0.094071739377162955 0 -0.063732237529271596 -0.080733089011810297 0 -0.048784805137481749 -0.081200653853927454 0 -0.058000192015007383 -0.073011667883306972 0 -0.055978059279945473 -0.056388284161067823 0 -0.060830035872249492 -0.064558057335980773 0 -0.049479852383656611 -0.067543566470139038 0 -0.058000192015007383 -0.073011667883306972 0 -0.060830035872249492 -0.064558057335980773 0 -0.049479852383656611 -0.067543566470139038 0 -0.067174029152377468 -0.071022972744677337 0 -0.058000192015007383 -0.073011667883306972 0 -0.060830035872249492 -0.064558057335980773 0 -0.048784805137481749 -0.081200653853927454 0 -0.058000192015007383 -0.073011667883306972 0 -0.049479852383656611 -0.067543566470139038 0 -0.069466171350113709 -0.1135628440840601 0 -0.054384952187449757 -0.110609208962567 0 -0.059238207921678762 -0.13024384051707169 0 -0.054384952187449757 -0.110609208962567 0 -0.059238207921678762 -0.13024384051707169 0 -0.032945469352336033 -0.1293562392835419 0 -0.066023591375222151 -0.09957098179305135 0 -0.054384952187449757 -0.110609208962567 0 -0.037642160748979789 -0.094071739377162955 0 -0.066023591375222151 -0.09957098179305135 0 -0.037642160748979789 -0.094071739377162955 0 -0.054384952187449757 -0.110609208962567 0 -0.037642160748979789 -0.094071739377162955 0 -0.035661083064217503 -0.11124856921529409 0 -0.054384952187449757 -0.110609208962567 0 -0.032945469352336033 -0.1293562392835419 0 -0.054384952187449757 -0.110609208962567 0 -0.035661083064217503 -0.11124856921529409 0 -0.032945469352336033 -0.1293562392835419 0 -0.01767174996810443 -0.1109570892379047 0 -0.012892303975098539 -0.12786221844410239 0 -0.032945469352336033 -0.1293562392835419 0 -0.035661083064217503 -0.11124856921529409 0 -0.01767174996810443 -0.1109570892379047 0 -0.032945469352336033 -0.1293562392835419 0 -0.0092607301227374331 -0.088572496961274561 0 -0.037642160748979789 -0.094071739377162955 0 -0.01767174996810443 -0.1109570892379047 0 -0.037642160748979789 -0.094071739377162955 0 -0.035661083064217503 -0.11124856921529409 0 -0.01767174996810443 -0.1109570892379047 0 -0.01767174996810443 -0.1109570892379047 0 -0.00044729776891663488 -0.1011528385718463 0 0.005085065621477718 -0.1151057880332567 0 -0.0092607301227374331 -0.088572496961274561 0 -0.01767174996810443 -0.1109570892379047 0 -0.00044729776891663488 -0.1011528385718463 0 -0.01767174996810443 -0.1109570892379047 0 -0.012892303975098539 -0.12786221844410239 0 0.005085065621477718 -0.1151057880332567 0 -0.012892303975098539 -0.12786221844410239 0 0.0027021066240326768 -0.1317064378292063 0 0.005085065621477718 -0.1151057880332567 0 -0.011505986517222349 -0.14810326960451681 0 -0.033736789854580403 -0.16402697950055581 0 -0.032945469352336033 -0.1293562392835419 0 -0.012892303975098539 -0.12786221844410239 0 -0.011505986517222349 -0.14810326960451681 0 0.0027021066240326768 -0.1317064378292063 0 -0.011505986517222349 -0.14810326960451681 0 -0.032945469352336033 -0.1293562392835419 0 -0.012892303975098539 -0.12786221844410239 0 -0.011505986517222349 -0.14810326960451681 0 -0.032945469352336033 -0.1293562392835419 0 -0.011505986517222349 -0.14810326960451681 0 0.009933496317892726 -0.16685029992549011 0 -0.011505986517222349 -0.14810326960451681 0 -0.0085976242789068957 -0.177408956520272 0 0.009933496317892726 -0.16685029992549011 0 -0.0085976242789068957 -0.177408956520272 0 -0.003739977245034012 -0.19168309442994089 0 -0.02712874487570623 -0.18796761311505439 0 -0.0085976242789068957 -0.177408956520272 0 -0.003739977245034012 -0.19168309442994089 0 0.0034571977838801569 -0.17702496179755631 0 -0.0085976242789068957 -0.177408956520272 0 -0.02712874487570623 -0.18796761311505439 0 -0.0085976242789068957 -0.177408956520272 0 -0.033736789854580403 -0.16402697950055581 0 -0.02712874487570623 -0.18796761311505439 0 -0.011505986517222349 -0.14810326960451681 0 -0.0085976242789068957 -0.177408956520272 0 -0.033736789854580403 -0.16402697950055581 0 -0.033736789854580403 -0.16402697950055581 0 -0.041678182321736049 -0.18065303021324261 0 -0.02712874487570623 -0.18796761311505439 0 -0.033736789854580403 -0.16402697950055581 0 -0.041678182321736049 -0.18065303021324261 0 -0.060187329084152079 -0.17209125852752319 0 -0.041678182321736049 -0.18065303021324261 0 -0.060187329084152079 -0.17209125852752319 0 -0.045659865472505487 -0.198526269709837 0 -0.060187329084152079 -0.17209125852752319 0 -0.045659865472505487 -0.198526269709837 0 -0.033736789854580403 -0.16402697950055581 0 -0.060187329084152079 -0.17209125852752319 0 -0.051699405537506939 -0.14899167338562519 0 -0.060187329084152079 -0.17209125852752319 0 -0.051699405537506939 -0.14899167338562519 0 -0.072389231474787458 -0.1492400490994332 0 -0.051699405537506939 -0.14899167338562519 0 -0.059238207921678762 -0.13024384051707169 0 -0.072389231474787458 -0.1492400490994332 0 -0.033736789854580403 -0.16402697950055581 0 -0.051699405537506939 -0.14899167338562519 0 -0.032945469352336033 -0.1293562392835419 0 -0.051699405537506939 -0.14899167338562519 0 -0.059238207921678762 -0.13024384051707169 0 -0.032945469352336033 -0.1293562392835419 0 -0.025857267464119819 -0.25506418495113531 0 -0.02368513365757598 -0.23851275990414511 0 -0.036167443228362108 -0.24337299090061551 0 -0.01269776775011346 -0.25850600500130039 0 -0.02368513365757598 -0.23851275990414511 0 -0.01269776775011346 -0.25850600500130039 0 -0.02368513365757598 -0.23851275990414511 0 -0.01082738352359053 -0.24876902592697839 0 -0.02368513365757598 -0.23851275990414511 0 -0.0067432183097289999 -0.239968376336817 0 -0.0090267388034834407 -0.23007068799598671 0 -0.02368513365757598 -0.23851275990414511 0 -0.01082738352359053 -0.24876902592697839 0 -0.0067432183097289999 -0.239968376336817 0 -0.01082738352359053 -0.24876902592697839 0 -0.0029313858115674811 -0.24854412401401971 0 -0.0067432183097289999 -0.239968376336817 0 -0.0029313858115674811 -0.24854412401401971 0 -0.0067432183097289999 -0.239968376336817 0 0.0026199421412959989 -0.2430643023623929 0 -0.0067432183097289999 -0.239968376336817 0 0.0026199421412959989 -0.2430643023623929 0 0.0017465435191736189 -0.23378549097037141 0 -0.0067432183097289999 -0.239968376336817 0 -0.0090267388034834407 -0.23007068799598671 0 0.0017465435191736189 -0.23378549097037141 0 -0.0090267388034834407 -0.23007068799598671 0 -0.00080535468136348092 -0.21995366459000901 0 -0.01839049427805331 -0.2195873775130934 0 -0.0090267388034834407 -0.23007068799598671 0 -0.00080535468136348092 -0.21995366459000901 0 0.0017465435191736189 -0.23378549097037141 0 -0.02368513365757598 -0.23851275990414511 0 -0.0090267388034834407 -0.23007068799598671 0 -0.01839049427805331 -0.2195873775130934 0 -0.02368513365757598 -0.23851275990414511 0 -0.01839049427805331 -0.2195873775130934 0 -0.034672499565036527 -0.2185195148069887 0 -0.02368513365757598 -0.23851275990414511 0 -0.034672499565036527 -0.2185195148069887 0 -0.01839049427805331 -0.2195873775130934 0 -0.027127261386640289 -0.20489204062456881 0 -0.034672499565036527 -0.2185195148069887 0 -0.01839049427805331 -0.2195873775130934 0 -0.027127261386640289 -0.20489204062456881 0 -0.01084996336714465 -0.20584666152463099 0 -0.00080535468136348092 -0.21995366459000901 0 -0.01839049427805331 -0.2195873775130934 0 -0.01084996336714465 -0.20584666152463099 0 -0.00080535468136348092 -0.21995366459000901 0 -0.01084996336714465 -0.20584666152463099 0 0.01016515501406726 -0.20926501301563591 0 -0.01084996336714465 -0.20584666152463099 0 -0.003739977245034012 -0.19168309442994089 0 0.01016515501406726 -0.20926501301563591 0 -0.01084996336714465 -0.20584666152463099 0 -0.003739977245034012 -0.19168309442994089 0 -0.02712874487570623 -0.18796761311505439 0 -0.027127261386640289 -0.20489204062456881 0 -0.01084996336714465 -0.20584666152463099 0 -0.02712874487570623 -0.18796761311505439 0 -0.041678182321736049 -0.18065303021324261 0 -0.02712874487570623 -0.18796761311505439 0 -0.045659865472505487 -0.198526269709837 0 -0.02712874487570623 -0.18796761311505439 0 -0.045659865472505487 -0.198526269709837 0 -0.027127261386640289 -0.20489204062456881 0 -0.02712874487570623 -0.18796761311505439 0 -0.045659865472505487 -0.198526269709837 0 -0.045659865472505487 -0.198526269709837 0 -0.067682806497079445 -0.21107449474949169 0 -0.062708331551170268 -0.19442045911658551 0 -0.060187329084152079 -0.17209125852752319 0 -0.045659865472505487 -0.198526269709837 0 -0.062708331551170268 -0.19442045911658551 0 -0.045659865472505487 -0.198526269709837 0 -0.067682806497079445 -0.21107449474949169 0 -0.045659865472505487 -0.198526269709837 0 -0.054546183461555722 -0.22015285450131489 0 -0.067682806497079445 -0.21107449474949169 0 -0.045659865472505487 -0.198526269709837 0 -0.034672499565036527 -0.2185195148069887 0 -0.054546183461555722 -0.22015285450131489 0 -0.045659865472505487 -0.198526269709837 0 -0.034672499565036527 -0.2185195148069887 0 -0.027127261386640289 -0.20489204062456881 0 -0.045659865472505487 -0.198526269709837 0 -0.034672499565036527 -0.2185195148069887 0 -0.034672499565036527 -0.2185195148069887 0 -0.044145410485190079 -0.23242073182379891 0 -0.054546183461555722 -0.22015285450131489 0 -0.02368513365757598 -0.23851275990414511 0 -0.034672499565036527 -0.2185195148069887 0 -0.044145410485190079 -0.23242073182379891 0 -0.044145410485190079 -0.23242073182379891 0 -0.054546183461555722 -0.22015285450131489 0 -0.061280333386656921 -0.23284462843810469 0 -0.061280333386656921 -0.23284462843810469 0 -0.050191684441297867 -0.2485850187836515 0 -0.071591358857016049 -0.2429226102204386 0 -0.050191684441297867 -0.2485850187836515 0 -0.071591358857016049 -0.2429226102204386 0 -0.056939497423126581 -0.24878681181634871 0 -0.050191684441297867 -0.2485850187836515 0 -0.071591358857016049 -0.2429226102204386 0 -0.044145410485190079 -0.23242073182379891 0 -0.061280333386656921 -0.23284462843810469 0 -0.050191684441297867 -0.2485850187836515 0 -0.041398382443623198 -0.25192549838374201 0 -0.056939497423126581 -0.24878681181634871 0 -0.050191684441297867 -0.2485850187836515 0 -0.044145410485190079 -0.23242073182379891 0 -0.050191684441297867 -0.2485850187836515 0 -0.036167443228362108 -0.24337299090061551 0 -0.02368513365757598 -0.23851275990414511 0 -0.044145410485190079 -0.23242073182379891 0 -0.036167443228362108 -0.24337299090061551 0 -0.025857267464119819 -0.25506418495113531 0 -0.050191684441297867 -0.2485850187836515 0 -0.036167443228362108 -0.24337299090061551 0 -0.097628444613881649 -0.25834262822693399 0 -0.087470553331264578 -0.24262075389877999 0 -0.077955776651182085 -0.24454236002529731 0 -0.087470553331264578 -0.24262075389877999 0 -0.087928467376508473 -0.23859976953689591 0 -0.1005617376665941 -0.23997685579502359 0 -0.087928467376508473 -0.23859976953689591 0 -0.07453604668454375 -0.2421434382925548 0 -0.07383618536286593 -0.22753148747966839 0 -0.087928467376508473 -0.23859976953689591 0 -0.07453604668454375 -0.2421434382925548 0 -0.087928467376508473 -0.23859976953689591 0 -0.077955776651182085 -0.24454236002529731 0 -0.07453604668454375 -0.2421434382925548 0 -0.087470553331264578 -0.24262075389877999 0 -0.087928467376508473 -0.23859976953689591 0 -0.077955776651182085 -0.24454236002529731 0 -0.087470553331264578 -0.24262075389877999 0 -0.077955776651182085 -0.24454236002529731 0 -0.056939497423126581 -0.24878681181634871 0 -0.077955776651182085 -0.24454236002529731 0 -0.071591358857016049 -0.2429226102204386 0 -0.056939497423126581 -0.24878681181634871 0 -0.077955776651182085 -0.24454236002529731 0 -0.077955776651182085 -0.24454236002529731 0 -0.071591358857016049 -0.2429226102204386 0 -0.07453604668454375 -0.2421434382925548 0 -0.077955776651182085 -0.24454236002529731 0 -0.07453604668454375 -0.2421434382925548 0 -0.071591358857016049 -0.2429226102204386 0 -0.07453604668454375 -0.2421434382925548 0 -0.056939497423126581 -0.24878681181634871 0 -0.071591358857016049 -0.2429226102204386 0 -0.061280333386656921 -0.23284462843810469 0 -0.071591358857016049 -0.2429226102204386 0 -0.07453604668454375 -0.2421434382925548 0 -0.061280333386656921 -0.23284462843810469 0 -0.07453604668454375 -0.2421434382925548 0 -0.07383618536286593 -0.22753148747966839 0 -0.089705747521653334 -0.22362271978914661 0 -0.067682806497079445 -0.21107449474949169 0 -0.054546183461555722 -0.22015285450131489 0 -0.061280333386656921 -0.23284462843810469 0 -0.07383618536286593 -0.22753148747966839 0 -0.054546183461555722 -0.22015285450131489 0 -0.07383618536286593 -0.22753148747966839 0 -0.067682806497079445 -0.21107449474949169 0 -0.061280333386656921 -0.23284462843810469 0 -0.07453604668454375 -0.2421434382925548 0 -0.07383618536286593 -0.22753148747966839 0 -0.087928467376508473 -0.23859976953689591 0 -0.07383618536286593 -0.22753148747966839 0 -0.089705747521653334 -0.22362271978914661 0 -0.087928467376508473 -0.23859976953689591 0 -0.089705747521653334 -0.22362271978914661 0 -0.1005617376665941 -0.23997685579502359 0 -0.089705747521653334 -0.22362271978914661 0 -0.067682806497079445 -0.21107449474949169 0 -0.089705747521653334 -0.22362271978914661 0 -0.084027466008495671 -0.20735524824550181 0 -0.09921486728828334 -0.20109800384388701 0 -0.089705747521653334 -0.22362271978914661 0 -0.084027466008495671 -0.20735524824550181 0 -0.067682806497079445 -0.21107449474949169 0 -0.084027466008495671 -0.20735524824550181 0 -0.067682806497079445 -0.21107449474949169 0 -0.079506442726966622 -0.19362577459948219 0 -0.067682806497079445 -0.21107449474949169 0 -0.062708331551170268 -0.19442045911658551 0 -0.079506442726966622 -0.19362577459948219 0 -0.079506442726966622 -0.19362577459948219 0 -0.09921486728828334 -0.20109800384388701 0 -0.089369030920126963 -0.1732707743578942 0 -0.084027466008495671 -0.20735524824550181 0 -0.079506442726966622 -0.19362577459948219 0 -0.09921486728828334 -0.20109800384388701 0 -0.09921486728828334 -0.20109800384388701 0 -0.1156293974943295 -0.1822747327150937 0 -0.1210853022939376 -0.205467400633562 0 -0.1156293974943295 -0.1822747327150937 0 -0.13505851963374399 -0.18906788910329131 0 -0.09921486728828334 -0.20109800384388701 0 -0.1210853022939376 -0.205467400633562 0 -0.1156293974943295 -0.1822747327150937 0 -0.1210853022939376 -0.205467400633562 0 -0.10755849924533691 -0.2178899443088799 0 -0.11989889803527461 -0.22145143588075511 0 -0.1210853022939376 -0.205467400633562 0 -0.11989889803527461 -0.22145143588075511 0 -0.13086176299679239 -0.21746526838305219 0 -0.089705747521653334 -0.22362271978914661 0 -0.09921486728828334 -0.20109800384388701 0 -0.10755849924533691 -0.2178899443088799 0 -0.09921486728828334 -0.20109800384388701 0 -0.1210853022939376 -0.205467400633562 0 -0.10755849924533691 -0.2178899443088799 0 -0.089705747521653334 -0.22362271978914661 0 -0.11172868854622731 -0.23617094482880149 0 -0.1005617376665941 -0.23997685579502359 0 -0.089705747521653334 -0.22362271978914661 0 -0.11172868854622731 -0.23617094482880149 0 -0.089705747521653334 -0.22362271978914661 0 -0.10755849924533691 -0.2178899443088799 0 -0.11172868854622731 -0.23617094482880149 0 -0.11989889803527461 -0.22145143588075511 0 -0.11172868854622731 -0.23617094482880149 0 -0.127825895831608 -0.22987551408160201 0 -0.10755849924533691 -0.2178899443088799 0 -0.11989889803527461 -0.22145143588075511 0 -0.11172868854622731 -0.23617094482880149 0 -0.13218950310710981 -0.25272660122947088 0 -0.1218823470606431 -0.24640061544388489 0 -0.1098930818979398 -0.24798588601512411 0 -0.11172868854622731 -0.23617094482880149 0 -0.13375162957080131 -0.24871916986845621 0 -0.11172868854622731 -0.23617094482880149 0 -0.1218823470606431 -0.24640061544388489 0 -0.13375162957080131 -0.24871916986845621 0 -0.11172868854622731 -0.23617094482880149 0 -0.13375162957080131 -0.24871916986845621 0 -0.127825895831608 -0.22987551408160201 0 -0.11172868854622731 -0.23617094482880149 0 -0.1218823470606431 -0.24640061544388489 0 -0.1098930818979398 -0.24798588601512411 0 -0.097628444613881649 -0.25834262822693399 0 -0.087470553331264578 -0.24262075389877999 0 -0.1098930818979398 -0.24798588601512411 0 -0.087470553331264578 -0.24262075389877999 0 -0.1098930818979398 -0.24798588601512411 0 -0.1005617376665941 -0.23997685579502359 0 -0.087470553331264578 -0.24262075389877999 0 -0.1098930818979398 -0.24798588601512411 0 -0.11172868854622731 -0.23617094482880149 0 -0.1098930818979398 -0.24798588601512411 0 -0.1005617376665941 -0.23997685579502359 0 -0.087470553331264578 -0.24262075389877999 0 -0.1005617376665941 -0.23997685579502359 0 -0.072389231474787458 -0.1492400490994332 0 -0.089369030920126963 -0.1732707743578942 0 -0.096011965921864201 -0.14265464397282879 0 -0.077516787342341589 -0.1242022911324857 0 -0.093262550211769629 -0.1231040070079162 0 -0.096011965921864201 -0.14265464397282879 0 -0.077516787342341589 -0.1242022911324857 0 -0.072389231474787458 -0.1492400490994332 0 -0.096011965921864201 -0.14265464397282879 0 -0.077516787342341589 -0.1242022911324857 0 -0.059238207921678762 -0.13024384051707169 0 -0.072389231474787458 -0.1492400490994332 0 -0.060187329084152079 -0.17209125852752319 0 -0.072389231474787458 -0.1492400490994332 0 -0.089369030920126963 -0.1732707743578942 0 -0.060187329084152079 -0.17209125852752319 0 -0.079506442726966622 -0.19362577459948219 0 -0.089369030920126963 -0.1732707743578942 0 -0.060187329084152079 -0.17209125852752319 0 -0.062708331551170268 -0.19442045911658551 0 -0.079506442726966622 -0.19362577459948219 0 -0.089369030920126963 -0.1732707743578942 0 -0.1107512355661594 -0.16096683979900789 0 -0.096011965921864201 -0.14265464397282879 0 -0.09921486728828334 -0.20109800384388701 0 -0.089369030920126963 -0.1732707743578942 0 -0.1156293974943295 -0.1822747327150937 0 -0.089369030920126963 -0.1732707743578942 0 -0.1156293974943295 -0.1822747327150937 0 -0.1107512355661594 -0.16096683979900789 0 -0.1156293974943295 -0.1822747327150937 0 -0.13204392770037571 -0.1634514615863005 0 -0.1156293974943295 -0.1822747327150937 0 -0.1107512355661594 -0.16096683979900789 0 -0.13204392770037571 -0.1634514615863005 0 -0.1107512355661594 -0.16096683979900789 0 -0.12070185579410091 -0.1431825863629223 0 -0.13204392770037571 -0.1634514615863005 0 -0.1107512355661594 -0.16096683979900789 0 -0.12070185579410091 -0.1431825863629223 0 -0.096011965921864201 -0.14265464397282879 0 -0.1071147179002416 -0.1244919901550422 0 -0.12070185579410091 -0.1431825863629223 0 -0.096011965921864201 -0.14265464397282879 0 -0.093262550211769629 -0.1231040070079162 0 -0.1071147179002416 -0.1244919901550422 0 -0.096011965921864201 -0.14265464397282879 0 -0.1071147179002416 -0.1244919901550422 0 -0.12070185579410091 -0.1431825863629223 0 -0.1306137014228527 -0.1212095633787966 0 -0.12070185579410091 -0.1431825863629223 0 -0.14845845790642179 -0.14462819045750719 0 -0.1306137014228527 -0.1212095633787966 0 -0.14845845790642179 -0.14462819045750719 0 -0.1306137014228527 -0.1212095633787966 0 -0.15036797716661271 -0.14243845987679379 0 -0.14845845790642179 -0.14462819045750719 0 -0.1306137014228527 -0.1212095633787966 0 -0.15406265534163929 -0.1294064941378926 0 -0.15036797716661271 -0.14243845987679379 0 -0.1306137014228527 -0.1212095633787966 0 -0.15406265534163929 -0.1294064941378926 0 -0.15036797716661271 -0.14243845987679379 0 -0.1564494690737798 -0.13971242061594299 0 -0.1543278084257422 -0.1453912472931165 0 -0.14845845790642179 -0.14462819045750719 0 -0.15894149653025619 -0.15184230729274609 0 -0.15519343748037609 -0.14309809199123349 0 -0.15036797716661271 -0.14243845987679379 0 -0.1564494690737798 -0.13971242061594299 0 -0.1543278084257422 -0.1453912472931165 0 -0.15519343748037609 -0.14309809199123349 0 -0.15036797716661271 -0.14243845987679379 0 -0.1543278084257422 -0.1453912472931165 0 -0.15036797716661271 -0.14243845987679379 0 -0.14845845790642179 -0.14462819045750719 0 -0.15036797716661271 -0.14243845987679379 0 -0.14845845790642179 -0.14462819045750719 0 -0.12070185579410091 -0.1431825863629223 0 -0.14845845790642179 -0.14462819045750719 0 -0.13204392770037571 -0.1634514615863005 0 -0.14845845790642179 -0.14462819045750719 0 -0.13204392770037571 -0.1634514615863005 0 -0.13204392770037571 -0.1634514615863005 0 -0.1475860696211248 -0.17640031700015249 0 -0.13505851963374399 -0.18906788910329131 0 -0.1156293974943295 -0.1822747327150937 0 -0.13204392770037571 -0.1634514615863005 0 -0.13505851963374399 -0.18906788910329131 0 -0.1475860696211248 -0.17640031700015249 0 -0.1655722477793394 -0.1670875310098065 0 -0.15496537504316019 -0.19429807729602311 0 -0.1475860696211248 -0.17640031700015249 0 -0.13505851963374399 -0.18906788910329131 0 -0.15496537504316019 -0.19429807729602311 0 -0.1475860696211248 -0.17640031700015249 0 -0.14862352044039201 -0.16347018067920821 0 -0.1655722477793394 -0.1670875310098065 0 -0.14845845790642179 -0.14462819045750719 0 -0.13204392770037571 -0.1634514615863005 0 -0.14862352044039201 -0.16347018067920821 0 -0.14845845790642179 -0.14462819045750719 0 -0.14862352044039201 -0.16347018067920821 0 -0.1655722477793394 -0.1670875310098065 0 -0.13204392770037571 -0.1634514615863005 0 -0.1475860696211248 -0.17640031700015249 0 -0.14862352044039201 -0.16347018067920821 0 -0.1655722477793394 -0.1670875310098065 0 -0.1716614177265566 -0.15146656102038991 0 -0.1655722477793394 -0.1670875310098065 0 -0.15894149653025619 -0.15184230729274609 0 -0.1716614177265566 -0.15146656102038991 0 -0.1655722477793394 -0.1670875310098065 0 -0.17557921295501691 -0.18022020591375351 0 -0.1689483943248192 -0.19264195369377959 0 -0.1655722477793394 -0.1670875310098065 0 -0.15496537504316019 -0.19429807729602311 0 -0.1689483943248192 -0.19264195369377959 0 -0.1655722477793394 -0.1670875310098065 0 -0.15496537504316019 -0.19429807729602311 0 -0.1655722477793394 -0.1670875310098065 0 -0.17557921295501691 -0.18022020591375351 0 -0.17557921295501691 -0.18022020591375351 0 -0.18239484980351819 -0.16464781923938721 0 -0.1907059301477185 -0.18468107337543721 0 -0.1655722477793394 -0.1670875310098065 0 -0.17557921295501691 -0.18022020591375351 0 -0.18239484980351819 -0.16464781923938721 0 -0.1655722477793394 -0.1670875310098065 0 -0.18239484980351819 -0.16464781923938721 0 -0.1716614177265566 -0.15146656102038991 0 -0.18239484980351819 -0.16464781923938721 0 -0.1716614177265566 -0.15146656102038991 0 -0.1894311146879058 -0.1465309504005988 0 -0.17775058767377289 -0.13584559103097291 0 -0.1716614177265566 -0.15146656102038991 0 -0.1894311146879058 -0.1465309504005988 0 -0.17775058767377289 -0.13584559103097291 0 -0.1716614177265566 -0.15146656102038991 0 -0.17775058767377289 -0.13584559103097291 0 -0.1894311146879058 -0.1465309504005988 0 -0.17775058767377289 -0.13584559103097291 0 -0.19823449762692411 -0.13229999761030051 0 -0.18534812722118199 -0.1163550958908785 0 -0.17775058767377289 -0.13584559103097291 0 -0.18534812722118199 -0.1163550958908785 0 -0.15406265534163929 -0.1294064941378926 0 -0.16394560233522651 -0.1386698702264933 0 -0.15606779039194271 -0.1160101434681408 0 -0.17775058767377289 -0.13584559103097291 0 -0.16394560233522651 -0.1386698702264933 0 -0.15606779039194271 -0.1160101434681408 0 -0.17775058767377289 -0.13584559103097291 0 -0.15606779039194271 -0.1160101434681408 0 -0.15406265534163929 -0.1294064941378926 0 -0.16394560233522651 -0.1386698702264933 0 -0.1564494690737798 -0.13971242061594299 0 -0.16394560233522651 -0.1386698702264933 0 -0.1564494690737798 -0.13971242061594299 0 -0.15962849525536979 -0.1448502401790808 0 -0.14845845790642179 -0.14462819045750719 0 -0.1655722477793394 -0.1670875310098065 0 -0.14845845790642179 -0.14462819045750719 0 -0.1655722477793394 -0.1670875310098065 0 -0.15894149653025619 -0.15184230729274609 0 -0.15519343748037609 -0.14309809199123349 0 -0.1564494690737798 -0.13971242061594299 0 -0.15962849525536979 -0.1448502401790808 0 -0.1543278084257422 -0.1453912472931165 0 -0.15519343748037609 -0.14309809199123349 0 -0.15962849525536979 -0.1448502401790808 0 -0.1543278084257422 -0.1453912472931165 0 -0.15962849525536979 -0.1448502401790808 0 -0.15894149653025619 -0.15184230729274609 0 -0.15962849525536979 -0.1448502401790808 0 -0.15894149653025619 -0.15184230729274609 0 -0.1716614177265566 -0.15146656102038991 0 -0.17775058767377289 -0.13584559103097291 0 -0.16394560233522651 -0.1386698702264933 0 -0.1716614177265566 -0.15146656102038991 0 -0.16394560233522651 -0.1386698702264933 0 -0.15962849525536979 -0.1448502401790808 0 -0.1716614177265566 -0.15146656102038991 0 -0.1534429259631987 -0.25724555178864622 0 -0.15289321433053751 -0.246830478479277 0 -0.1378886282313006 -0.2381062402767252 0 -0.1534429259631987 -0.25724555178864622 0 -0.1378886282313006 -0.2381062402767252 0 -0.15348527020851541 -0.23913552791147211 0 -0.1378886282313006 -0.2381062402767252 0 -0.15430752157141919 -0.22794821467022949 0 -0.15289321433053751 -0.246830478479277 0 -0.15348527020851541 -0.23913552791147211 0 -0.1601832428566283 -0.24550858739866141 0 -0.15289321433053751 -0.246830478479277 0 -0.15348527020851541 -0.23913552791147211 0 -0.1378886282313006 -0.2381062402767252 0 -0.1459019403517107 -0.25564217047089421 0 -0.13375162957080131 -0.24871916986845621 0 -0.1378886282313006 -0.2381062402767252 0 -0.13375162957080131 -0.24871916986845621 0 -0.1378886282313006 -0.2381062402767252 0 -0.127825895831608 -0.22987551408160201 0 -0.13375162957080131 -0.24871916986845621 0 -0.1378886282313006 -0.2381062402767252 0 -0.13218950310710981 -0.25272660122947088 0 -0.1218823470606431 -0.24640061544388489 0 -0.13375162957080131 -0.24871916986845621 0 -0.127825895831608 -0.22987551408160201 0 -0.14435850230698141 -0.22150862358223991 0 -0.13086176299679239 -0.21746526838305219 0 -0.1378886282313006 -0.2381062402767252 0 -0.127825895831608 -0.22987551408160201 0 -0.14435850230698141 -0.22150862358223991 0 -0.11989889803527461 -0.22145143588075511 0 -0.127825895831608 -0.22987551408160201 0 -0.13086176299679239 -0.21746526838305219 0 -0.1378886282313006 -0.2381062402767252 0 -0.14435850230698141 -0.22150862358223991 0 -0.14435850230698141 -0.22150862358223991 0 -0.15430752157141919 -0.22794821467022949 0 -0.16410544360365359 -0.21493654602220469 0 -0.1378886282313006 -0.2381062402767252 0 -0.14435850230698141 -0.22150862358223991 0 -0.15430752157141919 -0.22794821467022949 0 -0.14435850230698141 -0.22150862358223991 0 -0.15496537504316019 -0.19429807729602311 0 -0.14435850230698141 -0.22150862358223991 0 -0.1373527607074172 -0.20563907323320921 0 -0.15496537504316019 -0.19429807729602311 0 -0.14435850230698141 -0.22150862358223991 0 -0.15496537504316019 -0.19429807729602311 0 -0.16410544360365359 -0.21493654602220469 0 -0.14435850230698141 -0.22150862358223991 0 -0.1373527607074172 -0.20563907323320921 0 -0.13086176299679239 -0.21746526838305219 0 -0.1210853022939376 -0.205467400633562 0 -0.1373527607074172 -0.20563907323320921 0 -0.13086176299679239 -0.21746526838305219 0 -0.1210853022939376 -0.205467400633562 0 -0.1373527607074172 -0.20563907323320921 0 -0.13505851963374399 -0.18906788910329131 0 -0.1373527607074172 -0.20563907323320921 0 -0.13505851963374399 -0.18906788910329131 0 -0.15496537504316019 -0.19429807729602311 0 -0.1689483943248192 -0.19264195369377959 0 -0.17994482166635981 -0.2014366202218163 0 -0.16410544360365359 -0.21493654602220469 0 -0.15496537504316019 -0.19429807729602311 0 -0.1689483943248192 -0.19264195369377959 0 -0.16410544360365359 -0.21493654602220469 0 -0.17557921295501691 -0.18022020591375351 0 -0.1689483943248192 -0.19264195369377959 0 -0.17994482166635981 -0.2014366202218163 0 -0.17557921295501691 -0.18022020591375351 0 -0.17994482166635981 -0.2014366202218163 0 -0.1907059301477185 -0.18468107337543721 0 -0.17994482166635981 -0.2014366202218163 0 -0.1784102433228649 -0.21681777692650089 0 -0.16410544360365359 -0.21493654602220469 0 -0.17994482166635981 -0.2014366202218163 0 -0.18904495760185211 -0.20873870471059999 0 -0.19252771524915421 -0.19930647688205899 0 -0.17994482166635981 -0.2014366202218163 0 -0.1784102433228649 -0.21681777692650089 0 -0.18904495760185211 -0.20873870471059999 0 -0.1784102433228649 -0.21681777692650089 0 -0.19175951728552271 -0.21959172261586679 0 -0.18904495760185211 -0.20873870471059999 0 -0.15430752157141919 -0.22794821467022949 0 -0.16410544360365359 -0.21493654602220469 0 -0.16877954452522659 -0.2255120540677526 0 -0.15430752157141919 -0.22794821467022949 0 -0.16877954452522659 -0.2255120540677526 0 -0.16324537569009509 -0.2357306359809743 0 -0.15348527020851541 -0.23913552791147211 0 -0.15430752157141919 -0.22794821467022949 0 -0.16324537569009509 -0.2357306359809743 0 -0.16877954452522659 -0.2255120540677526 0 -0.17781387366555559 -0.23090770197000129 0 -0.16324537569009509 -0.2357306359809743 0 -0.1784102433228649 -0.21681777692650089 0 -0.16410544360365359 -0.21493654602220469 0 -0.16877954452522659 -0.2255120540677526 0 -0.1784102433228649 -0.21681777692650089 0 -0.16877954452522659 -0.2255120540677526 0 -0.17781387366555559 -0.23090770197000129 0 -0.1784102433228649 -0.21681777692650089 0 -0.17781387366555559 -0.23090770197000129 0 -0.19175951728552271 -0.21959172261586679 0 -0.17781387366555559 -0.23090770197000129 0 -0.1805311654956796 -0.2411950136452527 0 -0.19410287643929239 -0.23312434657521411 0 -0.17781387366555559 -0.23090770197000129 0 -0.1805311654956796 -0.2411950136452527 0 -0.16955513552828311 -0.24305067226283769 0 -0.17679077873490559 -0.25046109420941731 0 -0.1805311654956796 -0.2411950136452527 0 -0.18863044441395099 -0.24733650333174401 0 -0.17679077873490559 -0.25046109420941731 0 -0.1805311654956796 -0.2411950136452527 0 -0.16955513552828311 -0.24305067226283769 0 -0.16709258238786229 -0.25188408856254202 0 -0.17679077873490559 -0.25046109420941731 0 -0.16955513552828311 -0.24305067226283769 0 -0.16709258238786229 -0.25188408856254202 0 -0.16955513552828311 -0.24305067226283769 0 -0.1601832428566283 -0.24550858739866141 0 -0.17781387366555559 -0.23090770197000129 0 -0.16955513552828311 -0.24305067226283769 0 -0.16324537569009509 -0.2357306359809743 0 -0.16955513552828311 -0.24305067226283769 0 -0.16324537569009509 -0.2357306359809743 0 -0.1601832428566283 -0.24550858739866141 0 -0.15348527020851541 -0.23913552791147211 0 -0.16324537569009509 -0.2357306359809743 0 -0.1601832428566283 -0.24550858739866141 0 -0.1593809120407062 -0.25278805690175971 0 -0.15289321433053751 -0.246830478479277 0 -0.1601832428566283 -0.24550858739866141 0 -0.20565562739327201 -0.24334207984173631 0 -0.19410287643929239 -0.23312434657521411 0 -0.21201774175915139 -0.2290986139018284 0 -0.21472073189145299 -0.25725591714607071 0 -0.20565562739327201 -0.24334207984173631 0 -0.22837296648480071 -0.23789375384220129 0 -0.20565562739327201 -0.24334207984173631 0 -0.21201774175915139 -0.2290986139018284 0 -0.22837296648480071 -0.23789375384220129 0 -0.20565562739327201 -0.24334207984173631 0 -0.18863044441395099 -0.24733650333174401 0 -0.19410287643929239 -0.23312434657521411 0 -0.1805311654956796 -0.2411950136452527 0 -0.18863044441395099 -0.24733650333174401 0 -0.19410287643929239 -0.23312434657521411 0 -0.17781387366555559 -0.23090770197000129 0 -0.19410287643929239 -0.23312434657521411 0 -0.19175951728552271 -0.21959172261586679 0 -0.19410287643929239 -0.23312434657521411 0 -0.19175951728552271 -0.21959172261586679 0 -0.20443040571370949 -0.21985141578154491 0 -0.21201774175915139 -0.2290986139018284 0 -0.20443040571370949 -0.21985141578154491 0 -0.22630383013383959 -0.21240708539258099 0 -0.19410287643929239 -0.23312434657521411 0 -0.21201774175915139 -0.2290986139018284 0 -0.20443040571370949 -0.21985141578154491 0 -0.20157622681128409 -0.2075672839719423 0 -0.21557055542943429 -0.1904257004922347 0 -0.22630383013383959 -0.21240708539258099 0 -0.20157622681128409 -0.2075672839719423 0 -0.22630383013383959 -0.21240708539258099 0 -0.20443040571370949 -0.21985141578154491 0 -0.20157622681128409 -0.2075672839719423 0 -0.22630383013383959 -0.21240708539258099 0 -0.19175951728552271 -0.21959172261586679 0 -0.20443040571370949 -0.21985141578154491 0 -0.20157622681128409 -0.2075672839719423 0 -0.19175951728552271 -0.21959172261586679 0 -0.20157622681128409 -0.2075672839719423 0 -0.19175951728552271 -0.21959172261586679 0 -0.18904495760185211 -0.20873870471059999 0 -0.20157622681128409 -0.2075672839719423 0 -0.18904495760185211 -0.20873870471059999 0 -0.20157622681128409 -0.2075672839719423 0 -0.19252771524915421 -0.19930647688205899 0 -0.17994482166635981 -0.2014366202218163 0 -0.19252771524915421 -0.19930647688205899 0 -0.1907059301477185 -0.18468107337543721 0 -0.20157622681128409 -0.2075672839719423 0 -0.19252771524915421 -0.19930647688205899 0 -0.20187756758401409 -0.19506767240709361 0 -0.19252771524915421 -0.19930647688205899 0 -0.20187756758401409 -0.19506767240709361 0 -0.1907059301477185 -0.18468107337543721 0 -0.20157622681128409 -0.2075672839719423 0 -0.21557055542943429 -0.1904257004922347 0 -0.20187756758401409 -0.19506767240709361 0 -0.21557055542943429 -0.1904257004922347 0 -0.2038146335316797 -0.1820121315948606 0 -0.20157622681128409 -0.2075672839719423 0 -0.20187756758401409 -0.19506767240709361 0 -0.21557055542943429 -0.1904257004922347 0 -0.21557055542943429 -0.1904257004922347 0 -0.23533053747689989 -0.1962925907305976 0 -0.22630383013383959 -0.21240708539258099 0 -0.23533053747689989 -0.1962925907305976 0 -0.25103143345639523 -0.21724688681321891 0 -0.25418198431724581 -0.18809916394242601 0 -0.22630383013383959 -0.21240708539258099 0 -0.25103143345639523 -0.21724688681321891 0 -0.23533053747689989 -0.1962925907305976 0 -0.22630383013383959 -0.21240708539258099 0 -0.25103143345639523 -0.21724688681321891 0 -0.21201774175915139 -0.2290986139018284 0 -0.22630383013383959 -0.21240708539258099 0 -0.22837296648480071 -0.23789375384220129 0 -0.22630383013383959 -0.21240708539258099 0 -0.22837296648480071 -0.23789375384220129 0 -0.25103143345639523 -0.21724688681321891 0 -0.22837296648480071 -0.23789375384220129 0 -0.25431856302814809 -0.24833495949118861 0 -0.25103143345639523 -0.21724688681321891 0 -0.2335542019388327 -0.26090262277066528 0 -0.22837296648480071 -0.23789375384220129 0 -0.25431856302814809 -0.24833495949118861 0 -0.20708483324238849 -0.15128624944667929 0 -0.22647357207813959 -0.15205360930679629 0 -0.2195633859389316 -0.1340578990397249 0 -0.20708483324238849 -0.15128624944667929 0 -0.19823449762692411 -0.13229999761030051 0 -0.2195633859389316 -0.1340578990397249 0 -0.19823449762692411 -0.13229999761030051 0 -0.2195633859389316 -0.1340578990397249 0 -0.21022893699736381 -0.1097241998529486 0 -0.17775058767377289 -0.13584559103097291 0 -0.19823449762692411 -0.13229999761030051 0 -0.1894311146879058 -0.1465309504005988 0 -0.20708483324238849 -0.15128624944667929 0 -0.1894311146879058 -0.1465309504005988 0 -0.19351686899232889 -0.15854259719770419 0 -0.20708483324238849 -0.15128624944667929 0 -0.19823449762692411 -0.13229999761030051 0 -0.1894311146879058 -0.1465309504005988 0 -0.20708483324238849 -0.15128624944667929 0 -0.19351686899232889 -0.15854259719770419 0 -0.19880271024428661 -0.17007658736909009 0 -0.18239484980351819 -0.16464781923938721 0 -0.1894311146879058 -0.1465309504005988 0 -0.19351686899232889 -0.15854259719770419 0 -0.18239484980351819 -0.16464781923938721 0 -0.19351686899232889 -0.15854259719770419 0 -0.19880271024428661 -0.17007658736909009 0 -0.18239484980351819 -0.16464781923938721 0 -0.19880271024428661 -0.17007658736909009 0 -0.1907059301477185 -0.18468107337543721 0 -0.19880271024428661 -0.17007658736909009 0 -0.1907059301477185 -0.18468107337543721 0 -0.2038146335316797 -0.1820121315948606 0 -0.20187756758401409 -0.19506767240709361 0 -0.1907059301477185 -0.18468107337543721 0 -0.2038146335316797 -0.1820121315948606 0 -0.21557055542943429 -0.1904257004922347 0 -0.2038146335316797 -0.1820121315948606 0 -0.21355186476225221 -0.16985639920369799 0 -0.19880271024428661 -0.17007658736909009 0 -0.2038146335316797 -0.1820121315948606 0 -0.21355186476225221 -0.16985639920369799 0 -0.20708483324238849 -0.15128624944667929 0 -0.21355186476225221 -0.16985639920369799 0 -0.22647357207813959 -0.15205360930679629 0 -0.20708483324238849 -0.15128624944667929 0 -0.19880271024428661 -0.17007658736909009 0 -0.21355186476225221 -0.16985639920369799 0 -0.22956488404758479 -0.1732841170125273 0 -0.2435592126657353 -0.1561425335328199 0 -0.22647357207813959 -0.15205360930679629 0 -0.21355186476225221 -0.16985639920369799 0 -0.22956488404758479 -0.1732841170125273 0 -0.22647357207813959 -0.15205360930679629 0 -0.21557055542943429 -0.1904257004922347 0 -0.21355186476225221 -0.16985639920369799 0 -0.22956488404758479 -0.1732841170125273 0 -0.21557055542943429 -0.1904257004922347 0 -0.22956488404758479 -0.1732841170125273 0 -0.21557055542943429 -0.1904257004922347 0 -0.23533053747689989 -0.1962925907305976 0 -0.22956488404758479 -0.1732841170125273 0 -0.23533053747689989 -0.1962925907305976 0 -0.22956488404758479 -0.1732841170125273 0 -0.25418198431724581 -0.18809916394242601 0 -0.22956488404758479 -0.1732841170125273 0 -0.25418198431724581 -0.18809916394242601 0 -0.2565438833259911 -0.1687602707777138 0 -0.22956488404758479 -0.1732841170125273 0 -0.2435592126657353 -0.1561425335328199 0 -0.22956488404758479 -0.1732841170125273 0 -0.2435592126657353 -0.1561425335328199 0 -0.2565438833259911 -0.1687602707777138 0 -0.2435592126657353 -0.1561425335328199 0 -0.22647357207813959 -0.15205360930679629 0 -0.2432602079730701 -0.13485583854350039 0 -0.22647357207813959 -0.15205360930679629 0 -0.2195633859389316 -0.1340578990397249 0 -0.2432602079730701 -0.13485583854350039 0 -0.2195633859389316 -0.1340578990397249 0 -0.2432602079730701 -0.13485583854350039 0 -0.23065476516460279 -0.11957242830579699 0 -0.2432602079730701 -0.13485583854350039 0 -0.2499653418643101 -0.1102460646797562 0 -0.23065476516460279 -0.11957242830579699 0 -0.2499653418643101 -0.1102460646797562 0 -0.2308399038819596 -0.1034577205422559 0 -0.23065476516460279 -0.11957242830579699 0 -0.2308399038819596 -0.1034577205422559 0 -0.25308440776240432 -0.086371671251396109 0 -0.2499653418643101 -0.1102460646797562 0 -0.2308399038819596 -0.1034577205422559 0 -0.25308440776240432 -0.086371671251396109 0 -0.2308399038819596 -0.1034577205422559 0 -0.21022893699736381 -0.1097241998529486 0 -0.21520721362926831 -0.098298511723915558 0 -0.2308399038819596 -0.1034577205422559 0 -0.22013457808717909 -0.089221868029860679 0 -0.21520721362926831 -0.098298511723915558 0 -0.2308399038819596 -0.1034577205422559 0 -0.23065476516460279 -0.11957242830579699 0 -0.21022893699736381 -0.1097241998529486 0 -0.2195633859389316 -0.1340578990397249 0 -0.23065476516460279 -0.11957242830579699 0 -0.21022893699736381 -0.1097241998529486 0 -0.2335598957907816 -0.079883889973887123 0 -0.24475965461883589 -0.059498385283178377 0 -0.2582325144520296 -0.070050845257802419 0 -0.2335598957907816 -0.079883889973887123 0 -0.2582325144520296 -0.070050845257802419 0 -0.25308440776240432 -0.086371671251396109 0 -0.2308399038819596 -0.1034577205422559 0 -0.2335598957907816 -0.079883889973887123 0 -0.25308440776240432 -0.086371671251396109 0 -0.2308399038819596 -0.1034577205422559 0 -0.22013457808717909 -0.089221868029860679 0 -0.2335598957907816 -0.079883889973887123 0 -0.22013457808717909 -0.089221868029860679 0 -0.2335598957907816 -0.079883889973887123 0 -0.21963876375789801 -0.077814354495200549 0 -0.2335598957907816 -0.079883889973887123 0 -0.21595644614104051 -0.065738508165203102 0 -0.24475965461883589 -0.059498385283178377 0 -0.21595644614104051 -0.065738508165203102 0 -0.24475965461883589 -0.059498385283178377 0 -0.2335598957907816 -0.079883889973887123 0 -0.21963876375789801 -0.077814354495200549 0 -0.21595644614104051 -0.065738508165203102 0 -0.20438945881064449 -0.068244458930106389 0 -0.21100771399754009 -0.086966924160961745 0 -0.21595644614104051 -0.065738508165203102 0 -0.21100771399754009 -0.086966924160961745 0 -0.20438945881064449 -0.068244458930106389 0 -0.21595644614104051 -0.065738508165203102 0 -0.21100771399754009 -0.086966924160961745 0 -0.21963876375789801 -0.077814354495200549 0 -0.21595644614104051 -0.065738508165203102 0 -0.21100771399754009 -0.086966924160961745 0 -0.20438945881064449 -0.068244458930106389 0 -0.21595644614104051 -0.065738508165203102 0 -0.20438945881064449 -0.068244458930106389 0 -0.21595644614104051 -0.065738508165203102 0 -0.20711132549122371 -0.057203435059411119 0 -0.20438945881064449 -0.068244458930106389 0 -0.21100771399754009 -0.086966924160961745 0 -0.19851231957361129 -0.085310821531315487 0 -0.22013457808717909 -0.089221868029860679 0 -0.21963876375789801 -0.077814354495200549 0 -0.21100771399754009 -0.086966924160961745 0 -0.22013457808717909 -0.089221868029860679 0 -0.21100771399754009 -0.086966924160961745 0 -0.21520721362926831 -0.098298511723915558 0 -0.21100771399754009 -0.086966924160961745 0 -0.19851231957361129 -0.085310821531315487 0 -0.20550431009004061 -0.095676697317907802 0 -0.21100771399754009 -0.086966924160961745 0 -0.21520721362926831 -0.098298511723915558 0 -0.20550431009004061 -0.095676697317907802 0 -0.19851231957361129 -0.085310821531315487 0 -0.18118326058104209 -0.08825419183970401 0 -0.18409944718507371 -0.07264022497537044 0 -0.19851231957361129 -0.085310821531315487 0 -0.19294566676858971 -0.096864600750783431 0 -0.18118326058104209 -0.08825419183970401 0 -0.19851231957361129 -0.085310821531315487 0 -0.20550431009004061 -0.095676697317907802 0 -0.19294566676858971 -0.096864600750783431 0 -0.20438945881064449 -0.068244458930106389 0 -0.19851231957361129 -0.085310821531315487 0 -0.18409944718507371 -0.07264022497537044 0 -0.20438945881064449 -0.068244458930106389 0 -0.18409944718507371 -0.07264022497537044 0 -0.18769526278089041 -0.057829612445021099 0 -0.20438945881064449 -0.068244458930106389 0 -0.18409944718507371 -0.07264022497537044 0 -0.21022893699736381 -0.1097241998529486 0 -0.21520721362926831 -0.098298511723915558 0 -0.20550431009004061 -0.095676697317907802 0 -0.21022893699736381 -0.1097241998529486 0 -0.20550431009004061 -0.095676697317907802 0 -0.19294566676858971 -0.096864600750783431 0 -0.19294566676858971 -0.096864600750783431 0 -0.18534812722118199 -0.1163550958908785 0 -0.21022893699736381 -0.1097241998529486 0 -0.19294566676858971 -0.096864600750783431 0 -0.18534812722118199 -0.1163550958908785 0 -0.19823449762692411 -0.13229999761030051 0 -0.21022893699736381 -0.1097241998529486 0 -0.18534812722118199 -0.1163550958908785 0 -0.18534812722118199 -0.1163550958908785 0 -0.17423934197139679 -0.1017815859784342 0 -0.15606779039194271 -0.1160101434681408 0 -0.17775058767377289 -0.13584559103097291 0 -0.18534812722118199 -0.1163550958908785 0 -0.15606779039194271 -0.1160101434681408 0 -0.16057304666404501 -0.10079887419961479 0 -0.17423934197139679 -0.1017815859784342 0 -0.15606779039194271 -0.1160101434681408 0 -0.16057304666404501 -0.10079887419961479 0 -0.16746185343044401 -0.091445336260546128 0 -0.1570966781871318 -0.090327755750333361 0 -0.16057304666404501 -0.10079887419961479 0 -0.17423934197139679 -0.1017815859784342 0 -0.16746185343044401 -0.091445336260546128 0 -0.17423934197139679 -0.1017815859784342 0 -0.18118326058104209 -0.08825419183970401 0 -0.16746185343044401 -0.091445336260546128 0 -0.19294566676858971 -0.096864600750783431 0 -0.18534812722118199 -0.1163550958908785 0 -0.17423934197139679 -0.1017815859784342 0 -0.19294566676858971 -0.096864600750783431 0 -0.17423934197139679 -0.1017815859784342 0 -0.18118326058104209 -0.08825419183970401 0 -0.18118326058104209 -0.08825419183970401 0 -0.18409944718507371 -0.07264022497537044 0 -0.16915717098214109 -0.081397787743409861 0 -0.18118326058104209 -0.08825419183970401 0 -0.16746185343044401 -0.091445336260546128 0 -0.16915717098214109 -0.081397787743409861 0 -0.18409944718507371 -0.07264022497537044 0 -0.1702117591297739 -0.06777753321031553 0 -0.16380943555950259 -0.077035991020633382 0 -0.18409944718507371 -0.07264022497537044 0 -0.16380943555950259 -0.077035991020633382 0 -0.16915717098214109 -0.081397787743409861 0 -0.18409944718507371 -0.07264022497537044 0 -0.17187825396406881 -0.057945450019426657 0 -0.18769526278089041 -0.057829612445021099 0 -0.18409944718507371 -0.07264022497537044 0 -0.16380943555950259 -0.077035991020633382 0 -0.18409944718507371 -0.07264022497537044 0 -0.1702117591297739 -0.06777753321031553 0 -0.17187825396406881 -0.057945450019426657 0 -0.16380943555950259 -0.077035991020633382 0 -0.16105989981045041 -0.063488466825831633 0 -0.14595160177326619 -0.062470528310013429 0 -0.1702117591297739 -0.06777753321031553 0 -0.16105989981045041 -0.063488466825831633 0 -0.17187825396406881 -0.057945450019426657 0 -0.1702117591297739 -0.06777753321031553 0 -0.16380943555950259 -0.077035991020633382 0 -0.16105989981045041 -0.063488466825831633 0 -0.16380943555950259 -0.077035991020633382 0 -0.16109871639751261 -0.084134952385501949 0 -0.14796844382834351 -0.080467891152587012 0 -0.16746185343044401 -0.091445336260546128 0 -0.16915717098214109 -0.081397787743409861 0 -0.16109871639751261 -0.084134952385501949 0 -0.16380943555950259 -0.077035991020633382 0 -0.16915717098214109 -0.081397787743409861 0 -0.16109871639751261 -0.084134952385501949 0 -0.16380943555950259 -0.077035991020633382 0 -0.16915717098214109 -0.081397787743409861 0 -0.16746185343044401 -0.091445336260546128 0 -0.16109871639751261 -0.084134952385501949 0 -0.1570966781871318 -0.090327755750333361 0 -0.16380943555950259 -0.077035991020633382 0 -0.14796844382834351 -0.080467891152587012 0 -0.14796844382834351 -0.080467891152587012 0 -0.13497135686491851 -0.078315161523928284 0 -0.1484932433812913 -0.094043062253026791 0 -0.1570966781871318 -0.090327755750333361 0 -0.14796844382834351 -0.080467891152587012 0 -0.1484932433812913 -0.094043062253026791 0 -0.16109871639751261 -0.084134952385501949 0 -0.1570966781871318 -0.090327755750333361 0 -0.14796844382834351 -0.080467891152587012 0 -0.16380943555950259 -0.077035991020633382 0 -0.14796844382834351 -0.080467891152587012 0 -0.14595160177326619 -0.062470528310013429 0 -0.16380943555950259 -0.077035991020633382 0 -0.14595160177326619 -0.062470528310013429 0 -0.14796844382834351 -0.080467891152587012 0 -0.13497135686491851 -0.078315161523928284 0 -0.14595160177326619 -0.062470528310013429 0 -0.1158705629695205 -0.060236298698018297 0 -0.13497135686491851 -0.078315161523928284 0 -0.1158705629695205 -0.060236298698018297 0 -0.13497135686491851 -0.078315161523928284 0 -0.13122182239868371 -0.062231763532838429 0 -0.13497135686491851 -0.078315161523928284 0 -0.13122182239868371 -0.062231763532838429 0 -0.14595160177326619 -0.062470528310013429 0 -0.112702195828283 -0.076339248342475546 0 -0.13497135686491851 -0.078315161523928284 0 -0.13438499311011279 -0.096174695905308166 0 -0.13497135686491851 -0.078315161523928284 0 -0.13438499311011279 -0.096174695905308166 0 -0.1484932433812913 -0.094043062253026791 0 -0.11276894493928399 -0.097790936300085646 0 -0.13438499311011279 -0.096174695905308166 0 -0.1306137014228527 -0.1212095633787966 0 -0.13438499311011279 -0.096174695905308166 0 -0.1306137014228527 -0.1212095633787966 0 -0.15606779039194271 -0.1160101434681408 0 -0.15406265534163929 -0.1294064941378926 0 -0.1306137014228527 -0.1212095633787966 0 -0.15606779039194271 -0.1160101434681408 0 -0.13438499311011279 -0.096174695905308166 0 -0.15606779039194271 -0.1160101434681408 0 -0.1484932433812913 -0.094043062253026791 0 -0.16057304666404501 -0.10079887419961479 0 -0.15606779039194271 -0.1160101434681408 0 -0.1484932433812913 -0.094043062253026791 0 -0.13438499311011279 -0.096174695905308166 0 -0.15606779039194271 -0.1160101434681408 0 -0.16057304666404501 -0.10079887419961479 0 -0.1570966781871318 -0.090327755750333361 0 -0.1484932433812913 -0.094043062253026791 0 -0.14513665439653431 -0.02122229521611602 0 -0.15148395360685291 -0.031475856168514699 0 -0.16129500549156001 -0.024264335985147129 0 -0.14513665439653431 -0.02122229521611602 0 -0.1346415055917565 -0.031432898451717602 0 -0.15148395360685291 -0.031475856168514699 0 -0.14513665439653431 -0.02122229521611602 0 -0.15327979458335059 -0.01391829646419882 0 -0.16129500549156001 -0.024264335985147129 0 -0.1412848112475209 -0.008091449167619497 0 -0.15773416148281841 -0.0035868741371463562 0 -0.14801408494475049 0.0031182785745780331 0 -0.15327979458335059 -0.01391829646419882 0 -0.1412848112475209 -0.008091449167619497 0 -0.15773416148281841 -0.0035868741371463562 0 -0.14513665439653431 -0.02122229521611602 0 -0.15327979458335059 -0.01391829646419882 0 -0.1412848112475209 -0.008091449167619497 0 -0.1236693299605585 -0.0137973575501921 0 -0.1412848112475209 -0.008091449167619497 0 -0.12735709500343681 0.004015926865657337 0 -0.1412848112475209 -0.008091449167619497 0 -0.12735709500343681 0.004015926865657337 0 -0.14801408494475049 0.0031182785745780331 0 -0.1236693299605585 -0.0137973575501921 0 -0.1412848112475209 -0.008091449167619497 0 -0.13426109495296229 -0.02049569832685658 0 -0.1236693299605585 -0.0137973575501921 0 -0.1221370268088495 -0.025998648103035 0 -0.13426109495296229 -0.02049569832685658 0 -0.14513665439653431 -0.02122229521611602 0 -0.1412848112475209 -0.008091449167619497 0 -0.13426109495296229 -0.02049569832685658 0 -0.14513665439653431 -0.02122229521611602 0 -0.13426109495296229 -0.02049569832685658 0 -0.1346415055917565 -0.031432898451717602 0 -0.1221370268088495 -0.025998648103035 0 -0.12530131535501859 -0.034952786400489197 0 -0.1346415055917565 -0.031432898451717602 0 -0.1221370268088495 -0.025998648103035 0 -0.13426109495296229 -0.02049569832685658 0 -0.1346415055917565 -0.031432898451717602 0 -0.12530131535501859 -0.034952786400489197 0 -0.1346415055917565 -0.031432898451717602 0 -0.12809376798702951 -0.047905065599393698 0 -0.1346415055917565 -0.031432898451717602 0 -0.12809376798702951 -0.047905065599393698 0 -0.14629371500633531 -0.042796653234188263 0 -0.12809376798702951 -0.047905065599393698 0 -0.14595160177326619 -0.062470528310013429 0 -0.12809376798702951 -0.047905065599393698 0 -0.14595160177326619 -0.062470528310013429 0 -0.14629371500633531 -0.042796653234188263 0 -0.13122182239868371 -0.062231763532838429 0 -0.12809376798702951 -0.047905065599393698 0 -0.14595160177326619 -0.062470528310013429 0 -0.1158705629695205 -0.060236298698018297 0 -0.13122182239868371 -0.062231763532838429 0 -0.12809376798702951 -0.047905065599393698 0 -0.14595160177326619 -0.062470528310013429 0 -0.14629371500633531 -0.042796653234188263 0 -0.15696853651444401 -0.052603520026387289 0 -0.16105989981045041 -0.063488466825831633 0 -0.14595160177326619 -0.062470528310013429 0 -0.15696853651444401 -0.052603520026387289 0 -0.15148395360685291 -0.031475856168514699 0 -0.14629371500633531 -0.042796653234188263 0 -0.16402488563849801 -0.041062174760887443 0 -0.1346415055917565 -0.031432898451717602 0 -0.15148395360685291 -0.031475856168514699 0 -0.14629371500633531 -0.042796653234188263 0 -0.14629371500633531 -0.042796653234188263 0 -0.16402488563849801 -0.041062174760887443 0 -0.15696853651444401 -0.052603520026387289 0 -0.15148395360685291 -0.031475856168514699 0 -0.16402488563849801 -0.041062174760887443 0 -0.16129500549156001 -0.024264335985147129 0 -0.16402488563849801 -0.041062174760887443 0 -0.17409393016306191 -0.030370879776367592 0 -0.16129500549156001 -0.024264335985147129 0 -0.16402488563849801 -0.041062174760887443 0 -0.15696853651444401 -0.052603520026387289 0 -0.17187825396406881 -0.057945450019426657 0 -0.16105989981045041 -0.063488466825831633 0 -0.15696853651444401 -0.052603520026387289 0 -0.17187825396406881 -0.057945450019426657 0 -0.16402488563849801 -0.041062174760887443 0 -0.17187825396406881 -0.057945450019426657 0 -0.18133558272394029 -0.043618149437272283 0 -0.17187825396406881 -0.057945450019426657 0 -0.18133558272394029 -0.043618149437272283 0 -0.18769526278089041 -0.057829612445021099 0 -0.18133558272394029 -0.043618149437272283 0 -0.17409393016306191 -0.030370879776367592 0 -0.18915768363079971 -0.025155098795753519 0 -0.16402488563849801 -0.041062174760887443 0 -0.18133558272394029 -0.043618149437272283 0 -0.17409393016306191 -0.030370879776367592 0 -0.17409393016306191 -0.030370879776367592 0 -0.17549551533112251 -0.014893414490097231 0 -0.18915768363079971 -0.025155098795753519 0 -0.16129500549156001 -0.024264335985147129 0 -0.16350931143073591 -0.01273440345064396 0 -0.17549551533112251 -0.014893414490097231 0 -0.17409393016306191 -0.030370879776367592 0 -0.16129500549156001 -0.024264335985147129 0 -0.17549551533112251 -0.014893414490097231 0 -0.15327979458335059 -0.01391829646419882 0 -0.16129500549156001 -0.024264335985147129 0 -0.16350931143073591 -0.01273440345064396 0 -0.15773416148281841 -0.0035868741371463562 0 -0.16716832075785379 -0.0032078365625175 0 -0.1619193683370386 0.0066468078375689294 0 -0.15773416148281841 -0.0035868741371463562 0 -0.16350931143073591 -0.01273440345064396 0 -0.16716832075785379 -0.0032078365625175 0 -0.15327979458335059 -0.01391829646419882 0 -0.15773416148281841 -0.0035868741371463562 0 -0.16350931143073591 -0.01273440345064396 0 -0.16350931143073591 -0.01273440345064396 0 -0.16716832075785379 -0.0032078365625175 0 -0.17549551533112251 -0.014893414490097231 0 -0.17549551533112251 -0.014893414490097231 0 -0.18154179604087481 -0.0036104187285780349 0 -0.18915768363079971 -0.025155098795753519 0 -0.18154179604087481 -0.0036104187285780349 0 -0.18915768363079971 -0.025155098795753519 0 -0.17549551533112251 -0.014893414490097231 0 -0.17584419881677341 0.0071523107965592754 0 -0.17549551533112251 -0.014893414490097231 0 -0.18154179604087481 -0.0036104187285780349 0 -0.17584419881677341 0.0071523107965592754 0 -0.16716832075785379 -0.0032078365625175 0 -0.17549551533112251 -0.014893414490097231 0 -0.17584419881677341 0.0071523107965592754 0 -0.18154179604087481 -0.0036104187285780349 0 -0.19066530249761049 -0.0041303576494283751 0 -0.18915768363079971 -0.025155098795753519 0 -0.18154179604087481 -0.0036104187285780349 0 -0.19066530249761049 -0.0041303576494283751 0 -0.18717715497560061 0.0062623078557712403 0 -0.19066530249761049 -0.0041303576494283751 0 -0.1989264366345522 -0.0080023544535597537 0 -0.18915768363079971 -0.025155098795753519 0 -0.19066530249761049 -0.0041303576494283751 0 -0.1989264366345522 -0.0080023544535597537 0 -0.1965234412062255 0.0098537758749781944 0 -0.1989264366345522 -0.0080023544535597537 0 -0.2007918169376324 -0.0191738513677071 0 -0.20680177871376751 -0.0119671669755851 0 -0.18915768363079971 -0.025155098795753519 0 -0.2007918169376324 -0.0191738513677071 0 -0.21013076049929519 -0.028334228638799381 0 -0.1989264366345522 -0.0080023544535597537 0 -0.18915768363079971 -0.025155098795753519 0 -0.2007918169376324 -0.0191738513677071 0 -0.2007918169376324 -0.0191738513677071 0 -0.21013076049929519 -0.028334228638799381 0 -0.20680177871376751 -0.0119671669755851 0 -0.21013076049929519 -0.028334228638799381 0 -0.21702438745170211 -0.0043907958627755336 0 -0.21921501925093501 -0.017985606360015789 0 -0.21013076049929519 -0.028334228638799381 0 -0.21702438745170211 -0.0043907958627755336 0 -0.21013076049929519 -0.028334228638799381 0 -0.22271521407306469 -0.037269361340154371 0 -0.21921501925093501 -0.017985606360015789 0 -0.21013076049929519 -0.028334228638799381 0 -0.21702438745170211 -0.0043907958627755336 0 -0.20680177871376751 -0.0119671669755851 0 -0.1989264366345522 -0.0080023544535597537 0 -0.20680177871376751 -0.0119671669755851 0 -0.20713549204565579 6.5395444916274768e-05 0 -0.21702438745170211 -0.0043907958627755336 0 -0.20680177871376751 -0.0119671669755851 0 -0.20713549204565579 6.5395444916274768e-05 0 -0.20438945881064449 -0.068244458930106389 0 -0.1967735712207245 -0.046699778862929052 0 -0.20438945881064449 -0.068244458930106389 0 -0.18769526278089041 -0.057829612445021099 0 -0.1967735712207245 -0.046699778862929052 0 -0.20438945881064449 -0.068244458930106389 0 -0.1967735712207245 -0.046699778862929052 0 -0.20711132549122371 -0.057203435059411119 0 -0.18133558272394029 -0.043618149437272283 0 -0.18769526278089041 -0.057829612445021099 0 -0.1967735712207245 -0.046699778862929052 0 -0.18133558272394029 -0.043618149437272283 0 -0.18915768363079971 -0.025155098795753519 0 -0.1967735712207245 -0.046699778862929052 0 -0.18915768363079971 -0.025155098795753519 0 -0.1967735712207245 -0.046699778862929052 0 -0.18915768363079971 -0.025155098795753519 0 -0.21013076049929519 -0.028334228638799381 0 -0.1967735712207245 -0.046699778862929052 0 -0.21013076049929519 -0.028334228638799381 0 -0.21132582579248671 -0.048130994279405613 0 -0.22271521407306469 -0.037269361340154371 0 -0.21013076049929519 -0.028334228638799381 0 -0.1967735712207245 -0.046699778862929052 0 -0.21132582579248671 -0.048130994279405613 0 -0.21595644614104051 -0.065738508165203102 0 -0.21132582579248671 -0.048130994279405613 0 -0.22271521407306469 -0.037269361340154371 0 -0.21595644614104051 -0.065738508165203102 0 -0.21132582579248671 -0.048130994279405613 0 -0.20711132549122371 -0.057203435059411119 0 -0.1967735712207245 -0.046699778862929052 0 -0.21132582579248671 -0.048130994279405613 0 -0.20711132549122371 -0.057203435059411119 0 -0.21595644614104051 -0.065738508165203102 0 -0.2284172135094342 -0.053659916570315727 0 -0.24475965461883589 -0.059498385283178377 0 -0.21595644614104051 -0.065738508165203102 0 -0.2284172135094342 -0.053659916570315727 0 -0.22271521407306469 -0.037269361340154371 0 -0.21595644614104051 -0.065738508165203102 0 -0.22271521407306469 -0.037269361340154371 0 -0.2284172135094342 -0.053659916570315727 0 -0.22271521407306469 -0.037269361340154371 0 -0.23903543051913109 -0.043198085603962481 0 -0.22271521407306469 -0.037269361340154371 0 -0.23903543051913109 -0.043198085603962481 0 -0.24161885061771041 -0.026720350447010301 0 -0.23903543051913109 -0.043198085603962481 0 -0.24161885061771041 -0.026720350447010301 0 -0.25766621977661042 -0.038842414379153638 0 -0.23903543051913109 -0.043198085603962481 0 -0.24475965461883589 -0.059498385283178377 0 -0.25766621977661042 -0.038842414379153638 0 -0.2284172135094342 -0.053659916570315727 0 -0.23903543051913109 -0.043198085603962481 0 -0.24475965461883589 -0.059498385283178377 0 -0.22947398200509031 -0.0088002145151058891 0 -0.22867745033346079 0.0038692188645070222 0 -0.2401015516947359 0.00075261550232862703 0 -0.21702438745170211 -0.0043907958627755336 0 -0.22947398200509031 -0.0088002145151058891 0 -0.22867745033346079 0.0038692188645070222 0 -0.21702438745170211 -0.0043907958627755336 0 -0.22947398200509031 -0.0088002145151058891 0 -0.21921501925093501 -0.017985606360015789 0 -0.22271521407306469 -0.037269361340154371 0 -0.22947398200509031 -0.0088002145151058891 0 -0.21921501925093501 -0.017985606360015789 0 -0.22271521407306469 -0.037269361340154371 0 -0.22947398200509031 -0.0088002145151058891 0 -0.22271521407306469 -0.037269361340154371 0 -0.22947398200509031 -0.0088002145151058891 0 -0.24161885061771041 -0.026720350447010301 0 -0.22947398200509031 -0.0088002145151058891 0 -0.24161885061771041 -0.026720350447010301 0 -0.2437457614006571 -0.011962382738850049 0 -0.24161885061771041 -0.026720350447010301 0 -0.2437457614006571 -0.011962382738850049 0 -0.2598032925822476 -0.0188915667982569 0 -0.22947398200509031 -0.0088002145151058891 0 -0.2437457614006571 -0.011962382738850049 0 -0.2401015516947359 0.00075261550232862703 0 -0.2437457614006571 -0.011962382738850049 0 -0.25267499080189931 -0.0034516002120552492 0 -0.2401015516947359 0.00075261550232862703 0 -0.25267499080189931 -0.0034516002120552492 0 -0.2598032925822476 -0.0188915667982569 0 -0.26909988492935111 -0.0018655285383734981 0 -0.2437457614006571 -0.011962382738850049 0 -0.25267499080189931 -0.0034516002120552492 0 -0.2598032925822476 -0.0188915667982569 0 -0.2598032925822476 -0.0188915667982569 0 -0.27267419604841259 -0.026924212746328481 0 -0.25766621977661042 -0.038842414379153638 0 -0.24161885061771041 -0.026720350447010301 0 -0.2598032925822476 -0.0188915667982569 0 -0.25766621977661042 -0.038842414379153638 0 -0.2598032925822476 -0.0188915667982569 0 -0.27267419604841259 -0.026924212746328481 0 -0.27804425228895369 -0.016131696666228459 0 -0.27267419604841259 -0.026924212746328481 0 -0.27804425228895369 -0.016131696666228459 0 -0.28378415359151371 -0.031280105512012511 0 -0.27804425228895369 -0.016131696666228459 0 -0.26909988492935111 -0.0018655285383734981 0 -0.2917254884257266 -0.0017566381736345419 0 -0.2598032925822476 -0.0188915667982569 0 -0.27804425228895369 -0.016131696666228459 0 -0.26909988492935111 -0.0018655285383734981 0 -0.27804425228895369 -0.016131696666228459 0 -0.2917254884257266 -0.0017566381736345419 0 -0.2928870998243559 -0.020527937726781 0 -0.27804425228895369 -0.016131696666228459 0 -0.2928870998243559 -0.020527937726781 0 -0.28378415359151371 -0.031280105512012511 0 -0.2928870998243559 -0.020527937726781 0 -0.29943422057661201 -0.032203920876667472 0 -0.28378415359151371 -0.031280105512012511 0 -0.2928870998243559 -0.020527937726781 0 -0.31144738423897378 -0.02126732740536201 0 -0.29943422057661201 -0.032203920876667472 0 -0.31144738423897378 -0.02126732740536201 0 -0.31110423911055801 -0.035316851109560482 0 -0.29943422057661201 -0.032203920876667472 0 -0.2917254884257266 -0.0017566381736345419 0 -0.31144738423897378 -0.02126732740536201 0 -0.31177688145040278 0.0050359958776742568 0 -0.2917254884257266 -0.0017566381736345419 0 -0.2928870998243559 -0.020527937726781 0 -0.31144738423897378 -0.02126732740536201 0 -0.2917254884257266 -0.0017566381736345419 0 -0.31144738423897378 -0.02126732740536201 0 -0.30323190850646392 -0.052883144282766713 0 -0.3023660715744253 -0.047018139519123002 0 -0.29757341552329353 -0.05219957266967655 0 -0.29931176789370939 -0.061629941742321552 0 -0.30659897303184058 -0.057135789817405573 0 -0.30728911182784302 -0.064893595009923935 0 -0.30323190850646392 -0.052883144282766713 0 -0.29931176789370939 -0.061629941742321552 0 -0.30659897303184058 -0.057135789817405573 0 -0.30323190850646392 -0.052883144282766713 0 -0.29757341552329353 -0.05219957266967655 0 -0.29931176789370939 -0.061629941742321552 0 -0.30659897303184058 -0.057135789817405573 0 -0.30728911182784302 -0.064893595009923935 0 -0.31405483352543062 -0.056831087900065053 0 -0.30323190850646392 -0.052883144282766713 0 -0.3023660715744253 -0.047018139519123002 0 -0.31025625293594222 -0.050033124508212908 0 -0.30659897303184058 -0.057135789817405573 0 -0.31025625293594222 -0.050033124508212908 0 -0.31405483352543062 -0.056831087900065053 0 -0.30323190850646392 -0.052883144282766713 0 -0.30659897303184058 -0.057135789817405573 0 -0.31025625293594222 -0.050033124508212908 0 -0.3023660715744253 -0.047018139519123002 0 -0.31110423911055801 -0.035316851109560482 0 -0.29943422057661201 -0.032203920876667472 0 -0.3023660715744253 -0.047018139519123002 0 -0.29943422057661201 -0.032203920876667472 0 -0.29166722635019171 -0.038853801873014321 0 -0.29943422057661201 -0.032203920876667472 0 -0.29166722635019171 -0.038853801873014321 0 -0.28378415359151371 -0.031280105512012511 0 -0.3023660715744253 -0.047018139519123002 0 -0.29166722635019171 -0.038853801873014321 0 -0.28390051605192418 -0.042754285685484159 0 -0.29166722635019171 -0.038853801873014321 0 -0.28378415359151371 -0.031280105512012511 0 -0.28390051605192418 -0.042754285685484159 0 -0.3023660715744253 -0.047018139519123002 0 -0.28390051605192418 -0.042754285685484159 0 -0.27356286309663053 -0.053258262401150697 0 -0.3023660715744253 -0.047018139519123002 0 -0.27356286309663053 -0.053258262401150697 0 -0.29757341552329353 -0.05219957266967655 0 -0.27356286309663053 -0.053258262401150697 0 -0.27532891164284878 -0.069285621960536392 0 -0.29757341552329353 -0.05219957266967655 0 -0.27532891164284878 -0.069285621960536392 0 -0.3023660715744253 -0.047018139519123002 0 -0.29757341552329353 -0.05219957266967655 0 -0.27356286309663053 -0.053258262401150697 0 -0.29757341552329353 -0.05219957266967655 0 -0.29931176789370939 -0.061629941742321552 0 -0.27532891164284878 -0.069285621960536392 0 -0.27267419604841259 -0.026924212746328481 0 -0.27375437843427658 -0.039043607324579933 0 -0.25766621977661042 -0.038842414379153638 0 -0.27356286309663053 -0.053258262401150697 0 -0.27375437843427658 -0.039043607324579933 0 -0.25766621977661042 -0.038842414379153638 0 -0.28378415359151371 -0.031280105512012511 0 -0.28390051605192418 -0.042754285685484159 0 -0.27375437843427658 -0.039043607324579933 0 -0.27267419604841259 -0.026924212746328481 0 -0.28378415359151371 -0.031280105512012511 0 -0.27375437843427658 -0.039043607324579933 0 -0.28390051605192418 -0.042754285685484159 0 -0.27356286309663053 -0.053258262401150697 0 -0.27375437843427658 -0.039043607324579933 0 -0.24475965461883589 -0.059498385283178377 0 -0.27356286309663053 -0.053258262401150697 0 -0.2582325144520296 -0.070050845257802419 0 -0.24475965461883589 -0.059498385283178377 0 -0.27356286309663053 -0.053258262401150697 0 -0.24475965461883589 -0.059498385283178377 0 -0.27356286309663053 -0.053258262401150697 0 -0.25766621977661042 -0.038842414379153638 0 -0.2582325144520296 -0.070050845257802419 0 -0.25308440776240432 -0.086371671251396109 0 -0.27532891164284878 -0.069285621960536392 0 -0.25308440776240432 -0.086371671251396109 0 -0.27532891164284878 -0.069285621960536392 0 -0.25308440776240432 -0.086371671251396109 0 -0.27361062541114611 -0.085405998149086934 0 -0.26907394573302829 -0.10103393024372311 0 -0.27361062541114611 -0.085405998149086934 0 -0.26907394573302829 -0.10103393024372311 0 -0.28494676303449051 -0.09097811142482605 0 -0.25308440776240432 -0.086371671251396109 0 -0.27361062541114611 -0.085405998149086934 0 -0.27532891164284878 -0.069285621960536392 0 -0.27356286309663053 -0.053258262401150697 0 -0.2582325144520296 -0.070050845257802419 0 -0.27532891164284878 -0.069285621960536392 0 -0.27361062541114611 -0.085405998149086934 0 -0.27532891164284878 -0.069285621960536392 0 -0.28561909888295839 -0.079360655864953042 0 -0.2432602079730701 -0.13485583854350039 0 -0.2499653418643101 -0.1102460646797562 0 -0.26490928006600228 -0.12397715003998409 0 -0.2499653418643101 -0.1102460646797562 0 -0.26490928006600228 -0.12397715003998409 0 -0.26907394573302829 -0.10103393024372311 0 -0.2499653418643101 -0.1102460646797562 0 -0.25308440776240432 -0.086371671251396109 0 -0.26907394573302829 -0.10103393024372311 0 -0.26907394573302829 -0.10103393024372311 0 -0.28789548083438649 -0.11161882002010511 0 -0.28494676303449051 -0.09097811142482605 0 -0.26490928006600228 -0.12397715003998409 0 -0.28789548083438649 -0.11161882002010511 0 -0.28428672055728371 -0.13281235115180859 0 -0.26490928006600228 -0.12397715003998409 0 -0.26907394573302829 -0.10103393024372311 0 -0.28789548083438649 -0.11161882002010511 0 -0.28789548083438649 -0.11161882002010511 0 -0.28428672055728371 -0.13281235115180859 0 -0.30877835781368662 -0.12931532841693749 0 -0.28789548083438649 -0.11161882002010511 0 -0.29765529442092259 -0.094840601490837839 0 -0.28494676303449051 -0.09097811142482605 0 -0.30761934067920371 -0.1042503242997595 0 -0.29765529442092259 -0.094840601490837839 0 -0.30832877355579341 -0.086934752854072747 0 -0.30761934067920371 -0.1042503242997595 0 -0.30832877355579341 -0.086934752854072747 0 -0.31968159473222052 -0.091584555267719248 0 -0.28789548083438649 -0.11161882002010511 0 -0.30761934067920371 -0.1042503242997595 0 -0.29765529442092259 -0.094840601490837839 0 -0.28789548083438649 -0.11161882002010511 0 -0.30761934067920371 -0.1042503242997595 0 -0.30877835781368662 -0.12931532841693749 0 -0.29931176789370939 -0.061629941742321552 0 -0.27532891164284878 -0.069285621960536392 0 -0.29568251685582603 -0.071589435967753134 0 -0.27532891164284878 -0.069285621960536392 0 -0.29568251685582603 -0.071589435967753134 0 -0.28561909888295839 -0.079360655864953042 0 -0.29568251685582603 -0.071589435967753134 0 -0.28561909888295839 -0.079360655864953042 0 -0.29849490204505058 -0.081938345925378783 0 -0.27361062541114611 -0.085405998149086934 0 -0.28561909888295839 -0.079360655864953042 0 -0.28494676303449051 -0.09097811142482605 0 -0.29765529442092259 -0.094840601490837839 0 -0.28494676303449051 -0.09097811142482605 0 -0.29849490204505058 -0.081938345925378783 0 -0.28561909888295839 -0.079360655864953042 0 -0.28494676303449051 -0.09097811142482605 0 -0.29849490204505058 -0.081938345925378783 0 -0.29849490204505058 -0.081938345925378783 0 -0.30832877355579341 -0.086934752854072747 0 -0.3066986514807607 -0.074546990101646726 0 -0.29765529442092259 -0.094840601490837839 0 -0.29849490204505058 -0.081938345925378783 0 -0.30832877355579341 -0.086934752854072747 0 -0.30832877355579341 -0.086934752854072747 0 -0.3066986514807607 -0.074546990101646726 0 -0.31636087034116728 -0.076704125898778439 0 -0.3066986514807607 -0.074546990101646726 0 -0.31411021802290889 -0.069356746280106005 0 -0.31636087034116728 -0.076704125898778439 0 -0.29568251685582603 -0.071589435967753134 0 -0.29849490204505058 -0.081938345925378783 0 -0.3066986514807607 -0.074546990101646726 0 -0.29568251685582603 -0.071589435967753134 0 -0.3066986514807607 -0.074546990101646726 0 -0.30728911182784302 -0.064893595009923935 0 -0.29931176789370939 -0.061629941742321552 0 -0.29568251685582603 -0.071589435967753134 0 -0.30728911182784302 -0.064893595009923935 0 -0.3066986514807607 -0.074546990101646726 0 -0.30728911182784302 -0.064893595009923935 0 -0.31411021802290889 -0.069356746280106005 0 -0.30728911182784302 -0.064893595009923935 0 -0.31630436981946819 -0.062936971351065629 0 -0.31411021802290889 -0.069356746280106005 0 -0.31630436981946819 -0.062936971351065629 0 -0.31411021802290889 -0.069356746280106005 0 -0.32389808664530562 -0.067702049039115322 0 -0.31630436981946819 -0.062936971351065629 0 -0.32389808664530562 -0.067702049039115322 0 -0.32481687078849097 -0.058022226865728103 0 -0.32389808664530562 -0.067702049039115322 0 -0.3259684841043719 -0.075020057435826168 0 -0.31636087034116728 -0.076704125898778439 0 -0.31411021802290889 -0.069356746280106005 0 -0.32389808664530562 -0.067702049039115322 0 -0.31636087034116728 -0.076704125898778439 0 -0.30832877355579341 -0.086934752854072747 0 -0.32608803180755441 -0.084321365842938284 0 -0.30832877355579341 -0.086934752854072747 0 -0.31968159473222052 -0.091584555267719248 0 -0.32608803180755441 -0.084321365842938284 0 -0.30832877355579341 -0.086934752854072747 0 -0.31636087034116728 -0.076704125898778439 0 -0.32608803180755441 -0.084321365842938284 0 -0.31968159473222052 -0.091584555267719248 0 -0.32608803180755441 -0.084321365842938284 0 -0.3259684841043719 -0.075020057435826168 0 -0.31636087034116728 -0.076704125898778439 0 -0.32608803180755441 -0.084321365842938284 0 -0.31968159473222052 -0.091584555267719248 0 -0.32608803180755441 -0.084321365842938284 0 -0.34030971713070318 -0.087052614945596102 0 -0.32608803180755441 -0.084321365842938284 0 -0.34030971713070318 -0.087052614945596102 0 -0.34745734249292459 -0.081176736816750444 0 -0.32608803180755441 -0.084321365842938284 0 -0.33752694762346008 -0.07135268896247253 0 -0.34745734249292459 -0.081176736816750444 0 -0.32608803180755441 -0.084321365842938284 0 -0.34745734249292459 -0.081176736816750444 0 -0.33752694762346008 -0.07135268896247253 0 -0.3489658634393657 -0.058384012082006782 0 -0.33645864726091979 -0.05858208772264157 0 -0.33752694762346008 -0.07135268896247253 0 -0.3489658634393657 -0.058384012082006782 0 -0.32389808664530562 -0.067702049039115322 0 -0.33752694762346008 -0.07135268896247253 0 -0.33645864726091979 -0.05858208772264157 0 -0.3259684841043719 -0.075020057435826168 0 -0.32608803180755441 -0.084321365842938284 0 -0.33752694762346008 -0.07135268896247253 0 -0.32608803180755441 -0.084321365842938284 0 -0.33752694762346008 -0.07135268896247253 0 -0.32389808664530562 -0.067702049039115322 0 -0.3259684841043719 -0.075020057435826168 0 -0.33752694762346008 -0.07135268896247253 0 -0.32454403747219479 -0.1081839716812668 0 -0.30877835781368662 -0.12931532841693749 0 -0.30761934067920371 -0.1042503242997595 0 -0.32454403747219479 -0.1081839716812668 0 -0.30877835781368662 -0.12931532841693749 0 -0.32454403747219479 -0.1081839716812668 0 -0.33570809008837621 -0.11845594114356341 0 -0.30877835781368662 -0.12931532841693749 0 -0.30761934067920371 -0.1042503242997595 0 -0.31968159473222052 -0.091584555267719248 0 -0.32454403747219479 -0.1081839716812668 0 -0.34030971713070318 -0.087052614945596102 0 -0.32454403747219479 -0.1081839716812668 0 -0.34278855512837281 -0.1049294584887832 0 -0.31968159473222052 -0.091584555267719248 0 -0.34030971713070318 -0.087052614945596102 0 -0.32454403747219479 -0.1081839716812668 0 -0.34030971713070318 -0.087052614945596102 0 -0.32454403747219479 -0.1081839716812668 0 -0.32454403747219479 -0.1081839716812668 0 -0.34278855512837281 -0.1049294584887832 0 -0.33570809008837621 -0.11845594114356341 0 -0.33570809008837621 -0.11845594114356341 0 -0.35404294059136687 -0.1217835462641018 0 -0.33688620478323589 -0.13358080389391511 0 -0.34278855512837281 -0.1049294584887832 0 -0.35404294059136687 -0.1217835462641018 0 -0.35932798989652742 -0.1047455147758234 0 -0.34278855512837281 -0.1049294584887832 0 -0.33570809008837621 -0.11845594114356341 0 -0.35404294059136687 -0.1217835462641018 0 -0.34278855512837281 -0.1049294584887832 0 -0.35932798989652742 -0.1047455147758234 0 -0.35079718399447979 -0.093651592615473511 0 -0.34030971713070318 -0.087052614945596102 0 -0.34278855512837281 -0.1049294584887832 0 -0.35079718399447979 -0.093651592615473511 0 -0.35932798989652742 -0.1047455147758234 0 -0.35079718399447979 -0.093651592615473511 0 -0.36132419909701757 -0.091459041133748031 0 -0.35932798989652742 -0.1047455147758234 0 -0.37367929427193591 -0.1014825750548952 0 -0.37212838853434238 -0.11808059788504249 0 -0.35932798989652742 -0.1047455147758234 0 -0.37367929427193591 -0.1014825750548952 0 -0.36132419909701757 -0.091459041133748031 0 -0.35404294059136687 -0.1217835462641018 0 -0.37212838853434238 -0.11808059788504249 0 -0.37028068739271691 -0.13083580994494901 0 -0.35404294059136687 -0.1217835462641018 0 -0.35932798989652742 -0.1047455147758234 0 -0.37212838853434238 -0.11808059788504249 0 -0.35069420168351129 -0.07223638641294812 0 -0.34745734249292459 -0.081176736816750444 0 -0.36882665317829499 -0.078032107790563188 0 -0.36882665317829499 -0.078032107790563188 0 -0.3489658634393657 -0.058384012082006782 0 -0.35069420168351129 -0.07223638641294812 0 -0.36882665317829499 -0.078032107790563188 0 -0.3489658634393657 -0.058384012082006782 0 -0.33752694762346008 -0.07135268896247253 0 -0.35069420168351129 -0.07223638641294812 0 -0.3489658634393657 -0.058384012082006782 0 -0.33752694762346008 -0.07135268896247253 0 -0.35069420168351129 -0.07223638641294812 0 -0.34745734249292459 -0.081176736816750444 0 -0.34745734249292459 -0.081176736816750444 0 -0.36882665317829499 -0.078032107790563188 0 -0.34745734249292459 -0.081176736816750444 0 -0.36132419909701757 -0.091459041133748031 0 -0.36882665317829499 -0.078032107790563188 0 -0.34030971713070318 -0.087052614945596102 0 -0.34745734249292459 -0.081176736816750444 0 -0.35079718399447979 -0.093651592615473511 0 -0.34745734249292459 -0.081176736816750444 0 -0.35079718399447979 -0.093651592615473511 0 -0.36132419909701757 -0.091459041133748031 0 -0.37367929427193591 -0.1014825750548952 0 -0.36132419909701757 -0.091459041133748031 0 -0.36882665317829499 -0.078032107790563188 0 -0.36882665317829499 -0.078032107790563188 0 -0.36862349457690058 -0.057461967220355487 0 -0.3489658634393657 -0.058384012082006782 0 -0.36882665317829499 -0.078032107790563188 0 -0.36862349457690058 -0.057461967220355487 0 -0.37947166312044489 -0.067272628224985004 0 -0.36862349457690058 -0.057461967220355487 0 -0.3489658634393657 -0.058384012082006782 0 -0.36066681755822472 -0.045118253717945672 0 -0.36862349457690058 -0.057461967220355487 0 -0.37355784227175309 -0.045246792894939887 0 -0.3815482533063424 -0.052412606119804542 0 -0.36862349457690058 -0.057461967220355487 0 -0.36066681755822472 -0.045118253717945672 0 -0.37355784227175309 -0.045246792894939887 0 -0.3489658634393657 -0.058384012082006782 0 -0.36066681755822472 -0.045118253717945672 0 -0.3489658634393657 -0.058384012082006782 0 -0.34511111307690212 -0.046137334811030092 0 -0.36066681755822472 -0.045118253717945672 0 -0.35304062521722218 -0.036039659744318157 0 -0.3553139768507978 -0.023567241021099371 0 -0.33371347875736079 -0.040226824134751989 0 -0.34511111307690212 -0.046137334811030092 0 -0.35304062521722218 -0.036039659744318157 0 -0.33371347875736079 -0.040226824134751989 0 -0.34511111307690212 -0.046137334811030092 0 -0.35304062521722218 -0.036039659744318157 0 -0.36066681755822472 -0.045118253717945672 0 -0.36066681755822472 -0.045118253717945672 0 -0.37236777167708351 -0.031852495353884333 0 -0.35304062521722218 -0.036039659744318157 0 -0.37236777167708351 -0.031852495353884333 0 -0.35304062521722218 -0.036039659744318157 0 -0.36066681755822472 -0.045118253717945672 0 -0.37236777167708351 -0.031852495353884333 0 -0.36066681755822472 -0.045118253717945672 0 -0.37355784227175309 -0.045246792894939887 0 -0.37236777167708351 -0.031852495353884333 0 -0.37236777167708351 -0.031852495353884333 0 -0.3739022591900184 -0.02415390189740213 0 -0.36770044175442279 -0.02036669541201027 0 -0.37236777167708351 -0.031852495353884333 0 -0.36770044175442279 -0.02036669541201027 0 -0.3553139768507978 -0.023567241021099371 0 -0.36770044175442279 -0.02036669541201027 0 -0.35847393927256738 -0.010652033510738681 0 -0.38297625517291389 -0.017448943304264108 0 -0.35304062521722218 -0.036039659744318157 0 -0.37236777167708351 -0.031852495353884333 0 -0.3553139768507978 -0.023567241021099371 0 -0.3739022591900184 -0.02415390189740213 0 -0.36770044175442279 -0.02036669541201027 0 -0.38297625517291389 -0.017448943304264108 0 -0.36770044175442279 -0.02036669541201027 0 -0.35847393927256738 -0.010652033510738681 0 -0.3553139768507978 -0.023567241021099371 0 -0.35847393927256738 -0.010652033510738681 0 -0.38297625517291389 -0.017448943304264108 0 -0.37278444596104371 -0.0079457960458173115 0 -0.35847393927256738 -0.010652033510738681 0 -0.38297625517291389 -0.017448943304264108 0 -0.37474494217865062 -0.0022388935110706832 0 -0.37278444596104371 -0.0079457960458173115 0 -0.36307869926690151 -0.00068504054922277494 0 -0.37278444596104371 -0.0079457960458173115 0 -0.36307869926690151 -0.00068504054922277494 0 -0.35847393927256738 -0.010652033510738681 0 -0.36307869926690151 -0.00068504054922277494 0 -0.34718119132474479 -0.01384164818341615 0 -0.36064890389212972 0.0125435277679194 0 -0.36307869926690151 -0.00068504054922277494 0 -0.35847393927256738 -0.010652033510738681 0 -0.34718119132474479 -0.01384164818341615 0 -0.34718119132474479 -0.01384164818341615 0 -0.36064890389212972 0.0125435277679194 0 -0.34718119132474479 -0.01384164818341615 0 -0.3553139768507978 -0.023567241021099371 0 -0.33371347875736079 -0.040226824134751989 0 -0.35847393927256738 -0.010652033510738681 0 -0.34718119132474479 -0.01384164818341615 0 -0.3553139768507978 -0.023567241021099371 0 -0.34718119132474479 -0.01384164818341615 0 -0.33035884889608558 -0.02420969997450095 0 -0.33371347875736079 -0.040226824134751989 0 -0.34718119132474479 -0.01384164818341615 0 -0.33371347875736079 -0.040226824134751989 0 -0.34718119132474479 -0.01384164818341615 0 -0.32828291010712762 -0.0049346835118845543 0 -0.34055428987364128 0.0059527955302196532 0 -0.34718119132474479 -0.01384164818341615 0 -0.33035884889608558 -0.02420969997450095 0 -0.32828291010712762 -0.0049346835118845543 0 -0.31144738423897378 -0.02126732740536201 0 -0.32828291010712762 -0.0049346835118845543 0 -0.31177688145040278 0.0050359958776742568 0 -0.31144738423897378 -0.02126732740536201 0 -0.33116928005221918 -0.040778016637091109 0 -0.31144738423897378 -0.02126732740536201 0 -0.33035884889608558 -0.02420969997450095 0 -0.32828291010712762 -0.0049346835118845543 0 -0.31144738423897378 -0.02126732740536201 0 -0.33035884889608558 -0.02420969997450095 0 -0.33116928005221918 -0.040778016637091109 0 -0.3023660715744253 -0.047018139519123002 0 -0.31110423911055801 -0.035316851109560482 0 -0.33116928005221918 -0.040778016637091109 0 -0.3023660715744253 -0.047018139519123002 0 -0.31025625293594222 -0.050033124508212908 0 -0.33116928005221918 -0.040778016637091109 0 -0.3023660715744253 -0.047018139519123002 0 -0.33116928005221918 -0.040778016637091109 0 -0.31144738423897378 -0.02126732740536201 0 -0.31110423911055801 -0.035316851109560482 0 -0.33116928005221918 -0.040778016637091109 0 -0.31025625293594222 -0.050033124508212908 0 -0.31770057673851387 -0.05020147555903863 0 -0.33116928005221918 -0.040778016637091109 0 -0.31025625293594222 -0.050033124508212908 0 -0.31770057673851387 -0.05020147555903863 0 -0.31405483352543062 -0.056831087900065053 0 -0.31770057673851387 -0.05020147555903863 0 -0.31405483352543062 -0.056831087900065053 0 -0.31936567051967829 -0.054711673150449433 0 -0.31630436981946819 -0.062936971351065629 0 -0.31936567051967829 -0.054711673150449433 0 -0.32481687078849097 -0.058022226865728103 0 -0.30728911182784302 -0.064893595009923935 0 -0.31630436981946819 -0.062936971351065629 0 -0.31405483352543062 -0.056831087900065053 0 -0.31630436981946819 -0.062936971351065629 0 -0.31405483352543062 -0.056831087900065053 0 -0.31936567051967829 -0.054711673150449433 0 -0.31770057673851387 -0.05020147555903863 0 -0.32448711316898249 -0.050622394842538963 0 -0.33116928005221918 -0.040778016637091109 0 -0.31936567051967829 -0.054711673150449433 0 -0.32481687078849097 -0.058022226865728103 0 -0.32448711316898249 -0.050622394842538963 0 -0.31770057673851387 -0.05020147555903863 0 -0.31936567051967829 -0.054711673150449433 0 -0.32448711316898249 -0.050622394842538963 0 -0.32481687078849097 -0.058022226865728103 0 -0.32770904195502032 -0.053173566283506987 0 -0.32448711316898249 -0.050622394842538963 0 -0.32770904195502032 -0.053173566283506987 0 -0.32448711316898249 -0.050622394842538963 0 -0.32972533979495861 -0.048040159006195682 0 -0.3489658634393657 -0.058384012082006782 0 -0.34511111307690212 -0.046137334811030092 0 -0.3326728772282519 -0.042265511425067279 0 -0.32972533979495861 -0.048040159006195682 0 -0.33645864726091979 -0.05858208772264157 0 -0.3326728772282519 -0.042265511425067279 0 -0.3489658634393657 -0.058384012082006782 0 -0.3326728772282519 -0.042265511425067279 0 -0.32770904195502032 -0.053173566283506987 0 -0.32972533979495861 -0.048040159006195682 0 -0.33645864726091979 -0.05858208772264157 0 -0.3489658634393657 -0.058384012082006782 0 -0.33645864726091979 -0.05858208772264157 0 -0.3326728772282519 -0.042265511425067279 0 -0.32389808664530562 -0.067702049039115322 0 -0.32481687078849097 -0.058022226865728103 0 -0.33645864726091979 -0.05858208772264157 0 -0.32481687078849097 -0.058022226865728103 0 -0.32770904195502032 -0.053173566283506987 0 -0.33645864726091979 -0.05858208772264157 0 -0.34511111307690212 -0.046137334811030092 0 -0.33371347875736079 -0.040226824134751989 0 -0.3326728772282519 -0.042265511425067279 0 -0.33035884889608558 -0.02420969997450095 0 -0.33116928005221918 -0.040778016637091109 0 -0.33371347875736079 -0.040226824134751989 0 -0.35304062521722218 -0.036039659744318157 0 -0.33371347875736079 -0.040226824134751989 0 -0.32448711316898249 -0.050622394842538963 0 -0.32972533979495861 -0.048040159006195682 0 -0.33116928005221918 -0.040778016637091109 0 -0.33116928005221918 -0.040778016637091109 0 -0.3326728772282519 -0.042265511425067279 0 -0.32972533979495861 -0.048040159006195682 0 -0.3326728772282519 -0.042265511425067279 0 -0.32972533979495861 -0.048040159006195682 0 -0.33116928005221918 -0.040778016637091109 0 -0.3326728772282519 -0.042265511425067279 0 -0.33116928005221918 -0.040778016637091109 0 -0.33371347875736079 -0.040226824134751989 0 -0.33116928005221918 -0.040778016637091109 0 -0.33371347875736079 -0.040226824134751989 0 -0.3326728772282519 -0.042265511425067279 0 -0.33371347875736079 -0.040226824134751989 0 -0.3326728772282519 -0.042265511425067279 0 -0.2907170577323625 -0.25177677077710309 0 -0.30853150187083839 -0.25429835417001312 0 -0.30748271917561598 -0.2431056607245809 0 -0.30748271917561598 -0.2431056607245809 0 -0.3004866401015065 -0.2269264896544945 0 -0.32066485276457768 -0.2334308190911655 0 -0.2907170577323625 -0.25177677077710309 0 -0.30748271917561598 -0.2431056607245809 0 -0.3004866401015065 -0.2269264896544945 0 -0.30853150187083839 -0.25429835417001312 0 -0.30748271917561598 -0.2431056607245809 0 -0.32023222063025569 -0.2489608815952247 0 -0.3004866401015065 -0.2269264896544945 0 -0.27575903677895092 -0.22208668823385669 0 -0.3004866401015065 -0.2269264896544945 0 -0.27309361240676189 -0.24179026653703889 0 -0.27575903677895092 -0.22208668823385669 0 -0.3004866401015065 -0.2269264896544945 0 -0.27575903677895092 -0.22208668823385669 0 -0.29482007196541532 -0.2089319155152673 0 -0.2907170577323625 -0.25177677077710309 0 -0.3004866401015065 -0.2269264896544945 0 -0.27309361240676189 -0.24179026653703889 0 -0.27309361240676189 -0.24179026653703889 0 -0.25431856302814809 -0.24833495949118861 0 -0.25103143345639523 -0.21724688681321891 0 -0.27575903677895092 -0.22208668823385669 0 -0.25103143345639523 -0.21724688681321891 0 -0.27309361240676189 -0.24179026653703889 0 -0.27575903677895092 -0.22208668823385669 0 -0.25103143345639523 -0.21724688681321891 0 -0.27575903677895092 -0.22208668823385669 0 -0.25103143345639523 -0.21724688681321891 0 -0.27708552823660842 -0.19790031786117671 0 -0.25103143345639523 -0.21724688681321891 0 -0.25418198431724581 -0.18809916394242601 0 -0.27708552823660842 -0.19790031786117671 0 -0.27708552823660842 -0.19790031786117671 0 -0.29482007196541532 -0.2089319155152673 0 -0.30195969341908391 -0.19078830755985379 0 -0.29482007196541532 -0.2089319155152673 0 -0.30195969341908391 -0.19078830755985379 0 -0.32674672588845421 -0.2120308859258328 0 -0.3004866401015065 -0.2269264896544945 0 -0.29482007196541532 -0.2089319155152673 0 -0.32674672588845421 -0.2120308859258328 0 -0.27575903677895092 -0.22208668823385669 0 -0.27708552823660842 -0.19790031786117671 0 -0.29482007196541532 -0.2089319155152673 0 -0.30195969341908391 -0.19078830755985379 0 -0.30674796742087651 -0.1684647150882764 0 -0.32123008678095788 -0.18729232698745699 0 -0.30674796742087651 -0.1684647150882764 0 -0.2930126781551784 -0.15044668515260809 0 -0.3206808779707625 -0.15110047818677941 0 -0.27724699849667023 -0.17157804188827869 0 -0.2930126781551784 -0.15044668515260809 0 -0.30674796742087651 -0.1684647150882764 0 -0.27724699849667023 -0.17157804188827869 0 -0.2930126781551784 -0.15044668515260809 0 -0.27708552823660842 -0.19790031786117671 0 -0.30195969341908391 -0.19078830755985379 0 -0.27724699849667023 -0.17157804188827869 0 -0.30195969341908391 -0.19078830755985379 0 -0.30674796742087651 -0.1684647150882764 0 -0.27724699849667023 -0.17157804188827869 0 -0.25418198431724581 -0.18809916394242601 0 -0.27708552823660842 -0.19790031786117671 0 -0.27724699849667023 -0.17157804188827869 0 -0.25418198431724581 -0.18809916394242601 0 -0.2565438833259911 -0.1687602707777138 0 -0.27724699849667023 -0.17157804188827869 0 -0.2435592126657353 -0.1561425335328199 0 -0.2565438833259911 -0.1687602707777138 0 -0.26683780591716472 -0.14870377212940841 0 -0.27724699849667023 -0.17157804188827869 0 -0.26683780591716472 -0.14870377212940841 0 -0.2930126781551784 -0.15044668515260809 0 -0.2565438833259911 -0.1687602707777138 0 -0.27724699849667023 -0.17157804188827869 0 -0.26683780591716472 -0.14870377212940841 0 -0.2435592126657353 -0.1561425335328199 0 -0.2432602079730701 -0.13485583854350039 0 -0.26683780591716472 -0.14870377212940841 0 -0.2432602079730701 -0.13485583854350039 0 -0.26490928006600228 -0.12397715003998409 0 -0.26683780591716472 -0.14870377212940841 0 -0.26490928006600228 -0.12397715003998409 0 -0.26683780591716472 -0.14870377212940841 0 -0.28428672055728371 -0.13281235115180859 0 -0.28428672055728371 -0.13281235115180859 0 -0.2930126781551784 -0.15044668515260809 0 -0.30877835781368662 -0.12931532841693749 0 -0.26683780591716472 -0.14870377212940841 0 -0.28428672055728371 -0.13281235115180859 0 -0.2930126781551784 -0.15044668515260809 0 -0.2930126781551784 -0.15044668515260809 0 -0.30877835781368662 -0.12931532841693749 0 -0.3206808779707625 -0.15110047818677941 0 -0.2930126781551784 -0.15044668515260809 0 -0.30877835781368662 -0.12931532841693749 0 -0.33570809008837621 -0.11845594114356341 0 -0.30877835781368662 -0.12931532841693749 0 -0.33688620478323589 -0.13358080389391511 0 -0.30877835781368662 -0.12931532841693749 0 -0.3206808779707625 -0.15110047818677941 0 -0.33688620478323589 -0.13358080389391511 0 -0.3206808779707625 -0.15110047818677941 0 -0.33688620478323589 -0.13358080389391511 0 -0.34399943231138669 -0.15408109000358611 0 -0.33688620478323589 -0.13358080389391511 0 -0.35929992868189681 -0.1386942596847188 0 -0.35404294059136687 -0.1217835462641018 0 -0.33688620478323589 -0.13358080389391511 0 -0.35929992868189681 -0.1386942596847188 0 -0.35404294059136687 -0.1217835462641018 0 -0.35929992868189681 -0.1386942596847188 0 -0.37028068739271691 -0.13083580994494901 0 -0.35929992868189681 -0.1386942596847188 0 -0.37028068739271691 -0.13083580994494901 0 -0.3804539816512269 -0.14482329966991631 0 -0.35929992868189681 -0.1386942596847188 0 -0.3804539816512269 -0.14482329966991631 0 -0.35929992868189681 -0.1386942596847188 0 -0.3655172116091886 -0.15688196674787641 0 -0.3804539816512269 -0.14482329966991631 0 -0.3655172116091886 -0.15688196674787641 0 -0.3804539816512269 -0.14482329966991631 0 -0.3655172116091886 -0.15688196674787641 0 -0.37839901512320262 -0.15996290040625341 0 -0.3804539816512269 -0.14482329966991631 0 -0.33688620478323589 -0.13358080389391511 0 -0.35929992868189681 -0.1386942596847188 0 -0.34399943231138669 -0.15408109000358611 0 -0.35929992868189681 -0.1386942596847188 0 -0.34399943231138669 -0.15408109000358611 0 -0.3655172116091886 -0.15688196674787641 0 -0.34399943231138669 -0.15408109000358611 0 -0.35323542112630057 -0.1671812377988513 0 -0.3655172116091886 -0.15688196674787641 0 -0.3655172116091886 -0.15688196674787641 0 -0.37378547386561772 -0.17392500984250869 0 -0.37839901512320262 -0.15996290040625341 0 -0.35323542112630057 -0.1671812377988513 0 -0.3655172116091886 -0.15688196674787641 0 -0.37378547386561772 -0.17392500984250869 0 -0.37378547386561772 -0.17392500984250869 0 -0.35240556330307887 -0.18479875362473361 0 -0.36895563931783232 -0.19259611207654981 0 -0.35323542112630057 -0.1671812377988513 0 -0.37378547386561772 -0.17392500984250869 0 -0.35240556330307887 -0.18479875362473361 0 -0.35323542112630057 -0.1671812377988513 0 -0.35240556330307887 -0.18479875362473361 0 -0.33400288196205857 -0.17193246321376471 0 -0.35240556330307887 -0.18479875362473361 0 -0.33400288196205857 -0.17193246321376471 0 -0.33669316521431608 -0.19324526314955739 0 -0.33400288196205857 -0.17193246321376471 0 -0.32123008678095788 -0.18729232698745699 0 -0.33669316521431608 -0.19324526314955739 0 -0.3206808779707625 -0.15110047818677941 0 -0.34399943231138669 -0.15408109000358611 0 -0.33400288196205857 -0.17193246321376471 0 -0.34399943231138669 -0.15408109000358611 0 -0.35323542112630057 -0.1671812377988513 0 -0.33400288196205857 -0.17193246321376471 0 -0.30674796742087651 -0.1684647150882764 0 -0.3206808779707625 -0.15110047818677941 0 -0.33400288196205857 -0.17193246321376471 0 -0.30674796742087651 -0.1684647150882764 0 -0.33400288196205857 -0.17193246321376471 0 -0.32123008678095788 -0.18729232698745699 0 -0.30195969341908391 -0.19078830755985379 0 -0.32123008678095788 -0.18729232698745699 0 -0.32674672588845421 -0.2120308859258328 0 -0.32674672588845421 -0.2120308859258328 0 -0.35024140450074381 -0.20994798342056251 0 -0.32674672588845421 -0.2120308859258328 0 -0.33669316521431608 -0.19324526314955739 0 -0.35024140450074381 -0.20994798342056251 0 -0.32674672588845421 -0.2120308859258328 0 -0.35024140450074381 -0.20994798342056251 0 -0.3377174746324717 -0.2284461722996495 0 -0.32123008678095788 -0.18729232698745699 0 -0.32674672588845421 -0.2120308859258328 0 -0.33669316521431608 -0.19324526314955739 0 -0.35240556330307887 -0.18479875362473361 0 -0.36895563931783232 -0.19259611207654981 0 -0.35024140450074381 -0.20994798342056251 0 -0.35240556330307887 -0.18479875362473361 0 -0.33669316521431608 -0.19324526314955739 0 -0.35024140450074381 -0.20994798342056251 0 -0.36895563931783232 -0.19259611207654981 0 -0.37373608311303341 -0.20786508091529229 0 -0.35024140450074381 -0.20994798342056251 0 -0.37373608311303341 -0.20786508091529229 0 -0.35024140450074381 -0.20994798342056251 0 -0.37373608311303341 -0.20786508091529229 0 -0.35024140450074381 -0.20994798342056251 0 -0.36602803805366552 -0.21914337572849349 0 -0.37373608311303341 -0.20786508091529229 0 -0.36602803805366552 -0.21914337572849349 0 -0.37785639846487218 -0.21906994256996459 0 -0.35024140450074381 -0.20994798342056251 0 -0.357966965356528 -0.23170644806675769 0 -0.3377174746324717 -0.2284461722996495 0 -0.35024140450074381 -0.20994798342056251 0 -0.357966965356528 -0.23170644806675769 0 -0.36602803805366552 -0.21914337572849349 0 -0.357966965356528 -0.23170644806675769 0 -0.36602803805366552 -0.21914337572849349 0 -0.36983275924353248 -0.22875232439276311 0 -0.36602803805366552 -0.21914337572849349 0 -0.36983275924353248 -0.22875232439276311 0 -0.37785639846487218 -0.21906994256996459 0 -0.357966965356528 -0.23170644806675769 0 -0.36983275924353248 -0.22875232439276311 0 -0.37747963509906429 -0.24508953120583671 0 -0.35872453044413888 -0.25078889886649508 0 -0.357966965356528 -0.23170644806675769 0 -0.37747963509906429 -0.24508953120583671 0 -0.357966965356528 -0.23170644806675769 0 -0.34395992200845399 -0.24382677409400949 0 -0.3377174746324717 -0.2284461722996495 0 -0.35872453044413888 -0.25078889886649508 0 -0.357966965356528 -0.23170644806675769 0 -0.34395992200845399 -0.24382677409400949 0 -0.33345250408021371 -0.25331871279766999 0 -0.34395992200845399 -0.24382677409400949 0 -0.33132333615916232 -0.2411148243472106 0 -0.33345250408021371 -0.25331871279766999 0 -0.33132333615916232 -0.2411148243472106 0 -0.32023222063025569 -0.2489608815952247 0 -0.34395992200845399 -0.24382677409400949 0 -0.33132333615916232 -0.2411148243472106 0 -0.3377174746324717 -0.2284461722996495 0 -0.32674672588845421 -0.2120308859258328 0 -0.3377174746324717 -0.2284461722996495 0 -0.32066485276457768 -0.2334308190911655 0 -0.33132333615916232 -0.2411148243472106 0 -0.3377174746324717 -0.2284461722996495 0 -0.32066485276457768 -0.2334308190911655 0 -0.3004866401015065 -0.2269264896544945 0 -0.32674672588845421 -0.2120308859258328 0 -0.32066485276457768 -0.2334308190911655 0 -0.30748271917561598 -0.2431056607245809 0 -0.32066485276457768 -0.2334308190911655 0 -0.32023222063025569 -0.2489608815952247 0 -0.33132333615916232 -0.2411148243472106 0 -0.32066485276457768 -0.2334308190911655 0 -0.32023222063025569 -0.2489608815952247 0 -0.43445882011373449 -0.25478651907497341 0 -0.43806130733353449 -0.23541812032183559 0 -0.43445882011373449 -0.25478651907497341 0 -0.4258852610480256 -0.24284815888716721 0 -0.43806130733353449 -0.23541812032183559 0 -0.4258852610480256 -0.24284815888716721 0 -0.42538833238501789 -0.2333934851751748 0 -0.41698539980062188 -0.23875950084572559 0 -0.43445882011373449 -0.25478651907497341 0 -0.4258852610480256 -0.24284815888716721 0 -0.42335340856967768 -0.24893549408922019 0 -0.4258852610480256 -0.24284815888716721 0 -0.42538833238501789 -0.2333934851751748 0 -0.43806130733353449 -0.23541812032183559 0 -0.43091611572645672 -0.22699763907763329 0 -0.42538833238501789 -0.2333934851751748 0 -0.43806130733353449 -0.23541812032183559 0 -0.43091611572645672 -0.22699763907763329 0 -0.44166379455333399 -0.21604972156869759 0 -0.43806130733353449 -0.23541812032183559 0 -0.43091611572645672 -0.22699763907763329 0 -0.43133498143110582 -0.21921018883561361 0 -0.44166379455333399 -0.21604972156869759 0 -0.43133498143110582 -0.21921018883561361 0 -0.4232485836513401 -0.22477446532261011 0 -0.4232102070061276 -0.21869015764887889 0 -0.43091611572645672 -0.22699763907763329 0 -0.43133498143110582 -0.21921018883561361 0 -0.4232485836513401 -0.22477446532261011 0 -0.43091611572645672 -0.22699763907763329 0 -0.4232485836513401 -0.22477446532261011 0 -0.42538833238501789 -0.2333934851751748 0 -0.4232485836513401 -0.22477446532261011 0 -0.42538833238501789 -0.2333934851751748 0 -0.41731365953457839 -0.2310953018814938 0 -0.4232485836513401 -0.22477446532261011 0 -0.41731365953457839 -0.2310953018814938 0 -0.4121948509493269 -0.2247325638453028 0 -0.41731365953457839 -0.2310953018814938 0 -0.4080561583250083 -0.23272886934204159 0 -0.41698539980062188 -0.23875950084572559 0 -0.4232485836513401 -0.22477446532261011 0 -0.4121948509493269 -0.2247325638453028 0 -0.41685681033243982 -0.21746512418924929 0 -0.4232485836513401 -0.22477446532261011 0 -0.41685681033243982 -0.21746512418924929 0 -0.4232102070061276 -0.21869015764887889 0 -0.4121948509493269 -0.2247325638453028 0 -0.4080561583250083 -0.23272886934204159 0 -0.39971520205611372 -0.2221352637332015 0 -0.4121948509493269 -0.2247325638453028 0 -0.40807454407470489 -0.21592977391801271 0 -0.41685681033243982 -0.21746512418924929 0 -0.4121948509493269 -0.2247325638453028 0 -0.39971520205611372 -0.2221352637332015 0 -0.40807454407470489 -0.21592977391801271 0 -0.41731365953457839 -0.2310953018814938 0 -0.4121948509493269 -0.2247325638453028 0 -0.4080561583250083 -0.23272886934204159 0 -0.4080561583250083 -0.23272886934204159 0 -0.40983148527785651 -0.24118391776602099 0 -0.41698539980062188 -0.23875950084572559 0 -0.42538833238501789 -0.2333934851751748 0 -0.41731365953457839 -0.2310953018814938 0 -0.41698539980062188 -0.23875950084572559 0 -0.40983148527785651 -0.24118391776602099 0 -0.41698539980062188 -0.23875950084572559 0 -0.41627810448972868 -0.24641300060905449 0 -0.4258852610480256 -0.24284815888716721 0 -0.42335340856967768 -0.24893549408922019 0 -0.41627810448972868 -0.24641300060905449 0 -0.4258852610480256 -0.24284815888716721 0 -0.41698539980062188 -0.23875950084572559 0 -0.41627810448972868 -0.24641300060905449 0 -0.41679144862722167 -0.25169429778568547 0 -0.42335340856967768 -0.24893549408922019 0 -0.41627810448972868 -0.24641300060905449 0 -0.41385673751816382 -0.25312989710486528 0 -0.41627810448972868 -0.24641300060905449 0 -0.4086566941719203 -0.24778871483445111 0 -0.40983148527785651 -0.24118391776602099 0 -0.41627810448972868 -0.24641300060905449 0 -0.4086566941719203 -0.24778871483445111 0 -0.40282532782868952 -0.25224285689579767 0 -0.4086566941719203 -0.24778871483445111 0 -0.40022281387448849 -0.24084313907701979 0 -0.40983148527785651 -0.24118391776602099 0 -0.4086566941719203 -0.24778871483445111 0 -0.40022281387448849 -0.24084313907701979 0 -0.4080561583250083 -0.23272886934204159 0 -0.40983148527785651 -0.24118391776602099 0 -0.40022281387448849 -0.24084313907701979 0 -0.40022281387448849 -0.24084313907701979 0 -0.3903832871219331 -0.2411545733314838 0 -0.38772777019650018 -0.2315142496456449 0 -0.3938256931015453 -0.25037754026629511 0 -0.40022281387448849 -0.24084313907701979 0 -0.3903832871219331 -0.2411545733314838 0 -0.3938256931015453 -0.25037754026629511 0 -0.3903832871219331 -0.2411545733314838 0 -0.37747963509906429 -0.24508953120583671 0 -0.3903832871219331 -0.2411545733314838 0 -0.37747963509906429 -0.24508953120583671 0 -0.38772777019650018 -0.2315142496456449 0 -0.37747963509906429 -0.24508953120583671 0 -0.37785639846487218 -0.21906994256996459 0 -0.37747963509906429 -0.24508953120583671 0 -0.37785639846487218 -0.21906994256996459 0 -0.38772777019650018 -0.2315142496456449 0 -0.36983275924353248 -0.22875232439276311 0 -0.37747963509906429 -0.24508953120583671 0 -0.37785639846487218 -0.21906994256996459 0 -0.37785639846487218 -0.21906994256996459 0 -0.38772777019650018 -0.2315142496456449 0 -0.38790285805175961 -0.2167146319195192 0 -0.4080561583250083 -0.23272886934204159 0 -0.40022281387448849 -0.24084313907701979 0 -0.39971520205611372 -0.2221352637332015 0 -0.40022281387448849 -0.24084313907701979 0 -0.39971520205611372 -0.2221352637332015 0 -0.38772777019650018 -0.2315142496456449 0 -0.39971520205611372 -0.2221352637332015 0 -0.38790285805175961 -0.2167146319195192 0 -0.40022281387448849 -0.24084313907701979 0 -0.38772777019650018 -0.2315142496456449 0 -0.39971520205611372 -0.2221352637332015 0 -0.39971520205611372 -0.2221352637332015 0 -0.39723076172532301 -0.205782178410022 0 -0.40807454407470489 -0.21592977391801271 0 -0.39971520205611372 -0.2221352637332015 0 -0.39723076172532301 -0.205782178410022 0 -0.38790285805175961 -0.2167146319195192 0 -0.39723076172532301 -0.205782178410022 0 -0.41303892827123678 -0.21093405469715851 0 -0.40807454407470489 -0.21592977391801271 0 -0.37373608311303341 -0.20786508091529229 0 -0.39723076172532301 -0.205782178410022 0 -0.38370630256805799 -0.1971119561512929 0 -0.37373608311303341 -0.20786508091529229 0 -0.39723076172532301 -0.205782178410022 0 -0.38790285805175961 -0.2167146319195192 0 -0.37373608311303341 -0.20786508091529229 0 -0.39723076172532301 -0.205782178410022 0 -0.37373608311303341 -0.20786508091529229 0 -0.37785639846487218 -0.21906994256996459 0 -0.38790285805175961 -0.2167146319195192 0 -0.36895563931783232 -0.19259611207654981 0 -0.38370630256805799 -0.1971119561512929 0 -0.3831693110633177 -0.1873742460103984 0 -0.36895563931783232 -0.19259611207654981 0 -0.37373608311303341 -0.20786508091529229 0 -0.38370630256805799 -0.1971119561512929 0 -0.38370630256805799 -0.1971119561512929 0 -0.39543971762078378 -0.19194216334420211 0 -0.3831693110633177 -0.1873742460103984 0 -0.39723076172532301 -0.205782178410022 0 -0.38370630256805799 -0.1971119561512929 0 -0.39543971762078378 -0.19194216334420211 0 -0.39723076172532301 -0.205782178410022 0 -0.39543971762078378 -0.19194216334420211 0 -0.40534117689708921 -0.19634387975323889 0 -0.39543971762078378 -0.19194216334420211 0 -0.40534117689708921 -0.19634387975323889 0 -0.40730162077548249 -0.18407395049314179 0 -0.39723076172532301 -0.205782178410022 0 -0.40534117689708921 -0.19634387975323889 0 -0.42072544033761272 -0.20369927590475301 0 -0.42032122747045741 -0.1927313373696285 0 -0.42072544033761272 -0.20369927590475301 0 -0.40730162077548249 -0.18407395049314179 0 -0.42072544033761272 -0.20369927590475301 0 -0.40730162077548249 -0.18407395049314179 0 -0.40534117689708921 -0.19634387975323889 0 -0.42072544033761272 -0.20369927590475301 0 -0.40730162077548249 -0.18407395049314179 0 -0.39723076172532301 -0.205782178410022 0 -0.41303892827123678 -0.21093405469715851 0 -0.42072544033761272 -0.20369927590475301 0 -0.39723076172532301 -0.205782178410022 0 -0.42072544033761272 -0.20369927590475301 0 -0.41303892827123678 -0.21093405469715851 0 -0.40807454407470489 -0.21592977391801271 0 -0.41685681033243982 -0.21746512418924929 0 -0.41303892827123678 -0.21093405469715851 0 -0.41685681033243982 -0.21746512418924929 0 -0.42140045260962489 -0.21331085224804261 0 -0.41685681033243982 -0.21746512418924929 0 -0.42140045260962489 -0.21331085224804261 0 -0.4232102070061276 -0.21869015764887889 0 -0.41303892827123678 -0.21093405469715851 0 -0.42140045260962489 -0.21331085224804261 0 -0.42072544033761272 -0.20369927590475301 0 -0.42512182626149492 -0.2033095177213731 0 -0.43378961613155448 -0.20908682079381441 0 -0.44184138868315109 -0.20247798044170351 0 -0.42072544033761272 -0.20369927590475301 0 -0.42512182626149492 -0.2033095177213731 0 -0.43133498143110582 -0.21921018883561361 0 -0.42072544033761272 -0.20369927590475301 0 -0.42512182626149492 -0.2033095177213731 0 -0.43133498143110582 -0.21921018883561361 0 -0.42512182626149492 -0.2033095177213731 0 -0.43378961613155448 -0.20908682079381441 0 -0.43133498143110582 -0.21921018883561361 0 -0.42140045260962489 -0.21331085224804261 0 -0.4232102070061276 -0.21869015764887889 0 -0.43133498143110582 -0.21921018883561361 0 -0.42072544033761272 -0.20369927590475301 0 -0.43133498143110582 -0.21921018883561361 0 -0.42140045260962489 -0.21331085224804261 0 -0.42072544033761272 -0.20369927590475301 0 -0.43133498143110582 -0.21921018883561361 0 -0.43378961613155448 -0.20908682079381441 0 -0.44166379455333399 -0.21604972156869759 0 -0.42032122747045741 -0.1927313373696285 0 -0.44184138868315109 -0.20247798044170351 0 -0.42032122747045741 -0.1927313373696285 0 -0.43099962817645188 -0.18319011649723049 0 -0.43833565968517207 -0.19112957676178299 0 -0.42032122747045741 -0.1927313373696285 0 -0.42512182626149492 -0.2033095177213731 0 -0.44184138868315109 -0.20247798044170351 0 -0.42032122747045741 -0.1927313373696285 0 -0.43833565968517207 -0.19112957676178299 0 -0.44184138868315109 -0.20247798044170351 0 -0.42032122747045741 -0.1927313373696285 0 -0.42072544033761272 -0.20369927590475301 0 -0.42512182626149492 -0.2033095177213731 0 -0.42549584187692119 -0.17333418479170171 0 -0.43099962817645188 -0.18319011649723049 0 -0.41834400919125792 -0.18158621355319651 0 -0.42032122747045741 -0.1927313373696285 0 -0.43099962817645188 -0.18319011649723049 0 -0.41834400919125792 -0.18158621355319651 0 -0.43099962817645188 -0.18319011649723049 0 -0.43495901877196291 -0.17485617288990979 0 -0.44455133712372419 -0.18300714728765441 0 -0.42549584187692119 -0.17333418479170171 0 -0.43099962817645188 -0.18319011649723049 0 -0.43495901877196291 -0.17485617288990979 0 -0.42549584187692119 -0.17333418479170171 0 -0.43495901877196291 -0.17485617288990979 0 -0.43155613508544272 -0.1669321437644439 0 -0.43495901877196291 -0.17485617288990979 0 -0.43155613508544272 -0.1669321437644439 0 -0.44219215159727421 -0.16781727210851849 0 -0.43155613508544272 -0.1669321437644439 0 -0.43166640735559808 -0.1552039120346444 0 -0.44219215159727421 -0.16781727210851849 0 -0.43155613508544272 -0.1669321437644439 0 -0.4214232379976206 -0.16216052115063159 0 -0.43166640735559808 -0.1552039120346444 0 -0.42549584187692119 -0.17333418479170171 0 -0.43155613508544272 -0.1669321437644439 0 -0.4214232379976206 -0.16216052115063159 0 -0.42549584187692119 -0.17333418479170171 0 -0.4214232379976206 -0.16216052115063159 0 -0.41110577652129249 -0.1670682470007229 0 -0.4214232379976206 -0.16216052115063159 0 -0.41110577652129249 -0.1670682470007229 0 -0.40669002996807779 -0.1495058137550834 0 -0.41110577652129249 -0.1670682470007229 0 -0.41834400919125792 -0.18158621355319651 0 -0.40730162077548249 -0.18407395049314179 0 -0.42549584187692119 -0.17333418479170171 0 -0.41110577652129249 -0.1670682470007229 0 -0.41834400919125792 -0.18158621355319651 0 -0.42032122747045741 -0.1927313373696285 0 -0.41834400919125792 -0.18158621355319651 0 -0.40730162077548249 -0.18407395049314179 0 -0.39543971762078378 -0.19194216334420211 0 -0.40730162077548249 -0.18407395049314179 0 -0.39267839793348491 -0.17927693187167279 0 -0.40730162077548249 -0.18407395049314179 0 -0.39267839793348491 -0.17927693187167279 0 -0.39387780121335469 -0.16444862508152899 0 -0.40730162077548249 -0.18407395049314179 0 -0.39387780121335469 -0.16444862508152899 0 -0.37378547386561772 -0.17392500984250869 0 -0.36895563931783232 -0.19259611207654981 0 -0.3831693110633177 -0.1873742460103984 0 -0.37378547386561772 -0.17392500984250869 0 -0.39267839793348491 -0.17927693187167279 0 -0.3831693110633177 -0.1873742460103984 0 -0.37378547386561772 -0.17392500984250869 0 -0.39267839793348491 -0.17927693187167279 0 -0.39387780121335469 -0.16444862508152899 0 -0.39543971762078378 -0.19194216334420211 0 -0.39267839793348491 -0.17927693187167279 0 -0.3831693110633177 -0.1873742460103984 0 -0.37378547386561772 -0.17392500984250869 0 -0.37839901512320262 -0.15996290040625341 0 -0.39387780121335469 -0.16444862508152899 0 -0.37839901512320262 -0.15996290040625341 0 -0.39387780121335469 -0.16444862508152899 0 -0.3804539816512269 -0.14482329966991631 0 -0.41110577652129249 -0.1670682470007229 0 -0.39387780121335469 -0.16444862508152899 0 -0.40669002996807779 -0.1495058137550834 0 -0.41110577652129249 -0.1670682470007229 0 -0.40730162077548249 -0.18407395049314179 0 -0.39387780121335469 -0.16444862508152899 0 -0.39387780121335469 -0.16444862508152899 0 -0.3804539816512269 -0.14482329966991631 0 -0.40669002996807779 -0.1495058137550834 0 -0.3804539816512269 -0.14482329966991631 0 -0.39647179587780151 -0.13189450107720049 0 -0.40669002996807779 -0.1495058137550834 0 -0.3804539816512269 -0.14482329966991631 0 -0.40669002996807779 -0.1495058137550834 0 -0.39387780121335469 -0.16444862508152899 0 -0.3804539816512269 -0.14482329966991631 0 -0.3804539816512269 -0.14482329966991631 0 -0.38278168804071749 -0.12940228238898679 0 -0.39647179587780151 -0.13189450107720049 0 -0.3804539816512269 -0.14482329966991631 0 -0.39647179587780151 -0.13189450107720049 0 -0.37212838853434238 -0.11808059788504249 0 -0.37028068739271691 -0.13083580994494901 0 -0.38278168804071749 -0.12940228238898679 0 -0.37028068739271691 -0.13083580994494901 0 -0.3804539816512269 -0.14482329966991631 0 -0.38278168804071749 -0.12940228238898679 0 -0.38278168804071749 -0.12940228238898679 0 -0.39647179587780151 -0.13189450107720049 0 -0.39044023874876249 -0.11757149150947201 0 -0.39647179587780151 -0.13189450107720049 0 -0.40828286160401828 -0.1310364195873514 0 -0.40669002996807779 -0.1495058137550834 0 -0.39647179587780151 -0.13189450107720049 0 -0.40828286160401828 -0.1310364195873514 0 -0.41122993917504558 -0.1199812866788818 0 -0.39647179587780151 -0.13189450107720049 0 -0.41122993917504558 -0.1199812866788818 0 -0.40828286160401828 -0.1310364195873514 0 -0.41930562378398423 -0.12797048681614909 0 -0.41122993917504558 -0.1199812866788818 0 -0.41930562378398423 -0.12797048681614909 0 -0.41533589961201212 -0.13938201891822019 0 -0.4273858072007774 -0.14414008567558009 0 -0.40828286160401828 -0.1310364195873514 0 -0.41533589961201212 -0.13938201891822019 0 -0.40669002996807779 -0.1495058137550834 0 -0.40828286160401828 -0.1310364195873514 0 -0.41930562378398423 -0.12797048681614909 0 -0.41533589961201212 -0.13938201891822019 0 -0.40669002996807779 -0.1495058137550834 0 -0.43166640735559808 -0.1552039120346444 0 -0.4214232379976206 -0.16216052115063159 0 -0.40669002996807779 -0.1495058137550834 0 -0.43166640735559808 -0.1552039120346444 0 -0.41533589961201212 -0.13938201891822019 0 -0.40669002996807779 -0.1495058137550834 0 -0.4273858072007774 -0.14414008567558009 0 -0.40669002996807779 -0.1495058137550834 0 -0.4273858072007774 -0.14414008567558009 0 -0.43166640735559808 -0.1552039120346444 0 -0.43166640735559808 -0.1552039120346444 0 -0.43525592456887258 -0.14374997194848471 0 -0.44410307239699631 -0.15282998285397989 0 -0.4273858072007774 -0.14414008567558009 0 -0.43166640735559808 -0.1552039120346444 0 -0.43525592456887258 -0.14374997194848471 0 -0.41930562378398423 -0.12797048681614909 0 -0.43525592456887258 -0.14374997194848471 0 -0.41930562378398423 -0.12797048681614909 0 -0.4273858072007774 -0.14414008567558009 0 -0.43525592456887258 -0.14374997194848471 0 -0.41930562378398423 -0.12797048681614909 0 -0.4273858072007774 -0.14414008567558009 0 -0.41930562378398423 -0.12797048681614909 0 -0.43525592456887258 -0.14374997194848471 0 -0.43389101300267191 -0.13422730327376839 0 -0.41930562378398423 -0.12797048681614909 0 -0.43389101300267191 -0.13422730327376839 0 -0.4149348530849476 -0.1169905694289516 0 -0.43389101300267191 -0.13422730327376839 0 -0.4149348530849476 -0.1169905694289516 0 -0.43389101300267191 -0.13422730327376839 0 -0.43160182387889101 -0.1187955019330571 0 -0.44085253015216358 -0.1237950587173612 0 -0.43389101300267191 -0.13422730327376839 0 -0.44872577578551592 -0.13320174295465559 0 -0.452847172920396 -0.1514640371185853 0 -0.44872577578551592 -0.13320174295465559 0 -0.45896755277767909 -0.12575633132281341 0 -0.45000974795797011 -0.119430952696417 0 -0.44872577578551592 -0.13320174295465559 0 -0.45000974795797011 -0.119430952696417 0 -0.44085253015216358 -0.1237950587173612 0 -0.43389101300267191 -0.13422730327376839 0 -0.44872577578551592 -0.13320174295465559 0 -0.44085253015216358 -0.1237950587173612 0 -0.43525592456887258 -0.14374997194848471 0 -0.43389101300267191 -0.13422730327376839 0 -0.452847172920396 -0.1514640371185853 0 -0.43525592456887258 -0.14374997194848471 0 -0.44410307239699631 -0.15282998285397989 0 -0.452847172920396 -0.1514640371185853 0 -0.44872577578551592 -0.13320174295465559 0 -0.452847172920396 -0.1514640371185853 0 -0.456386085566235 -0.14096643446963419 0 -0.43389101300267191 -0.13422730327376839 0 -0.452847172920396 -0.1514640371185853 0 -0.44410307239699631 -0.15282998285397989 0 -0.452847172920396 -0.1514640371185853 0 -0.45664278474311831 -0.16090201031420531 0 -0.452847172920396 -0.1514640371185853 0 -0.456386085566235 -0.14096643446963419 0 -0.46738274896045578 -0.15003021006820461 0 -0.452847172920396 -0.1514640371185853 0 -0.46738274896045578 -0.15003021006820461 0 -0.45664278474311831 -0.16090201031420531 0 -0.456386085566235 -0.14096643446963419 0 -0.46738274896045578 -0.15003021006820461 0 -0.47200539146090159 -0.13839174763128981 0 -0.456386085566235 -0.14096643446963419 0 -0.47200539146090159 -0.13839174763128981 0 -0.47750202174635031 -0.1215216316744509 0 -0.456386085566235 -0.14096643446963419 0 -0.45896755277767909 -0.12575633132281341 0 -0.47750202174635031 -0.1215216316744509 0 -0.456386085566235 -0.14096643446963419 0 -0.47750202174635031 -0.1215216316744509 0 -0.44872577578551592 -0.13320174295465559 0 -0.456386085566235 -0.14096643446963419 0 -0.45896755277767909 -0.12575633132281341 0 -0.47200539146090159 -0.13839174763128981 0 -0.48675070957056549 -0.14104871431286931 0 -0.47750202174635031 -0.1215216316744509 0 -0.50000000000000011 -0.12648838757554831 0 -0.48675070957056549 -0.14104871431286931 0 -0.5 -0.15043640832747529 0 -0.50000000000000011 -0.12648838757554831 0 -0.48675070957056549 -0.14104871431286931 0 -0.47750202174635031 -0.1215216316744509 0 -0.48675070957056549 -0.14104871431286931 0 -0.5 -0.15043640832747529 0 -0.48062174440056549 -0.15969986187448909 0 -0.46738274896045578 -0.15003021006820461 0 -0.47200539146090159 -0.13839174763128981 0 -0.48675070957056549 -0.14104871431286931 0 -0.48675070957056549 -0.14104871431286931 0 -0.48062174440056549 -0.15969986187448909 0 -0.46738274896045578 -0.15003021006820461 0 -0.48675070957056549 -0.14104871431286931 0 -0.48062174440056549 -0.15969986187448909 0 -0.48062174440056549 -0.15969986187448909 0 -0.46548313673471758 -0.16971310035941381 0 -0.46753260370971428 -0.1600862956540782 0 -0.46738274896045578 -0.15003021006820461 0 -0.48062174440056549 -0.15969986187448909 0 -0.46753260370971428 -0.1600862956540782 0 -0.48062174440056549 -0.15969986187448909 0 -0.47449277923056221 -0.17835100943610771 0 -0.46548313673471758 -0.16971310035941381 0 -0.48062174440056549 -0.15969986187448909 0 -0.47449277923056221 -0.17835100943610771 0 -0.5 -0.15043640832747529 0 -0.48062174440056549 -0.15969986187448909 0 -0.49999999999999828 -0.17438442907940241 0 -0.48062174440056549 -0.15969986187448909 0 -0.49999999999999828 -0.17438442907940241 0 -0.47449277923056221 -0.17835100943610771 0 -0.49999999999999828 -0.17438442907940241 0 -0.47449277923056221 -0.17835100943610771 0 -0.49999999999999828 -0.17438442907940241 0 -0.47449277923056221 -0.17835100943610771 0 -0.48549376880548989 -0.19132810400505559 0 -0.47449277923056221 -0.17835100943610771 0 -0.46892716456320649 -0.19528781647494389 0 -0.47449277923056221 -0.17835100943610771 0 -0.45952205817714309 -0.18067907836188021 0 -0.46892716456320649 -0.19528781647494389 0 -0.45952205817714309 -0.18067907836188021 0 -0.46548313673471758 -0.16971310035941381 0 -0.45289664290439807 -0.17180374819378549 0 -0.47449277923056221 -0.17835100943610771 0 -0.45952205817714309 -0.18067907836188021 0 -0.47449277923056221 -0.17835100943610771 0 -0.45952205817714309 -0.18067907836188021 0 -0.46548313673471758 -0.16971310035941381 0 -0.46548313673471758 -0.16971310035941381 0 -0.46753260370971428 -0.1600862956540782 0 -0.45664278474311831 -0.16090201031420531 0 -0.46738274896045578 -0.15003021006820461 0 -0.46753260370971428 -0.1600862956540782 0 -0.45664278474311831 -0.16090201031420531 0 -0.46548313673471758 -0.16971310035941381 0 -0.45664278474311831 -0.16090201031420531 0 -0.45289664290439807 -0.17180374819378549 0 -0.45664278474311831 -0.16090201031420531 0 -0.45289664290439807 -0.17180374819378549 0 -0.44219215159727421 -0.16781727210851849 0 -0.43166640735559808 -0.1552039120346444 0 -0.45664278474311831 -0.16090201031420531 0 -0.44219215159727421 -0.16781727210851849 0 -0.43166640735559808 -0.1552039120346444 0 -0.45664278474311831 -0.16090201031420531 0 -0.43166640735559808 -0.1552039120346444 0 -0.44410307239699631 -0.15282998285397989 0 -0.45664278474311831 -0.16090201031420531 0 -0.43495901877196291 -0.17485617288990979 0 -0.44219215159727421 -0.16781727210851849 0 -0.44455133712372419 -0.18300714728765441 0 -0.43099962817645188 -0.18319011649723049 0 -0.44455133712372419 -0.18300714728765441 0 -0.43833565968517207 -0.19112957676178299 0 -0.45952205817714309 -0.18067907836188021 0 -0.44455133712372419 -0.18300714728765441 0 -0.45396471697207569 -0.194241302212698 0 -0.45952205817714309 -0.18067907836188021 0 -0.44455133712372419 -0.18300714728765441 0 -0.45952205817714309 -0.18067907836188021 0 -0.45289664290439807 -0.17180374819378549 0 -0.44455133712372419 -0.18300714728765441 0 -0.45289664290439807 -0.17180374819378549 0 -0.44219215159727421 -0.16781727210851849 0 -0.44455133712372419 -0.18300714728765441 0 -0.44455133712372419 -0.18300714728765441 0 -0.43833565968517207 -0.19112957676178299 0 -0.45396471697207569 -0.194241302212698 0 -0.43833565968517207 -0.19112957676178299 0 -0.44184138868315109 -0.20247798044170351 0 -0.45396471697207569 -0.194241302212698 0 -0.44184138868315109 -0.20247798044170351 0 -0.46336154989584488 -0.2122246235137781 0 -0.45396471697207569 -0.194241302212698 0 -0.44184138868315109 -0.20247798044170351 0 -0.46336154989584488 -0.2122246235137781 0 -0.45338394269579491 -0.2190794284651259 0 -0.43378961613155448 -0.20908682079381441 0 -0.44184138868315109 -0.20247798044170351 0 -0.44166379455333399 -0.21604972156869759 0 -0.44184138868315109 -0.20247798044170351 0 -0.44166379455333399 -0.21604972156869759 0 -0.45338394269579491 -0.2190794284651259 0 -0.44184138868315109 -0.20247798044170351 0 -0.46336154989584488 -0.2122246235137781 0 -0.46336154989584488 -0.2122246235137781 0 -0.46892716456320649 -0.19528781647494389 0 -0.46336154989584488 -0.2122246235137781 0 -0.45396471697207569 -0.194241302212698 0 -0.46892716456320649 -0.19528781647494389 0 -0.45952205817714309 -0.18067907836188021 0 -0.45396471697207569 -0.194241302212698 0 -0.46892716456320649 -0.19528781647494389 0 -0.47449277923056221 -0.17835100943610771 0 -0.46892716456320649 -0.19528781647494389 0 -0.48549376880548989 -0.19132810400505559 0 -0.46892716456320649 -0.19528781647494389 0 -0.48549376880548989 -0.19132810400505559 0 -0.47978640147694102 -0.20418872613165631 0 -0.5 -0.20182215567114031 0 -0.48549376880548989 -0.19132810400505559 0 -0.47978640147694102 -0.20418872613165631 0 -0.49999999999999828 -0.17438442907940241 0 -0.5 -0.20182215567114031 0 -0.48549376880548989 -0.19132810400505559 0 -0.5 -0.20182215567114031 0 -0.48114952412016337 -0.22028093099336349 0 -0.49893749834448198 -0.22833723847294871 0 -0.5 -0.20182215567114031 0 -0.47978640147694102 -0.20418872613165631 0 -0.48114952412016337 -0.22028093099336349 0 -0.46336154989584488 -0.2122246235137781 0 -0.48114952412016337 -0.22028093099336349 0 -0.46336154989584488 -0.2122246235137781 0 -0.47978640147694102 -0.20418872613165631 0 -0.48114952412016337 -0.22028093099336349 0 -0.46336154989584488 -0.2122246235137781 0 -0.46892716456320649 -0.19528781647494389 0 -0.47978640147694102 -0.20418872613165631 0 -0.46336154989584488 -0.2122246235137781 0 -0.48114952412016337 -0.22028093099336349 0 -0.46857810181099829 -0.22486784275082261 0 -0.48114952412016337 -0.22028093099336349 0 -0.48798868478634799 -0.231470988200419 0 -0.47142395938804471 -0.23802335247430181 0 -0.48114952412016337 -0.22028093099336349 0 -0.47142395938804471 -0.23802335247430181 0 -0.46857810181099829 -0.22486784275082261 0 -0.48114952412016337 -0.22028093099336349 0 -0.48798868478634799 -0.231470988200419 0 -0.49893749834448198 -0.22833723847294871 0 -0.48114952412016337 -0.22028093099336349 0 -0.49893749834448198 -0.22833723847294871 0 -0.48798868478634799 -0.231470988200419 0 -0.49893749834448198 -0.22833723847294871 0 -0.4875835208682564 -0.24248539692068891 0 -0.5 -0.25669760885461612 0 -0.49893749834448198 -0.22833723847294871 0 -0.4875835208682564 -0.24248539692068891 0 -0.48798868478634799 -0.231470988200419 0 -0.4875835208682564 -0.24248539692068891 0 -0.47142395938804471 -0.23802335247430181 0 -0.47878778985378329 -0.25835102983948688 0 -0.4875835208682564 -0.24248539692068891 0 -0.47142395938804471 -0.23802335247430181 0 -0.45662330498375908 -0.25656877445722759 0 -0.47142395938804471 -0.23802335247430181 0 -0.45034617445999431 -0.24335722649563979 0 -0.47142395938804471 -0.23802335247430181 0 -0.45735065046854989 -0.23051648340969341 0 -0.45034617445999431 -0.24335722649563979 0 -0.46336154989584488 -0.2122246235137781 0 -0.46857810181099829 -0.22486784275082261 0 -0.45735065046854989 -0.23051648340969341 0 -0.46336154989584488 -0.2122246235137781 0 -0.45735065046854989 -0.23051648340969341 0 -0.47142395938804471 -0.23802335247430181 0 -0.46857810181099829 -0.22486784275082261 0 -0.45735065046854989 -0.23051648340969341 0 -0.46336154989584488 -0.2122246235137781 0 -0.45338394269579491 -0.2190794284651259 0 -0.45735065046854989 -0.23051648340969341 0 -0.45338394269579491 -0.2190794284651259 0 -0.45735065046854989 -0.23051648340969341 0 -0.43806130733353449 -0.23541812032183559 0 -0.44166379455333399 -0.21604972156869759 0 -0.43806130733353449 -0.23541812032183559 0 -0.44166379455333399 -0.21604972156869759 0 -0.45338394269579491 -0.2190794284651259 0 -0.43806130733353449 -0.23541812032183559 0 -0.45735065046854989 -0.23051648340969341 0 -0.45034617445999431 -0.24335722649563979 0 -0.43806130733353449 -0.23541812032183559 0 -0.43445882011373449 -0.25478651907497341 0 -0.45034617445999431 -0.24335722649563979 0 -0.43806130733353449 -0.23541812032183559 0 -0.41324955929443102 -0.038374170610562031 0 -0.41005136228565903 -0.05540387285823338 0 -0.42435348212729052 -0.04457483879584373 0 -0.41324955929443102 -0.038374170610562031 0 -0.41005136228565903 -0.05540387285823338 0 -0.39900851660089293 -0.046429079601448257 0 -0.41324955929443102 -0.038374170610562031 0 -0.40747857107326091 -0.02424585309778798 0 -0.40045416304880688 -0.034240371911693122 0 -0.41005136228565903 -0.05540387285823338 0 -0.4246600563061857 -0.059067830999859447 0 -0.41422906440869389 -0.068128229862373102 0 -0.41005136228565903 -0.05540387285823338 0 -0.4246600563061857 -0.059067830999859447 0 -0.42435348212729052 -0.04457483879584373 0 -0.4246600563061857 -0.059067830999859447 0 -0.42435348212729052 -0.04457483879584373 0 -0.43957367317472601 -0.045089571971719818 0 -0.4246600563061857 -0.059067830999859447 0 -0.43957367317472601 -0.045089571971719818 0 -0.44544580640037118 -0.056213229689383748 0 -0.41324955929443102 -0.038374170610562031 0 -0.42435348212729052 -0.04457483879584373 0 -0.42981912379901888 -0.030443092666165631 0 -0.42435348212729052 -0.04457483879584373 0 -0.42981912379901888 -0.030443092666165631 0 -0.43957367317472601 -0.045089571971719818 0 -0.41302196833726168 -0.01226972299954816 0 -0.4392085005598273 -0.024676348383282701 0 -0.42659341977192161 -0.010103830507352861 0 -0.41302196833726168 -0.01226972299954816 0 -0.4392085005598273 -0.024676348383282701 0 -0.42981912379901888 -0.030443092666165631 0 -0.41673372021425997 -0.022240754673565791 0 -0.4392085005598273 -0.024676348383282701 0 -0.41302196833726168 -0.01226972299954816 0 -0.41673372021425997 -0.022240754673565791 0 -0.4392085005598273 -0.024676348383282701 0 -0.43741768347029059 -0.01288367903972009 0 -0.42659341977192161 -0.010103830507352861 0 -0.4392085005598273 -0.024676348383282701 0 -0.4441818909265971 -0.00998157505946092 0 -0.42578104856505677 0.0031949168855625672 0 -0.43741768347029059 -0.01288367903972009 0 -0.4441818909265971 -0.00998157505946092 0 -0.42578104856505677 0.0031949168855625672 0 -0.43741768347029059 -0.01288367903972009 0 -0.42659341977192161 -0.010103830507352861 0 -0.42578104856505677 0.0031949168855625672 0 -0.43741768347029059 -0.01288367903972009 0 -0.42578104856505677 0.0031949168855625672 0 -0.42659341977192161 -0.010103830507352861 0 -0.41753789792717189 -0.0038843189997757009 0 -0.42578104856505677 0.0031949168855625672 0 -0.42659341977192161 -0.010103830507352861 0 -0.41753789792717189 -0.0038843189997757009 0 -0.41302196833726168 -0.01226972299954816 0 -0.41753789792717189 -0.0038843189997757009 0 -0.41302196833726168 -0.01226972299954816 0 -0.40771050441737638 -0.0035262849216432719 0 -0.41753789792717189 -0.0038843189997757009 0 -0.40771050441737638 -0.0035262849216432719 0 -0.41105156913745711 0.0034129409419674369 0 -0.42981912379901888 -0.030443092666165631 0 -0.40747857107326091 -0.02424585309778798 0 -0.41324955929443102 -0.038374170610562031 0 -0.42981912379901888 -0.030443092666165631 0 -0.40747857107326091 -0.02424585309778798 0 -0.42981912379901888 -0.030443092666165631 0 -0.41673372021425997 -0.022240754673565791 0 -0.40747857107326091 -0.02424585309778798 0 -0.41302196833726168 -0.01226972299954816 0 -0.41673372021425997 -0.022240754673565791 0 -0.40747857107326091 -0.02424585309778798 0 -0.41673372021425997 -0.022240754673565791 0 -0.40747857107326091 -0.02424585309778798 0 -0.40747857107326091 -0.02424585309778798 0 -0.38992317137517202 -0.02804917422583518 0 -0.40747857107326091 -0.02424585309778798 0 -0.38992317137517202 -0.02804917422583518 0 -0.38297625517291389 -0.017448943304264108 0 -0.40747857107326091 -0.02424585309778798 0 -0.38992317137517202 -0.02804917422583518 0 -0.40045416304880688 -0.034240371911693122 0 -0.40747857107326091 -0.02424585309778798 0 -0.39567459441968961 -0.012635194689989219 0 -0.38297625517291389 -0.017448943304264108 0 -0.40747857107326091 -0.02424585309778798 0 -0.38297625517291389 -0.017448943304264108 0 -0.41302196833726168 -0.01226972299954816 0 -0.40747857107326091 -0.02424585309778798 0 -0.39567459441968961 -0.012635194689989219 0 -0.41302196833726168 -0.01226972299954816 0 -0.40771050441737638 -0.0035262849216432719 0 -0.38683543611469601 0.0001369023841863784 0 -0.41302196833726168 -0.01226972299954816 0 -0.39567459441968961 -0.012635194689989219 0 -0.38683543611469601 0.0001369023841863784 0 -0.41302196833726168 -0.01226972299954816 0 -0.38683543611469601 0.0001369023841863784 0 -0.40771050441737638 -0.0035262849216432719 0 -0.38683543611469601 0.0001369023841863784 0 -0.40226596945639398 0.0014711925349297271 0 -0.39567459441968961 -0.012635194689989219 0 -0.38502252263107412 -0.0084426060797158468 0 -0.38683543611469601 0.0001369023841863784 0 -0.39567459441968961 -0.012635194689989219 0 -0.38502252263107412 -0.0084426060797158468 0 -0.38297625517291389 -0.017448943304264108 0 -0.38502252263107412 -0.0084426060797158468 0 -0.38009964520605882 -0.0090403485437739461 0 -0.38297625517291389 -0.017448943304264108 0 -0.37278444596104371 -0.0079457960458173115 0 -0.38009964520605882 -0.0090403485437739461 0 -0.38297625517291389 -0.017448943304264108 0 -0.37474494217865062 -0.0022388935110706832 0 -0.38502252263107412 -0.0084426060797158468 0 -0.38683543611469601 0.0001369023841863784 0 -0.37474494217865062 -0.0022388935110706832 0 -0.38502252263107412 -0.0084426060797158468 0 -0.38009964520605882 -0.0090403485437739461 0 -0.37474494217865062 -0.0022388935110706832 0 -0.37278444596104371 -0.0079457960458173115 0 -0.38009964520605882 -0.0090403485437739461 0 -0.37236777167708351 -0.031852495353884333 0 -0.38992317137517202 -0.02804917422583518 0 -0.37990921189048049 -0.023302515363219579 0 -0.37236777167708351 -0.031852495353884333 0 -0.38992317137517202 -0.02804917422583518 0 -0.38992317137517202 -0.02804917422583518 0 -0.38297625517291389 -0.017448943304264108 0 -0.37990921189048049 -0.023302515363219579 0 -0.3739022591900184 -0.02415390189740213 0 -0.38297625517291389 -0.017448943304264108 0 -0.37990921189048049 -0.023302515363219579 0 -0.37236777167708351 -0.031852495353884333 0 -0.3739022591900184 -0.02415390189740213 0 -0.37990921189048049 -0.023302515363219579 0 -0.37236777167708351 -0.031852495353884333 0 -0.37990921189048049 -0.023302515363219579 0 -0.38458287424021398 -0.039388642062709187 0 -0.39900851660089293 -0.046429079601448257 0 -0.3815482533063424 -0.052412606119804542 0 -0.37355784227175309 -0.045246792894939887 0 -0.37236777167708351 -0.031852495353884333 0 -0.38458287424021398 -0.039388642062709187 0 -0.37236777167708351 -0.031852495353884333 0 -0.38992317137517202 -0.02804917422583518 0 -0.38458287424021398 -0.039388642062709187 0 -0.37355784227175309 -0.045246792894939887 0 -0.38458287424021398 -0.039388642062709187 0 -0.3815482533063424 -0.052412606119804542 0 -0.38458287424021398 -0.039388642062709187 0 -0.39900851660089293 -0.046429079601448257 0 -0.40045416304880688 -0.034240371911693122 0 -0.38992317137517202 -0.02804917422583518 0 -0.38458287424021398 -0.039388642062709187 0 -0.40045416304880688 -0.034240371911693122 0 -0.41324955929443102 -0.038374170610562031 0 -0.39900851660089293 -0.046429079601448257 0 -0.40045416304880688 -0.034240371911693122 0 -0.39900851660089293 -0.046429079601448257 0 -0.39626447370361728 -0.06091275685647668 0 -0.3815482533063424 -0.052412606119804542 0 -0.41005136228565903 -0.05540387285823338 0 -0.39626447370361728 -0.06091275685647668 0 -0.40517181862379281 -0.066558370858305557 0 -0.41005136228565903 -0.05540387285823338 0 -0.39900851660089293 -0.046429079601448257 0 -0.39626447370361728 -0.06091275685647668 0 -0.36862349457690058 -0.057461967220355487 0 -0.3815482533063424 -0.052412606119804542 0 -0.37947166312044489 -0.067272628224985004 0 -0.3815482533063424 -0.052412606119804542 0 -0.37947166312044489 -0.067272628224985004 0 -0.39260231949431601 -0.074533368335879327 0 -0.36882665317829499 -0.078032107790563188 0 -0.39260231949431601 -0.074533368335879327 0 -0.39626447370361728 -0.06091275685647668 0 -0.3815482533063424 -0.052412606119804542 0 -0.39260231949431601 -0.074533368335879327 0 -0.3815482533063424 -0.052412606119804542 0 -0.39260231949431601 -0.074533368335879327 0 -0.36882665317829499 -0.078032107790563188 0 -0.37947166312044489 -0.067272628224985004 0 -0.39260231949431601 -0.074533368335879327 0 -0.36882665317829499 -0.078032107790563188 0 -0.39260231949431601 -0.074533368335879327 0 -0.39002829617667018 -0.099006697234722524 0 -0.36882665317829499 -0.078032107790563188 0 -0.39002829617667018 -0.099006697234722524 0 -0.37367929427193591 -0.1014825750548952 0 -0.36882665317829499 -0.078032107790563188 0 -0.39002829617667018 -0.099006697234722524 0 -0.39260231949431601 -0.074533368335879327 0 -0.39002829617667018 -0.099006697234722524 0 -0.39510370691593599 -0.098958215311000047 0 -0.39260231949431601 -0.074533368335879327 0 -0.40274583300482147 -0.094831984843681591 0 -0.39260231949431601 -0.074533368335879327 0 -0.39510370691593599 -0.098958215311000047 0 -0.40274583300482147 -0.094831984843681591 0 -0.40361170428446441 -0.083317353290434007 0 -0.39260231949431601 -0.074533368335879327 0 -0.40274583300482147 -0.094831984843681591 0 -0.40361170428446441 -0.083317353290434007 0 -0.39867569396630093 -0.073639632925658519 0 -0.40696916935602839 -0.074517235882718885 0 -0.39867569396630093 -0.073639632925658519 0 -0.40517181862379281 -0.066558370858305557 0 -0.40696916935602839 -0.074517235882718885 0 -0.39626447370361728 -0.06091275685647668 0 -0.39867569396630093 -0.073639632925658519 0 -0.40517181862379281 -0.066558370858305557 0 -0.39626447370361728 -0.06091275685647668 0 -0.39867569396630093 -0.073639632925658519 0 -0.39260231949431601 -0.074533368335879327 0 -0.40361170428446441 -0.083317353290434007 0 -0.39867569396630093 -0.073639632925658519 0 -0.39260231949431601 -0.074533368335879327 0 -0.39867569396630093 -0.073639632925658519 0 -0.39260231949431601 -0.074533368335879327 0 -0.37212838853434238 -0.11808059788504249 0 -0.38278168804071749 -0.12940228238898679 0 -0.39044023874876249 -0.11757149150947201 0 -0.37367929427193591 -0.1014825750548952 0 -0.37212838853434238 -0.11808059788504249 0 -0.39044023874876249 -0.11757149150947201 0 -0.37367929427193591 -0.1014825750548952 0 -0.39044023874876249 -0.11757149150947201 0 -0.39002829617667018 -0.099006697234722524 0 -0.39510370691593599 -0.098958215311000047 0 -0.40274583300482147 -0.094831984843681591 0 -0.41288934651532883 -0.11513060135148299 0 -0.39002829617667018 -0.099006697234722524 0 -0.39510370691593599 -0.098958215311000047 0 -0.41122993917504558 -0.1199812866788818 0 -0.39510370691593599 -0.098958215311000047 0 -0.41288934651532883 -0.11513060135148299 0 -0.39647179587780151 -0.13189450107720049 0 -0.39044023874876249 -0.11757149150947201 0 -0.41122993917504558 -0.1199812866788818 0 -0.39002829617667018 -0.099006697234722524 0 -0.41122993917504558 -0.1199812866788818 0 -0.39044023874876249 -0.11757149150947201 0 -0.39002829617667018 -0.099006697234722524 0 -0.41122993917504558 -0.1199812866788818 0 -0.39510370691593599 -0.098958215311000047 0 -0.41122993917504558 -0.1199812866788818 0 -0.41288934651532883 -0.11513060135148299 0 -0.41930562378398423 -0.12797048681614909 0 -0.41122993917504558 -0.1199812866788818 0 -0.4149348530849476 -0.1169905694289516 0 -0.41930562378398423 -0.12797048681614909 0 -0.41122993917504558 -0.1199812866788818 0 -0.41930562378398423 -0.12797048681614909 0 -0.4149348530849476 -0.1169905694289516 0 -0.41122993917504558 -0.1199812866788818 0 -0.41288934651532883 -0.11513060135148299 0 -0.4149348530849476 -0.1169905694289516 0 -0.41122993917504558 -0.1199812866788818 0 -0.4149348530849476 -0.1169905694289516 0 -0.41288934651532883 -0.11513060135148299 0 -0.4149348530849476 -0.1169905694289516 0 -0.41288934651532883 -0.11513060135148299 0 -0.4149348530849476 -0.1169905694289516 0 -0.41458672172207622 -0.10427776634057311 0 -0.40274583300482147 -0.094831984843681591 0 -0.41288934651532883 -0.11513060135148299 0 -0.4149348530849476 -0.1169905694289516 0 -0.41458672172207622 -0.10427776634057311 0 -0.43059848591229039 -0.1043464168163742 0 -0.40274583300482147 -0.094831984843681591 0 -0.41288934651532883 -0.11513060135148299 0 -0.41458672172207622 -0.10427776634057311 0 -0.41458672172207622 -0.10427776634057311 0 -0.41348552386521947 -0.090840815536544176 0 -0.43025813067654672 -0.08737754853092726 0 -0.40274583300482147 -0.094831984843681591 0 -0.41458672172207622 -0.10427776634057311 0 -0.41348552386521947 -0.090840815536544176 0 -0.43059848591229039 -0.1043464168163742 0 -0.43025813067654672 -0.08737754853092726 0 -0.44626211873963212 -0.091702264203795431 0 -0.41458672172207622 -0.10427776634057311 0 -0.43059848591229039 -0.1043464168163742 0 -0.43025813067654672 -0.08737754853092726 0 -0.41458672172207622 -0.10427776634057311 0 -0.43025813067654672 -0.08737754853092726 0 -0.4149348530849476 -0.1169905694289516 0 -0.43059848591229039 -0.1043464168163742 0 -0.43160182387889101 -0.1187955019330571 0 -0.4149348530849476 -0.1169905694289516 0 -0.43059848591229039 -0.1043464168163742 0 -0.43389101300267191 -0.13422730327376839 0 -0.4149348530849476 -0.1169905694289516 0 -0.43160182387889101 -0.1187955019330571 0 -0.43059848591229039 -0.1043464168163742 0 -0.43160182387889101 -0.1187955019330571 0 -0.44003429013576911 -0.11331979272890801 0 -0.43160182387889101 -0.1187955019330571 0 -0.44085253015216358 -0.1237950587173612 0 -0.44003429013576911 -0.11331979272890801 0 -0.41422906440869389 -0.068128229862373102 0 -0.41539885585273961 -0.080089681603359497 0 -0.42594434486026628 -0.073522222089585226 0 -0.4246600563061857 -0.059067830999859447 0 -0.41422906440869389 -0.068128229862373102 0 -0.42594434486026628 -0.073522222089585226 0 -0.41005136228565903 -0.05540387285823338 0 -0.40517181862379281 -0.066558370858305557 0 -0.41422906440869389 -0.068128229862373102 0 -0.40517181862379281 -0.066558370858305557 0 -0.41422906440869389 -0.068128229862373102 0 -0.40696916935602839 -0.074517235882718885 0 -0.41422906440869389 -0.068128229862373102 0 -0.40696916935602839 -0.074517235882718885 0 -0.41539885585273961 -0.080089681603359497 0 -0.41348552386521947 -0.090840815536544176 0 -0.41539885585273961 -0.080089681603359497 0 -0.43025813067654672 -0.08737754853092726 0 -0.40361170428446441 -0.083317353290434007 0 -0.41348552386521947 -0.090840815536544176 0 -0.41539885585273961 -0.080089681603359497 0 -0.40361170428446441 -0.083317353290434007 0 -0.40696916935602839 -0.074517235882718885 0 -0.41539885585273961 -0.080089681603359497 0 -0.40361170428446441 -0.083317353290434007 0 -0.40274583300482147 -0.094831984843681591 0 -0.41348552386521947 -0.090840815536544176 0 -0.41539885585273961 -0.080089681603359497 0 -0.43025813067654672 -0.08737754853092726 0 -0.42594434486026628 -0.073522222089585226 0 -0.4246600563061857 -0.059067830999859447 0 -0.44592953963101739 -0.07047733072128165 0 -0.43025813067654672 -0.08737754853092726 0 -0.42594434486026628 -0.073522222089585226 0 -0.44592953963101739 -0.07047733072128165 0 -0.4246600563061857 -0.059067830999859447 0 -0.42594434486026628 -0.073522222089585226 0 -0.44592953963101739 -0.07047733072128165 0 -0.44592953963101739 -0.07047733072128165 0 -0.45893666683642192 -0.056450303318209168 0 -0.44592953963101739 -0.07047733072128165 0 -0.44626211873963212 -0.091702264203795431 0 -0.46192575156697407 -0.079058111591217034 0 -0.43025813067654672 -0.08737754853092726 0 -0.44592953963101739 -0.07047733072128165 0 -0.43025813067654672 -0.08737754853092726 0 -0.44592953963101739 -0.07047733072128165 0 -0.44626211873963212 -0.091702264203795431 0 -0.44626211873963212 -0.091702264203795431 0 -0.46631049206888459 -0.091444160656324658 0 -0.46192575156697407 -0.079058111591217034 0 -0.44626211873963212 -0.091702264203795431 0 -0.46192575156697407 -0.079058111591217034 0 -0.46631049206888459 -0.091444160656324658 0 -0.46192575156697407 -0.079058111591217034 0 -0.47702460168979111 -0.087157524427869615 0 -0.44592953963101739 -0.07047733072128165 0 -0.46192575156697407 -0.079058111591217034 0 -0.45893666683642192 -0.056450303318209168 0 -0.46192575156697407 -0.079058111591217034 0 -0.47491389520024407 -0.068573693827893439 0 -0.45893666683642192 -0.056450303318209168 0 -0.46192575156697407 -0.079058111591217034 0 -0.47491389520024407 -0.068573693827893439 0 -0.44592953963101739 -0.07047733072128165 0 -0.46192575156697407 -0.079058111591217034 0 -0.45000974795797011 -0.119430952696417 0 -0.44085253015216358 -0.1237950587173612 0 -0.44003429013576911 -0.11331979272890801 0 -0.45000974795797011 -0.119430952696417 0 -0.44003429013576911 -0.11331979272890801 0 -0.44926481423485548 -0.10476542824413421 0 -0.43059848591229039 -0.1043464168163742 0 -0.44626211873963212 -0.091702264203795431 0 -0.43059848591229039 -0.1043464168163742 0 -0.44626211873963212 -0.091702264203795431 0 -0.44926481423485548 -0.10476542824413421 0 -0.43059848591229039 -0.1043464168163742 0 -0.44003429013576911 -0.11331979272890801 0 -0.44926481423485548 -0.10476542824413421 0 -0.44626211873963212 -0.091702264203795431 0 -0.44926481423485548 -0.10476542824413421 0 -0.46153012095291662 -0.1019472767233552 0 -0.44626211873963212 -0.091702264203795431 0 -0.46631049206888459 -0.091444160656324658 0 -0.46153012095291662 -0.1019472767233552 0 -0.46631049206888459 -0.091444160656324658 0 -0.46153012095291662 -0.1019472767233552 0 -0.4710589232177344 -0.098453604121520433 0 -0.46153012095291662 -0.1019472767233552 0 -0.46221413283232399 -0.11366089481890911 0 -0.47430793409480421 -0.10627177682285049 0 -0.44926481423485548 -0.10476542824413421 0 -0.46153012095291662 -0.1019472767233552 0 -0.46221413283232399 -0.11366089481890911 0 -0.45896755277767909 -0.12575633132281341 0 -0.46221413283232399 -0.11366089481890911 0 -0.47750202174635031 -0.1215216316744509 0 -0.45000974795797011 -0.119430952696417 0 -0.44926481423485548 -0.10476542824413421 0 -0.46221413283232399 -0.11366089481890911 0 -0.45896755277767909 -0.12575633132281341 0 -0.45000974795797011 -0.119430952696417 0 -0.46221413283232399 -0.11366089481890911 0 -0.47750202174635031 -0.1215216316744509 0 -0.47430793409480421 -0.10627177682285049 0 -0.48673501487359588 -0.1010237797652184 0 -0.46221413283232399 -0.11366089481890911 0 -0.47750202174635031 -0.1215216316744509 0 -0.47430793409480421 -0.10627177682285049 0 -0.47430793409480421 -0.10627177682285049 0 -0.47745372589702628 -0.099742000537211661 0 -0.48673501487359588 -0.1010237797652184 0 -0.46153012095291662 -0.1019472767233552 0 -0.47430793409480421 -0.10627177682285049 0 -0.4710589232177344 -0.098453604121520433 0 -0.46631049206888459 -0.091444160656324658 0 -0.4710589232177344 -0.098453604121520433 0 -0.47771303140197108 -0.093218841439257433 0 -0.47430793409480421 -0.10627177682285049 0 -0.4710589232177344 -0.098453604121520433 0 -0.47745372589702628 -0.099742000537211661 0 -0.4710589232177344 -0.098453604121520433 0 -0.47745372589702628 -0.099742000537211661 0 -0.47771303140197108 -0.093218841439257433 0 -0.47745372589702628 -0.099742000537211661 0 -0.48673501487359588 -0.1010237797652184 0 -0.47771303140197108 -0.093218841439257433 0 -0.48673501487359588 -0.1010237797652184 0 -0.47771303140197108 -0.093218841439257433 0 -0.47702460168979111 -0.087157524427869615 0 -0.47750202174635031 -0.1215216316744509 0 -0.48673501487359588 -0.1010237797652184 0 -0.4986179579264654 -0.1020768288792674 0 -0.48673501487359588 -0.1010237797652184 0 -0.49842317329231273 -0.098636270432611556 0 -0.47702460168979111 -0.087157524427869615 0 -0.48673501487359588 -0.1010237797652184 0 -0.49842317329231273 -0.098636270432611556 0 -0.4986179579264654 -0.1020768288792674 0 -0.49999999999999939 -0.099482120969144883 0 -0.49842317329231273 -0.098636270432611556 0 -0.4986179579264654 -0.1020768288792674 0 -0.49842317329231273 -0.098636270432611556 0 -0.4986179579264654 -0.1020768288792674 0 -0.49999999999999939 -0.099482120969144883 0 -0.49842317329231273 -0.098636270432611556 0 -0.50000000000000011 -0.12648838757554831 0 -0.47750202174635031 -0.1215216316744509 0 -0.4986179579264654 -0.1020768288792674 0 -0.47750202174635031 -0.1215216316744509 0 -0.4986179579264654 -0.1020768288792674 0 -0.47491389520024407 -0.068573693827893439 0 -0.47702460168979111 -0.087157524427869615 0 -0.4847984782487687 -0.075944598732494498 0 -0.47491389520024407 -0.068573693827893439 0 -0.47702460168979111 -0.087157524427869615 0 -0.47967839073812912 -0.064727650616396362 0 -0.4847984782487687 -0.075944598732494498 0 -0.48794163871831331 -0.064119883023254248 0 -0.47967839073812912 -0.064727650616396362 0 -0.47491389520024407 -0.068573693827893439 0 -0.4847984782487687 -0.075944598732494498 0 -0.47967839073812912 -0.064727650616396362 0 -0.47491389520024407 -0.068573693827893439 0 -0.46192575156697407 -0.079058111591217034 0 -0.47702460168979111 -0.087157524427869615 0 -0.46192575156697407 -0.079058111591217034 0 -0.47491389520024407 -0.068573693827893439 0 -0.47702460168979111 -0.087157524427869615 0 -0.46631049206888459 -0.091444160656324658 0 -0.47771303140197108 -0.093218841439257433 0 -0.47702460168979111 -0.087157524427869615 0 -0.47771303140197108 -0.093218841439257433 0 -0.47702460168979111 -0.087157524427869615 0 -0.49842317329231273 -0.098636270432611556 0 -0.49712708577170861 -0.075742961183477536 0 -0.4847984782487687 -0.075944598732494498 0 -0.49999999999999939 -0.099482120969144883 0 -0.49842317329231273 -0.098636270432611556 0 -0.5 -0.078030389970551228 0 -0.49842317329231273 -0.098636270432611556 0 -0.49712708577170861 -0.075742961183477536 0 -0.49842317329231273 -0.098636270432611556 0 -0.5 -0.078030389970551228 0 -0.49712708577170861 -0.075742961183477536 0 -0.49842317329231273 -0.098636270432611556 0 -0.47702460168979111 -0.087157524427869615 0 -0.4847984782487687 -0.075944598732494498 0 -0.49842317329231273 -0.098636270432611556 0 -0.47702460168979111 -0.087157524427869615 0 -0.5 -0.078030389970551228 0 -0.49712708577170861 -0.075742961183477536 0 -0.49999999999999928 -0.056578658971957581 0 -0.49712708577170861 -0.075742961183477536 0 -0.49583099825110311 -0.052849651934343489 0 -0.49712708577170861 -0.075742961183477536 0 -0.48794163871831331 -0.064119883023254248 0 -0.49583099825110311 -0.052849651934343489 0 -0.49712708577170861 -0.075742961183477536 0 -0.4847984782487687 -0.075944598732494498 0 -0.48794163871831331 -0.064119883023254248 0 -0.49712708577170861 -0.075742961183477536 0 -0.49999999999999928 -0.056578658971957581 0 -0.49583099825110311 -0.052849651934343489 0 -0.49583099825110311 -0.052849651934343489 0 -0.47748890114140963 -0.036443372127734748 0 -0.48227324058185622 -0.051334552649559453 0 -0.49999999999999928 -0.056578658971957581 0 -0.49583099825110311 -0.052849651934343489 0 -0.49999999999999928 -0.056578658971957581 0 -0.50000000000000144 -0.053559852644015388 0 -0.49583099825110311 -0.052849651934343489 0 -0.48794163871831331 -0.064119883023254248 0 -0.49583099825110311 -0.052849651934343489 0 -0.48227324058185622 -0.051334552649559453 0 -0.50000000000000144 -0.053559852644015388 0 -0.49583099825110311 -0.052849651934343489 0 -0.48598145264485831 -0.02728491224803695 0 -0.49583099825110311 -0.052849651934343489 0 -0.47748890114140963 -0.036443372127734748 0 -0.48598145264485831 -0.02728491224803695 0 -0.50000000000000144 -0.053559852644015388 0 -0.48598145264485831 -0.02728491224803695 0 -0.50000000000000144 -0.053559852644015388 0 -0.48598145264485831 -0.02728491224803695 0 -0.5 -0.025161366008633609 0 -0.49583099825110311 -0.052849651934343489 0 -0.47748890114140963 -0.036443372127734748 0 -0.47748890114140963 -0.036443372127734748 0 -0.48598145264485831 -0.02728491224803695 0 -0.47748890114140963 -0.036443372127734748 0 -0.47194379404182718 -0.042423275915137587 0 -0.48227324058185622 -0.051334552649559453 0 -0.47748890114140963 -0.036443372127734748 0 -0.47194379404182718 -0.042423275915137587 0 -0.47748890114140963 -0.036443372127734748 0 -0.47194379404182718 -0.042423275915137587 0 -0.47056077858213702 -0.03024644074295027 0 -0.47194379404182718 -0.042423275915137587 0 -0.46539503278239303 -0.037082973767017267 0 -0.47056077858213702 -0.03024644074295027 0 -0.47194379404182718 -0.042423275915137587 0 -0.47056077858213702 -0.03024644074295027 0 -0.47748890114140963 -0.036443372127734748 0 -0.47056077858213702 -0.03024644074295027 0 -0.47748890114140963 -0.036443372127734748 0 -0.47056077858213702 -0.03024644074295027 0 -0.47745882259212458 -0.028728106929589409 0 -0.47967839073812912 -0.064727650616396362 0 -0.47491389520024407 -0.068573693827893439 0 -0.47194379404182718 -0.042423275915137587 0 -0.47967839073812912 -0.064727650616396362 0 -0.47194379404182718 -0.042423275915137587 0 -0.48227324058185622 -0.051334552649559453 0 -0.47491389520024407 -0.068573693827893439 0 -0.47194379404182718 -0.042423275915137587 0 -0.47967839073812912 -0.064727650616396362 0 -0.48794163871831331 -0.064119883023254248 0 -0.48227324058185622 -0.051334552649559453 0 -0.47491389520024407 -0.068573693827893439 0 -0.47194379404182718 -0.042423275915137587 0 -0.45893666683642192 -0.056450303318209168 0 -0.45893666683642192 -0.056450303318209168 0 -0.45743491846808387 -0.04563500224908737 0 -0.44544580640037118 -0.056213229689383748 0 -0.47194379404182718 -0.042423275915137587 0 -0.45893666683642192 -0.056450303318209168 0 -0.45743491846808387 -0.04563500224908737 0 -0.47194379404182718 -0.042423275915137587 0 -0.45893666683642192 -0.056450303318209168 0 -0.46539503278239303 -0.037082973767017267 0 -0.44890774518284438 -0.02927164544362729 0 -0.46539503278239303 -0.037082973767017267 0 -0.45215967652477718 -0.036640332234541717 0 -0.44890774518284438 -0.02927164544362729 0 -0.46539503278239303 -0.037082973767017267 0 -0.44890774518284438 -0.02927164544362729 0 -0.46189821575704781 -0.02986243911986371 0 -0.47194379404182718 -0.042423275915137587 0 -0.46539503278239303 -0.037082973767017267 0 -0.45743491846808387 -0.04563500224908737 0 -0.46539503278239303 -0.037082973767017267 0 -0.46189821575704781 -0.02986243911986371 0 -0.47056077858213702 -0.03024644074295027 0 -0.46539503278239303 -0.037082973767017267 0 -0.45743491846808387 -0.04563500224908737 0 -0.45215967652477718 -0.036640332234541717 0 -0.42981912379901888 -0.030443092666165631 0 -0.45215967652477718 -0.036640332234541717 0 -0.45743491846808387 -0.04563500224908737 0 -0.45215967652477718 -0.036640332234541717 0 -0.43957367317472601 -0.045089571971719818 0 -0.42981912379901888 -0.030443092666165631 0 -0.45215967652477718 -0.036640332234541717 0 -0.43957367317472601 -0.045089571971719818 0 -0.45743491846808387 -0.04563500224908737 0 -0.43957367317472601 -0.045089571971719818 0 -0.44544580640037118 -0.056213229689383748 0 -0.4246600563061857 -0.059067830999859447 0 -0.44592953963101739 -0.07047733072128165 0 -0.44544580640037118 -0.056213229689383748 0 -0.44592953963101739 -0.07047733072128165 0 -0.45893666683642192 -0.056450303318209168 0 -0.44544580640037118 -0.056213229689383748 0 -0.4441818909265971 -0.00998157505946092 0 -0.45588653083934588 0.00041698580085632909 0 -0.44737850259376799 0.0077656591989471307 0 -0.4441818909265971 -0.00998157505946092 0 -0.4570262928383732 -0.018140378997512391 0 -0.45633913854906122 -0.0094275687658610888 0 -0.4441818909265971 -0.00998157505946092 0 -0.45633913854906122 -0.0094275687658610888 0 -0.45588653083934588 0.00041698580085632909 0 -0.43741768347029059 -0.01288367903972009 0 -0.4441818909265971 -0.00998157505946092 0 -0.44890774518284438 -0.02927164544362729 0 -0.42981912379901888 -0.030443092666165631 0 -0.45215967652477718 -0.036640332234541717 0 -0.4392085005598273 -0.024676348383282701 0 -0.4441818909265971 -0.00998157505946092 0 -0.44890774518284438 -0.02927164544362729 0 -0.46258273328813732 -0.023158067004484729 0 -0.43741768347029059 -0.01288367903972009 0 -0.44890774518284438 -0.02927164544362729 0 -0.43741768347029059 -0.01288367903972009 0 -0.4392085005598273 -0.024676348383282701 0 -0.44890774518284438 -0.02927164544362729 0 -0.4392085005598273 -0.024676348383282701 0 -0.44890774518284438 -0.02927164544362729 0 -0.45215967652477718 -0.036640332234541717 0 -0.4392085005598273 -0.024676348383282701 0 -0.44890774518284438 -0.02927164544362729 0 -0.4441818909265971 -0.00998157505946092 0 -0.46258273328813732 -0.023158067004484729 0 -0.46258273328813732 -0.023158067004484729 0 -0.46826183959192841 -0.01000530680732737 0 -0.47056077858213702 -0.03024644074295027 0 -0.4441818909265971 -0.00998157505946092 0 -0.4570262928383732 -0.018140378997512391 0 -0.46258273328813732 -0.023158067004484729 0 -0.4570262928383732 -0.018140378997512391 0 -0.46258273328813732 -0.023158067004484729 0 -0.44890774518284438 -0.02927164544362729 0 -0.46189821575704781 -0.02986243911986371 0 -0.46258273328813732 -0.023158067004484729 0 -0.46258273328813732 -0.023158067004484729 0 -0.47056077858213702 -0.03024644074295027 0 -0.46189821575704781 -0.02986243911986371 0 -0.46258273328813732 -0.023158067004484729 0 -0.47056077858213702 -0.03024644074295027 0 -0.4570262928383732 -0.018140378997512391 0 -0.46258273328813732 -0.023158067004484729 0 -0.46826183959192841 -0.01000530680732737 0 -0.4570262928383732 -0.018140378997512391 0 -0.46826183959192841 -0.01000530680732737 0 -0.45633913854906122 -0.0094275687658610888 0 -0.46826183959192841 -0.01000530680732737 0 -0.45633913854906122 -0.0094275687658610888 0 -0.45588653083934588 0.00041698580085632909 0 -0.46826183959192841 -0.01000530680732737 0 -0.47597217662329228 -0.0085245425598697612 0 -0.4659629006017233 0.010235827128295859 0 -0.46826183959192841 -0.01000530680732737 0 -0.47597217662329228 -0.0085245425598697612 0 -0.47580415800009379 -0.02093770259963601 0 -0.47597217662329228 -0.0085245425598697612 0 -0.48922725890134677 -0.010453537226696331 0 -0.48082517856277007 0.001845263919603602 0 -0.47597217662329228 -0.0085245425598697612 0 -0.47580415800009379 -0.02093770259963601 0 -0.48598145264485831 -0.02728491224803695 0 -0.47597217662329228 -0.0085245425598697612 0 -0.48598145264485831 -0.02728491224803695 0 -0.46826183959192841 -0.01000530680732737 0 -0.47056077858213702 -0.03024644074295027 0 -0.47580415800009379 -0.02093770259963601 0 -0.47597217662329228 -0.0085245425598697612 0 -0.48598145264485831 -0.02728491224803695 0 -0.4893389393206713 -0.02366416211133009 0 -0.46826183959192841 -0.01000530680732737 0 -0.47056077858213702 -0.03024644074295027 0 -0.47056077858213702 -0.03024644074295027 0 -0.47580415800009379 -0.02093770259963601 0 -0.47745882259212458 -0.028728106929589409 0 -0.47580415800009379 -0.02093770259963601 0 -0.47745882259212458 -0.028728106929589409 0 -0.48598145264485831 -0.02728491224803695 0 -0.47748890114140963 -0.036443372127734748 0 -0.47745882259212458 -0.028728106929589409 0 -0.48598145264485831 -0.02728491224803695 0 -0.48598145264485831 -0.02728491224803695 0 -0.4893389393206713 -0.02366416211133009 0 -0.5 -0.025161366008633609 0 -0.48598145264485831 -0.02728491224803695 0 -0.4893389393206713 -0.02366416211133009 0 -0.4893389393206713 -0.02366416211133009 0 -0.5 -0.025161366008633609 0 -0.48922725890134677 -0.010453537226696331 0 -0.48922725890134677 -0.010453537226696331 0 -0.5 0.0032371206267481911 0 -0.48082517856277007 0.001845263919603602 0 -0.5 -0.025161366008633609 0 -0.48922725890134677 -0.010453537226696331 0 -0.5 0.0032371206267481911 0 -0.47597217662329228 -0.0085245425598697612 0 -0.4893389393206713 -0.02366416211133009 0 -0.48922725890134677 -0.010453537226696331 0 -0.5 0.0032371206267481911 0 -0.48596576445654982 0.01457961489688041 0 -0.48082517856277007 0.001845263919603602 0 -0.48596576445654982 0.01457961489688041 0 -0.47541999506787802 0.025418180444172121 0 -0.5 0.031635607262129987 0 -0.5 0.0032371206267481911 0 -0.48596576445654982 0.01457961489688041 0 -0.5 0.031635607262129987 0 -0.48596576445654982 0.01457961489688041 0 -0.47541999506787802 0.025418180444172121 0 -0.47401658579892991 0.013489912392399149 0 -0.47541999506787802 0.025418180444172121 0 -0.46963945276383978 0.01793989872667965 0 -0.47401658579892991 0.013489912392399149 0 -0.47597217662329228 -0.0085245425598697612 0 -0.48082517856277007 0.001845263919603602 0 -0.4659629006017233 0.010235827128295859 0 -0.47401658579892991 0.013489912392399149 0 -0.48082517856277007 0.001845263919603602 0 -0.4659629006017233 0.010235827128295859 0 -0.46963945276383978 0.01793989872667965 0 -0.47401658579892991 0.013489912392399149 0 -0.4659629006017233 0.010235827128295859 0 -0.47597217662329228 -0.0085245425598697612 0 -0.4659629006017233 0.010235827128295859 0 -0.48596576445654982 0.01457961489688041 0 -0.47401658579892991 0.013489912392399149 0 -0.48082517856277007 0.001845263919603602 0 -0.5 0.060034093897511798 0 -0.47816362815030861 0.043832779932641487 0 -0.48068047186290208 0.063626500276227002 0 -0.47541999506787802 0.025418180444172121 0 -0.5 0.031635607262129987 0 -0.47816362815030861 0.043832779932641487 0 -0.5 0.060034093897511798 0 -0.5 0.031635607262129987 0 -0.47816362815030861 0.043832779932641487 0 -0.47541999506787802 0.025418180444172121 0 -0.47816362815030861 0.043832779932641487 0 -0.46442391639916691 0.036471327701905212 0 -0.47816362815030861 0.043832779932641487 0 -0.46119618507356652 0.049359273152949731 0 -0.48068047186290208 0.063626500276227002 0 -0.46119618507356652 0.049359273152949731 0 -0.46103932749027238 0.064238871702306077 0 -0.48068047186290208 0.063626500276227002 0 -0.46119618507356652 0.049359273152949731 0 -0.44286953411296898 0.045255716157198693 0 -0.46103932749027238 0.064238871702306077 0 -0.47816362815030861 0.043832779932641487 0 -0.46119618507356652 0.049359273152949731 0 -0.46442391639916691 0.036471327701905212 0 -0.46119618507356652 0.049359273152949731 0 -0.46442391639916691 0.036471327701905212 0 -0.45082509298125129 0.038608595210277222 0 -0.46442391639916691 0.036471327701905212 0 -0.45082509298125129 0.038608595210277222 0 -0.4583939967914884 0.024422211169287101 0 -0.45082509298125129 0.038608595210277222 0 -0.4583939967914884 0.024422211169287101 0 -0.46119618507356652 0.049359273152949731 0 -0.45082509298125129 0.038608595210277222 0 -0.44286953411296898 0.045255716157198693 0 -0.45082509298125129 0.038608595210277222 0 -0.4405409619944019 0.035432846457562263 0 -0.4458839614772655 0.023387518650519249 0 -0.45082509298125129 0.038608595210277222 0 -0.4405409619944019 0.035432846457562263 0 -0.44286953411296898 0.045255716157198693 0 -0.4405409619944019 0.035432846457562263 0 -0.44286953411296898 0.045255716157198693 0 -0.43229092530358848 0.04451632412921195 0 -0.44286953411296898 0.045255716157198693 0 -0.44282721760043869 0.062046251170956107 0 -0.46103932749027238 0.064238871702306077 0 -0.44286953411296898 0.045255716157198693 0 -0.44282721760043869 0.062046251170956107 0 -0.43188097302969042 0.056955122555226501 0 -0.44286953411296898 0.045255716157198693 0 -0.46103932749027238 0.064238871702306077 0 -0.46826183959192841 -0.01000530680732737 0 -0.45588653083934588 0.00041698580085632909 0 -0.4659629006017233 0.010235827128295859 0 -0.46826183959192841 -0.01000530680732737 0 -0.4659629006017233 0.010235827128295859 0 -0.45609316173783881 0.014082317838893479 0 -0.45588653083934588 0.00041698580085632909 0 -0.4659629006017233 0.010235827128295859 0 -0.46963945276383978 0.01793989872667965 0 -0.4659629006017233 0.010235827128295859 0 -0.4583939967914884 0.024422211169287101 0 -0.4659629006017233 0.010235827128295859 0 -0.4583939967914884 0.024422211169287101 0 -0.47541999506787802 0.025418180444172121 0 -0.46963945276383978 0.01793989872667965 0 -0.4583939967914884 0.024422211169287101 0 -0.47541999506787802 0.025418180444172121 0 -0.46442391639916691 0.036471327701905212 0 -0.4583939967914884 0.024422211169287101 0 -0.45609316173783881 0.014082317838893479 0 -0.4659629006017233 0.010235827128295859 0 -0.4583939967914884 0.024422211169287101 0 -0.45609316173783881 0.014082317838893479 0 -0.4583939967914884 0.024422211169287101 0 -0.4458839614772655 0.023387518650519249 0 -0.45082509298125129 0.038608595210277222 0 -0.4583939967914884 0.024422211169287101 0 -0.4458839614772655 0.023387518650519249 0 -0.4405409619944019 0.035432846457562263 0 -0.4458839614772655 0.023387518650519249 0 -0.43566193494816191 0.02574822372494872 0 -0.4458839614772655 0.023387518650519249 0 -0.4359559447540089 0.01018896392150693 0 -0.43566193494816191 0.02574822372494872 0 -0.4441818909265971 -0.00998157505946092 0 -0.44737850259376799 0.0077656591989471307 0 -0.4359559447540089 0.01018896392150693 0 -0.4458839614772655 0.023387518650519249 0 -0.44737850259376799 0.0077656591989471307 0 -0.4359559447540089 0.01018896392150693 0 -0.45609316173783881 0.014082317838893479 0 -0.4458839614772655 0.023387518650519249 0 -0.44737850259376799 0.0077656591989471307 0 -0.45609316173783881 0.014082317838893479 0 -0.45588653083934588 0.00041698580085632909 0 -0.44737850259376799 0.0077656591989471307 0 -0.4441818909265971 -0.00998157505946092 0 -0.4359559447540089 0.01018896392150693 0 -0.42578104856505677 0.0031949168855625672 0 -0.42578104856505677 0.0031949168855625672 0 -0.41622595309658328 0.016397403714119251 0 -0.42870406893849561 0.019163111370922251 0 -0.4359559447540089 0.01018896392150693 0 -0.42578104856505677 0.0031949168855625672 0 -0.42870406893849561 0.019163111370922251 0 -0.41753789792717189 -0.0038843189997757009 0 -0.42578104856505677 0.0031949168855625672 0 -0.41105156913745711 0.0034129409419674369 0 -0.42578104856505677 0.0031949168855625672 0 -0.40852807671777941 0.0155494406680463 0 -0.41622595309658328 0.016397403714119251 0 -0.42578104856505677 0.0031949168855625672 0 -0.40852807671777941 0.0155494406680463 0 -0.41105156913745711 0.0034129409419674369 0 -0.42578104856505677 0.0031949168855625672 0 -0.40852807671777941 0.0155494406680463 0 -0.42578104856505677 0.0031949168855625672 0 -0.41622595309658328 0.016397403714119251 0 -0.40852807671777941 0.0155494406680463 0 -0.41105156913745711 0.0034129409419674369 0 -0.40262572535869262 0.0089097845909437267 0 -0.40771050441737638 -0.0035262849216432719 0 -0.41105156913745711 0.0034129409419674369 0 -0.40226596945639398 0.0014711925349297271 0 -0.40667085762811028 0.029599890542676258 0 -0.41622595309658328 0.016397403714119251 0 -0.42870406893849561 0.019163111370922251 0 -0.40667085762811028 0.029599890542676258 0 -0.42870406893849561 0.019163111370922251 0 -0.40667085762811028 0.029599890542676258 0 -0.41990433555607742 0.03061685230769556 0 -0.42870406893849561 0.019163111370922251 0 -0.40852807671777941 0.0155494406680463 0 -0.40667085762811028 0.029599890542676258 0 -0.41622595309658328 0.016397403714119251 0 -0.40667085762811028 0.029599890542676258 0 -0.41622595309658328 0.016397403714119251 0 -0.41990433555607742 0.03061685230769556 0 -0.4284463216954002 0.029357354603554459 0 -0.42870406893849561 0.019163111370922251 0 -0.4359559447540089 0.01018896392150693 0 -0.42870406893849561 0.019163111370922251 0 -0.43566193494816191 0.02574822372494872 0 -0.4284463216954002 0.029357354603554459 0 -0.42870406893849561 0.019163111370922251 0 -0.43566193494816191 0.02574822372494872 0 -0.4284463216954002 0.029357354603554459 0 -0.43566193494816191 0.02574822372494872 0 -0.43264023121812112 0.033917661463996759 0 -0.4405409619944019 0.035432846457562263 0 -0.43264023121812112 0.033917661463996759 0 -0.43229092530358848 0.04451632412921195 0 -0.43264023121812112 0.033917661463996759 0 -0.43229092530358848 0.04451632412921195 0 -0.42532103781614489 0.037340924150209003 0 -0.4405409619944019 0.035432846457562263 0 -0.43566193494816191 0.02574822372494872 0 -0.43264023121812112 0.033917661463996759 0 -0.43229092530358848 0.04451632412921195 0 -0.42532103781614489 0.037340924150209003 0 -0.42042490988599091 0.046091327469671317 0 -0.4284463216954002 0.029357354603554459 0 -0.43264023121812112 0.033917661463996759 0 -0.42532103781614489 0.037340924150209003 0 -0.41990433555607742 0.03061685230769556 0 -0.4284463216954002 0.029357354603554459 0 -0.42532103781614489 0.037340924150209003 0 -0.43229092530358848 0.04451632412921195 0 -0.43188097302969042 0.056955122555226501 0 -0.42585725303016408 0.051510102087770737 0 -0.44286953411296898 0.045255716157198693 0 -0.43229092530358848 0.04451632412921195 0 -0.43188097302969042 0.056955122555226501 0 -0.43229092530358848 0.04451632412921195 0 -0.42585725303016408 0.051510102087770737 0 -0.42042490988599091 0.046091327469671317 0 -0.43188097302969042 0.056955122555226501 0 -0.41883220390138681 0.058477634196973202 0 -0.43131469147834472 0.070632617455275076 0 -0.43188097302969042 0.056955122555226501 0 -0.42585725303016408 0.051510102087770737 0 -0.41883220390138681 0.058477634196973202 0 -0.41883220390138681 0.058477634196973202 0 -0.40840220717331749 0.048304634434869917 0 -0.39985653820026013 0.060860810446949978 0 -0.42585725303016408 0.051510102087770737 0 -0.41883220390138681 0.058477634196973202 0 -0.42042490988599091 0.046091327469671317 0 -0.41883220390138681 0.058477634196973202 0 -0.40840220717331749 0.048304634434869917 0 -0.42042490988599091 0.046091327469671317 0 -0.41990433555607742 0.03061685230769556 0 -0.42532103781614489 0.037340924150209003 0 -0.4122967326089878 0.037821593301397609 0 -0.42532103781614489 0.037340924150209003 0 -0.42042490988599091 0.046091327469671317 0 -0.4122967326089878 0.037821593301397609 0 -0.40840220717331749 0.048304634434869917 0 -0.4122967326089878 0.037821593301397609 0 -0.40579981868685489 0.041495006097714962 0 -0.40840220717331749 0.048304634434869917 0 -0.42042490988599091 0.046091327469671317 0 -0.4122967326089878 0.037821593301397609 0 -0.4122967326089878 0.037821593301397609 0 -0.40278544391907911 0.034968452634622761 0 -0.40579981868685489 0.041495006097714962 0 -0.40667085762811028 0.029599890542676258 0 -0.4122967326089878 0.037821593301397609 0 -0.40278544391907911 0.034968452634622761 0 -0.40667085762811028 0.029599890542676258 0 -0.41990433555607742 0.03061685230769556 0 -0.4122967326089878 0.037821593301397609 0 -0.40667085762811028 0.029599890542676258 0 -0.40278544391907911 0.034968452634622761 0 -0.40667085762811028 0.029599890542676258 0 -0.38856614517843069 0.038175802748282091 0 -0.40667085762811028 0.029599890542676258 0 -0.38856614517843069 0.038175802748282091 0 -0.39127510487050182 0.027903964450529759 0 -0.40667085762811028 0.029599890542676258 0 -0.40278544391907911 0.034968452634622761 0 -0.38856614517843069 0.038175802748282091 0 -0.40278544391907911 0.034968452634622761 0 -0.40579981868685489 0.041495006097714962 0 -0.3977250587697031 0.045015474274426849 0 -0.40840220717331749 0.048304634434869917 0 -0.40579981868685489 0.041495006097714962 0 -0.3977250587697031 0.045015474274426849 0 -0.40278544391907911 0.034968452634622761 0 -0.3977250587697031 0.045015474274426849 0 -0.38856614517843069 0.038175802748282091 0 -0.40840220717331749 0.048304634434869917 0 -0.3977250587697031 0.045015474274426849 0 -0.39985653820026013 0.060860810446949978 0 -0.3977250587697031 0.045015474274426849 0 -0.39985653820026013 0.060860810446949978 0 -0.38472691017257071 0.052921849058569698 0 -0.39985653820026013 0.060860810446949978 0 -0.38472691017257071 0.052921849058569698 0 -0.38510762700538009 0.066428587654483159 0 -0.38472691017257071 0.052921849058569698 0 -0.37046143272875132 0.04675171495388801 0 -0.37000681959492809 0.05831264468359916 0 -0.38472691017257071 0.052921849058569698 0 -0.38510762700538009 0.066428587654483159 0 -0.37000681959492809 0.05831264468359916 0 -0.38856614517843069 0.038175802748282091 0 -0.37871402691879819 0.03757115751491092 0 -0.37046143272875132 0.04675171495388801 0 -0.38856614517843069 0.038175802748282091 0 -0.37046143272875132 0.04675171495388801 0 -0.38472691017257071 0.052921849058569698 0 -0.38856614517843069 0.038175802748282091 0 -0.37046143272875132 0.04675171495388801 0 -0.38856614517843069 0.038175802748282091 0 -0.38315308642314733 0.033917821982192238 0 -0.39127510487050182 0.027903964450529759 0 -0.38856614517843069 0.038175802748282091 0 -0.38315308642314733 0.033917821982192238 0 -0.37871402691879819 0.03757115751491092 0 -0.3977250587697031 0.045015474274426849 0 -0.38472691017257071 0.052921849058569698 0 -0.38856614517843069 0.038175802748282091 0 -0.37871402691879819 0.03757115751491092 0 -0.3764786745208083 0.032098692741998169 0 -0.37046143272875132 0.04675171495388801 0 -0.38315308642314733 0.033917821982192238 0 -0.3764786745208083 0.032098692741998169 0 -0.38155727091044611 0.028316364585127811 0 -0.38315308642314733 0.033917821982192238 0 -0.37871402691879819 0.03757115751491092 0 -0.3764786745208083 0.032098692741998169 0 -0.3764786745208083 0.032098692741998169 0 -0.38155727091044611 0.028316364585127811 0 -0.37960108001976323 0.022263106047543741 0 -0.37960108001976323 0.022263106047543741 0 -0.37998819155715241 0.0057865511937031933 0 -0.37123175334181557 0.027162262264614271 0 -0.3764786745208083 0.032098692741998169 0 -0.37960108001976323 0.022263106047543741 0 -0.37123175334181557 0.027162262264614271 0 -0.38155727091044611 0.028316364585127811 0 -0.38533699425949169 0.022674384769296389 0 -0.37960108001976323 0.022263106047543741 0 -0.38155727091044611 0.028316364585127811 0 -0.38533699425949169 0.022674384769296389 0 -0.39127510487050182 0.027903964450529759 0 -0.38315308642314733 0.033917821982192238 0 -0.38155727091044611 0.028316364585127811 0 -0.39127510487050182 0.027903964450529759 0 -0.39054146691731162 0.018060194648231769 0 -0.38533699425949169 0.022674384769296389 0 -0.39127510487050182 0.027903964450529759 0 -0.38533699425949169 0.022674384769296389 0 -0.3837100485794358 0.01682829411504885 0 -0.37960108001976323 0.022263106047543741 0 -0.39054146691731162 0.018060194648231769 0 -0.38533699425949169 0.022674384769296389 0 -0.3837100485794358 0.01682829411504885 0 -0.3837100485794358 0.01682829411504885 0 -0.37960108001976323 0.022263106047543741 0 -0.37998819155715241 0.0057865511937031933 0 -0.37998819155715241 0.0057865511937031933 0 -0.38683543611469601 0.0001369023841863784 0 -0.36064890389212972 0.0125435277679194 0 -0.37998819155715241 0.0057865511937031933 0 -0.38683543611469601 0.0001369023841863784 0 -0.38901012294298121 0.0062908016400105649 0 -0.38683543611469601 0.0001369023841863784 0 -0.38901012294298121 0.0062908016400105649 0 -0.39501457079486157 0.0055715078560810288 0 -0.37998819155715241 0.0057865511937031933 0 -0.38901012294298121 0.0062908016400105649 0 -0.38744744785130802 0.01185902438546781 0 -0.3837100485794358 0.01682829411504885 0 -0.37998819155715241 0.0057865511937031933 0 -0.38744744785130802 0.01185902438546781 0 -0.38901012294298121 0.0062908016400105649 0 -0.38744744785130802 0.01185902438546781 0 -0.39422738021243581 0.01127211946813913 0 -0.39054146691731162 0.018060194648231769 0 -0.3837100485794358 0.01682829411504885 0 -0.38744744785130802 0.01185902438546781 0 -0.39054146691731162 0.018060194648231769 0 -0.39422738021243581 0.01127211946813913 0 -0.39743955081534421 0.016339100765178138 0 -0.39054146691731162 0.018060194648231769 0 -0.38744744785130802 0.01185902438546781 0 -0.39422738021243581 0.01127211946813913 0 -0.39422738021243581 0.01127211946813913 0 -0.39501457079486157 0.0055715078560810288 0 -0.40262572535869262 0.0089097845909437267 0 -0.39422738021243581 0.01127211946813913 0 -0.40262572535869262 0.0089097845909437267 0 -0.39743955081534421 0.016339100765178138 0 -0.38683543611469601 0.0001369023841863784 0 -0.39501457079486157 0.0055715078560810288 0 -0.40226596945639398 0.0014711925349297271 0 -0.38901012294298121 0.0062908016400105649 0 -0.39422738021243581 0.01127211946813913 0 -0.39501457079486157 0.0055715078560810288 0 -0.41105156913745711 0.0034129409419674369 0 -0.40226596945639398 0.0014711925349297271 0 -0.40262572535869262 0.0089097845909437267 0 -0.39501457079486157 0.0055715078560810288 0 -0.40226596945639398 0.0014711925349297271 0 -0.40262572535869262 0.0089097845909437267 0 -0.40852807671777941 0.0155494406680463 0 -0.40262572535869262 0.0089097845909437267 0 -0.39743955081534421 0.016339100765178138 0 -0.40852807671777941 0.0155494406680463 0 -0.39127510487050182 0.027903964450529759 0 -0.40852807671777941 0.0155494406680463 0 -0.40667085762811028 0.029599890542676258 0 -0.39127510487050182 0.027903964450529759 0 -0.40852807671777941 0.0155494406680463 0 -0.39127510487050182 0.027903964450529759 0 -0.39743955081534421 0.016339100765178138 0 -0.39054146691731162 0.018060194648231769 0 -0.39127510487050182 0.027903964450529759 0 -0.39743955081534421 0.016339100765178138 0 -0.39792088922733271 0.1160922105611595 0 -0.40104213778508202 0.092866093853817611 0 -0.41467909406405851 0.1139188519362445 0 -0.39792088922733271 0.1160922105611595 0 -0.3782625711058698 0.101617738696854 0 -0.40104213778508202 0.092866093853817611 0 -0.3782625711058698 0.101617738696854 0 -0.38372255811484618 0.13025780258704611 0 -0.3782625711058698 0.101617738696854 0 -0.38372255811484618 0.13025780258704611 0 -0.36747352968705388 0.12273486311700831 0 -0.39792088922733271 0.1160922105611595 0 -0.3782625711058698 0.101617738696854 0 -0.38372255811484618 0.13025780258704611 0 -0.39792088922733271 0.1160922105611595 0 -0.3782625711058698 0.101617738696854 0 -0.3782625711058698 0.101617738696854 0 -0.40104213778508202 0.092866093853817611 0 -0.37470600383380392 0.082961959162170973 0 -0.39520328107527708 0.075997639864115257 0 -0.40104213778508202 0.092866093853817611 0 -0.37470600383380392 0.082961959162170973 0 -0.3782625711058698 0.101617738696854 0 -0.37470600383380392 0.082961959162170973 0 -0.40104213778508202 0.092866093853817611 0 -0.37470600383380392 0.082961959162170973 0 -0.38510762700538009 0.066428587654483159 0 -0.37000681959492809 0.05831264468359916 0 -0.37470600383380392 0.082961959162170973 0 -0.38510762700538009 0.066428587654483159 0 -0.39520328107527708 0.075997639864115257 0 -0.37470600383380392 0.082961959162170973 0 -0.39985653820026013 0.060860810446949978 0 -0.39520328107527708 0.075997639864115257 0 -0.41322693425173768 0.074694678089132868 0 -0.39985653820026013 0.060860810446949978 0 -0.38510762700538009 0.066428587654483159 0 -0.39520328107527708 0.075997639864115257 0 -0.39520328107527708 0.075997639864115257 0 -0.40104213778508202 0.092866093853817611 0 -0.41322693425173768 0.074694678089132868 0 -0.40104213778508202 0.092866093853817611 0 -0.41322693425173768 0.074694678089132868 0 -0.42957324029363853 0.085693113452461764 0 -0.41883220390138681 0.058477634196973202 0 -0.41322693425173768 0.074694678089132868 0 -0.43131469147834472 0.070632617455275076 0 -0.41883220390138681 0.058477634196973202 0 -0.39985653820026013 0.060860810446949978 0 -0.41322693425173768 0.074694678089132868 0 -0.43131469147834472 0.070632617455275076 0 -0.42957324029363853 0.085693113452461764 0 -0.4470315618909167 0.073148927984774167 0 -0.41322693425173768 0.074694678089132868 0 -0.43131469147834472 0.070632617455275076 0 -0.42957324029363853 0.085693113452461764 0 -0.44282721760043869 0.062046251170956107 0 -0.43188097302969042 0.056955122555226501 0 -0.43131469147834472 0.070632617455275076 0 -0.42957324029363853 0.085693113452461764 0 -0.42737827173636012 0.1027702285454639 0 -0.44343173260412461 0.097571970950778963 0 -0.40104213778508202 0.092866093853817611 0 -0.42737827173636012 0.1027702285454639 0 -0.41467909406405851 0.1139188519362445 0 -0.40104213778508202 0.092866093853817611 0 -0.42737827173636012 0.1027702285454639 0 -0.40104213778508202 0.092866093853817611 0 -0.42957324029363853 0.085693113452461764 0 -0.42737827173636012 0.1027702285454639 0 -0.39792088922733271 0.1160922105611595 0 -0.41467909406405851 0.1139188519362445 0 -0.417579207348795 0.13056668242546571 0 -0.39792088922733271 0.1160922105611595 0 -0.417579207348795 0.13056668242546571 0 -0.41467909406405851 0.1139188519362445 0 -0.42608096723388439 0.1205091241492761 0 -0.417579207348795 0.13056668242546571 0 -0.42737827173636012 0.1027702285454639 0 -0.41467909406405851 0.1139188519362445 0 -0.42608096723388439 0.1205091241492761 0 -0.42737827173636012 0.1027702285454639 0 -0.42608096723388439 0.1205091241492761 0 -0.43826405507869293 0.1195835460605416 0 -0.42608096723388439 0.1205091241492761 0 -0.43826405507869293 0.1195835460605416 0 -0.43293323699752101 0.1317554923945817 0 -0.43826405507869293 0.1195835460605416 0 -0.45371440568763749 0.1126743632371118 0 -0.44901593584904892 0.12912088192892021 0 -0.42737827173636012 0.1027702285454639 0 -0.43826405507869293 0.1195835460605416 0 -0.45371440568763749 0.1126743632371118 0 -0.4523882543875366 0.10983005993361 0 -0.45371440568763749 0.1126743632371118 0 -0.42737827173636012 0.1027702285454639 0 -0.4523882543875366 0.10983005993361 0 -0.44343173260412461 0.097571970950778963 0 -0.42737827173636012 0.1027702285454639 0 -0.4523882543875366 0.10983005993361 0 -0.45371440568763749 0.1126743632371118 0 -0.42737827173636012 0.1027702285454639 0 -0.45371440568763749 0.1126743632371118 0 -0.44343173260412461 0.097571970950778963 0 -0.45084974973894648 0.096020795281878568 0 -0.45306155814551219 0.1028275296158008 0 -0.44343173260412461 0.097571970950778963 0 -0.45084974973894648 0.096020795281878568 0 -0.44733932132275389 0.088290098875458828 0 -0.4523882543875366 0.10983005993361 0 -0.44343173260412461 0.097571970950778963 0 -0.45306155814551219 0.1028275296158008 0 -0.4523882543875366 0.10983005993361 0 -0.45306155814551219 0.1028275296158008 0 -0.45661100561120399 0.109540819014999 0 -0.45306155814551219 0.1028275296158008 0 -0.46084618436187341 0.10490351706993729 0 -0.45661100561120399 0.109540819014999 0 -0.45306155814551219 0.1028275296158008 0 -0.46084618436187341 0.10490351706993729 0 -0.45799439118323759 0.099220837031069903 0 -0.46084618436187341 0.10490351706993729 0 -0.4635407771028337 0.1124237257980706 0 -0.45661100561120399 0.109540819014999 0 -0.45799439118323759 0.099220837031069903 0 -0.46723244863383712 0.097971273043108306 0 -0.45594156200913483 0.091684632610025046 0 -0.45084974973894648 0.096020795281878568 0 -0.45799439118323759 0.099220837031069903 0 -0.45594156200913483 0.091684632610025046 0 -0.45084974973894648 0.096020795281878568 0 -0.45306155814551219 0.1028275296158008 0 -0.45799439118323759 0.099220837031069903 0 -0.46084618436187341 0.10490351706993729 0 -0.45799439118323759 0.099220837031069903 0 -0.46723244863383712 0.097971273043108306 0 -0.46084618436187341 0.10490351706993729 0 -0.46723244863383712 0.097971273043108306 0 -0.46686982756835349 0.1074114054382402 0 -0.46084618436187341 0.10490351706993729 0 -0.46686982756835349 0.1074114054382402 0 -0.4635407771028337 0.1124237257980706 0 -0.45371440568763749 0.1126743632371118 0 -0.46425598871103851 0.13528374379222011 0 -0.4635407771028337 0.1124237257980706 0 -0.45674497769142258 0.1138140594952527 0 -0.46958882025875243 0.12035793204680111 0 -0.46686982756835349 0.1074114054382402 0 -0.4635407771028337 0.1124237257980706 0 -0.47044075898603932 0.11380610730348489 0 -0.4635407771028337 0.1124237257980706 0 -0.46958882025875243 0.12035793204680111 0 -0.47044075898603932 0.11380610730348489 0 -0.45674497769142258 0.1138140594952527 0 -0.45371440568763749 0.1126743632371118 0 -0.46425598871103851 0.13528374379222011 0 -0.45674497769142258 0.1138140594952527 0 -0.46958882025875243 0.12035793204680111 0 -0.46425598871103851 0.13528374379222011 0 -0.4523882543875366 0.10983005993361 0 -0.45661100561120399 0.109540819014999 0 -0.45371440568763749 0.1126743632371118 0 -0.45674497769142258 0.1138140594952527 0 -0.45661100561120399 0.109540819014999 0 -0.45371440568763749 0.1126743632371118 0 -0.45674497769142258 0.1138140594952527 0 -0.45371440568763749 0.1126743632371118 0 -0.4635407771028337 0.1124237257980706 0 -0.45674497769142258 0.1138140594952527 0 -0.45661100561120399 0.109540819014999 0 -0.44282721760043869 0.062046251170956107 0 -0.4470315618909167 0.073148927984774167 0 -0.46103932749027238 0.064238871702306077 0 -0.44282721760043869 0.062046251170956107 0 -0.43131469147834472 0.070632617455275076 0 -0.4470315618909167 0.073148927984774167 0 -0.42957324029363853 0.085693113452461764 0 -0.44343173260412461 0.097571970950778963 0 -0.44733932132275389 0.088290098875458828 0 -0.42957324029363853 0.085693113452461764 0 -0.4470315618909167 0.073148927984774167 0 -0.44733932132275389 0.088290098875458828 0 -0.4470315618909167 0.073148927984774167 0 -0.44733932132275389 0.088290098875458828 0 -0.46047789149500767 0.082617330138573752 0 -0.45084974973894648 0.096020795281878568 0 -0.44733932132275389 0.088290098875458828 0 -0.45594156200913483 0.091684632610025046 0 -0.44733932132275389 0.088290098875458828 0 -0.45594156200913483 0.091684632610025046 0 -0.46047789149500767 0.082617330138573752 0 -0.46723244863383712 0.097971273043108306 0 -0.45594156200913483 0.091684632610025046 0 -0.46047789149500767 0.082617330138573752 0 -0.46047789149500767 0.082617330138573752 0 -0.46103932749027238 0.064238871702306077 0 -0.47920912086757578 0.083222027247413538 0 -0.4470315618909167 0.073148927984774167 0 -0.46047789149500767 0.082617330138573752 0 -0.46103932749027238 0.064238871702306077 0 -0.46103932749027238 0.064238871702306077 0 -0.48068047186290208 0.063626500276227002 0 -0.47920912086757578 0.083222027247413538 0 -0.46103932749027238 0.064238871702306077 0 -0.47920912086757578 0.083222027247413538 0 -0.46723244863383712 0.097971273043108306 0 -0.46047789149500767 0.082617330138573752 0 -0.47920912086757578 0.083222027247413538 0 -0.48068047186290208 0.063626500276227002 0 -0.47920912086757578 0.083222027247413538 0 -0.5 0.088432580532893601 0 -0.47920912086757578 0.083222027247413538 0 -0.49737891424487929 0.102205182792521 0 -0.47920912086757578 0.083222027247413538 0 -0.5 0.088432580532893601 0 -0.49737891424487929 0.102205182792521 0 -0.5 0.060034093897511798 0 -0.48068047186290208 0.063626500276227002 0 -0.5 0.088432580532893601 0 -0.47827810320487629 0.116675775998883 0 -0.48837893466537508 0.1117690854599766 0 -0.4842723158563047 0.1301441798928954 0 -0.47827810320487629 0.116675775998883 0 -0.47512549980118862 0.10796659812409699 0 -0.48837893466537508 0.1117690854599766 0 -0.47827810320487629 0.116675775998883 0 -0.46958882025875243 0.12035793204680111 0 -0.4842723158563047 0.1301441798928954 0 -0.47827810320487629 0.116675775998883 0 -0.47044075898603932 0.11380610730348489 0 -0.47512549980118862 0.10796659812409699 0 -0.46686982756835349 0.1074114054382402 0 -0.47044075898603932 0.11380610730348489 0 -0.47512549980118862 0.10796659812409699 0 -0.47827810320487629 0.116675775998883 0 -0.46958882025875243 0.12035793204680111 0 -0.47044075898603932 0.11380610730348489 0 -0.46723244863383712 0.097971273043108306 0 -0.47512549980118862 0.10796659812409699 0 -0.48162445158666772 0.1005823670901454 0 -0.46723244863383712 0.097971273043108306 0 -0.47920912086757578 0.083222027247413538 0 -0.48162445158666772 0.1005823670901454 0 -0.46723244863383712 0.097971273043108306 0 -0.46686982756835349 0.1074114054382402 0 -0.47512549980118862 0.10796659812409699 0 -0.47512549980118862 0.10796659812409699 0 -0.48162445158666772 0.1005823670901454 0 -0.48837893466537508 0.1117690854599766 0 -0.48162445158666772 0.1005823670901454 0 -0.49737891424487929 0.102205182792521 0 -0.48837893466537508 0.1117690854599766 0 -0.47920912086757578 0.083222027247413538 0 -0.48162445158666772 0.1005823670901454 0 -0.49737891424487929 0.102205182792521 0 -0.5 0.088432580532893601 0 -0.49737891424487929 0.102205182792521 0 -0.5 0.1168310671682755 0 -0.49737891424487929 0.102205182792521 0 -0.5 0.1168310671682755 0 -0.48837893466537508 0.1117690854599766 0 -0.5 0.1168310671682755 0 -0.48837893466537508 0.1117690854599766 0 -0.4842723158563047 0.1301441798928954 0 -0.5 0.1168310671682755 0 -0.4842723158563047 0.1301441798928954 0 -0.5 0.14522955380365729 0 -0.46958882025875243 0.12035793204680111 0 -0.4842723158563047 0.1301441798928954 0 -0.46425598871103851 0.13528374379222011 0 -0.4842723158563047 0.1301441798928954 0 -0.47479757173443998 0.15789312434732811 0 -0.46425598871103851 0.13528374379222011 0 -0.47479757173443998 0.15789312434732811 0 -0.46425598871103851 0.13528374379222011 0 -0.4842723158563047 0.1301441798928954 0 -0.5 0.14522955380365729 0 -0.47479757173443998 0.15789312434732811 0 -0.5 0.14522955380365729 0 -0.49999999999999972 0.17362804043903909 0 -0.47479757173443998 0.15789312434732811 0 -0.49999999999999972 0.17362804043903909 0 -0.47479757173443998 0.15789312434732811 0 -0.49999999999999972 0.17362804043903909 0 -0.49200992699072321 0.1743962810239672 0 -0.47479757173443998 0.15789312434732811 0 -0.48341269367675271 0.17637066895233999 0 -0.49170634683837577 0.1941587336203292 0 -0.49368671912131301 0.1828531969182482 0 -0.49999999999999972 0.17362804043903909 0 -0.5 0.19278741936367841 0 -0.49368671912131301 0.1828531969182482 0 -0.48341269367675271 0.17637066895233999 0 -0.49170634683837577 0.1941587336203292 0 -0.49368671912131301 0.1828531969182482 0 -0.49999999999999972 0.17362804043903909 0 -0.49200992699072321 0.1743962810239672 0 -0.49200992699072321 0.1743962810239672 0 -0.48341269367675271 0.17637066895233999 0 -0.49368671912131301 0.1828531969182482 0 -0.49200992699072321 0.1743962810239672 0 -0.48341269367675271 0.17637066895233999 0 -0.48341269367675271 0.17637066895233999 0 -0.45591042926964898 0.18268667049205081 0 -0.47274380268756999 0.19288508587190861 0 -0.48341269367675271 0.17637066895233999 0 -0.45591042926964898 0.18268667049205081 0 -0.49200992699072321 0.1743962810239672 0 -0.48341269367675271 0.17637066895233999 0 -0.47479757173443998 0.15789312434732811 0 -0.48341269367675271 0.17637066895233999 0 -0.47479757173443998 0.15789312434732811 0 -0.48341269367675271 0.17637066895233999 0 -0.47479757173443998 0.15789312434732811 0 -0.45723956394668003 0.16387676974864759 0 -0.48341269367675271 0.17637066895233999 0 -0.45723956394668003 0.16387676974864759 0 -0.45591042926964898 0.18268667049205081 0 -0.45591042926964898 0.18268667049205081 0 -0.43992511097516529 0.17411109905454999 0 -0.4284081648625454 0.1890026720317621 0 -0.45591042926964898 0.18268667049205081 0 -0.4284081648625454 0.1890026720317621 0 -0.45723956394668003 0.16387676974864759 0 -0.45591042926964898 0.18268667049205081 0 -0.43992511097516529 0.17411109905454999 0 -0.45723956394668003 0.16387676974864759 0 -0.43992511097516529 0.17411109905454999 0 -0.43892522612619872 0.15930650560997939 0 -0.43892522612619872 0.15930650560997939 0 -0.43796764784210812 0.14528805014891141 0 -0.45386540436598038 0.14482430837095511 0 -0.45723956394668003 0.16387676974864759 0 -0.43892522612619872 0.15930650560997939 0 -0.45386540436598038 0.14482430837095511 0 -0.45386540436598038 0.14482430837095511 0 -0.43293323699752101 0.1317554923945817 0 -0.43826405507869293 0.1195835460605416 0 -0.44901593584904892 0.12912088192892021 0 -0.43293323699752101 0.1317554923945817 0 -0.43796764784210812 0.14528805014891141 0 -0.45386540436598038 0.14482430837095511 0 -0.43293323699752101 0.1317554923945817 0 -0.44901593584904892 0.12912088192892021 0 -0.45386540436598038 0.14482430837095511 0 -0.43293323699752101 0.1317554923945817 0 -0.45371440568763749 0.1126743632371118 0 -0.44901593584904892 0.12912088192892021 0 -0.46425598871103851 0.13528374379222011 0 -0.44901593584904892 0.12912088192892021 0 -0.46425598871103851 0.13528374379222011 0 -0.45386540436598038 0.14482430837095511 0 -0.47479757173443998 0.15789312434732811 0 -0.45723956394668003 0.16387676974864759 0 -0.45386540436598038 0.14482430837095511 0 -0.47479757173443998 0.15789312434732811 0 -0.46425598871103851 0.13528374379222011 0 -0.45386540436598038 0.14482430837095511 0 -0.47479757173443998 0.15789312434732811 0 -0.45386540436598038 0.14482430837095511 0 -0.48226153920099157 0.23766317590200001 0 -0.47864167104372218 0.246590621409366 0 -0.48932095354102823 0.25454658797793611 0 -0.47315400564016008 0.2364435414805684 0 -0.47864167104372218 0.246590621409366 0 -0.46938038244821267 0.25133041049185839 0 -0.47315400564016008 0.2364435414805684 0 -0.48226153920099157 0.23766317590200001 0 -0.47864167104372218 0.246590621409366 0 -0.49106398183666961 0.22759324404760359 0 -0.48932095354102823 0.25454658797793611 0 -0.5 0.23810140997737081 0 -0.49106398183666961 0.22759324404760359 0 -0.48932095354102823 0.25454658797793611 0 -0.48226153920099157 0.23766317590200001 0 -0.49106398183666961 0.22759324404760359 0 -0.48932095354102823 0.25454658797793611 0 -0.5 0.23810140997737081 0 -0.49106398183666961 0.22759324404760359 0 -0.50000000000000022 0.21194679828831781 0 -0.49106398183666961 0.22759324404760359 0 -0.47912708394337772 0.2231418845945258 0 -0.48726644121087642 0.21298690825741631 0 -0.48226153920099157 0.23766317590200001 0 -0.49106398183666961 0.22759324404760359 0 -0.47912708394337772 0.2231418845945258 0 -0.47315400564016008 0.2364435414805684 0 -0.48226153920099157 0.23766317590200001 0 -0.47912708394337772 0.2231418845945258 0 -0.47315400564016008 0.2364435414805684 0 -0.47912708394337772 0.2231418845945258 0 -0.46764368341616458 0.22415830119077751 0 -0.47912708394337772 0.2231418845945258 0 -0.47360767850491831 0.20951316246361981 0 -0.46764368341616458 0.22415830119077751 0 -0.47360767850491831 0.20951316246361981 0 -0.48726644121087642 0.21298690825741631 0 -0.49170634683837577 0.1941587336203292 0 -0.47912708394337772 0.2231418845945258 0 -0.47360767850491831 0.20951316246361981 0 -0.48726644121087642 0.21298690825741631 0 -0.49106398183666961 0.22759324404760359 0 -0.50000000000000022 0.21194679828831781 0 -0.48726644121087642 0.21298690825741631 0 -0.50000000000000022 0.21194679828831781 0 -0.48726644121087642 0.21298690825741631 0 -0.49170634683837577 0.1941587336203292 0 -0.50000000000000022 0.21194679828831781 0 -0.49170634683837577 0.1941587336203292 0 -0.50000000000000022 0.21194679828831781 0 -0.5 0.19278741936367841 0 -0.49170634683837577 0.1941587336203292 0 -0.49368671912131301 0.1828531969182482 0 -0.5 0.19278741936367841 0 -0.49170634683837577 0.1941587336203292 0 -0.48341269367675271 0.17637066895233999 0 -0.49170634683837577 0.1941587336203292 0 -0.47274380268756999 0.19288508587190861 0 -0.47360767850491831 0.20951316246361981 0 -0.49170634683837577 0.1941587336203292 0 -0.47274380268756999 0.19288508587190861 0 -0.47360767850491831 0.20951316246361981 0 -0.47274380268756999 0.19288508587190861 0 -0.45820261548712909 0.20353130823034371 0 -0.45591042926964898 0.18268667049205081 0 -0.47274380268756999 0.19288508587190861 0 -0.45820261548712909 0.20353130823034371 0 -0.45591042926964898 0.18268667049205081 0 -0.43516662619925378 0.20614333559983469 0 -0.4284081648625454 0.1890026720317621 0 -0.45591042926964898 0.18268667049205081 0 -0.45820261548712909 0.20353130823034371 0 -0.43516662619925378 0.20614333559983469 0 -0.44192508753596349 0.22328399916790689 0 -0.43516662619925378 0.20614333559983469 0 -0.45032248765871591 0.2151961798839368 0 -0.44192508753596349 0.22328399916790689 0 -0.43516662619925378 0.20614333559983469 0 -0.45032248765871591 0.2151961798839368 0 -0.45820261548712909 0.20353130823034371 0 -0.43516662619925378 0.20614333559983469 0 -0.45032248765871591 0.2151961798839368 0 -0.46109406183397039 0.21551848415653921 0 -0.45620465585954723 0.2251951411450015 0 -0.45032248765871591 0.2151961798839368 0 -0.45820261548712909 0.20353130823034371 0 -0.46109406183397039 0.21551848415653921 0 -0.47360767850491831 0.20951316246361981 0 -0.45820261548712909 0.20353130823034371 0 -0.46109406183397039 0.21551848415653921 0 -0.47360767850491831 0.20951316246361981 0 -0.46109406183397039 0.21551848415653921 0 -0.46764368341616458 0.22415830119077751 0 -0.47315400564016008 0.2364435414805684 0 -0.46764368341616458 0.22415830119077751 0 -0.45925329591452863 0.2407771106774913 0 -0.46764368341616458 0.22415830119077751 0 -0.45620465585954723 0.2251951411450015 0 -0.45925329591452863 0.2407771106774913 0 -0.46109406183397039 0.21551848415653921 0 -0.46764368341616458 0.22415830119077751 0 -0.45620465585954723 0.2251951411450015 0 -0.45032248765871591 0.2151961798839368 0 -0.45620465585954723 0.2251951411450015 0 -0.44192508753596349 0.22328399916790689 0 -0.44192508753596349 0.22328399916790689 0 -0.44062222049055039 0.24203477259657111 0 -0.43146145522804691 0.2313120115293863 0 -0.45620465585954723 0.2251951411450015 0 -0.44062222049055039 0.24203477259657111 0 -0.45620465585954723 0.2251951411450015 0 -0.44192508753596349 0.22328399916790689 0 -0.44062222049055039 0.24203477259657111 0 -0.44062222049055039 0.24203477259657111 0 -0.45046339488490522 0.249057113070103 0 -0.44442574262614493 0.25832327296872359 0 -0.44062222049055039 0.24203477259657111 0 -0.45046339488490522 0.249057113070103 0 -0.45925329591452863 0.2407771106774913 0 -0.45620465585954723 0.2251951411450015 0 -0.44062222049055039 0.24203477259657111 0 -0.45925329591452863 0.2407771106774913 0 -0.45046339488490522 0.249057113070103 0 -0.45925329591452863 0.2407771106774913 0 -0.45807104112411212 0.25534721177055669 0 -0.45925329591452863 0.2407771106774913 0 -0.46938038244821267 0.25133041049185839 0 -0.45807104112411212 0.25534721177055669 0 -0.47315400564016008 0.2364435414805684 0 -0.45925329591452863 0.2407771106774913 0 -0.46938038244821267 0.25133041049185839 0 -0.4198454647722451 0.23985190764030939 0 -0.40081965837488509 0.24074316727492401 0 -0.40585136056822319 0.25674789398696107 0 -0.4198454647722451 0.23985190764030939 0 -0.405480724964072 0.22581663549259839 0 -0.40081965837488509 0.24074316727492401 0 -0.44062222049055039 0.24203477259657111 0 -0.4198454647722451 0.23985190764030939 0 -0.42503978512155383 0.25887440404814072 0 -0.44062222049055039 0.24203477259657111 0 -0.4198454647722451 0.23985190764030939 0 -0.43146145522804691 0.2313120115293863 0 -0.4198454647722451 0.23985190764030939 0 -0.43146145522804691 0.2313120115293863 0 -0.42370673975344808 0.22056464269113771 0 -0.44192508753596349 0.22328399916790689 0 -0.43146145522804691 0.2313120115293863 0 -0.42370673975344808 0.22056464269113771 0 -0.4198454647722451 0.23985190764030939 0 -0.42370673975344808 0.22056464269113771 0 -0.405480724964072 0.22581663549259839 0 -0.42370673975344808 0.22056464269113771 0 -0.40708390191205951 0.20882890034131879 0 -0.405480724964072 0.22581663549259839 0 -0.42370673975344808 0.22056464269113771 0 -0.40708390191205951 0.20882890034131879 0 -0.42107335870595469 0.2022269477122331 0 -0.44192508753596349 0.22328399916790689 0 -0.42370673975344808 0.22056464269113771 0 -0.43516662619925378 0.20614333559983469 0 -0.42370673975344808 0.22056464269113771 0 -0.43516662619925378 0.20614333559983469 0 -0.42107335870595469 0.2022269477122331 0 -0.43516662619925378 0.20614333559983469 0 -0.4284081648625454 0.1890026720317621 0 -0.42107335870595469 0.2022269477122331 0 -0.43516662619925378 0.20614333559983469 0 -0.4284081648625454 0.1890026720317621 0 -0.4284081648625454 0.1890026720317621 0 -0.40915969581062839 0.19342315750049971 0 -0.4284081648625454 0.1890026720317621 0 -0.42107335870595469 0.2022269477122331 0 -0.40915969581062839 0.19342315750049971 0 -0.40708390191205951 0.20882890034131879 0 -0.42107335870595469 0.2022269477122331 0 -0.40915969581062839 0.19342315750049971 0 -0.40708390191205951 0.20882890034131879 0 -0.40915969581062839 0.19342315750049971 0 -0.38991122675871148 0.19784364296923759 0 -0.40915969581062839 0.19342315750049971 0 -0.38991122675871148 0.19784364296923759 0 -0.40915969581062839 0.19342315750049971 0 -0.38991122675871148 0.19784364296923759 0 -0.39569501158598158 0.17813944679546001 0 -0.39158905321283283 0.2136173787495643 0 -0.38435338999826391 0.22831720607051781 0 -0.36414166766971379 0.2074649771098355 0 -0.38991122675871148 0.19784364296923759 0 -0.39158905321283283 0.2136173787495643 0 -0.36414166766971379 0.2074649771098355 0 -0.40708390191205951 0.20882890034131879 0 -0.39158905321283283 0.2136173787495643 0 -0.405480724964072 0.22581663549259839 0 -0.40708390191205951 0.20882890034131879 0 -0.38991122675871148 0.19784364296923759 0 -0.39158905321283283 0.2136173787495643 0 -0.405480724964072 0.22581663549259839 0 -0.38435338999826391 0.22831720607051781 0 -0.40081965837488509 0.24074316727492401 0 -0.39158905321283283 0.2136173787495643 0 -0.405480724964072 0.22581663549259839 0 -0.38435338999826391 0.22831720607051781 0 -0.37619177155740557 0.24036243622333081 0 -0.38790582398472923 0.24962922847932231 0 -0.36318679658289171 0.25196182354824148 0 -0.38435338999826391 0.22831720607051781 0 -0.37619177155740557 0.24036243622333081 0 -0.38790582398472923 0.24962922847932231 0 -0.38435338999826391 0.22831720607051781 0 -0.38790582398472923 0.24962922847932231 0 -0.40081965837488509 0.24074316727492401 0 -0.38790582398472923 0.24962922847932231 0 -0.40081965837488509 0.24074316727492401 0 -0.40585136056822319 0.25674789398696107 0 -0.40926453963391513 0.14045102348790381 0 -0.42614672387873248 0.14526589422012931 0 -0.41883635224822963 0.16472684775983329 0 -0.40926453963391513 0.14045102348790381 0 -0.41883635224822963 0.16472684775983329 0 -0.40926453963391513 0.14045102348790381 0 -0.41883635224822963 0.16472684775983329 0 -0.40029434983296169 0.15790366282291429 0 -0.40926453963391513 0.14045102348790381 0 -0.417579207348795 0.13056668242546571 0 -0.40026410281127539 0.13237877311027449 0 -0.40926453963391513 0.14045102348790381 0 -0.417579207348795 0.13056668242546571 0 -0.42614672387873248 0.14526589422012931 0 -0.417579207348795 0.13056668242546571 0 -0.43293323699752101 0.1317554923945817 0 -0.42614672387873248 0.14526589422012931 0 -0.42608096723388439 0.1205091241492761 0 -0.417579207348795 0.13056668242546571 0 -0.43293323699752101 0.1317554923945817 0 -0.43796764784210812 0.14528805014891141 0 -0.43293323699752101 0.1317554923945817 0 -0.42614672387873248 0.14526589422012931 0 -0.43892522612619872 0.15930650560997939 0 -0.43796764784210812 0.14528805014891141 0 -0.42614672387873248 0.14526589422012931 0 -0.43892522612619872 0.15930650560997939 0 -0.42614672387873248 0.14526589422012931 0 -0.41883635224822963 0.16472684775983329 0 -0.43992511097516529 0.17411109905454999 0 -0.43892522612619872 0.15930650560997939 0 -0.41883635224822963 0.16472684775983329 0 -0.4284081648625454 0.1890026720317621 0 -0.41883635224822963 0.16472684775983329 0 -0.43992511097516529 0.17411109905454999 0 -0.4284081648625454 0.1890026720317621 0 -0.41883635224822963 0.16472684775983329 0 -0.40915969581062839 0.19342315750049971 0 -0.41883635224822963 0.16472684775983329 0 -0.39569501158598158 0.17813944679546001 0 -0.4284081648625454 0.1890026720317621 0 -0.40915969581062839 0.19342315750049971 0 -0.41883635224822963 0.16472684775983329 0 -0.40029434983296169 0.15790366282291429 0 -0.39569501158598158 0.17813944679546001 0 -0.38484252596519369 0.16167484958157691 0 -0.41883635224822963 0.16472684775983329 0 -0.40029434983296169 0.15790366282291429 0 -0.39569501158598158 0.17813944679546001 0 -0.39569501158598158 0.17813944679546001 0 -0.38484252596519369 0.16167484958157691 0 -0.36525228834216061 0.17922160577889321 0 -0.38991122675871148 0.19784364296923759 0 -0.39569501158598158 0.17813944679546001 0 -0.36525228834216061 0.17922160577889321 0 -0.39283331973148827 0.14452614648979731 0 -0.38372255811484618 0.13025780258704611 0 -0.36636290901460722 0.1509782344479508 0 -0.38484252596519369 0.16167484958157691 0 -0.39283331973148827 0.14452614648979731 0 -0.36636290901460722 0.1509782344479508 0 -0.40029434983296169 0.15790366282291429 0 -0.38484252596519369 0.16167484958157691 0 -0.39283331973148827 0.14452614648979731 0 -0.40926453963391513 0.14045102348790381 0 -0.40029434983296169 0.15790366282291429 0 -0.39283331973148827 0.14452614648979731 0 -0.39283331973148827 0.14452614648979731 0 -0.40026410281127539 0.13237877311027449 0 -0.38372255811484618 0.13025780258704611 0 -0.39792088922733271 0.1160922105611595 0 -0.417579207348795 0.13056668242546571 0 -0.40026410281127539 0.13237877311027449 0 -0.39792088922733271 0.1160922105611595 0 -0.40026410281127539 0.13237877311027449 0 -0.38372255811484618 0.13025780258704611 0 -0.40926453963391513 0.14045102348790381 0 -0.39283331973148827 0.14452614648979731 0 -0.40026410281127539 0.13237877311027449 0 -0.38372255811484618 0.13025780258704611 0 -0.36636290901460722 0.1509782344479508 0 -0.36747352968705388 0.12273486311700831 0 -0.36636290901460722 0.1509782344479508 0 -0.36747352968705388 0.12273486311700831 0 -0.35528769071996391 0.12689780186549679 0 -0.36636290901460722 0.1509782344479508 0 -0.36747352968705388 0.12273486311700831 0 -0.35528769071996391 0.12689780186549679 0 -0.33512599087492562 0.1447950320020088 0 -0.35528769071996391 0.12689780186549679 0 -0.35168351666373848 0.14314256241625531 0 -0.33512599087492562 0.1447950320020088 0 -0.35528769071996391 0.12689780186549679 0 -0.33512599087492562 0.1447950320020088 0 -0.34115039425197219 0.12498493974687711 0 -0.35528769071996391 0.12689780186549679 0 -0.35168351666373848 0.14314256241625531 0 -0.36636290901460722 0.1509782344479508 0 -0.35168351666373848 0.14314256241625531 0 -0.36636290901460722 0.1509782344479508 0 -0.34333519974196419 0.16612441953572921 0 -0.38484252596519369 0.16167484958157691 0 -0.36636290901460722 0.1509782344479508 0 -0.36525228834216061 0.17922160577889321 0 -0.36636290901460722 0.1509782344479508 0 -0.36525228834216061 0.17922160577889321 0 -0.36525228834216061 0.17922160577889321 0 -0.34333519974196419 0.16612441953572921 0 -0.34654591437965571 0.19533490523866279 0 -0.36636290901460722 0.1509782344479508 0 -0.36525228834216061 0.17922160577889321 0 -0.34333519974196419 0.16612441953572921 0 -0.34333519974196419 0.16612441953572921 0 -0.31496429102988749 0.16269226213852109 0 -0.33512599087492562 0.1447950320020088 0 -0.34333519974196419 0.16612441953572921 0 -0.34654591437965571 0.19533490523866279 0 -0.32412519241006588 0.1878495682783011 0 -0.31496429102988749 0.16269226213852109 0 -0.32412519241006588 0.1878495682783011 0 -0.34333519974196419 0.16612441953572921 0 -0.31496429102988749 0.16269226213852109 0 -0.32412519241006588 0.1878495682783011 0 -0.31303823693556859 0.17707572181323081 0 -0.31496429102988749 0.16269226213852109 0 -0.32412519241006588 0.1878495682783011 0 -0.31303823693556859 0.17707572181323081 0 -0.32412519241006588 0.1878495682783011 0 -0.3108046026399135 0.18379038091696129 0 -0.31496429102988749 0.16269226213852109 0 -0.31353256245119709 0.1587605055712967 0 -0.31354631638020197 0.13395604467094269 0 -0.33512599087492562 0.1447950320020088 0 -0.3122891553291075 0.14635758184588041 0 -0.31353256245119709 0.1587605055712967 0 -0.33512599087492562 0.1447950320020088 0 -0.3122891553291075 0.14635758184588041 0 -0.31496429102988749 0.16269226213852109 0 -0.31353256245119709 0.1587605055712967 0 -0.33512599087492562 0.1447950320020088 0 -0.31496429102988749 0.16269226213852109 0 -0.33512599087492562 0.1447950320020088 0 -0.31354631638020197 0.13395604467094269 0 -0.32917568526667751 0.12578156900391591 0 -0.33512599087492562 0.1447950320020088 0 -0.31354631638020197 0.13395604467094269 0 -0.32917568526667751 0.12578156900391591 0 -0.32114709127587232 0.11611322513389059 0 -0.32917568526667751 0.12578156900391591 0 -0.33512599087492562 0.1447950320020088 0 -0.34115039425197219 0.12498493974687711 0 -0.35168351666373848 0.14314256241625531 0 -0.34333519974196419 0.16612441953572921 0 -0.33512599087492562 0.1447950320020088 0 -0.36303104699726713 0.23570834844077809 0 -0.34244699517042121 0.23816418055786151 0 -0.36318679658289171 0.25196182354824148 0 -0.34244699517042121 0.23816418055786151 0 -0.36318679658289171 0.25196182354824148 0 -0.33952374355129727 0.25899057541505788 0 -0.37619177155740557 0.24036243622333081 0 -0.36303104699726713 0.23570834844077809 0 -0.36318679658289171 0.25196182354824148 0 -0.38435338999826391 0.22831720607051781 0 -0.37619177155740557 0.24036243622333081 0 -0.36303104699726713 0.23570834844077809 0 -0.38435338999826391 0.22831720607051781 0 -0.36303104699726713 0.23570834844077809 0 -0.36414166766971379 0.2074649771098355 0 -0.36303104699726713 0.23570834844077809 0 -0.36414166766971379 0.2074649771098355 0 -0.36303104699726713 0.23570834844077809 0 -0.35084793517488477 0.2210857468323085 0 -0.34244699517042121 0.23816418055786151 0 -0.36303104699726713 0.23570834844077809 0 -0.35084793517488477 0.2210857468323085 0 -0.36414166766971379 0.2074649771098355 0 -0.35084793517488477 0.2210857468323085 0 -0.36414166766971379 0.2074649771098355 0 -0.34654591437965571 0.19533490523866279 0 -0.36525228834216061 0.17922160577889321 0 -0.36414166766971379 0.2074649771098355 0 -0.38991122675871148 0.19784364296923759 0 -0.36525228834216061 0.17922160577889321 0 -0.36414166766971379 0.2074649771098355 0 -0.36525228834216061 0.17922160577889321 0 -0.36414166766971379 0.2074649771098355 0 -0.34654591437965571 0.19533490523866279 0 -0.32412519241006588 0.1878495682783011 0 -0.33328609379024349 0.2130068744180813 0 -0.34654591437965571 0.19533490523866279 0 -0.32412519241006588 0.1878495682783011 0 -0.33328609379024349 0.2130068744180813 0 -0.32412519241006588 0.1878495682783011 0 -0.33328609379024349 0.2130068744180813 0 -0.31080006153106382 0.20197173666100501 0 -0.32412519241006588 0.1878495682783011 0 -0.31080006153106382 0.20197173666100501 0 -0.3108046026399135 0.18379038091696129 0 -0.33328609379024349 0.2130068744180813 0 -0.31873218963182409 0.22654972870499029 0 -0.31080006153106382 0.20197173666100501 0 -0.35084793517488477 0.2210857468323085 0 -0.34654591437965571 0.19533490523866279 0 -0.33328609379024349 0.2130068744180813 0 -0.35084793517488477 0.2210857468323085 0 -0.33328609379024349 0.2130068744180813 0 -0.34244699517042121 0.23816418055786151 0 -0.33328609379024349 0.2130068744180813 0 -0.34244699517042121 0.23816418055786151 0 -0.33328609379024349 0.2130068744180813 0 -0.31873218963182409 0.22654972870499029 0 -0.34244699517042121 0.23816418055786151 0 -0.31873218963182409 0.22654972870499029 0 -0.32200613725511351 0.24850726385495631 0 -0.34244699517042121 0.23816418055786151 0 -0.31873218963182409 0.22654972870499029 0 -0.32200613725511351 0.24850726385495631 0 -0.30672251365844311 0.23743048015470111 0 -0.32200613725511351 0.24850726385495631 0 -0.34244699517042121 0.23816418055786151 0 -0.33952374355129727 0.25899057541505788 0 -0.29125564533142001 0.24067530578368901 0 -0.30672251365844311 0.23743048015470111 0 -0.30640548876467488 0.25787073169030861 0 -0.32200613725511351 0.24850726385495631 0 -0.30672251365844311 0.23743048015470111 0 -0.30640548876467488 0.25787073169030861 0 -0.29125564533142001 0.24067530578368901 0 -0.30672251365844311 0.23743048015470111 0 -0.29521310730918271 0.21354937073956171 0 -0.31873218963182409 0.22654972870499029 0 -0.30672251365844311 0.23743048015470111 0 -0.29521310730918271 0.21354937073956171 0 -0.29125564533142001 0.24067530578368901 0 -0.29521310730918271 0.21354937073956171 0 -0.29125564533142001 0.24067530578368901 0 -0.29521310730918271 0.21354937073956171 0 -0.27258595833473342 0.22149207507906341 0 -0.29521310730918271 0.21354937073956171 0 -0.28878760701375322 0.1984352968903606 0 -0.27490594785389072 0.20112241201531189 0 -0.31873218963182409 0.22654972870499029 0 -0.29521310730918271 0.21354937073956171 0 -0.31080006153106382 0.20197173666100501 0 -0.29521310730918271 0.21354937073956171 0 -0.29917056928694541 0.1864234356954344 0 -0.29521310730918271 0.21354937073956171 0 -0.31080006153106382 0.20197173666100501 0 -0.29917056928694541 0.1864234356954344 0 -0.31080006153106382 0.20197173666100501 0 -0.3108046026399135 0.18379038091696129 0 -0.29917056928694541 0.1864234356954344 0 -0.28878760701375322 0.1984352968903606 0 -0.29917056928694541 0.1864234356954344 0 -0.28955343229492791 0.1852490896997587 0 -0.29521310730918271 0.21354937073956171 0 -0.28878760701375322 0.1984352968903606 0 -0.29917056928694541 0.1864234356954344 0 -0.28878760701375322 0.1984352968903606 0 -0.27938784373491388 0.18917199981814359 0 -0.28955343229492791 0.1852490896997587 0 -0.27938784373491388 0.18917199981814359 0 -0.27490594785389072 0.20112241201531189 0 -0.26439180367967152 0.18225540552070321 0 -0.28878760701375322 0.1984352968903606 0 -0.27938784373491388 0.18917199981814359 0 -0.27490594785389072 0.20112241201531189 0 -0.27490594785389072 0.20112241201531189 0 -0.25370102580463139 0.2052288024824625 0 -0.26439180367967152 0.18225540552070321 0 -0.25370102580463139 0.2052288024824625 0 -0.26439180367967152 0.18225540552070321 0 -0.23359887481107691 0.1809086922627815 0 -0.27490594785389072 0.20112241201531189 0 -0.25370102580463139 0.2052288024824625 0 -0.27258595833473342 0.22149207507906341 0 -0.29521310730918271 0.21354937073956171 0 -0.27490594785389072 0.20112241201531189 0 -0.27258595833473342 0.22149207507906341 0 -0.29125564533142001 0.24067530578368901 0 -0.27258595833473342 0.22149207507906341 0 -0.26834113505385238 0.23837358332174549 0 -0.27258595833473342 0.22149207507906341 0 -0.25272375818517617 0.22994970808158929 0 -0.26834113505385238 0.23837358332174549 0 -0.25370102580463139 0.2052288024824625 0 -0.27258595833473342 0.22149207507906341 0 -0.25272375818517617 0.22994970808158929 0 -0.25272375818517617 0.22994970808158929 0 -0.25621817608628389 0.2460965770837312 0 -0.26834113505385238 0.23837358332174549 0 -0.25621817608628389 0.2460965770837312 0 -0.26834113505385238 0.23837358332174549 0 -0.26892213733164849 0.25365425058065472 0 -0.29125564533142001 0.24067530578368901 0 -0.26834113505385238 0.23837358332174549 0 -0.26892213733164849 0.25365425058065472 0 -0.29370567785695612 0.15770531643225719 0 -0.28412418886142132 0.16518528890623771 0 -0.28065913062351988 0.14575155473079041 0 -0.30159211447790629 0.14759241864651959 0 -0.29370567785695612 0.15770531643225719 0 -0.28065913062351988 0.14575155473079041 0 -0.29682817834931757 0.13068013418198679 0 -0.30159211447790629 0.14759241864651959 0 -0.28065913062351988 0.14575155473079041 0 -0.29682817834931757 0.13068013418198679 0 -0.28065913062351988 0.14575155473079041 0 -0.28285123447775751 0.1183560919224374 0 -0.31354631638020197 0.13395604467094269 0 -0.29682817834931757 0.13068013418198679 0 -0.30159211447790629 0.14759241864651959 0 -0.31354631638020197 0.13395604467094269 0 -0.3122891553291075 0.14635758184588041 0 -0.30159211447790629 0.14759241864651959 0 -0.31353256245119709 0.1587605055712967 0 -0.3122891553291075 0.14635758184588041 0 -0.30159211447790629 0.14759241864651959 0 -0.31496429102988749 0.16269226213852109 0 -0.31353256245119709 0.1587605055712967 0 -0.30488677357152572 0.1641353808659653 0 -0.30159211447790629 0.14759241864651959 0 -0.30488677357152572 0.1641353808659653 0 -0.29370567785695612 0.15770531643225719 0 -0.31353256245119709 0.1587605055712967 0 -0.30159211447790629 0.14759241864651959 0 -0.30488677357152572 0.1641353808659653 0 -0.31496429102988749 0.16269226213852109 0 -0.30225886166240762 0.17397067591913981 0 -0.31303823693556859 0.17707572181323081 0 -0.31496429102988749 0.16269226213852109 0 -0.30225886166240762 0.17397067591913981 0 -0.31496429102988749 0.16269226213852109 0 -0.30488677357152572 0.1641353808659653 0 -0.30225886166240762 0.17397067591913981 0 -0.30488677357152572 0.1641353808659653 0 -0.30225886166240762 0.17397067591913981 0 -0.29597535979189887 0.1670989905046398 0 -0.30488677357152572 0.1641353808659653 0 -0.29370567785695612 0.15770531643225719 0 -0.29597535979189887 0.1670989905046398 0 -0.31303823693556859 0.17707572181323081 0 -0.3108046026399135 0.18379038091696129 0 -0.30225886166240762 0.17397067591913981 0 -0.30225886166240762 0.17397067591913981 0 -0.29917056928694541 0.1864234356954344 0 -0.28955343229492791 0.1852490896997587 0 -0.3108046026399135 0.18379038091696129 0 -0.30225886166240762 0.17397067591913981 0 -0.29917056928694541 0.1864234356954344 0 -0.30225886166240762 0.17397067591913981 0 -0.28955343229492791 0.1852490896997587 0 -0.30225886166240762 0.17397067591913981 0 -0.28955343229492791 0.1852490896997587 0 -0.29024545837739651 0.173916500811098 0 -0.28955343229492791 0.1852490896997587 0 -0.29024545837739651 0.173916500811098 0 -0.27889874324695868 0.17762520371433099 0 -0.29024545837739651 0.173916500811098 0 -0.28412418886142132 0.16518528890623771 0 -0.27889874324695868 0.17762520371433099 0 -0.27938784373491388 0.18917199981814359 0 -0.28955343229492791 0.1852490896997587 0 -0.27889874324695868 0.17762520371433099 0 -0.29370567785695612 0.15770531643225719 0 -0.29597535979189887 0.1670989905046398 0 -0.28412418886142132 0.16518528890623771 0 -0.30225886166240762 0.17397067591913981 0 -0.29024545837739651 0.173916500811098 0 -0.29597535979189887 0.1670989905046398 0 -0.29024545837739651 0.173916500811098 0 -0.29597535979189887 0.1670989905046398 0 -0.28412418886142132 0.16518528890623771 0 -0.28412418886142132 0.16518528890623771 0 -0.26844272787379447 0.16268744982768751 0 -0.27889874324695868 0.17762520371433099 0 -0.28412418886142132 0.16518528890623771 0 -0.26844272787379447 0.16268744982768751 0 -0.28065913062351988 0.14575155473079041 0 -0.26844272787379447 0.16268744982768751 0 -0.27889874324695868 0.17762520371433099 0 -0.26439180367967152 0.18225540552070321 0 -0.27938784373491388 0.18917199981814359 0 -0.27889874324695868 0.17762520371433099 0 -0.26439180367967152 0.18225540552070321 0 -0.26844272787379447 0.16268744982768751 0 -0.26439180367967152 0.18225540552070321 0 -0.247018622616726 0.15992587597476091 0 -0.26844272787379447 0.16268744982768751 0 -0.25846103874104392 0.14702121199507179 0 -0.247018622616726 0.15992587597476091 0 -0.26844272787379447 0.16268744982768751 0 -0.25846103874104392 0.14702121199507179 0 -0.28065913062351988 0.14575155473079041 0 -0.25846103874104392 0.14702121199507179 0 -0.28065913062351988 0.14575155473079041 0 -0.25922316449870308 0.12628093809151891 0 -0.28065913062351988 0.14575155473079041 0 -0.25922316449870308 0.12628093809151891 0 -0.28285123447775751 0.1183560919224374 0 -0.25846103874104392 0.14702121199507179 0 -0.25922316449870308 0.12628093809151891 0 -0.2369615480924761 0.1404602413506009 0 -0.25922316449870308 0.12628093809151891 0 -0.25136603029008331 0.1103208693098497 0 -0.26687835675477128 0.1014348965859585 0 -0.25136603029008331 0.1103208693098497 0 -0.26687835675477128 0.1014348965859585 0 -0.24377998071086901 0.096378574065869249 0 -0.26687835675477128 0.1014348965859585 0 -0.28737892951993471 0.098967158637655914 0 -0.27569457229827071 0.081243623470509244 0 -0.26687835675477128 0.1014348965859585 0 -0.28285123447775751 0.1183560919224374 0 -0.28737892951993471 0.098967158637655914 0 -0.25922316449870308 0.12628093809151891 0 -0.26687835675477128 0.1014348965859585 0 -0.28285123447775751 0.1183560919224374 0 -0.29682817834931757 0.13068013418198679 0 -0.28285123447775751 0.1183560919224374 0 -0.30549209578720232 0.10774456093924389 0 -0.28285123447775751 0.1183560919224374 0 -0.28737892951993471 0.098967158637655914 0 -0.30549209578720232 0.10774456093924389 0 -0.28737892951993471 0.098967158637655914 0 -0.30549209578720232 0.10774456093924389 0 -0.29743787519420251 0.08153307720754506 0 -0.30549209578720232 0.10774456093924389 0 -0.29743787519420251 0.08153307720754506 0 -0.31354631638020197 0.13395604467094269 0 -0.29682817834931757 0.13068013418198679 0 -0.30549209578720232 0.10774456093924389 0 -0.31354631638020197 0.13395604467094269 0 -0.30549209578720232 0.10774456093924389 0 -0.29926204670725021 0.066629363318123747 0 -0.30931237829482389 0.073252958087475881 0 -0.31697319293959142 0.061410437985649477 0 -0.29926204670725021 0.066629363318123747 0 -0.30931237829482389 0.073252958087475881 0 -0.29743787519420251 0.08153307720754506 0 -0.30549209578720232 0.10774456093924389 0 -0.29743787519420251 0.08153307720754506 0 -0.31312795334666071 0.083579729522452809 0 -0.30931237829482389 0.073252958087475881 0 -0.29743787519420251 0.08153307720754506 0 -0.31312795334666071 0.083579729522452809 0 -0.28737892951993471 0.098967158637655914 0 -0.29743787519420251 0.08153307720754506 0 -0.27569457229827071 0.081243623470509244 0 -0.29743787519420251 0.08153307720754506 0 -0.28743776060402371 0.060458689408765323 0 -0.28938365460120269 0.05532159347584624 0 -0.29743787519420251 0.08153307720754506 0 -0.28938365460120269 0.05532159347584624 0 -0.29926204670725021 0.066629363318123747 0 -0.29743787519420251 0.08153307720754506 0 -0.28938365460120269 0.05532159347584624 0 -0.29743787519420251 0.08153307720754506 0 -0.27569457229827071 0.081243623470509244 0 -0.28743776060402371 0.060458689408765323 0 -0.27569457229827071 0.081243623470509244 0 -0.26257114212692878 0.06573449919026883 0 -0.28743776060402371 0.060458689408765323 0 -0.26257114212692878 0.06573449919026883 0 -0.28743776060402371 0.060458689408765323 0 -0.26687835675477128 0.1014348965859585 0 -0.25261226255175379 0.080423606239198905 0 -0.24377998071086901 0.096378574065869249 0 -0.26687835675477128 0.1014348965859585 0 -0.27569457229827071 0.081243623470509244 0 -0.25261226255175379 0.080423606239198905 0 -0.26257114212692878 0.06573449919026883 0 -0.23770452364983391 0.071010308971772351 0 -0.25261226255175379 0.080423606239198905 0 -0.26257114212692878 0.06573449919026883 0 -0.23770452364983391 0.071010308971772351 0 -0.27569457229827071 0.081243623470509244 0 -0.25261226255175379 0.080423606239198905 0 -0.26257114212692878 0.06573449919026883 0 -0.2522816967992324 0.037264740289820159 0 -0.27263172987273521 0.051913181220590639 0 -0.24906194248509719 0.058488871325365822 0 -0.26257114212692878 0.06573449919026883 0 -0.27263172987273521 0.051913181220590639 0 -0.24906194248509719 0.058488871325365822 0 -0.2522816967992324 0.037264740289820159 0 -0.2684979789729644 0.03593820420606865 0 -0.27263172987273521 0.051913181220590639 0 -0.2684979789729644 0.03593820420606865 0 -0.27263172987273521 0.051913181220590639 0 -0.28132943400820298 0.02911010974414751 0 -0.27263172987273521 0.051913181220590639 0 -0.28132943400820298 0.02911010974414751 0 -0.28938365460120269 0.05532159347584624 0 -0.26257114212692878 0.06573449919026883 0 -0.27263172987273521 0.051913181220590639 0 -0.28743776060402371 0.060458689408765323 0 -0.25267499080189931 -0.0034516002120552492 0 -0.26909988492935111 -0.0018655285383734981 0 -0.25157722050270093 0.012682655753942951 0 -0.26909988492935111 -0.0018655285383734981 0 -0.25157722050270093 0.012682655753942951 0 -0.27200359261247947 0.017754051058092819 0 -0.2522816967992324 0.037264740289820159 0 -0.25157722050270093 0.012682655753942951 0 -0.27200359261247947 0.017754051058092819 0 -0.2522816967992324 0.037264740289820159 0 -0.2684979789729644 0.03593820420606865 0 -0.27200359261247947 0.017754051058092819 0 -0.2522816967992324 0.037264740289820159 0 -0.27200359261247947 0.017754051058092819 0 -0.27200359261247947 0.017754051058092819 0 -0.28831373269731447 0.017122983851404761 0 -0.28132943400820298 0.02911010974414751 0 -0.2684979789729644 0.03593820420606865 0 -0.27200359261247947 0.017754051058092819 0 -0.28132943400820298 0.02911010974414751 0 -0.26909988492935111 -0.0018655285383734981 0 -0.2917254884257266 -0.0017566381736345419 0 -0.27200359261247947 0.017754051058092819 0 -0.2917254884257266 -0.0017566381736345419 0 -0.27200359261247947 0.017754051058092819 0 -0.28831373269731447 0.017122983851404761 0 -0.2917254884257266 -0.0017566381736345419 0 -0.28831373269731447 0.017122983851404761 0 -0.29997880334656019 0.01439552450637107 0 -0.2917254884257266 -0.0017566381736345419 0 -0.27200359261247947 0.017754051058092819 0 -0.28831373269731447 0.017122983851404761 0 -0.29656482898857922 0.02610767777843559 0 -0.29997880334656019 0.01439552450637107 0 -0.28831373269731447 0.017122983851404761 0 -0.28132943400820298 0.02911010974414751 0 -0.29656482898857922 0.02610767777843559 0 -0.28132943400820298 0.02911010974414751 0 -0.29656482898857922 0.02610767777843559 0 -0.29344050585463782 0.03493273697686209 0 -0.29656482898857922 0.02610767777843559 0 -0.31039051656375261 0.022327184027059441 0 -0.30541723396373921 0.038711125382435783 0 -0.31039051656375261 0.022327184027059441 0 -0.30541723396373921 0.038711125382435783 0 -0.32038394146944787 0.031620215762440292 0 -0.29656482898857922 0.02610767777843559 0 -0.31039051656375261 0.022327184027059441 0 -0.29997880334656019 0.01439552450637107 0 -0.31039051656375261 0.022327184027059441 0 -0.31177688145040278 0.0050359958776742568 0 -0.29997880334656019 0.01439552450637107 0 -0.2917254884257266 -0.0017566381736345419 0 -0.31177688145040278 0.0050359958776742568 0 -0.29997880334656019 0.01439552450637107 0 -0.27263172987273521 0.051913181220590639 0 -0.28743776060402371 0.060458689408765323 0 -0.28938365460120269 0.05532159347584624 0 -0.28938365460120269 0.05532159347584624 0 -0.29045052645802971 0.045802035002429492 0 -0.29738278035354182 0.050541329601553678 0 -0.28938365460120269 0.05532159347584624 0 -0.29738278035354182 0.050541329601553678 0 -0.29780899910201009 0.056562827273038227 0 -0.29926204670725021 0.066629363318123747 0 -0.28938365460120269 0.05532159347584624 0 -0.29780899910201009 0.056562827273038227 0 -0.28132943400820298 0.02911010974414751 0 -0.28938365460120269 0.05532159347584624 0 -0.29045052645802971 0.045802035002429492 0 -0.28132943400820298 0.02911010974414751 0 -0.28938365460120269 0.05532159347584624 0 -0.28132943400820298 0.02911010974414751 0 -0.29344050585463782 0.03493273697686209 0 -0.29045052645802971 0.045802035002429492 0 -0.29344050585463782 0.03493273697686209 0 -0.29045052645802971 0.045802035002429492 0 -0.30541723396373921 0.038711125382435783 0 -0.29045052645802971 0.045802035002429492 0 -0.30541723396373921 0.038711125382435783 0 -0.29738278035354182 0.050541329601553678 0 -0.29045052645802971 0.045802035002429492 0 -0.30541723396373921 0.038711125382435783 0 -0.29656482898857922 0.02610767777843559 0 -0.29344050585463782 0.03493273697686209 0 -0.30541723396373921 0.038711125382435783 0 -0.30541723396373921 0.038711125382435783 0 -0.30520751474604563 0.05375902269662923 0 -0.31780711793698518 0.045521831715634557 0 -0.29926204670725021 0.066629363318123747 0 -0.30520751474604563 0.05375902269662923 0 -0.31697319293959142 0.061410437985649477 0 -0.30541723396373921 0.038711125382435783 0 -0.30520751474604563 0.05375902269662923 0 -0.29738278035354182 0.050541329601553678 0 -0.30520751474604563 0.05375902269662923 0 -0.29738278035354182 0.050541329601553678 0 -0.29780899910201009 0.056562827273038227 0 -0.29926204670725021 0.066629363318123747 0 -0.30520751474604563 0.05375902269662923 0 -0.29780899910201009 0.056562827273038227 0 -0.32553678940662539 0.052415823907368687 0 -0.31780711793698518 0.045521831715634557 0 -0.33422422494732851 0.04449049745268327 0 -0.31697319293959142 0.061410437985649477 0 -0.32553678940662539 0.052415823907368687 0 -0.31780711793698518 0.045521831715634557 0 -0.30520751474604563 0.05375902269662923 0 -0.31697319293959142 0.061410437985649477 0 -0.31780711793698518 0.045521831715634557 0 -0.31697319293959142 0.061410437985649477 0 -0.32808937753058609 0.059947696530402161 0 -0.32553678940662539 0.052415823907368687 0 -0.31780711793698518 0.045521831715634557 0 -0.32038394146944787 0.031620215762440292 0 -0.33422422494732851 0.04449049745268327 0 -0.30541723396373921 0.038711125382435783 0 -0.31780711793698518 0.045521831715634557 0 -0.32038394146944787 0.031620215762440292 0 -0.30541723396373921 0.038711125382435783 0 -0.32038394146944787 0.031620215762440292 0 -0.32038394146944787 0.031620215762440292 0 -0.33422422494732851 0.04449049745268327 0 -0.33422422494732851 0.04449049745268327 0 -0.34051642268078958 0.02208187176518148 0 -0.34924074101412461 0.03711639968071382 0 -0.32038394146944787 0.031620215762440292 0 -0.33422422494732851 0.04449049745268327 0 -0.34051642268078958 0.02208187176518148 0 -0.33422422494732851 0.04449049745268327 0 -0.34715076893326918 0.04673829876922056 0 -0.34924074101412461 0.03711639968071382 0 -0.33422422494732851 0.04449049745268327 0 -0.34806450842520742 0.057360779142928031 0 -0.34715076893326918 0.04673829876922056 0 -0.33422422494732851 0.04449049745268327 0 -0.34806450842520742 0.057360779142928031 0 -0.33422422494732851 0.04449049745268327 0 -0.33482930480244999 0.055095026294593591 0 -0.34806450842520742 0.057360779142928031 0 -0.3407399656121517 0.06083029771636933 0 -0.33482930480244999 0.055095026294593591 0 -0.33440717105718593 0.063083878638897639 0 -0.3407399656121517 0.06083029771636933 0 -0.33482930480244999 0.055095026294593591 0 -0.34806450842520742 0.057360779142928031 0 -0.32808937753058609 0.059947696530402161 0 -0.33482930480244999 0.055095026294593591 0 -0.33440717105718593 0.063083878638897639 0 -0.32808937753058609 0.059947696530402161 0 -0.32553678940662539 0.052415823907368687 0 -0.33482930480244999 0.055095026294593591 0 -0.32553678940662539 0.052415823907368687 0 -0.33422422494732851 0.04449049745268327 0 -0.33482930480244999 0.055095026294593591 0 -0.31039051656375261 0.022327184027059441 0 -0.31177688145040278 0.0050359958776742568 0 -0.3261420213634148 0.01391490981329808 0 -0.32828291010712762 -0.0049346835118845543 0 -0.31177688145040278 0.0050359958776742568 0 -0.3261420213634148 0.01391490981329808 0 -0.31039051656375261 0.022327184027059441 0 -0.32038394146944787 0.031620215762440292 0 -0.3261420213634148 0.01391490981329808 0 -0.31039051656375261 0.022327184027059441 0 -0.32038394146944787 0.031620215762440292 0 -0.32038394146944787 0.031620215762440292 0 -0.34051642268078958 0.02208187176518148 0 -0.32038394146944787 0.031620215762440292 0 -0.3261420213634148 0.01391490981329808 0 -0.34051642268078958 0.02208187176518148 0 -0.3261420213634148 0.01391490981329808 0 -0.34051642268078958 0.02208187176518148 0 -0.34055428987364128 0.0059527955302196532 0 -0.32828291010712762 -0.0049346835118845543 0 -0.3261420213634148 0.01391490981329808 0 -0.34055428987364128 0.0059527955302196532 0 -0.34051642268078958 0.02208187176518148 0 -0.34055428987364128 0.0059527955302196532 0 -0.36064890389212972 0.0125435277679194 0 -0.34718119132474479 -0.01384164818341615 0 -0.34055428987364128 0.0059527955302196532 0 -0.36064890389212972 0.0125435277679194 0 -0.34051642268078958 0.02208187176518148 0 -0.36064890389212972 0.0125435277679194 0 -0.34051642268078958 0.02208187176518148 0 -0.35699945364537122 0.027147445145089769 0 -0.34924074101412461 0.03711639968071382 0 -0.34051642268078958 0.02208187176518148 0 -0.35699945364537122 0.027147445145089769 0 -0.36064890389212972 0.0125435277679194 0 -0.35699945364537122 0.027147445145089769 0 -0.36163302121541668 0.029781402687577421 0 -0.35940737946489582 0.035374977024224222 0 -0.37998819155715241 0.0057865511937031933 0 -0.36738966121720701 0.029980518529024301 0 -0.37123175334181557 0.027162262264614271 0 -0.37998819155715241 0.0057865511937031933 0 -0.36738966121720701 0.029980518529024301 0 -0.3645477689834325 0.020181962352102071 0 -0.37998819155715241 0.0057865511937031933 0 -0.36738966121720701 0.029980518529024301 0 -0.36273559053419291 0.026622670051971411 0 -0.36738966121720701 0.029980518529024301 0 -0.3645477689834325 0.020181962352102071 0 -0.35699945364537122 0.027147445145089769 0 -0.36163302121541668 0.029781402687577421 0 -0.36273559053419291 0.026622670051971411 0 -0.35699945364537122 0.027147445145089769 0 -0.36273559053419291 0.026622670051971411 0 -0.3645477689834325 0.020181962352102071 0 -0.36163302121541668 0.029781402687577421 0 -0.36273559053419291 0.026622670051971411 0 -0.36738966121720701 0.029980518529024301 0 -0.35699945364537122 0.027147445145089769 0 -0.3645477689834325 0.020181962352102071 0 -0.36064890389212972 0.0125435277679194 0 -0.3645477689834325 0.020181962352102071 0 -0.36064890389212972 0.0125435277679194 0 -0.37998819155715241 0.0057865511937031933 0 -0.3645477689834325 0.020181962352102071 0 -0.36064890389212972 0.0125435277679194 0 -0.38683543611469601 0.0001369023841863784 0 -0.36064890389212972 0.0125435277679194 0 -0.37474494217865062 -0.0022388935110706832 0 -0.38683543611469601 0.0001369023841863784 0 -0.36064890389212972 0.0125435277679194 0 -0.37474494217865062 -0.0022388935110706832 0 -0.36307869926690151 -0.00068504054922277494 0 -0.36064890389212972 0.0125435277679194 0 -0.35479113087726238 0.05417448586434577 0 -0.34715076893326918 0.04673829876922056 0 -0.35593663516940488 0.04278932274017315 0 -0.35479113087726238 0.05417448586434577 0 -0.35147867423579721 0.06053566178096708 0 -0.3622197730044176 0.060127746183944272 0 -0.35479113087726238 0.05417448586434577 0 -0.35147867423579721 0.06053566178096708 0 -0.35479113087726238 0.05417448586434577 0 -0.34806450842520742 0.057360779142928031 0 -0.35147867423579721 0.06053566178096708 0 -0.35479113087726238 0.05417448586434577 0 -0.34806450842520742 0.057360779142928031 0 -0.34806450842520742 0.057360779142928031 0 -0.35147867423579721 0.06053566178096708 0 -0.3447014191436914 0.063951910484466787 0 -0.34806450842520742 0.057360779142928031 0 -0.35147867423579721 0.06053566178096708 0 -0.3407399656121517 0.06083029771636933 0 -0.34806450842520742 0.057360779142928031 0 -0.3407399656121517 0.06083029771636933 0 -0.34806450842520742 0.057360779142928031 0 -0.3447014191436914 0.063951910484466787 0 -0.35479113087726238 0.05417448586434577 0 -0.34806450842520742 0.057360779142928031 0 -0.34715076893326918 0.04673829876922056 0 -0.34715076893326918 0.04673829876922056 0 -0.34924074101412461 0.03711639968071382 0 -0.35593663516940488 0.04278932274017315 0 -0.36738966121720701 0.029980518529024301 0 -0.35479113087726238 0.05417448586434577 0 -0.35593663516940488 0.04278932274017315 0 -0.35699945364537122 0.027147445145089769 0 -0.34924074101412461 0.03711639968071382 0 -0.35940737946489582 0.035374977024224222 0 -0.34924074101412461 0.03711639968071382 0 -0.35593663516940488 0.04278932274017315 0 -0.35940737946489582 0.035374977024224222 0 -0.36738966121720701 0.029980518529024301 0 -0.35479113087726238 0.05417448586434577 0 -0.36677646394688163 0.041367990420506082 0 -0.37123175334181557 0.027162262264614271 0 -0.37046143272875132 0.04675171495388801 0 -0.36738966121720701 0.029980518529024301 0 -0.35479113087726238 0.05417448586434577 0 -0.37123175334181557 0.027162262264614271 0 -0.36677646394688163 0.041367990420506082 0 -0.37046143272875132 0.04675171495388801 0 -0.3764786745208083 0.032098692741998169 0 -0.37123175334181557 0.027162262264614271 0 -0.37046143272875132 0.04675171495388801 0 -0.36163302121541668 0.029781402687577421 0 -0.36738966121720701 0.029980518529024301 0 -0.35940737946489582 0.035374977024224222 0 -0.36738966121720701 0.029980518529024301 0 -0.35593663516940488 0.04278932274017315 0 -0.35940737946489582 0.035374977024224222 0 -0.36738966121720701 0.029980518529024301 0 -0.37123175334181557 0.027162262264614271 0 -0.36677646394688163 0.041367990420506082 0 -0.36677646394688163 0.041367990420506082 0 -0.37046143272875132 0.04675171495388801 0 -0.36802302346639398 0.047906750352184523 0 -0.36677646394688163 0.041367990420506082 0 -0.36802302346639398 0.047906750352184523 0 -0.37046143272875132 0.04675171495388801 0 -0.37000681959492809 0.05831264468359916 0 -0.36802302346639398 0.047906750352184523 0 -0.37000681959492809 0.05831264468359916 0 -0.37046143272875132 0.04675171495388801 0 -0.36802302346639398 0.047906750352184523 0 -0.37000681959492809 0.05831264468359916 0 -0.37046143272875132 0.04675171495388801 0 -0.36802302346639398 0.047906750352184523 0 -0.35479113087726238 0.05417448586434577 0 -0.36802302346639398 0.047906750352184523 0 -0.35479113087726238 0.05417448586434577 0 -0.36802302346639398 0.047906750352184523 0 -0.3622197730044176 0.060127746183944272 0 -0.35479113087726238 0.05417448586434577 0 -0.36677646394688163 0.041367990420506082 0 -0.36802302346639398 0.047906750352184523 0 -0.36802302346639398 0.047906750352184523 0 -0.3622197730044176 0.060127746183944272 0 -0.37000681959492809 0.05831264468359916 0 -0.35147867423579721 0.06053566178096708 0 -0.36926886504626422 0.077079019973005369 0 -0.3622197730044176 0.060127746183944272 0 -0.37000681959492809 0.05831264468359916 0 -0.36926886504626422 0.077079019973005369 0 -0.37000681959492809 0.05831264468359916 0 -0.36926886504626422 0.077079019973005369 0 -0.37079498002478778 0.078498176574577722 0 -0.36926886504626422 0.077079019973005369 0 -0.34551673285671652 0.071984855543133663 0 -0.36912013352382872 0.080861301107253064 0 -0.37000681959492809 0.05831264468359916 0 -0.37079498002478778 0.078498176574577722 0 -0.37470600383380392 0.082961959162170973 0 -0.35147867423579721 0.06053566178096708 0 -0.3622197730044176 0.060127746183944272 0 -0.36926886504626422 0.077079019973005369 0 -0.37000681959492809 0.05831264468359916 0 -0.37470600383380392 0.082961959162170973 0 -0.37000681959492809 0.05831264468359916 0 -0.36926886504626422 0.077079019973005369 0 -0.36926886504626422 0.077079019973005369 0 -0.37079498002478778 0.078498176574577722 0 -0.34551673285671652 0.071984855543133663 0 -0.34763839367566191 0.079069075487607554 0 -0.36912013352382872 0.080861301107253064 0 -0.34551673285671652 0.071984855543133663 0 -0.36912013352382872 0.080861301107253064 0 -0.35147867423579721 0.06053566178096708 0 -0.36926886504626422 0.077079019973005369 0 -0.34551673285671652 0.071984855543133663 0 -0.34408269824063842 0.074738747125954852 0 -0.34763839367566191 0.079069075487607554 0 -0.34179116264722731 0.080399472229040897 0 -0.34408269824063842 0.074738747125954852 0 -0.34551673285671652 0.071984855543133663 0 -0.34763839367566191 0.079069075487607554 0 -0.34408269824063842 0.074738747125954852 0 -0.34551673285671652 0.071984855543133663 0 -0.35147867423579721 0.06053566178096708 0 -0.34551673285671652 0.071984855543133663 0 -0.3447014191436914 0.063951910484466787 0 -0.35147867423579721 0.06053566178096708 0 -0.34551673285671652 0.071984855543133663 0 -0.34763839367566191 0.079069075487607554 0 -0.36858415035949882 0.094491491786065696 0 -0.34763839367566191 0.079069075487607554 0 -0.36858415035949882 0.094491491786065696 0 -0.35198293914272999 0.094145145766245733 0 -0.34456144318064219 0.08667329674911145 0 -0.34763839367566191 0.079069075487607554 0 -0.35198293914272999 0.094145145766245733 0 -0.34456144318064219 0.08667329674911145 0 -0.35198293914272999 0.094145145766245733 0 -0.34431035454597703 0.093789606507308373 0 -0.34456144318064219 0.08667329674911145 0 -0.34763839367566191 0.079069075487607554 0 -0.34179116264722731 0.080399472229040897 0 -0.3782625711058698 0.101617738696854 0 -0.37470600383380392 0.082961959162170973 0 -0.36858415035949882 0.094491491786065696 0 -0.34763839367566191 0.079069075487607554 0 -0.36912013352382872 0.080861301107253064 0 -0.36858415035949882 0.094491491786065696 0 -0.36926886504626422 0.077079019973005369 0 -0.37079498002478778 0.078498176574577722 0 -0.36912013352382872 0.080861301107253064 0 -0.36926886504626422 0.077079019973005369 0 -0.36912013352382872 0.080861301107253064 0 -0.36912013352382872 0.080861301107253064 0 -0.37470600383380392 0.082961959162170973 0 -0.37079498002478778 0.078498176574577722 0 -0.36912013352382872 0.080861301107253064 0 -0.37470600383380392 0.082961959162170973 0 -0.36912013352382872 0.080861301107253064 0 -0.37470600383380392 0.082961959162170973 0 -0.36858415035949882 0.094491491786065696 0 -0.36912013352382872 0.080861301107253064 0 -0.36858415035949882 0.094491491786065696 0 -0.36858415035949882 0.094491491786065696 0 -0.36747352968705388 0.12273486311700831 0 -0.3782625711058698 0.101617738696854 0 -0.36858415035949882 0.094491491786065696 0 -0.36858415035949882 0.094491491786065696 0 -0.36006702585218792 0.10838608290929221 0 -0.35198293914272999 0.094145145766245733 0 -0.36858415035949882 0.094491491786065696 0 -0.36006702585218792 0.10838608290929221 0 -0.36747352968705388 0.12273486311700831 0 -0.3782625711058698 0.101617738696854 0 -0.36858415035949882 0.094491491786065696 0 -0.36747352968705388 0.12273486311700831 0 -0.36006702585218792 0.10838608290929221 0 -0.36747352968705388 0.12273486311700831 0 -0.35832203275528268 0.1183511860346923 0 -0.35528769071996391 0.12689780186549679 0 -0.36747352968705388 0.12273486311700831 0 -0.35832203275528268 0.1183511860346923 0 -0.35528769071996391 0.12689780186549679 0 -0.35832203275528268 0.1183511860346923 0 -0.35045988476192508 0.115385996246972 0 -0.36006702585218792 0.10838608290929221 0 -0.35832203275528268 0.1183511860346923 0 -0.35045988476192508 0.115385996246972 0 -0.35045988476192508 0.115385996246972 0 -0.34547580274860562 0.10394098399483009 0 -0.33570271963636877 0.11206429961599181 0 -0.35528769071996391 0.12689780186549679 0 -0.35045988476192508 0.115385996246972 0 -0.34115039425197219 0.12498493974687711 0 -0.36006702585218792 0.10838608290929221 0 -0.35198293914272999 0.094145145766245733 0 -0.34547580274860562 0.10394098399483009 0 -0.36006702585218792 0.10838608290929221 0 -0.35045988476192508 0.115385996246972 0 -0.34547580274860562 0.10394098399483009 0 -0.35198293914272999 0.094145145766245733 0 -0.34547580274860562 0.10394098399483009 0 -0.34431035454597703 0.093789606507308373 0 -0.34547580274860562 0.10394098399483009 0 -0.34431035454597703 0.093789606507308373 0 -0.335413749579693 0.097286071719103154 0 -0.34547580274860562 0.10394098399483009 0 -0.335413749579693 0.097286071719103154 0 -0.33570271963636877 0.11206429961599181 0 -0.335413749579693 0.097286071719103154 0 -0.33570271963636877 0.11206429961599181 0 -0.32444247844199348 0.1047035033472971 0 -0.35045988476192508 0.115385996246972 0 -0.34115039425197219 0.12498493974687711 0 -0.33570271963636877 0.11206429961599181 0 -0.32917568526667751 0.12578156900391591 0 -0.33570271963636877 0.11206429961599181 0 -0.32114709127587232 0.11611322513389059 0 -0.32917568526667751 0.12578156900391591 0 -0.34115039425197219 0.12498493974687711 0 -0.33570271963636877 0.11206429961599181 0 -0.31354631638020197 0.13395604467094269 0 -0.30549209578720232 0.10774456093924389 0 -0.32114709127587232 0.11611322513389059 0 -0.30549209578720232 0.10774456093924389 0 -0.32114709127587232 0.11611322513389059 0 -0.32444247844199348 0.1047035033472971 0 -0.33570271963636877 0.11206429961599181 0 -0.32114709127587232 0.11611322513389059 0 -0.32444247844199348 0.1047035033472971 0 -0.30549209578720232 0.10774456093924389 0 -0.32444247844199348 0.1047035033472971 0 -0.32445673593083119 0.090309359328255762 0 -0.30549209578720232 0.10774456093924389 0 -0.32445673593083119 0.090309359328255762 0 -0.31312795334666071 0.083579729522452809 0 -0.335413749579693 0.097286071719103154 0 -0.32444247844199348 0.1047035033472971 0 -0.32445673593083119 0.090309359328255762 0 -0.32445673593083119 0.090309359328255762 0 -0.3275606083710243 0.080211281293741998 0 -0.31312795334666071 0.083579729522452809 0 -0.3275606083710243 0.080211281293741998 0 -0.31312795334666071 0.083579729522452809 0 -0.31976082328641481 0.073112182403608325 0 -0.30931237829482389 0.073252958087475881 0 -0.31312795334666071 0.083579729522452809 0 -0.31976082328641481 0.073112182403608325 0 -0.30931237829482389 0.073252958087475881 0 -0.31697319293959142 0.061410437985649477 0 -0.31976082328641481 0.073112182403608325 0 -0.31697319293959142 0.061410437985649477 0 -0.31976082328641481 0.073112182403608325 0 -0.32886731949388731 0.069155273298144179 0 -0.31697319293959142 0.061410437985649477 0 -0.32808937753058609 0.059947696530402161 0 -0.32886731949388731 0.069155273298144179 0 -0.3275606083710243 0.080211281293741998 0 -0.31976082328641481 0.073112182403608325 0 -0.32886731949388731 0.069155273298144179 0 -0.32886731949388731 0.069155273298144179 0 -0.33770721458858299 0.069047958238937293 0 -0.336378655355973 0.076693290193422539 0 -0.3275606083710243 0.080211281293741998 0 -0.32886731949388731 0.069155273298144179 0 -0.336378655355973 0.076693290193422539 0 -0.33440717105718593 0.063083878638897639 0 -0.32886731949388731 0.069155273298144179 0 -0.33770721458858299 0.069047958238937293 0 -0.32808937753058609 0.059947696530402161 0 -0.33440717105718593 0.063083878638897639 0 -0.32886731949388731 0.069155273298144179 0 -0.3407399656121517 0.06083029771636933 0 -0.33440717105718593 0.063083878638897639 0 -0.33770721458858299 0.069047958238937293 0 -0.3407399656121517 0.06083029771636933 0 -0.3447014191436914 0.063951910484466787 0 -0.33770721458858299 0.069047958238937293 0 -0.34551673285671652 0.071984855543133663 0 -0.3447014191436914 0.063951910484466787 0 -0.33770721458858299 0.069047958238937293 0 -0.34408269824063842 0.074738747125954852 0 -0.33770721458858299 0.069047958238937293 0 -0.336378655355973 0.076693290193422539 0 -0.34408269824063842 0.074738747125954852 0 -0.34551673285671652 0.071984855543133663 0 -0.33770721458858299 0.069047958238937293 0 -0.34551673285671652 0.071984855543133663 0 -0.33770721458858299 0.069047958238937293 0 -0.34408269824063842 0.074738747125954852 0 -0.336378655355973 0.076693290193422539 0 -0.34179116264722731 0.080399472229040897 0 -0.336378655355973 0.076693290193422539 0 -0.34179116264722731 0.080399472229040897 0 -0.33708436589161489 0.085963183755354639 0 -0.34456144318064219 0.08667329674911145 0 -0.34179116264722731 0.080399472229040897 0 -0.33708436589161489 0.085963183755354639 0 -0.34456144318064219 0.08667329674911145 0 -0.34431035454597703 0.093789606507308373 0 -0.33708436589161489 0.085963183755354639 0 -0.34431035454597703 0.093789606507308373 0 -0.335413749579693 0.097286071719103154 0 -0.33708436589161489 0.085963183755354639 0 -0.335413749579693 0.097286071719103154 0 -0.32445673593083119 0.090309359328255762 0 -0.33708436589161489 0.085963183755354639 0 -0.32445673593083119 0.090309359328255762 0 -0.3275606083710243 0.080211281293741998 0 -0.33708436589161489 0.085963183755354639 0 -0.3275606083710243 0.080211281293741998 0 -0.336378655355973 0.076693290193422539 0 -0.33708436589161489 0.085963183755354639 0 -0.38891458820749281 0.47713565504117422 0 -0.42172655890518862 0.5 0 -0.3640375775585698 0.5 0 -0.38891458820749281 0.47713565504117422 0 -0.37103467036260362 0.45695891695805302 0 -0.36943712044780219 0.47475959506207249 0 -0.39694697642853649 0.45370639251272787 0 -0.37103467036260362 0.45695891695805302 0 -0.38891458820749281 0.47713565504117422 0 -0.39694697642853649 0.45370639251272787 0 -0.37103467036260362 0.45695891695805302 0 -0.38249991962136642 0.44345487931465249 0 -0.39694697642853649 0.45370639251272787 0 -0.37103467036260362 0.45695891695805302 0 -0.38249991962136642 0.44345487931465249 0 -0.39694697642853649 0.45370639251272787 0 -0.40464661760035381 0.43350824459614162 0 -0.38891458820749281 0.47713565504117422 0 -0.39694697642853649 0.45370639251272787 0 -0.41631826774707797 0.4711213942969617 0 -0.39694697642853649 0.45370639251272787 0 -0.42285928249446952 0.45045386806740279 0 -0.41631826774707797 0.4711213942969617 0 -0.42285928249446952 0.45045386806740279 0 -0.42501824733507809 0.43459816807542118 0 -0.40464661760035381 0.43350824459614162 0 -0.39694697642853649 0.45370639251272787 0 -0.42285928249446952 0.45045386806740279 0 -0.39694697642853649 0.45370639251272787 0 -0.42285928249446952 0.45045386806740279 0 -0.40464661760035381 0.43350824459614162 0 -0.42285928249446952 0.45045386806740279 0 -0.43521244088076849 0.46107148678855758 0 -0.44877158856040261 0.44720134362207808 0 -0.42285928249446952 0.45045386806740279 0 -0.44877158856040261 0.44720134362207808 0 -0.42285928249446952 0.45045386806740279 0 -0.43592409671607729 0.44045812782560079 0 -0.44877158856040261 0.44720134362207808 0 -0.42285928249446952 0.45045386806740279 0 -0.43592409671607729 0.44045812782560079 0 -0.42501824733507809 0.43459816807542118 0 -0.42285928249446952 0.45045386806740279 0 -0.43521244088076849 0.46107148678855758 0 -0.41631826774707797 0.4711213942969617 0 -0.41631826774707797 0.4711213942969617 0 -0.42172655890518862 0.5 0 -0.43935827984199688 0.47473889959161758 0 -0.43521244088076849 0.46107148678855758 0 -0.41631826774707797 0.4711213942969617 0 -0.43935827984199688 0.47473889959161758 0 -0.38891458820749281 0.47713565504117422 0 -0.41631826774707797 0.4711213942969617 0 -0.42172655890518862 0.5 0 -0.42172655890518862 0.5 0 -0.43935827984199688 0.47473889959161758 0 -0.47784082473980471 0.47626967285504462 0 -0.42172655890518862 0.5 0 -0.5 0.5 0 -0.47784082473980471 0.47626967285504462 0 -0.43935827984199688 0.47473889959161758 0 -0.47784082473980471 0.47626967285504462 0 -0.4487547857598953 0.46184192836472759 0 -0.5 0.5 0 -0.47784082473980471 0.47626967285504462 0 -0.49999999999999589 0.44077113011354369 0 -0.47784082473980471 0.47626967285504462 0 -0.47438579428019922 0.44398623686781052 0 -0.4627013265822788 0.4545376326069438 0 -0.47784082473980471 0.47626967285504462 0 -0.49999999999999589 0.44077113011354369 0 -0.47438579428019922 0.44398623686781052 0 -0.49999999999999589 0.44077113011354369 0 -0.47438579428019922 0.44398623686781052 0 -0.48180565015534738 0.42787197640755792 0 -0.49999999999999589 0.44077113011354369 0 -0.47438579428019922 0.44398623686781052 0 -0.47438579428019922 0.44398623686781052 0 -0.4627013265822788 0.4545376326069438 0 -0.44877158856040261 0.44720134362207808 0 -0.47438579428019922 0.44398623686781052 0 -0.44877158856040261 0.44720134362207808 0 -0.47438579428019922 0.44398623686781052 0 -0.44877158856040261 0.44720134362207808 0 -0.46289485375526918 0.43579199928955081 0 -0.44877158856040261 0.44720134362207808 0 -0.44878504691792248 0.43547483269414872 0 -0.46289485375526918 0.43579199928955081 0 -0.47784082473980471 0.47626967285504462 0 -0.4627013265822788 0.4545376326069438 0 -0.4487547857598953 0.46184192836472759 0 -0.4627013265822788 0.4545376326069438 0 -0.4487547857598953 0.46184192836472759 0 -0.44877158856040261 0.44720134362207808 0 -0.4487547857598953 0.46184192836472759 0 -0.44877158856040261 0.44720134362207808 0 -0.43521244088076849 0.46107148678855758 0 -0.4487547857598953 0.46184192836472759 0 -0.44877158856040261 0.44720134362207808 0 -0.43521244088076849 0.46107148678855758 0 -0.43935827984199688 0.47473889959161758 0 -0.4487547857598953 0.46184192836472759 0 -0.44877158856040261 0.44720134362207808 0 -0.44508566455651338 0.43839632914573512 0 -0.44878504691792248 0.43547483269414872 0 -0.44877158856040261 0.44720134362207808 0 -0.44878504691792248 0.43547483269414872 0 -0.43592409671607729 0.44045812782560079 0 -0.44877158856040261 0.44720134362207808 0 -0.44508566455651338 0.43839632914573512 0 -0.44531233658805403 0.42513554986162888 0 -0.44878504691792248 0.43547483269414872 0 -0.44880957839306629 0.41410011360809668 0 -0.44878504691792248 0.43547483269414872 0 -0.44880957839306629 0.41410011360809668 0 -0.43788570063392329 0.43164093021736671 0 -0.44531233658805403 0.42513554986162888 0 -0.44878504691792248 0.43547483269414872 0 -0.43592409671607729 0.44045812782560079 0 -0.44508566455651338 0.43839632914573512 0 -0.43788570063392329 0.43164093021736671 0 -0.44508566455651338 0.43839632914573512 0 -0.43788570063392329 0.43164093021736671 0 -0.44878504691792248 0.43547483269414872 0 -0.44508566455651338 0.43839632914573512 0 -0.44878504691792248 0.43547483269414872 0 -0.44531233658805403 0.42513554986162888 0 -0.44880957839306629 0.41410011360809668 0 -0.42391867717568832 0.41711337076656618 0 -0.44880957839306629 0.41410011360809668 0 -0.46585669794528167 0.42199291516666237 0 -0.4641229039382897 0.40091036417177778 0 -0.44878504691792248 0.43547483269414872 0 -0.46585669794528167 0.42199291516666237 0 -0.44878504691792248 0.43547483269414872 0 -0.44880957839306629 0.41410011360809668 0 -0.46585669794528167 0.42199291516666237 0 -0.44878504691792248 0.43547483269414872 0 -0.46585669794528167 0.42199291516666237 0 -0.46289485375526918 0.43579199928955081 0 -0.47438579428019922 0.44398623686781052 0 -0.46289485375526918 0.43579199928955081 0 -0.48180565015534738 0.42787197640755792 0 -0.46585669794528167 0.42199291516666237 0 -0.46289485375526918 0.43579199928955081 0 -0.48180565015534738 0.42787197640755792 0 -0.46585669794528167 0.42199291516666237 0 -0.48292834897264081 0.4085109976391762 0 -0.4641229039382897 0.40091036417177778 0 -0.46585669794528167 0.42199291516666237 0 -0.48292834897264081 0.4085109976391762 0 -0.46585669794528167 0.42199291516666237 0 -0.48180565015534738 0.42787197640755792 0 -0.48292834897264081 0.4085109976391762 0 -0.48292834897264081 0.4085109976391762 0 -0.5 0.41790010511261683 0 -0.5 0.39502908011169002 0 -0.48180565015534738 0.42787197640755792 0 -0.48292834897264081 0.4085109976391762 0 -0.5 0.41790010511261683 0 -0.49999999999999589 0.44077113011354369 0 -0.48180565015534738 0.42787197640755792 0 -0.5 0.41790010511261683 0 -0.48850556386005051 0.3766603246979251 0 -0.5 0.39502908011169002 0 -0.47832653283541199 0.38608194873200979 0 -0.48850556386005051 0.3766603246979251 0 -0.5 0.39502908011169002 0 -0.5 0.36887446842263683 0 -0.48292834897264081 0.4085109976391762 0 -0.5 0.39502908011169002 0 -0.47832653283541199 0.38608194873200979 0 -0.48292834897264081 0.4085109976391762 0 -0.5 0.39502908011169002 0 -0.48292834897264081 0.4085109976391762 0 -0.47832653283541199 0.38608194873200979 0 -0.4641229039382897 0.40091036417177778 0 -0.48850556386005051 0.3766603246979251 0 -0.47832653283541199 0.38608194873200979 0 -0.48259334700195489 0.36409898273387958 0 -0.47832653283541199 0.38608194873200979 0 -0.46059005399087027 0.38292215568240928 0 -0.4641229039382897 0.40091036417177778 0 -0.47832653283541199 0.38608194873200979 0 -0.46059005399087027 0.38292215568240928 0 -0.46572599417265398 0.36772482908493609 0 -0.44880957839306629 0.41410011360809668 0 -0.4641229039382897 0.40091036417177778 0 -0.44883410986820999 0.3927253945220448 0 -0.46059005399087027 0.38292215568240928 0 -0.4641229039382897 0.40091036417177778 0 -0.44883410986820999 0.3927253945220448 0 -0.44880957839306629 0.41410011360809668 0 -0.44883410986820999 0.3927253945220448 0 -0.43699833754743561 0.40294499431243458 0 -0.44880957839306629 0.41410011360809668 0 -0.44883410986820999 0.3927253945220448 0 -0.44883410986820999 0.3927253945220448 0 -0.43978391516082421 0.3912231797547942 0 -0.43699833754743561 0.40294499431243458 0 -0.44883410986820999 0.3927253945220448 0 -0.43978391516082421 0.3912231797547942 0 -0.44802713623065987 0.37645115623263098 0 -0.44883410986820999 0.3927253945220448 0 -0.44885864134335329 0.37135067543599282 0 -0.44883410986820999 0.3927253945220448 0 -0.44802713623065987 0.37645115623263098 0 -0.44885864134335329 0.37135067543599282 0 -0.43978391516082421 0.3912231797547942 0 -0.44802713623065987 0.37645115623263098 0 -0.42527607699699133 0.39277117395206662 0 -0.46059005399087027 0.38292215568240928 0 -0.44883410986820999 0.3927253945220448 0 -0.44885864134335329 0.37135067543599282 0 -0.44802713623065987 0.37645115623263098 0 -0.4250431626101242 0.37647010748543319 0 -0.42527607699699133 0.39277117395206662 0 -0.44802713623065987 0.37645115623263098 0 -0.42527607699699133 0.39277117395206662 0 -0.4250431626101242 0.37647010748543319 0 -0.4134887672477453 0.38574914578498593 0 -0.40122768387689522 0.38158953953487368 0 -0.4250431626101242 0.37647010748543319 0 -0.40122768387689522 0.38158953953487368 0 -0.4250431626101242 0.37647010748543319 0 -0.4134887672477453 0.38574914578498593 0 -0.42527607699699133 0.39277117395206662 0 -0.4250431626101242 0.37647010748543319 0 -0.40122768387689522 0.38158953953487368 0 -0.40086489287733429 0.37467411733839928 0 -0.4134887672477453 0.38574914578498593 0 -0.40798835104355652 0.39359067917546098 0 -0.40557429982823212 0.38794008425198068 0 -0.4134887672477453 0.38574914578498593 0 -0.40122768387689522 0.38158953953487368 0 -0.40557429982823212 0.38794008425198068 0 -0.40798835104355652 0.39359067917546098 0 -0.42527607699699133 0.39277117395206662 0 -0.40252501776332311 0.40909119167150271 0 -0.42527607699699133 0.39277117395206662 0 -0.40252501776332311 0.40909119167150271 0 -0.4134887672477453 0.38574914578498593 0 -0.40798835104355652 0.39359067917546098 0 -0.42527607699699133 0.39277117395206662 0 -0.42527607699699133 0.39277117395206662 0 -0.43699833754743561 0.40294499431243458 0 -0.42391867717568832 0.41711337076656618 0 -0.43978391516082421 0.3912231797547942 0 -0.42527607699699133 0.39277117395206662 0 -0.43699833754743561 0.40294499431243458 0 -0.44880957839306629 0.41410011360809668 0 -0.43699833754743561 0.40294499431243458 0 -0.42391867717568832 0.41711337076656618 0 -0.44531233658805403 0.42513554986162888 0 -0.42391867717568832 0.41711337076656618 0 -0.43788570063392329 0.43164093021736671 0 -0.44531233658805403 0.42513554986162888 0 -0.42391867717568832 0.41711337076656618 0 -0.43788570063392329 0.43164093021736671 0 -0.42391867717568832 0.41711337076656618 0 -0.42501824733507809 0.43459816807542118 0 -0.43592409671607729 0.44045812782560079 0 -0.43788570063392329 0.43164093021736671 0 -0.42501824733507809 0.43459816807542118 0 -0.42391867717568832 0.41711337076656618 0 -0.42501824733507809 0.43459816807542118 0 -0.40464661760035381 0.43350824459614162 0 -0.42527607699699133 0.39277117395206662 0 -0.42391867717568832 0.41711337076656618 0 -0.40252501776332311 0.40909119167150271 0 -0.42391867717568832 0.41711337076656618 0 -0.40252501776332311 0.40909119167150271 0 -0.40464661760035381 0.43350824459614162 0 -0.42391867717568832 0.41711337076656618 0 -0.40252501776332311 0.40909119167150271 0 -0.40252501776332311 0.40909119167150271 0 -0.37875820238401509 0.42613984176471847 0 -0.40252501776332311 0.40909119167150271 0 -0.40464661760035381 0.43350824459614162 0 -0.37875820238401509 0.42613984176471847 0 -0.38249991962136642 0.44345487931465249 0 -0.40464661760035381 0.43350824459614162 0 -0.37875820238401509 0.42613984176471847 0 -0.40252501776332311 0.40909119167150271 0 -0.37875820238401509 0.42613984176471847 0 -0.37769092578324193 0.39977892163450779 0 -0.37769092578324193 0.39977892163450779 0 -0.38963770449155072 0.39285491215608792 0 -0.37686086334024771 0.38257038446795849 0 -0.40252501776332311 0.40909119167150271 0 -0.37769092578324193 0.39977892163450779 0 -0.38963770449155072 0.39285491215608792 0 -0.40252501776332311 0.40909119167150271 0 -0.37769092578324193 0.39977892163450779 0 -0.37686086334024771 0.38257038446795849 0 -0.39363670834615189 0.38450398520198442 0 -0.40086489287733429 0.37467411733839928 0 -0.38963770449155072 0.39285491215608792 0 -0.37686086334024771 0.38257038446795849 0 -0.39363670834615189 0.38450398520198442 0 -0.37686086334024771 0.38257038446795849 0 -0.40086489287733429 0.37467411733839928 0 -0.37686086334024771 0.38257038446795849 0 -0.40086489287733429 0.37467411733839928 0 -0.39033592763893787 0.37070590072739279 0 -0.39363670834615189 0.38450398520198442 0 -0.40122768387689522 0.38158953953487368 0 -0.39959239714473138 0.39083097251260251 0 -0.38963770449155072 0.39285491215608792 0 -0.39363670834615189 0.38450398520198442 0 -0.39959239714473138 0.39083097251260251 0 -0.39363670834615189 0.38450398520198442 0 -0.40122768387689522 0.38158953953487368 0 -0.40086489287733429 0.37467411733839928 0 -0.40122768387689522 0.38158953953487368 0 -0.40557429982823212 0.38794008425198068 0 -0.39959239714473138 0.39083097251260251 0 -0.40798835104355652 0.39359067917546098 0 -0.40557429982823212 0.38794008425198068 0 -0.39959239714473138 0.39083097251260251 0 -0.40252501776332311 0.40909119167150271 0 -0.38963770449155072 0.39285491215608792 0 -0.39959239714473138 0.39083097251260251 0 -0.40798835104355652 0.39359067917546098 0 -0.40252501776332311 0.40909119167150271 0 -0.39959239714473138 0.39083097251260251 0 -0.3926828114571661 0.35541775914535301 0 -0.40105078960399698 0.34662517948293931 0 -0.40586906590548888 0.3393029225754271 0 -0.3926828114571661 0.35541775914535301 0 -0.39400561065841477 0.34382680172727831 0 -0.40586906590548888 0.3393029225754271 0 -0.3926828114571661 0.35541775914535301 0 -0.40586906590548888 0.3393029225754271 0 -0.3926828114571661 0.35541775914535301 0 -0.39969836615416421 0.35756427730283669 0 -0.39341808057325789 0.36431669671432632 0 -0.3926828114571661 0.35541775914535301 0 -0.40105078960399698 0.34662517948293931 0 -0.39969836615416421 0.35756427730283669 0 -0.3926828114571661 0.35541775914535301 0 -0.39400561065841477 0.34382680172727831 0 -0.38539473684528258 0.34837828204789067 0 -0.40105078960399698 0.34662517948293931 0 -0.40525205349158999 0.35429039595711992 0 -0.40888688292129022 0.34941903462410451 0 -0.40105078960399698 0.34662517948293931 0 -0.4080564418273247 0.34368885170405422 0 -0.40888688292129022 0.34941903462410451 0 -0.40105078960399698 0.34662517948293931 0 -0.40525205349158999 0.35429039595711992 0 -0.39969836615416421 0.35756427730283669 0 -0.40525205349158999 0.35429039595711992 0 -0.39969836615416421 0.35756427730283669 0 -0.40553625032349627 0.36037170931698131 0 -0.40553625032349627 0.36037170931698131 0 -0.40544017780568847 0.3661562974108753 0 -0.40025021147547779 0.36436392320030081 0 -0.40544017780568847 0.3661562974108753 0 -0.40025021147547779 0.36436392320030081 0 -0.397742957241214 0.36844985128713797 0 -0.39969836615416421 0.35756427730283669 0 -0.40553625032349627 0.36037170931698131 0 -0.40025021147547779 0.36436392320030081 0 -0.40544017780568847 0.3661562974108753 0 -0.40086489287733429 0.37467411733839928 0 -0.397742957241214 0.36844985128713797 0 -0.40086489287733429 0.37467411733839928 0 -0.397742957241214 0.36844985128713797 0 -0.39033592763893787 0.37070590072739279 0 -0.397742957241214 0.36844985128713797 0 -0.39341808057325789 0.36431669671432632 0 -0.39033592763893787 0.37070590072739279 0 -0.39969836615416421 0.35756427730283669 0 -0.40025021147547779 0.36436392320030081 0 -0.39341808057325789 0.36431669671432632 0 -0.40025021147547779 0.36436392320030081 0 -0.397742957241214 0.36844985128713797 0 -0.39341808057325789 0.36431669671432632 0 -0.3926828114571661 0.35541775914535301 0 -0.39341808057325789 0.36431669671432632 0 -0.37949655700884349 0.37153259571527891 0 -0.37949655700884349 0.37153259571527891 0 -0.37823932191431281 0.35548757599615399 0 -0.37024808467873749 0.36543132639488701 0 -0.3926828114571661 0.35541775914535301 0 -0.37949655700884349 0.37153259571527891 0 -0.37823932191431281 0.35548757599615399 0 -0.3926828114571661 0.35541775914535301 0 -0.37949655700884349 0.37153259571527891 0 -0.39341808057325789 0.36431669671432632 0 -0.39033592763893787 0.37070590072739279 0 -0.37949655700884349 0.37153259571527891 0 -0.37686086334024771 0.38257038446795849 0 -0.39033592763893787 0.37070590072739279 0 -0.37949655700884349 0.37153259571527891 0 -0.37823932191431281 0.35548757599615399 0 -0.38539473684528258 0.34837828204789067 0 -0.3787015959315434 0.33902802614693439 0 -0.3926828114571661 0.35541775914535301 0 -0.37823932191431281 0.35548757599615399 0 -0.38539473684528258 0.34837828204789067 0 -0.3787015959315434 0.33902802614693439 0 -0.37816355277066899 0.32985684687273281 0 -0.39158393304450312 0.32769252248945308 0 -0.39400561065841477 0.34382680172727831 0 -0.38539473684528258 0.34837828204789067 0 -0.3787015959315434 0.33902802614693439 0 -0.39158393304450312 0.32769252248945308 0 -0.37442838800096029 0.32044424157556423 0 -0.37816355277066899 0.32985684687273281 0 -0.39158393304450312 0.32769252248945308 0 -0.37442838800096029 0.32044424157556423 0 -0.38613629988198012 0.31665983269396758 0 -0.39158393304450312 0.32769252248945308 0 -0.37442838800096029 0.32044424157556423 0 -0.38613629988198012 0.31665983269396758 0 -0.37442838800096029 0.32044424157556423 0 -0.37415321332832258 0.31386652142517069 0 -0.39158393304450312 0.32769252248945308 0 -0.4039094095666334 0.320812311378052 0 -0.40925887999808552 0.33516025262174892 0 -0.38613629988198012 0.31665983269396758 0 -0.39830358576524327 0.31266849694114901 0 -0.39158393304450312 0.32769252248945308 0 -0.39830358576524327 0.31266849694114901 0 -0.39158393304450312 0.32769252248945308 0 -0.4039094095666334 0.320812311378052 0 -0.39830358576524327 0.31266849694114901 0 -0.4039094095666334 0.320812311378052 0 -0.40826549608127172 0.31275764886218971 0 -0.3787015959315434 0.33902802614693439 0 -0.40777024278950652 0.33697950655941222 0 -0.39158393304450312 0.32769252248945308 0 -0.40925887999808552 0.33516025262174892 0 -0.39158393304450312 0.32769252248945308 0 -0.40777024278950652 0.33697950655941222 0 -0.40925887999808552 0.33516025262174892 0 -0.3787015959315434 0.33902802614693439 0 -0.39158393304450312 0.32769252248945308 0 -0.40777024278950652 0.33697950655941222 0 -0.39400561065841477 0.34382680172727831 0 -0.3787015959315434 0.33902802614693439 0 -0.40777024278950652 0.33697950655941222 0 -0.39400561065841477 0.34382680172727831 0 -0.40586906590548888 0.3393029225754271 0 -0.40777024278950652 0.33697950655941222 0 -0.40105078960399698 0.34662517948293931 0 -0.40586906590548888 0.3393029225754271 0 -0.40105078960399698 0.34662517948293931 0 -0.40586906590548888 0.3393029225754271 0 -0.4080564418273247 0.34368885170405422 0 -0.4080564418273247 0.34368885170405422 0 -0.41125860555200922 0.34134685969384471 0 -0.40895905381070002 0.33957121871677393 0 -0.40586906590548888 0.3393029225754271 0 -0.4080564418273247 0.34368885170405422 0 -0.40895905381070002 0.33957121871677393 0 -0.4080564418273247 0.34368885170405422 0 -0.41125860555200922 0.34134685969384471 0 -0.41366919887348358 0.34576378073699821 0 -0.41125860555200922 0.34134685969384471 0 -0.41273643032526569 0.33662953043248711 0 -0.41433336845197538 0.3415594658204692 0 -0.41125860555200922 0.34134685969384471 0 -0.41433336845197538 0.3415594658204692 0 -0.41366919887348358 0.34576378073699821 0 -0.41125860555200922 0.34134685969384471 0 -0.41273643032526569 0.33662953043248711 0 -0.40895905381070002 0.33957121871677393 0 -0.41273643032526569 0.33662953043248711 0 -0.40777024278950652 0.33697950655941222 0 -0.41273643032526569 0.33662953043248711 0 -0.40895905381070002 0.33957121871677393 0 -0.40777024278950652 0.33697950655941222 0 -0.41273643032526569 0.33662953043248711 0 -0.40777024278950652 0.33697950655941222 0 -0.40925887999808552 0.33516025262174892 0 -0.40777024278950652 0.33697950655941222 0 -0.40925887999808552 0.33516025262174892 0 -0.40586906590548888 0.3393029225754271 0 -0.40895905381070002 0.33957121871677393 0 -0.40777024278950652 0.33697950655941222 0 -0.40586906590548888 0.3393029225754271 0 -0.40777024278950652 0.33697950655941222 0 -0.41273643032526569 0.33662953043248711 0 -0.40925887999808552 0.33516025262174892 0 -0.40925887999808552 0.33516025262174892 0 -0.42024067891477529 0.32173946694831868 0 -0.40925887999808552 0.33516025262174892 0 -0.42071708592719742 0.33131558094746122 0 -0.42024067891477529 0.32173946694831868 0 -0.41273643032526569 0.33662953043248711 0 -0.40925887999808552 0.33516025262174892 0 -0.42071708592719742 0.33131558094746122 0 -0.41273643032526569 0.33662953043248711 0 -0.4199209072431685 0.34318781838679219 0 -0.41433336845197538 0.3415594658204692 0 -0.4199209072431685 0.34318781838679219 0 -0.41433336845197538 0.3415594658204692 0 -0.41366919887348358 0.34576378073699821 0 -0.40925887999808552 0.33516025262174892 0 -0.41892768793075841 0.31754462100172592 0 -0.42141481873501418 0.31567829233095179 0 -0.40925887999808552 0.33516025262174892 0 -0.411263050936583 0.31954773430139438 0 -0.41892768793075841 0.31754462100172592 0 -0.40925887999808552 0.33516025262174892 0 -0.42141481873501418 0.31567829233095179 0 -0.40925887999808552 0.33516025262174892 0 -0.42024067891477529 0.32173946694831868 0 -0.42141481873501418 0.31567829233095179 0 -0.411263050936583 0.31954773430139438 0 -0.40826549608127172 0.31275764886218971 0 -0.41647318301620623 0.31168328686166002 0 -0.4039094095666334 0.320812311378052 0 -0.411263050936583 0.31954773430139438 0 -0.40826549608127172 0.31275764886218971 0 -0.4039094095666334 0.320812311378052 0 -0.40925887999808552 0.33516025262174892 0 -0.411263050936583 0.31954773430139438 0 -0.411263050936583 0.31954773430139438 0 -0.41892768793075841 0.31754462100172592 0 -0.41647318301620623 0.31168328686166002 0 -0.41892768793075841 0.31754462100172592 0 -0.42141481873501418 0.31567829233095179 0 -0.41892768793075841 0.31754462100172592 0 -0.42141481873501418 0.31567829233095179 0 -0.41647318301620623 0.31168328686166002 0 -0.42024067891477529 0.32173946694831868 0 -0.43790895006943947 0.32081412042189511 0 -0.43122247783146522 0.30831868127488848 0 -0.42024067891477529 0.32173946694831868 0 -0.42938605365092247 0.3272194948190838 0 -0.43790895006943947 0.32081412042189511 0 -0.42024067891477529 0.32173946694831868 0 -0.42141481873501418 0.31567829233095179 0 -0.43122247783146522 0.30831868127488848 0 -0.42024067891477529 0.32173946694831868 0 -0.43122247783146522 0.30831868127488848 0 -0.42071708592719742 0.33131558094746122 0 -0.42024067891477529 0.32173946694831868 0 -0.42938605365092247 0.3272194948190838 0 -0.42938605365092247 0.3272194948190838 0 -0.43674098495811231 0.33493788649063261 0 -0.43790895006943947 0.32081412042189511 0 -0.43790895006943947 0.32081412042189511 0 -0.4401847358662575 0.3127477530096977 0 -0.43122247783146522 0.30831868127488848 0 -0.41273643032526569 0.33662953043248711 0 -0.43674098495811231 0.33493788649063261 0 -0.42071708592719742 0.33131558094746122 0 -0.42938605365092247 0.3272194948190838 0 -0.43674098495811231 0.33493788649063261 0 -0.41273643032526569 0.33662953043248711 0 -0.4199209072431685 0.34318781838679219 0 -0.43385085243219867 0.34555045147446217 0 -0.41273643032526569 0.33662953043248711 0 -0.42071708592719742 0.33131558094746122 0 -0.43674098495811231 0.33493788649063261 0 -0.41273643032526569 0.33662953043248711 0 -0.43385085243219867 0.34555045147446217 0 -0.41273643032526569 0.33662953043248711 0 -0.43674098495811231 0.33493788649063261 0 -0.43385085243219867 0.34555045147446217 0 -0.43385085243219867 0.34555045147446217 0 -0.4302486007270056 0.35272204188882378 0 -0.42573384958437638 0.34916959158482058 0 -0.43385085243219867 0.34555045147446217 0 -0.43539550265875948 0.35741731211322858 0 -0.44110397924445488 0.35756373905142852 0 -0.43539550265875948 0.35741731211322858 0 -0.4302486007270056 0.35272204188882378 0 -0.42757171946388478 0.35850981688022993 0 -0.43385085243219867 0.34555045147446217 0 -0.43539550265875948 0.35741731211322858 0 -0.4302486007270056 0.35272204188882378 0 -0.4302486007270056 0.35272204188882378 0 -0.42480748600639012 0.35482075793933809 0 -0.42573384958437638 0.34916959158482058 0 -0.4302486007270056 0.35272204188882378 0 -0.42757171946388478 0.35850981688022993 0 -0.42480748600639012 0.35482075793933809 0 -0.42757171946388478 0.35850981688022993 0 -0.42480748600639012 0.35482075793933809 0 -0.42195212413097077 0.36043988011418487 0 -0.4199209072431685 0.34318781838679219 0 -0.43385085243219867 0.34555045147446217 0 -0.42573384958437638 0.34916959158482058 0 -0.42480748600639012 0.35482075793933809 0 -0.42573384958437638 0.34916959158482058 0 -0.41984140151311927 0.3495668882346864 0 -0.4199209072431685 0.34318781838679219 0 -0.42573384958437638 0.34916959158482058 0 -0.41984140151311927 0.3495668882346864 0 -0.4199209072431685 0.34318781838679219 0 -0.41984140151311927 0.3495668882346864 0 -0.41366919887348358 0.34576378073699821 0 -0.41984140151311927 0.3495668882346864 0 -0.41366919887348358 0.34576378073699821 0 -0.41404230344944593 0.35073751764187411 0 -0.42480748600639012 0.35482075793933809 0 -0.41984140151311927 0.3495668882346864 0 -0.41755863725870102 0.35684421707679032 0 -0.42480748600639012 0.35482075793933809 0 -0.41755863725870102 0.35684421707679032 0 -0.42195212413097077 0.36043988011418487 0 -0.41984140151311927 0.3495668882346864 0 -0.41755863725870102 0.35684421707679032 0 -0.41404230344944593 0.35073751764187411 0 -0.41755863725870102 0.35684421707679032 0 -0.41125051028190041 0.35540848222164118 0 -0.41404230344944593 0.35073751764187411 0 -0.41125051028190041 0.35540848222164118 0 -0.40888688292129022 0.34941903462410451 0 -0.41404230344944593 0.35073751764187411 0 -0.41755863725870102 0.35684421707679032 0 -0.41125051028190041 0.35540848222164118 0 -0.41142088061722581 0.36176204086772412 0 -0.40553625032349627 0.36037170931698131 0 -0.41125051028190041 0.35540848222164118 0 -0.41142088061722581 0.36176204086772412 0 -0.40525205349158999 0.35429039595711992 0 -0.40553625032349627 0.36037170931698131 0 -0.41125051028190041 0.35540848222164118 0 -0.40525205349158999 0.35429039595711992 0 -0.41125051028190041 0.35540848222164118 0 -0.40888688292129022 0.34941903462410451 0 -0.4080564418273247 0.34368885170405422 0 -0.40888688292129022 0.34941903462410451 0 -0.41366919887348358 0.34576378073699821 0 -0.40888688292129022 0.34941903462410451 0 -0.41366919887348358 0.34576378073699821 0 -0.41404230344944593 0.35073751764187411 0 -0.4250431626101242 0.37647010748543319 0 -0.40086489287733429 0.37467411733839928 0 -0.42486892241442098 0.36677785020884007 0 -0.40086489287733429 0.37467411733839928 0 -0.42486892241442098 0.36677785020884007 0 -0.40086489287733429 0.37467411733839928 0 -0.41378193274770297 0.36450427419225789 0 -0.42486892241442098 0.36677785020884007 0 -0.40544017780568847 0.3661562974108753 0 -0.40086489287733429 0.37467411733839928 0 -0.41378193274770297 0.36450427419225789 0 -0.40544017780568847 0.3661562974108753 0 -0.41142088061722581 0.36176204086772412 0 -0.41378193274770297 0.36450427419225789 0 -0.40553625032349627 0.36037170931698131 0 -0.40544017780568847 0.3661562974108753 0 -0.41142088061722581 0.36176204086772412 0 -0.41755863725870102 0.35684421707679032 0 -0.41378193274770297 0.36450427419225789 0 -0.42195212413097077 0.36043988011418487 0 -0.41378193274770297 0.36450427419225789 0 -0.42486892241442098 0.36677785020884007 0 -0.42195212413097077 0.36043988011418487 0 -0.41755863725870102 0.35684421707679032 0 -0.41142088061722581 0.36176204086772412 0 -0.41378193274770297 0.36450427419225789 0 -0.4250431626101242 0.37647010748543319 0 -0.44885864134335329 0.37135067543599282 0 -0.4250431626101242 0.37647010748543319 0 -0.42486892241442098 0.36677785020884007 0 -0.44885864134335329 0.37135067543599282 0 -0.42486892241442098 0.36677785020884007 0 -0.448872951951507 0.35888158307927881 0 -0.43539550265875948 0.35741731211322858 0 -0.42486892241442098 0.36677785020884007 0 -0.44110397924445488 0.35756373905142852 0 -0.43539550265875948 0.35741731211322858 0 -0.42757171946388478 0.35850981688022993 0 -0.42486892241442098 0.36677785020884007 0 -0.42757171946388478 0.35850981688022993 0 -0.42486892241442098 0.36677785020884007 0 -0.42195212413097077 0.36043988011418487 0 -0.42486892241442098 0.36677785020884007 0 -0.44885864134335329 0.37135067543599282 0 -0.448872951951507 0.35888158307927881 0 -0.44802713623065987 0.37645115623263098 0 -0.4250431626101242 0.37647010748543319 0 -0.44885864134335329 0.37135067543599282 0 -0.42486892241442098 0.36677785020884007 0 -0.44110397924445488 0.35756373905142852 0 -0.448872951951507 0.35888158307927881 0 -0.44885864134335329 0.37135067543599282 0 -0.448872951951507 0.35888158307927881 0 -0.44885864134335329 0.37135067543599282 0 -0.448872951951507 0.35888158307927881 0 -0.45634368000688869 0.36512471152292858 0 -0.43385085243219867 0.34555045147446217 0 -0.45496527453913199 0.35447137251643651 0 -0.44889299330712729 0.34242966823447613 0 -0.43385085243219867 0.34555045147446217 0 -0.45496527453913199 0.35447137251643651 0 -0.43385085243219867 0.34555045147446217 0 -0.44887533288597797 0.35680703170406669 0 -0.45496527453913199 0.35447137251643651 0 -0.43385085243219867 0.34555045147446217 0 -0.44110397924445488 0.35756373905142852 0 -0.44887533288597797 0.35680703170406669 0 -0.44110397924445488 0.35756373905142852 0 -0.44887533288597797 0.35680703170406669 0 -0.448872951951507 0.35888158307927881 0 -0.44887533288597797 0.35680703170406669 0 -0.448872951951507 0.35888158307927881 0 -0.44887533288597797 0.35680703170406669 0 -0.448872951951507 0.35888158307927881 0 -0.45496527453913199 0.35447137251643651 0 -0.448872951951507 0.35888158307927881 0 -0.45496527453913199 0.35447137251643651 0 -0.47186707529616939 0.3513175305497272 0 -0.448872951951507 0.35888158307927881 0 -0.47186707529616939 0.3513175305497272 0 -0.448872951951507 0.35888158307927881 0 -0.45634368000688869 0.36512471152292858 0 -0.47186707529616939 0.3513175305497272 0 -0.45911772068334677 0.34536620346235469 0 -0.45496527453913199 0.35447137251643651 0 -0.47186707529616939 0.3513175305497272 0 -0.45911772068334677 0.34536620346235469 0 -0.45496527453913199 0.35447137251643651 0 -0.44889299330712729 0.34242966823447613 0 -0.46572599417265398 0.36772482908493609 0 -0.45634368000688869 0.36512471152292858 0 -0.47186707529616939 0.3513175305497272 0 -0.46059005399087027 0.38292215568240928 0 -0.44885864134335329 0.37135067543599282 0 -0.46572599417265398 0.36772482908493609 0 -0.44885864134335329 0.37135067543599282 0 -0.46572599417265398 0.36772482908493609 0 -0.44885864134335329 0.37135067543599282 0 -0.46572599417265398 0.36772482908493609 0 -0.45634368000688869 0.36512471152292858 0 -0.47832653283541199 0.38608194873200979 0 -0.46572599417265398 0.36772482908493609 0 -0.48259334700195489 0.36409898273387958 0 -0.46572599417265398 0.36772482908493609 0 -0.48259334700195489 0.36409898273387958 0 -0.47186707529616939 0.3513175305497272 0 -0.46572599417265398 0.36772482908493609 0 -0.48259334700195489 0.36409898273387958 0 -0.47186707529616939 0.3513175305497272 0 -0.494861198640831 0.34375347802017348 0 -0.47186707529616939 0.3513175305497272 0 -0.48536711719674469 0.35339641184703091 0 -0.494861198640831 0.34375347802017348 0 -0.48259334700195489 0.36409898273387958 0 -0.47186707529616939 0.3513175305497272 0 -0.48536711719674469 0.35339641184703091 0 -0.48259334700195489 0.36409898273387958 0 -0.49214684784802371 0.35441565608434311 0 -0.48536711719674469 0.35339641184703091 0 -0.49214684784802371 0.35441565608434311 0 -0.5 0.36887446842263683 0 -0.5 0.34271985673358363 0 -0.49214684784802371 0.35441565608434311 0 -0.48536711719674469 0.35339641184703091 0 -0.494861198640831 0.34375347802017348 0 -0.49214684784802371 0.35441565608434311 0 -0.494861198640831 0.34375347802017348 0 -0.5 0.34271985673358363 0 -0.48850556386005051 0.3766603246979251 0 -0.48259334700195489 0.36409898273387958 0 -0.5 0.36887446842263683 0 -0.48259334700195489 0.36409898273387958 0 -0.49214684784802371 0.35441565608434311 0 -0.5 0.36887446842263683 0 -0.485708092488497 0.3189911195031831 0 -0.5 0.31656524504453032 0 -0.48475009422380527 0.3315545986069256 0 -0.485708092488497 0.3189911195031831 0 -0.5 0.31656524504453032 0 -0.48583489694974541 0.30845327583860088 0 -0.5 0.31656524504453032 0 -0.5 0.34271985673358363 0 -0.48475009422380527 0.3315545986069256 0 -0.494861198640831 0.34375347802017348 0 -0.5 0.34271985673358363 0 -0.48475009422380527 0.3315545986069256 0 -0.48475009422380527 0.3315545986069256 0 -0.46074553959095882 0.3332462425487791 0 -0.47186707529616939 0.3513175305497272 0 -0.494861198640831 0.34375347802017348 0 -0.48475009422380527 0.3315545986069256 0 -0.47186707529616939 0.3513175305497272 0 -0.48475009422380527 0.3315545986069256 0 -0.46074553959095882 0.3332462425487791 0 -0.48475009422380527 0.3315545986069256 0 -0.47224737878043732 0.31939135852267558 0 -0.46074553959095882 0.3332462425487791 0 -0.485708092488497 0.3189911195031831 0 -0.48475009422380527 0.3315545986069256 0 -0.47224737878043732 0.31939135852267558 0 -0.485708092488497 0.3189911195031831 0 -0.47224737878043732 0.31939135852267558 0 -0.48583489694974541 0.30845327583860088 0 -0.47224737878043732 0.31939135852267558 0 -0.46258830912673421 0.31343425170936878 0 -0.46074553959095882 0.3332462425487791 0 -0.46258830912673421 0.31343425170936878 0 -0.46074553959095882 0.3332462425487791 0 -0.45107709460752138 0.31557533431346357 0 -0.45911772068334677 0.34536620346235469 0 -0.47186707529616939 0.3513175305497272 0 -0.46074553959095882 0.3332462425487791 0 -0.45911772068334677 0.34536620346235469 0 -0.46074553959095882 0.3332462425487791 0 -0.44889299330712729 0.34242966823447613 0 -0.43674098495811231 0.33493788649063261 0 -0.46074553959095882 0.3332462425487791 0 -0.43674098495811231 0.33493788649063261 0 -0.46074553959095882 0.3332462425487791 0 -0.44889299330712729 0.34242966823447613 0 -0.43674098495811231 0.33493788649063261 0 -0.46074553959095882 0.3332462425487791 0 -0.43790895006943947 0.32081412042189511 0 -0.43674098495811231 0.33493788649063261 0 -0.43385085243219867 0.34555045147446217 0 -0.44889299330712729 0.34242966823447613 0 -0.46074553959095882 0.3332462425487791 0 -0.45107709460752138 0.31557533431346357 0 -0.43790895006943947 0.32081412042189511 0 -0.45107709460752138 0.31557533431346357 0 -0.43790895006943947 0.32081412042189511 0 -0.4401847358662575 0.3127477530096977 0 -0.44444415583193408 0.29216055381020578 0 -0.43122247783146522 0.30831868127488848 0 -0.44810052680614793 0.29565349026271098 0 -0.43122247783146522 0.30831868127488848 0 -0.44368336155109173 0.30649675881006838 0 -0.44810052680614793 0.29565349026271098 0 -0.43122247783146522 0.30831868127488848 0 -0.4401847358662575 0.3127477530096977 0 -0.44368336155109173 0.30649675881006838 0 -0.43122247783146522 0.30831868127488848 0 -0.44444415583193408 0.29216055381020578 0 -0.44810052680614793 0.29565349026271098 0 -0.43122247783146522 0.30831868127488848 0 -0.45107709460752138 0.31557533431346357 0 -0.4401847358662575 0.3127477530096977 0 -0.44368336155109173 0.30649675881006838 0 -0.44368336155109173 0.30649675881006838 0 -0.44996115485610377 0.3015940899144034 0 -0.4551770389262465 0.30483297142504889 0 -0.44368336155109173 0.30649675881006838 0 -0.44996115485610377 0.3015940899144034 0 -0.44810052680614793 0.29565349026271098 0 -0.45288369214092922 0.29939313915978533 0 -0.44996115485610377 0.3015940899144034 0 -0.44810052680614793 0.29565349026271098 0 -0.45288369214092922 0.29939313915978533 0 -0.44996115485610377 0.3015940899144034 0 -0.4551770389262465 0.30483297142504889 0 -0.45107709460752138 0.31557533431346357 0 -0.44368336155109173 0.30649675881006838 0 -0.4551770389262465 0.30483297142504889 0 -0.44702735364695217 0.27675533545947301 0 -0.43422108619098299 0.29621681389521232 0 -0.44444415583193408 0.29216055381020578 0 -0.44702735364695217 0.27675533545947301 0 -0.43422108619098299 0.29621681389521232 0 -0.44702735364695217 0.27675533545947301 0 -0.43274811138672559 0.28469846643612018 0 -0.43422108619098299 0.29621681389521232 0 -0.44810052680614793 0.29565349026271098 0 -0.4493542421043164 0.28919027156790111 0 -0.45395006383388498 0.28587005882998617 0 -0.44444415583193408 0.29216055381020578 0 -0.44810052680614793 0.29565349026271098 0 -0.4493542421043164 0.28919027156790111 0 -0.44444415583193408 0.29216055381020578 0 -0.4493542421043164 0.28919027156790111 0 -0.44702735364695217 0.27675533545947301 0 -0.4493542421043164 0.28919027156790111 0 -0.45395006383388498 0.28587005882998617 0 -0.44702735364695217 0.27675533545947301 0 -0.44810052680614793 0.29565349026271098 0 -0.45395006383388498 0.28587005882998617 0 -0.46497857578083068 0.28298829925053381 0 -0.44810052680614793 0.29565349026271098 0 -0.4593999708052337 0.29480301670676529 0 -0.46497857578083068 0.28298829925053381 0 -0.44810052680614793 0.29565349026271098 0 -0.46497857578083068 0.28298829925053381 0 -0.45288369214092922 0.29939313915978533 0 -0.44810052680614793 0.29565349026271098 0 -0.4593999708052337 0.29480301670676529 0 -0.4593999708052337 0.29480301670676529 0 -0.46827174088950307 0.29409138505043392 0 -0.46497857578083068 0.28298829925053381 0 -0.46258830912673421 0.31343425170936878 0 -0.45107709460752138 0.31557533431346357 0 -0.4551770389262465 0.30483297142504889 0 -0.45288369214092922 0.29939313915978533 0 -0.4593999708052337 0.29480301670676529 0 -0.4551770389262465 0.30483297142504889 0 -0.4593999708052337 0.29480301670676529 0 -0.4551770389262465 0.30483297142504889 0 -0.46625021185001803 0.30380681263807602 0 -0.4593999708052337 0.29480301670676529 0 -0.46827174088950307 0.29409138505043392 0 -0.46625021185001803 0.30380681263807602 0 -0.47224737878043732 0.31939135852267558 0 -0.46258830912673421 0.31343425170936878 0 -0.46625021185001803 0.30380681263807602 0 -0.46258830912673421 0.31343425170936878 0 -0.4551770389262465 0.30483297142504889 0 -0.46625021185001803 0.30380681263807602 0 -0.47551717359816043 0.30301602212345602 0 -0.4769183937012712 0.29196404103452073 0 -0.48583489694974541 0.30845327583860088 0 -0.47224737878043732 0.31939135852267558 0 -0.46625021185001803 0.30380681263807602 0 -0.47551717359816043 0.30301602212345602 0 -0.47224737878043732 0.31939135852267558 0 -0.47551717359816043 0.30301602212345602 0 -0.48583489694974541 0.30845327583860088 0 -0.46827174088950307 0.29409138505043392 0 -0.46625021185001803 0.30380681263807602 0 -0.47551717359816043 0.30301602212345602 0 -0.46827174088950307 0.29409138505043392 0 -0.46497857578083068 0.28298829925053381 0 -0.4769183937012712 0.29196404103452073 0 -0.4769183937012712 0.29196404103452073 0 -0.48757792524538679 0.2814999319082685 0 -0.48583489694974541 0.30845327583860088 0 -0.46827174088950307 0.29409138505043392 0 -0.47551717359816043 0.30301602212345602 0 -0.4769183937012712 0.29196404103452073 0 -0.46497857578083068 0.28298829925053381 0 -0.47783287987075052 0.28169384510791978 0 -0.4769183937012712 0.29196404103452073 0 -0.47783287987075052 0.28169384510791978 0 -0.4769183937012712 0.29196404103452073 0 -0.48757792524538679 0.2814999319082685 0 -0.5 0.29041063335547701 0 -0.48757792524538679 0.2814999319082685 0 -0.48583489694974541 0.30845327583860088 0 -0.48757792524538679 0.2814999319082685 0 -0.48583489694974541 0.30845327583860088 0 -0.5 0.31656524504453032 0 -0.5 0.29041063335547701 0 -0.48583489694974541 0.30845327583860088 0 -0.5 0.23810140997737081 0 -0.5 0.26425602166642381 0 -0.48932095354102823 0.25454658797793611 0 -0.48757792524538679 0.2814999319082685 0 -0.48932095354102823 0.25454658797793611 0 -0.48366697684514259 0.26703881783025729 0 -0.48757792524538679 0.2814999319082685 0 -0.5 0.26425602166642381 0 -0.48932095354102823 0.25454658797793611 0 -0.48757792524538679 0.2814999319082685 0 -0.48932095354102823 0.25454658797793611 0 -0.5 0.29041063335547701 0 -0.48757792524538679 0.2814999319082685 0 -0.5 0.26425602166642381 0 -0.46497857578083068 0.28298829925053381 0 -0.48185662475551339 0.27032310823835648 0 -0.46497857578083068 0.28298829925053381 0 -0.47783287987075052 0.28169384510791978 0 -0.48185662475551339 0.27032310823835648 0 -0.48366697684514259 0.26703881783025729 0 -0.45893043448094739 0.2699305570534084 0 -0.48757792524538679 0.2814999319082685 0 -0.48366697684514259 0.26703881783025729 0 -0.48185662475551339 0.27032310823835648 0 -0.48366697684514259 0.26703881783025729 0 -0.48185662475551339 0.27032310823835648 0 -0.47235815296560851 0.27257019559313889 0 -0.46497857578083068 0.28298829925053381 0 -0.48185662475551339 0.27032310823835648 0 -0.47235815296560851 0.27257019559313889 0 -0.48366697684514259 0.26703881783025729 0 -0.46959483388743167 0.25994315597580908 0 -0.45893043448094739 0.2699305570534084 0 -0.48366697684514259 0.26703881783025729 0 -0.47235815296560851 0.27257019559313889 0 -0.45893043448094739 0.2699305570534084 0 -0.47783287987075052 0.28169384510791978 0 -0.48757792524538679 0.2814999319082685 0 -0.48185662475551339 0.27032310823835648 0 -0.48932095354102823 0.25454658797793611 0 -0.48366697684514259 0.26703881783025729 0 -0.47792533453874358 0.25606878273296479 0 -0.48366697684514259 0.26703881783025729 0 -0.46959483388743167 0.25994315597580908 0 -0.47792533453874358 0.25606878273296479 0 -0.47864167104372218 0.246590621409366 0 -0.48932095354102823 0.25454658797793611 0 -0.47792533453874358 0.25606878273296479 0 -0.47864167104372218 0.246590621409366 0 -0.47792533453874358 0.25606878273296479 0 -0.46938038244821267 0.25133041049185839 0 -0.46959483388743167 0.25994315597580908 0 -0.47792533453874358 0.25606878273296479 0 -0.46938038244821267 0.25133041049185839 0 -0.46959483388743167 0.25994315597580908 0 -0.46938038244821267 0.25133041049185839 0 -0.45807104112411212 0.25534721177055669 0 -0.46959483388743167 0.25994315597580908 0 -0.45807104112411212 0.25534721177055669 0 -0.45893043448094739 0.2699305570534084 0 -0.45807104112411212 0.25534721177055669 0 -0.45893043448094739 0.2699305570534084 0 -0.44442574262614493 0.25832327296872359 0 -0.45395006383388498 0.28587005882998617 0 -0.46497857578083068 0.28298829925053381 0 -0.45893043448094739 0.2699305570534084 0 -0.45395006383388498 0.28587005882998617 0 -0.45893043448094739 0.2699305570534084 0 -0.44702735364695217 0.27675533545947301 0 -0.46497857578083068 0.28298829925053381 0 -0.47235815296560851 0.27257019559313889 0 -0.45893043448094739 0.2699305570534084 0 -0.45893043448094739 0.2699305570534084 0 -0.43419389211675241 0.27282229627655952 0 -0.45893043448094739 0.2699305570534084 0 -0.44442574262614493 0.25832327296872359 0 -0.43419389211675241 0.27282229627655952 0 -0.45893043448094739 0.2699305570534084 0 -0.44702735364695217 0.27675533545947301 0 -0.43419389211675241 0.27282229627655952 0 -0.44702735364695217 0.27675533545947301 0 -0.43419389211675241 0.27282229627655952 0 -0.43274811138672559 0.28469846643612018 0 -0.45046339488490522 0.249057113070103 0 -0.45807104112411212 0.25534721177055669 0 -0.44442574262614493 0.25832327296872359 0 -0.44062222049055039 0.24203477259657111 0 -0.44442574262614493 0.25832327296872359 0 -0.42503978512155383 0.25887440404814072 0 -0.44062222049055039 0.24203477259657111 0 -0.42503978512155383 0.25887440404814072 0 -0.44442574262614493 0.25832327296872359 0 -0.42503978512155383 0.25887440404814072 0 -0.43419389211675241 0.27282229627655952 0 -0.42503978512155383 0.25887440404814072 0 -0.40945734975255721 0.27571403549971041 0 -0.40585136056822319 0.25674789398696107 0 -0.4198454647722451 0.23985190764030939 0 -0.42503978512155383 0.25887440404814072 0 -0.40585136056822319 0.25674789398696107 0 -0.40945734975255721 0.27571403549971041 0 -0.43419389211675241 0.27282229627655952 0 -0.42503978512155383 0.25887440404814072 0 -0.40945734975255721 0.27571403549971041 0 -0.42503978512155383 0.25887440404814072 0 -0.40945734975255721 0.27571403549971041 0 -0.43419389211675241 0.27282229627655952 0 -0.40945734975255721 0.27571403549971041 0 -0.43419389211675241 0.27282229627655952 0 -0.4229835889384117 0.28415291652507912 0 -0.43419389211675241 0.27282229627655952 0 -0.43274811138672559 0.28469846643612018 0 -0.4229835889384117 0.28415291652507912 0 -0.43274811138672559 0.28469846643612018 0 -0.43422108619098299 0.29621681389521232 0 -0.42519236151645012 0.29288975242762622 0 -0.43274811138672559 0.28469846643612018 0 -0.42519236151645012 0.29288975242762622 0 -0.4229835889384117 0.28415291652507912 0 -0.42141481873501418 0.31567829233095179 0 -0.43422108619098299 0.29621681389521232 0 -0.42141481873501418 0.31567829233095179 0 -0.43422108619098299 0.29621681389521232 0 -0.42237726971740519 0.30236741203524931 0 -0.44444415583193408 0.29216055381020578 0 -0.43422108619098299 0.29621681389521232 0 -0.43122247783146522 0.30831868127488848 0 -0.42141481873501418 0.31567829233095179 0 -0.43422108619098299 0.29621681389521232 0 -0.43122247783146522 0.30831868127488848 0 -0.43422108619098299 0.29621681389521232 0 -0.42519236151645012 0.29288975242762622 0 -0.42237726971740519 0.30236741203524931 0 -0.42141481873501418 0.31567829233095179 0 -0.43122247783146522 0.30831868127488848 0 -0.42237726971740519 0.30236741203524931 0 -0.41647318301620623 0.31168328686166002 0 -0.40812109447663159 0.30329838776079099 0 -0.42141481873501418 0.31567829233095179 0 -0.42237726971740519 0.30236741203524931 0 -0.41647318301620623 0.31168328686166002 0 -0.42237726971740519 0.30236741203524931 0 -0.40812109447663159 0.30329838776079099 0 -0.41256551749876041 0.29129965580367562 0 -0.40826549608127172 0.31275764886218971 0 -0.41647318301620623 0.31168328686166002 0 -0.40812109447663159 0.30329838776079099 0 -0.40945734975255721 0.27571403549971041 0 -0.4229835889384117 0.28415291652507912 0 -0.41256551749876041 0.29129965580367562 0 -0.42519236151645012 0.29288975242762622 0 -0.4229835889384117 0.28415291652507912 0 -0.41256551749876041 0.29129965580367562 0 -0.42519236151645012 0.29288975242762622 0 -0.42237726971740519 0.30236741203524931 0 -0.41256551749876041 0.29129965580367562 0 -0.40945734975255721 0.27571403549971041 0 -0.39180528154043992 0.29479027846244049 0 -0.39350738277932218 0.27757861076756318 0 -0.40945734975255721 0.27571403549971041 0 -0.39180528154043992 0.29479027846244049 0 -0.40812109447663159 0.30329838776079099 0 -0.41256551749876041 0.29129965580367562 0 -0.39180528154043992 0.29479027846244049 0 -0.40945734975255721 0.27571403549971041 0 -0.41256551749876041 0.29129965580367562 0 -0.39180528154043992 0.29479027846244049 0 -0.38613629988198012 0.31665983269396758 0 -0.39830358576524327 0.31266849694114901 0 -0.39180528154043992 0.29479027846244049 0 -0.39830358576524327 0.31266849694114901 0 -0.40812109447663159 0.30329838776079099 0 -0.39180528154043992 0.29479027846244049 0 -0.39830358576524327 0.31266849694114901 0 -0.40826549608127172 0.31275764886218971 0 -0.40812109447663159 0.30329838776079099 0 -0.39180528154043992 0.29479027846244049 0 -0.37819889022761238 0.29924868842846319 0 -0.37415321332832258 0.31386652142517069 0 -0.38613629988198012 0.31665983269396758 0 -0.39180528154043992 0.29479027846244049 0 -0.37415321332832258 0.31386652142517069 0 -0.39180528154043992 0.29479027846244049 0 -0.37415321332832258 0.31386652142517069 0 -0.39180528154043992 0.29479027846244049 0 -0.37819889022761238 0.29924868842846319 0 -0.37870614451813112 0.28175948497688769 0 -0.39180528154043992 0.29479027846244049 0 -0.37870614451813112 0.28175948497688769 0 -0.39350738277932218 0.27757861076756318 0 -0.37870614451813112 0.28175948497688769 0 -0.37647038179830861 0.26645711442365799 0 -0.39350738277932218 0.27757861076756318 0 -0.37647038179830861 0.26645711442365799 0 -0.39336972403141229 0.26369738761855421 0 -0.39350738277932218 0.27757861076756318 0 -0.38790582398472923 0.24962922847932231 0 -0.37647038179830861 0.26645711442365799 0 -0.39336972403141229 0.26369738761855421 0 -0.38790582398472923 0.24962922847932231 0 -0.37647038179830861 0.26645711442365799 0 -0.36318679658289171 0.25196182354824148 0 -0.40945734975255721 0.27571403549971041 0 -0.40585136056822319 0.25674789398696107 0 -0.39336972403141229 0.26369738761855421 0 -0.38790582398472923 0.24962922847932231 0 -0.40585136056822319 0.25674789398696107 0 -0.39336972403141229 0.26369738761855421 0 -0.40945734975255721 0.27571403549971041 0 -0.39336972403141229 0.26369738761855421 0 -0.39350738277932218 0.27757861076756318 0 -0.40945734975255721 0.27571403549971041 0 -0.39350738277932218 0.27757861076756318 0 -0.35583614606747688 0.27501819518035592 0 -0.36318679658289171 0.25196182354824148 0 -0.33952374355129727 0.25899057541505788 0 -0.37647038179830861 0.26645711442365799 0 -0.35583614606747688 0.27501819518035592 0 -0.36318679658289171 0.25196182354824148 0 -0.37870614451813112 0.28175948497688769 0 -0.37647038179830861 0.26645711442365799 0 -0.35583614606747688 0.27501819518035592 0 -0.37819889022761238 0.29924868842846319 0 -0.37870614451813112 0.28175948497688769 0 -0.36775571630023218 0.2927315942663431 0 -0.37870614451813112 0.28175948497688769 0 -0.35583614606747688 0.27501819518035592 0 -0.36775571630023218 0.2927315942663431 0 -0.37819889022761238 0.29924868842846319 0 -0.36899777432263853 0.30469822459034263 0 -0.37415321332832258 0.31386652142517069 0 -0.36899777432263853 0.30469822459034263 0 -0.36272901898995358 0.31473918551029578 0 -0.37415321332832258 0.31386652142517069 0 -0.37819889022761238 0.29924868842846319 0 -0.36775571630023218 0.2927315942663431 0 -0.36899777432263853 0.30469822459034263 0 -0.36775571630023218 0.2927315942663431 0 -0.36899777432263853 0.30469822459034263 0 -0.35931620367806588 0.30475084950198522 0 -0.36775571630023218 0.2927315942663431 0 -0.35931620367806588 0.30475084950198522 0 -0.35261706249820868 0.29381533636168528 0 -0.36899777432263853 0.30469822459034263 0 -0.35931620367806588 0.30475084950198522 0 -0.36272901898995358 0.31473918551029578 0 -0.35931620367806588 0.30475084950198522 0 -0.35261706249820868 0.29381533636168528 0 -0.34344143829887858 0.30736403781452232 0 -0.35931620367806588 0.30475084950198522 0 -0.34344143829887858 0.30736403781452232 0 -0.35467675850453528 0.31743756764607989 0 -0.35931620367806588 0.30475084950198522 0 -0.35467675850453528 0.31743756764607989 0 -0.36272901898995358 0.31473918551029578 0 -0.35583614606747688 0.27501819518035592 0 -0.36775571630023218 0.2927315942663431 0 -0.35261706249820868 0.29381533636168528 0 -0.35583614606747688 0.27501819518035592 0 -0.35261706249820868 0.29381533636168528 0 -0.33673580814638959 0.28921200504521999 0 -0.35261706249820868 0.29381533636168528 0 -0.33673580814638959 0.28921200504521999 0 -0.34344143829887858 0.30736403781452232 0 -0.33673580814638959 0.28921200504521999 0 -0.32075162894010661 0.28280614760534989 0 -0.33379142081270979 0.2734424933293601 0 -0.34344143829887858 0.30736403781452232 0 -0.31699951866320542 0.30755322334125379 0 -0.34344143829887858 0.30736403781452232 0 -0.31699951866320542 0.30755322334125379 0 -0.33459812393413729 0.32207732583041709 0 -0.33673580814638959 0.28921200504521999 0 -0.34344143829887858 0.30736403781452232 0 -0.31699951866320542 0.30755322334125379 0 -0.33673580814638959 0.28921200504521999 0 -0.31699951866320542 0.30755322334125379 0 -0.32075162894010661 0.28280614760534989 0 -0.31699951866320542 0.30755322334125379 0 -0.32075162894010661 0.28280614760534989 0 -0.30493521127791462 0.28695781074044469 0 -0.32075162894010661 0.28280614760534989 0 -0.31931282352829687 0.26617321261290411 0 -0.33379142081270979 0.2734424933293601 0 -0.32075162894010661 0.28280614760534989 0 -0.31931282352829687 0.26617321261290411 0 -0.30493521127791462 0.28695781074044469 0 -0.35583614606747688 0.27501819518035592 0 -0.33673580814638959 0.28921200504521999 0 -0.33379142081270979 0.2734424933293601 0 -0.35583614606747688 0.27501819518035592 0 -0.33379142081270979 0.2734424933293601 0 -0.33952374355129727 0.25899057541505788 0 -0.31931282352829687 0.26617321261290411 0 -0.33379142081270979 0.2734424933293601 0 -0.33952374355129727 0.25899057541505788 0 -0.32200613725511351 0.24850726385495631 0 -0.31931282352829687 0.26617321261290411 0 -0.33952374355129727 0.25899057541505788 0 -0.32200613725511351 0.24850726385495631 0 -0.31931282352829687 0.26617321261290411 0 -0.30640548876467488 0.25787073169030861 0 -0.31931282352829687 0.26617321261290411 0 -0.30640548876467488 0.25787073169030861 0 -0.3010630097917536 0.27273037638764702 0 -0.31931282352829687 0.26617321261290411 0 -0.3010630097917536 0.27273037638764702 0 -0.30493521127791462 0.28695781074044469 0 -0.31931282352829687 0.26617321261290411 0 -0.30493521127791462 0.28695781074044469 0 -0.3010630097917536 0.27273037638764702 0 -0.29309283898050847 0.28048055459605348 0 -0.30493521127791462 0.28695781074044469 0 -0.3010630097917536 0.27273037638764702 0 -0.29309283898050847 0.28048055459605348 0 -0.28156868640737281 0.27216957229852412 0 -0.30640548876467488 0.25787073169030861 0 -0.3010630097917536 0.27273037638764702 0 -0.28156868640737281 0.27216957229852412 0 -0.30640548876467488 0.25787073169030861 0 -0.28156868640737281 0.27216957229852412 0 -0.28729818335365731 0.26780124082781631 0 -0.28156868640737281 0.27216957229852412 0 -0.28729818335365731 0.26780124082781631 0 -0.27880962639343299 0.26078065685839158 0 -0.29309283898050847 0.28048055459605348 0 -0.28156868640737281 0.27216957229852412 0 -0.28401529333418091 0.28255904946725641 0 -0.30640548876467488 0.25787073169030861 0 -0.28156868640737281 0.27216957229852412 0 -0.29125564533142001 0.24067530578368901 0 -0.30640548876467488 0.25787073169030861 0 -0.28729818335365731 0.26780124082781631 0 -0.29125564533142001 0.24067530578368901 0 -0.28729818335365731 0.26780124082781631 0 -0.27880962639343299 0.26078065685839158 0 -0.29125564533142001 0.24067530578368901 0 -0.28729818335365731 0.26780124082781631 0 -0.29125564533142001 0.24067530578368901 0 -0.26892213733164849 0.25365425058065472 0 -0.27880962639343299 0.26078065685839158 0 -0.26892213733164849 0.25365425058065472 0 -0.27880962639343299 0.26078065685839158 0 -0.26500347954306669 0.26960291480127369 0 -0.28156868640737281 0.27216957229852412 0 -0.25673188405007052 0.28646841290673969 0 -0.28156868640737281 0.27216957229852412 0 -0.26500347954306669 0.26960291480127369 0 -0.25673188405007052 0.28646841290673969 0 -0.28156868640737281 0.27216957229852412 0 -0.27880962639343299 0.26078065685839158 0 -0.26500347954306669 0.26960291480127369 0 -0.28156868640737281 0.27216957229852412 0 -0.27479408276187339 0.28687287199942368 0 -0.28401529333418091 0.28255904946725641 0 -0.26500347954306669 0.26960291480127369 0 -0.25265925142613249 0.26128234508680298 0 -0.25673188405007052 0.28646841290673969 0 -0.26892213733164849 0.25365425058065472 0 -0.26500347954306669 0.26960291480127369 0 -0.25265925142613249 0.26128234508680298 0 -0.25621817608628389 0.2460965770837312 0 -0.26892213733164849 0.25365425058065472 0 -0.25265925142613249 0.26128234508680298 0 -0.25505401324638421 0.30366623925853881 0 -0.26661761067819428 0.2958317928062858 0 -0.26721257633701828 0.30790943684761429 0 -0.25505401324638421 0.30366623925853881 0 -0.26721257633701828 0.30790943684761429 0 -0.25901197930261888 0.31383205914145501 0 -0.26721257633701828 0.30790943684761429 0 -0.25901197930261888 0.31383205914145501 0 -0.26528599585519008 0.31471464054907522 0 -0.25505401324638421 0.30366623925853881 0 -0.25901197930261888 0.31383205914145501 0 -0.24885494741763489 0.31718848033418301 0 -0.25505401324638421 0.30366623925853881 0 -0.25673188405007052 0.28646841290673969 0 -0.26661761067819428 0.2958317928062858 0 -0.26661761067819428 0.2958317928062858 0 -0.27573637841232751 0.29432500902679382 0 -0.27326763327687947 0.30016750757533939 0 -0.28156868640737281 0.27216957229852412 0 -0.25673188405007052 0.28646841290673969 0 -0.27479408276187339 0.28687287199942368 0 -0.26661761067819428 0.2958317928062858 0 -0.27479408276187339 0.28687287199942368 0 -0.27573637841232751 0.29432500902679382 0 -0.25673188405007052 0.28646841290673969 0 -0.26661761067819428 0.2958317928062858 0 -0.27479408276187339 0.28687287199942368 0 -0.27479408276187339 0.28687287199942368 0 -0.28401529333418091 0.28255904946725641 0 -0.28313816676434478 0.29069510378855717 0 -0.27479408276187339 0.28687287199942368 0 -0.27573637841232751 0.29432500902679382 0 -0.28313816676434478 0.29069510378855717 0 -0.27573637841232751 0.29432500902679382 0 -0.28086439858034518 0.29805776896436298 0 -0.28313816676434478 0.29069510378855717 0 -0.28086439858034518 0.29805776896436298 0 -0.27753065875984329 0.30327410754998058 0 -0.28274061889410179 0.30278083970340541 0 -0.27753065875984329 0.30327410754998058 0 -0.27514776209796898 0.30785266251660498 0 -0.28274061889410179 0.30278083970340541 0 -0.27753065875984329 0.30327410754998058 0 -0.27326763327687947 0.30016750757533939 0 -0.27348155140824082 0.30658246875079598 0 -0.28086439858034518 0.29805776896436298 0 -0.27753065875984329 0.30327410754998058 0 -0.27326763327687947 0.30016750757533939 0 -0.27573637841232751 0.29432500902679382 0 -0.28086439858034518 0.29805776896436298 0 -0.27326763327687947 0.30016750757533939 0 -0.26661761067819428 0.2958317928062858 0 -0.27326763327687947 0.30016750757533939 0 -0.26721257633701828 0.30790943684761429 0 -0.26721257633701828 0.30790943684761429 0 -0.27514776209796898 0.30785266251660498 0 -0.27123720609067609 0.3158529302113221 0 -0.26721257633701828 0.30790943684761429 0 -0.27348155140824082 0.30658246875079598 0 -0.27514776209796898 0.30785266251660498 0 -0.26721257633701828 0.30790943684761429 0 -0.27514776209796898 0.30785266251660498 0 -0.27326763327687947 0.30016750757533939 0 -0.26721257633701828 0.30790943684761429 0 -0.27348155140824082 0.30658246875079598 0 -0.27514776209796898 0.30785266251660498 0 -0.2851872012256097 0.31550597615259851 0 -0.27753065875984329 0.30327410754998058 0 -0.27348155140824082 0.30658246875079598 0 -0.27514776209796898 0.30785266251660498 0 -0.27348155140824082 0.30658246875079598 0 -0.27514776209796898 0.30785266251660498 0 -0.27514776209796898 0.30785266251660498 0 -0.2905575990275322 0.30774240886798532 0 -0.27514776209796898 0.30785266251660498 0 -0.2905575990275322 0.30774240886798532 0 -0.2851872012256097 0.31550597615259851 0 -0.2896026760048197 0.2969772506180926 0 -0.2905575990275322 0.30774240886798532 0 -0.30493521127791462 0.28695781074044469 0 -0.27514776209796898 0.30785266251660498 0 -0.28274061889410179 0.30278083970340541 0 -0.2905575990275322 0.30774240886798532 0 -0.2905575990275322 0.30774240886798532 0 -0.2851872012256097 0.31550597615259851 0 -0.28274061889410179 0.30278083970340541 0 -0.2896026760048197 0.2969772506180926 0 -0.2905575990275322 0.30774240886798532 0 -0.28086439858034518 0.29805776896436298 0 -0.28274061889410179 0.30278083970340541 0 -0.2896026760048197 0.2969772506180926 0 -0.28401529333418091 0.28255904946725641 0 -0.28313816676434478 0.29069510378855717 0 -0.29095683727235372 0.28753395384208091 0 -0.28086439858034518 0.29805776896436298 0 -0.2896026760048197 0.2969772506180926 0 -0.28313816676434478 0.29069510378855717 0 -0.2896026760048197 0.2969772506180926 0 -0.28313816676434478 0.29069510378855717 0 -0.29095683727235372 0.28753395384208091 0 -0.2896026760048197 0.2969772506180926 0 -0.29095683727235372 0.28753395384208091 0 -0.30493521127791462 0.28695781074044469 0 -0.29309283898050847 0.28048055459605348 0 -0.29095683727235372 0.28753395384208091 0 -0.30493521127791462 0.28695781074044469 0 -0.29309283898050847 0.28048055459605348 0 -0.28401529333418091 0.28255904946725641 0 -0.29095683727235372 0.28753395384208091 0 -0.31699951866320542 0.30755322334125379 0 -0.2905575990275322 0.30774240886798532 0 -0.30563014257680821 0.31779627416788381 0 -0.31699951866320542 0.30755322334125379 0 -0.2905575990275322 0.30774240886798532 0 -0.2905575990275322 0.30774240886798532 0 -0.30493521127791462 0.28695781074044469 0 -0.31699951866320542 0.30755322334125379 0 -0.2905575990275322 0.30774240886798532 0 -0.30493521127791462 0.28695781074044469 0 -0.30538608464820588 0.33090408634228141 0 -0.28942706780696309 0.31873813168532672 0 -0.30563014257680821 0.31779627416788381 0 -0.30538608464820588 0.33090408634228141 0 -0.31811651498789978 0.32488887006413791 0 -0.30563014257680821 0.31779627416788381 0 -0.30538608464820588 0.33090408634228141 0 -0.2937791937433501 0.31637108240395312 0 -0.30538608464820588 0.33090408634228141 0 -0.3017933608705089 0.344447887165377 0 -0.32134510148944728 0.34307004099923799 0 -0.30538608464820588 0.33090408634228141 0 -0.29093013722955491 0.33661105704622479 0 -0.3017933608705089 0.344447887165377 0 -0.30538608464820588 0.33090408634228141 0 -0.29093013722955491 0.33661105704622479 0 -0.2885751077852815 0.32830696870384862 0 -0.29093013722955491 0.33661105704622479 0 -0.28224162025157051 0.34582573333151501 0 -0.3017933608705089 0.344447887165377 0 -0.2885751077852815 0.32830696870384862 0 -0.28146834572906437 0.33465123959114113 0 -0.2790455690922089 0.3243844570517187 0 -0.29093013722955491 0.33661105704622479 0 -0.2885751077852815 0.32830696870384862 0 -0.28146834572906437 0.33465123959114113 0 -0.29093013722955491 0.33661105704622479 0 -0.28146834572906437 0.33465123959114113 0 -0.28224162025157051 0.34582573333151501 0 -0.30538608464820588 0.33090408634228141 0 -0.2885751077852815 0.32830696870384862 0 -0.28942706780696309 0.31873813168532672 0 -0.30538608464820588 0.33090408634228141 0 -0.28942706780696309 0.31873813168532672 0 -0.2937791937433501 0.31637108240395312 0 -0.28942706780696309 0.31873813168532672 0 -0.2937791937433501 0.31637108240395312 0 -0.2851872012256097 0.31550597615259851 0 -0.2905575990275322 0.30774240886798532 0 -0.30563014257680821 0.31779627416788381 0 -0.2937791937433501 0.31637108240395312 0 -0.2905575990275322 0.30774240886798532 0 -0.2937791937433501 0.31637108240395312 0 -0.2851872012256097 0.31550597615259851 0 -0.28942706780696309 0.31873813168532672 0 -0.2937791937433501 0.31637108240395312 0 -0.2885751077852815 0.32830696870384862 0 -0.28942706780696309 0.31873813168532672 0 -0.2790455690922089 0.3243844570517187 0 -0.28942706780696309 0.31873813168532672 0 -0.2790455690922089 0.3243844570517187 0 -0.2851872012256097 0.31550597615259851 0 -0.2790455690922089 0.3243844570517187 0 -0.28942706780696309 0.31873813168532672 0 -0.2851872012256097 0.31550597615259851 0 -0.2790455690922089 0.3243844570517187 0 -0.28942706780696309 0.31873813168532672 0 -0.2851872012256097 0.31550597615259851 0 -0.27514776209796898 0.30785266251660498 0 -0.2851872012256097 0.31550597615259851 0 -0.27699557949655113 0.31645322234696882 0 -0.2851872012256097 0.31550597615259851 0 -0.27699557949655113 0.31645322234696882 0 -0.2790455690922089 0.3243844570517187 0 -0.27514776209796898 0.30785266251660498 0 -0.27699557949655113 0.31645322234696882 0 -0.27123720609067609 0.3158529302113221 0 -0.27001263578126711 0.32263717043347712 0 -0.2790455690922089 0.3243844570517187 0 -0.25910260253645218 0.33523110656146687 0 -0.26721257633701828 0.30790943684761429 0 -0.27123720609067609 0.3158529302113221 0 -0.26528599585519008 0.31471464054907522 0 -0.27699557949655113 0.31645322234696882 0 -0.27123720609067609 0.3158529302113221 0 -0.27001263578126711 0.32263717043347712 0 -0.27123720609067609 0.3158529302113221 0 -0.26528599585519008 0.31471464054907522 0 -0.26368222169044719 0.32126413599590953 0 -0.27123720609067609 0.3158529302113221 0 -0.27001263578126711 0.32263717043347712 0 -0.26368222169044719 0.32126413599590953 0 -0.27699557949655113 0.31645322234696882 0 -0.27001263578126711 0.32263717043347712 0 -0.2790455690922089 0.3243844570517187 0 -0.2790455690922089 0.3243844570517187 0 -0.25910260253645218 0.33523110656146687 0 -0.2790455690922089 0.3243844570517187 0 -0.26824012707650141 0.34000504592112352 0 -0.28146834572906437 0.33465123959114113 0 -0.2790455690922089 0.3243844570517187 0 -0.26824012707650141 0.34000504592112352 0 -0.2790455690922089 0.3243844570517187 0 -0.26824012707650141 0.34000504592112352 0 -0.25910260253645218 0.33523110656146687 0 -0.28146834572906437 0.33465123959114113 0 -0.26824012707650141 0.34000504592112352 0 -0.28224162025157051 0.34582573333151501 0 -0.25910260253645218 0.33523110656146687 0 -0.25407523553642281 0.3497448278934856 0 -0.23915963598069589 0.34607775607121571 0 -0.25910260253645218 0.33523110656146687 0 -0.25407523553642281 0.3497448278934856 0 -0.26309588156361569 0.34576168367824162 0 -0.26824012707650141 0.34000504592112352 0 -0.25910260253645218 0.33523110656146687 0 -0.26309588156361569 0.34576168367824162 0 -0.25910260253645218 0.33523110656146687 0 -0.25451497659773847 0.32559442806853028 0 -0.24843663428782739 0.33758714710907461 0 -0.25451497659773847 0.32559442806853028 0 -0.25901197930261888 0.31383205914145501 0 -0.24885494741763489 0.31718848033418301 0 -0.25451497659773847 0.32559442806853028 0 -0.25901197930261888 0.31383205914145501 0 -0.26368222169044719 0.32126413599590953 0 -0.25901197930261888 0.31383205914145501 0 -0.26528599585519008 0.31471464054907522 0 -0.26368222169044719 0.32126413599590953 0 -0.27001263578126711 0.32263717043347712 0 -0.25910260253645218 0.33523110656146687 0 -0.26368222169044719 0.32126413599590953 0 -0.25910260253645218 0.33523110656146687 0 -0.25451497659773847 0.32559442806853028 0 -0.26368222169044719 0.32126413599590953 0 -0.26470209097228098 0.37140351159401941 0 -0.25562758441007077 0.36194187249828802 0 -0.266880351992417 0.3582272519812631 0 -0.26470209097228098 0.37140351159401941 0 -0.25213085833087667 0.37355178257669552 0 -0.25562758441007077 0.36194187249828802 0 -0.25213085833087667 0.37355178257669552 0 -0.25562758441007077 0.36194187249828802 0 -0.24329038266145239 0.36134909741814653 0 -0.25562758441007077 0.36194187249828802 0 -0.25407523553642281 0.3497448278934856 0 -0.24329038266145239 0.36134909741814653 0 -0.25407523553642281 0.3497448278934856 0 -0.26309588156361569 0.34576168367824162 0 -0.266880351992417 0.3582272519812631 0 -0.25562758441007077 0.36194187249828802 0 -0.25407523553642281 0.3497448278934856 0 -0.266880351992417 0.3582272519812631 0 -0.266880351992417 0.3582272519812631 0 -0.27640009279511962 0.35155878343443242 0 -0.28837447244510311 0.36628710188532532 0 -0.26309588156361569 0.34576168367824162 0 -0.266880351992417 0.3582272519812631 0 -0.27640009279511962 0.35155878343443242 0 -0.26824012707650141 0.34000504592112352 0 -0.26309588156361569 0.34576168367824162 0 -0.27640009279511962 0.35155878343443242 0 -0.26824012707650141 0.34000504592112352 0 -0.27640009279511962 0.35155878343443242 0 -0.28224162025157051 0.34582573333151501 0 -0.266880351992417 0.3582272519812631 0 -0.28837447244510311 0.36628710188532532 0 -0.266880351992417 0.3582272519812631 0 -0.28837447244510311 0.36628710188532532 0 -0.27747916353329311 0.37529003384729942 0 -0.26470209097228098 0.37140351159401941 0 -0.266880351992417 0.3582272519812631 0 -0.27747916353329311 0.37529003384729942 0 -0.28837447244510311 0.36628710188532532 0 -0.28714059247178902 0.37543321948423419 0 -0.27747916353329311 0.37529003384729942 0 -0.28837447244510311 0.36628710188532532 0 -0.28956810344150979 0.35324588380912608 0 -0.30292150033679799 0.36018321991941088 0 -0.28837447244510311 0.36628710188532532 0 -0.29874239202075642 0.37528196759933868 0 -0.28714059247178902 0.37543321948423419 0 -0.28224162025157051 0.34582573333151501 0 -0.3017933608705089 0.344447887165377 0 -0.28224162025157051 0.34582573333151501 0 -0.28956810344150979 0.35324588380912608 0 -0.3017933608705089 0.344447887165377 0 -0.27640009279511962 0.35155878343443242 0 -0.28224162025157051 0.34582573333151501 0 -0.28956810344150979 0.35324588380912608 0 -0.27640009279511962 0.35155878343443242 0 -0.28837447244510311 0.36628710188532532 0 -0.28956810344150979 0.35324588380912608 0 -0.3017933608705089 0.344447887165377 0 -0.31193410579265052 0.3536039280541286 0 -0.30292150033679799 0.36018321991941088 0 -0.28956810344150979 0.35324588380912608 0 -0.3017933608705089 0.344447887165377 0 -0.30292150033679799 0.36018321991941088 0 -0.3017933608705089 0.344447887165377 0 -0.32134510148944728 0.34307004099923799 0 -0.3017933608705089 0.344447887165377 0 -0.31193410579265052 0.3536039280541286 0 -0.32134510148944728 0.34307004099923799 0 -0.31193410579265052 0.3536039280541286 0 -0.30292150033679799 0.36018321991941088 0 -0.31340485972314069 0.36375751913665871 0 -0.28837447244510311 0.36628710188532532 0 -0.30292150033679799 0.36018321991941088 0 -0.30986859289778912 0.37434695178938759 0 -0.28837447244510311 0.36628710188532532 0 -0.30986859289778912 0.37434695178938759 0 -0.28837447244510311 0.36628710188532532 0 -0.30986859289778912 0.37434695178938759 0 -0.29874239202075642 0.37528196759933868 0 -0.30292150033679799 0.36018321991941088 0 -0.30986859289778912 0.37434695178938759 0 -0.31340485972314069 0.36375751913665871 0 -0.30986859289778912 0.37434695178938759 0 -0.31340485972314069 0.36375751913665871 0 -0.32167824364597858 0.36970754211250728 0 -0.31340485972314069 0.36375751913665871 0 -0.32243327870136801 0.35950699838777223 0 -0.32167824364597858 0.36970754211250728 0 -0.32243327870136801 0.35950699838777223 0 -0.32167824364597858 0.36970754211250728 0 -0.33132177355711989 0.36851943955526861 0 -0.32167824364597858 0.36970754211250728 0 -0.33132177355711989 0.36851943955526861 0 -0.33136271335047512 0.38240680169344993 0 -0.32243327870136801 0.35950699838777223 0 -0.33132177355711989 0.36851943955526861 0 -0.33989838930305449 0.35721367281084643 0 -0.33132177355711989 0.36851943955526861 0 -0.34304766554360439 0.37232322735168022 0 -0.33136271335047512 0.38240680169344993 0 -0.33132177355711989 0.36851943955526861 0 -0.34304766554360439 0.37232322735168022 0 -0.33989838930305449 0.35721367281084643 0 -0.33989838930305449 0.35721367281084643 0 -0.32134510148944728 0.34307004099923799 0 -0.33989838930305449 0.35721367281084643 0 -0.32134510148944728 0.34307004099923799 0 -0.3500233487104954 0.34104903357308669 0 -0.32243327870136801 0.35950699838777223 0 -0.33989838930305449 0.35721367281084643 0 -0.32134510148944728 0.34307004099923799 0 -0.31193410579265052 0.3536039280541286 0 -0.32243327870136801 0.35950699838777223 0 -0.32134510148944728 0.34307004099923799 0 -0.31193410579265052 0.3536039280541286 0 -0.31340485972314069 0.36375751913665871 0 -0.32243327870136801 0.35950699838777223 0 -0.30538608464820588 0.33090408634228141 0 -0.32134510148944728 0.34307004099923799 0 -0.30538608464820588 0.33090408634228141 0 -0.32134510148944728 0.34307004099923799 0 -0.31811651498789978 0.32488887006413791 0 -0.32134510148944728 0.34307004099923799 0 -0.31811651498789978 0.32488887006413791 0 -0.33459812393413729 0.32207732583041709 0 -0.31699951866320542 0.30755322334125379 0 -0.30563014257680821 0.31779627416788381 0 -0.31811651498789978 0.32488887006413791 0 -0.31699951866320542 0.30755322334125379 0 -0.31811651498789978 0.32488887006413791 0 -0.33459812393413729 0.32207732583041709 0 -0.32134510148944728 0.34307004099923799 0 -0.34342889555096417 0.33131534648734451 0 -0.3500233487104954 0.34104903357308669 0 -0.32134510148944728 0.34307004099923799 0 -0.33459812393413729 0.32207732583041709 0 -0.34342889555096417 0.33131534648734451 0 -0.32134510148944728 0.34307004099923799 0 -0.3500233487104954 0.34104903357308669 0 -0.3500233487104954 0.34104903357308669 0 -0.35650114511620551 0.33294276438790088 0 -0.36794029410566942 0.33226259727897972 0 -0.34342889555096417 0.33131534648734451 0 -0.3500233487104954 0.34104903357308669 0 -0.35650114511620551 0.33294276438790088 0 -0.33459812393413729 0.32207732583041709 0 -0.34342889555096417 0.33131534648734451 0 -0.35467675850453528 0.31743756764607989 0 -0.34344143829887858 0.30736403781452232 0 -0.33459812393413729 0.32207732583041709 0 -0.35467675850453528 0.31743756764607989 0 -0.35650114511620551 0.33294276438790088 0 -0.35467675850453528 0.31743756764607989 0 -0.36272901898995358 0.31473918551029578 0 -0.34342889555096417 0.33131534648734451 0 -0.35650114511620551 0.33294276438790088 0 -0.35467675850453528 0.31743756764607989 0 -0.35650114511620551 0.33294276438790088 0 -0.36272901898995358 0.31473918551029578 0 -0.37415321332832258 0.31386652142517069 0 -0.35650114511620551 0.33294276438790088 0 -0.37415321332832258 0.31386652142517069 0 -0.35650114511620551 0.33294276438790088 0 -0.37442838800096029 0.32044424157556423 0 -0.37415321332832258 0.31386652142517069 0 -0.37816355277066899 0.32985684687273281 0 -0.37442838800096029 0.32044424157556423 0 -0.36794029410566942 0.33226259727897972 0 -0.3787015959315434 0.33902802614693439 0 -0.3500233487104954 0.34104903357308669 0 -0.36794029410566942 0.33226259727897972 0 -0.35650114511620551 0.33294276438790088 0 -0.37442838800096029 0.32044424157556423 0 -0.36794029410566942 0.33226259727897972 0 -0.3787015959315434 0.33902802614693439 0 -0.3500233487104954 0.34104903357308669 0 -0.3787015959315434 0.33902802614693439 0 -0.37816355277066899 0.32985684687273281 0 -0.36794029410566942 0.33226259727897972 0 -0.3787015959315434 0.33902802614693439 0 -0.3500233487104954 0.34104903357308669 0 -0.36501658974902518 0.35367198233662939 0 -0.37823932191431281 0.35548757599615399 0 -0.3787015959315434 0.33902802614693439 0 -0.36501658974902518 0.35367198233662939 0 -0.37823932191431281 0.35548757599615399 0 -0.36501658974902518 0.35367198233662939 0 -0.37024808467873749 0.36543132639488701 0 -0.36501658974902518 0.35367198233662939 0 -0.37024808467873749 0.36543132639488701 0 -0.35845167711666143 0.37135730462245548 0 -0.37949655700884349 0.37153259571527891 0 -0.37024808467873749 0.36543132639488701 0 -0.36758280318953013 0.37627165255961892 0 -0.37024808467873749 0.36543132639488701 0 -0.35845167711666143 0.37135730462245548 0 -0.36758280318953013 0.37627165255961892 0 -0.36501658974902518 0.35367198233662939 0 -0.35845167711666143 0.37135730462245548 0 -0.35334750121980912 0.35582299833575448 0 -0.34304766554360439 0.37232322735168022 0 -0.33989838930305449 0.35721367281084643 0 -0.35845167711666143 0.37135730462245548 0 -0.33989838930305449 0.35721367281084643 0 -0.35845167711666143 0.37135730462245548 0 -0.35334750121980912 0.35582299833575448 0 -0.33989838930305449 0.35721367281084643 0 -0.35845167711666143 0.37135730462245548 0 -0.33989838930305449 0.35721367281084643 0 -0.3500233487104954 0.34104903357308669 0 -0.35334750121980912 0.35582299833575448 0 -0.3500233487104954 0.34104903357308669 0 -0.36501658974902518 0.35367198233662939 0 -0.35334750121980912 0.35582299833575448 0 -0.35285683380316007 0.39046665159751448 0 -0.36027192889352422 0.40897543894708011 0 -0.34270265381785459 0.40768080501023862 0 -0.34304766554360439 0.37232322735168022 0 -0.35845167711666143 0.37135730462245548 0 -0.35285683380316007 0.39046665159751448 0 -0.37686086334024771 0.38257038446795849 0 -0.35285683380316007 0.39046665159751448 0 -0.37686086334024771 0.38257038446795849 0 -0.35285683380316007 0.39046665159751448 0 -0.36758280318953013 0.37627165255961892 0 -0.35845167711666143 0.37135730462245548 0 -0.35285683380316007 0.39046665159751448 0 -0.36758280318953013 0.37627165255961892 0 -0.37686086334024771 0.38257038446795849 0 -0.37949655700884349 0.37153259571527891 0 -0.36758280318953013 0.37627165255961892 0 -0.37769092578324193 0.39977892163450779 0 -0.35285683380316007 0.39046665159751448 0 -0.37769092578324193 0.39977892163450779 0 -0.37686086334024771 0.38257038446795849 0 -0.35285683380316007 0.39046665159751448 0 -0.37769092578324193 0.39977892163450779 0 -0.35285683380316007 0.39046665159751448 0 -0.36027192889352422 0.40897543894708011 0 -0.37875820238401509 0.42613984176471847 0 -0.37769092578324193 0.39977892163450779 0 -0.36027192889352422 0.40897543894708011 0 -0.37875820238401509 0.42613984176471847 0 -0.36027192889352422 0.40897543894708011 0 -0.36048507512927641 0.42545129427310208 0 -0.37875820238401509 0.42613984176471847 0 -0.36048507512927641 0.42545129427310208 0 -0.35499138700470761 0.44318849185793469 0 -0.37875820238401509 0.42613984176471847 0 -0.35499138700470761 0.44318849185793469 0 -0.34691622899781399 0.42161541908905831 0 -0.33223168701086447 0.43660936806356893 0 -0.35499138700470761 0.44318849185793469 0 -0.36048507512927641 0.42545129427310208 0 -0.34691622899781399 0.42161541908905831 0 -0.35499138700470761 0.44318849185793469 0 -0.36027192889352422 0.40897543894708011 0 -0.34691622899781399 0.42161541908905831 0 -0.34270265381785459 0.40768080501023862 0 -0.36027192889352422 0.40897543894708011 0 -0.36048507512927641 0.42545129427310208 0 -0.34691622899781399 0.42161541908905831 0 -0.34270265381785459 0.40768080501023862 0 -0.32841174735063311 0.41773478988879181 0 -0.32505653004414181 0.39961172552874852 0 -0.34691622899781399 0.42161541908905831 0 -0.34270265381785459 0.40768080501023862 0 -0.32841174735063311 0.41773478988879181 0 -0.34691622899781399 0.42161541908905831 0 -0.32841174735063311 0.41773478988879181 0 -0.33223168701086447 0.43660936806356893 0 -0.32841174735063311 0.41773478988879181 0 -0.33223168701086447 0.43660936806356893 0 -0.31148998866141242 0.43181261152586448 0 -0.32841174735063311 0.41773478988879181 0 -0.31441363705571701 0.41408607272300291 0 -0.32505653004414181 0.39961172552874852 0 -0.32841174735063311 0.41773478988879181 0 -0.31441363705571701 0.41408607272300291 0 -0.31148998866141242 0.43181261152586448 0 -0.32505653004414181 0.39961172552874852 0 -0.31219235154091651 0.39185403334122892 0 -0.30619500853749271 0.39725637532293351 0 -0.32505653004414181 0.39961172552874852 0 -0.31778050989885959 0.38527433798844479 0 -0.31219235154091651 0.39185403334122892 0 -0.35285683380316007 0.39046665159751448 0 -0.32505653004414181 0.39961172552874852 0 -0.33136271335047512 0.38240680169344993 0 -0.35285683380316007 0.39046665159751448 0 -0.34270265381785459 0.40768080501023862 0 -0.32505653004414181 0.39961172552874852 0 -0.35285683380316007 0.39046665159751448 0 -0.32505653004414181 0.39961172552874852 0 -0.35285683380316007 0.39046665159751448 0 -0.33136271335047512 0.38240680169344993 0 -0.34304766554360439 0.37232322735168022 0 -0.35285683380316007 0.39046665159751448 0 -0.33136271335047512 0.38240680169344993 0 -0.30986859289778912 0.37434695178938759 0 -0.32167824364597858 0.36970754211250728 0 -0.33136271335047512 0.38240680169344993 0 -0.30986859289778912 0.37434695178938759 0 -0.33136271335047512 0.38240680169344993 0 -0.32505653004414181 0.39961172552874852 0 -0.33136271335047512 0.38240680169344993 0 -0.31778050989885959 0.38527433798844479 0 -0.30986859289778912 0.37434695178938759 0 -0.33136271335047512 0.38240680169344993 0 -0.31778050989885959 0.38527433798844479 0 -0.30986859289778912 0.37434695178938759 0 -0.31778050989885959 0.38527433798844479 0 -0.30574515252343709 0.38648905476423068 0 -0.30986859289778912 0.37434695178938759 0 -0.30574515252343709 0.38648905476423068 0 -0.29874239202075642 0.37528196759933868 0 -0.30574515252343709 0.38648905476423068 0 -0.29874239202075642 0.37528196759933868 0 -0.29146244090030071 0.40289140707507309 0 -0.31778050989885959 0.38527433798844479 0 -0.30574515252343709 0.38648905476423068 0 -0.31219235154091651 0.39185403334122892 0 -0.32505653004414181 0.39961172552874852 0 -0.30619500853749271 0.39725637532293351 0 -0.29725622628512233 0.40875679945997928 0 -0.32505653004414181 0.39961172552874852 0 -0.29725622628512233 0.40875679945997928 0 -0.30574515252343709 0.38648905476423068 0 -0.30619500853749271 0.39725637532293351 0 -0.29146244090030071 0.40289140707507309 0 -0.30574515252343709 0.38648905476423068 0 -0.31219235154091651 0.39185403334122892 0 -0.30619500853749271 0.39725637532293351 0 -0.30619500853749271 0.39725637532293351 0 -0.29146244090030071 0.40289140707507309 0 -0.29725622628512233 0.40875679945997928 0 -0.29146244090030071 0.40289140707507309 0 -0.2882496590958894 0.39023794275143442 0 -0.278827461574497 0.39790462172635238 0 -0.28396634188800352 0.38487377460497352 0 -0.2882496590958894 0.39023794275143442 0 -0.278827461574497 0.39790462172635238 0 -0.29146244090030071 0.40289140707507309 0 -0.278827461574497 0.39790462172635238 0 -0.27940045790464241 0.41220012044695847 0 -0.29874239202075642 0.37528196759933868 0 -0.29146244090030071 0.40289140707507309 0 -0.29874239202075642 0.37528196759933868 0 -0.29146244090030071 0.40289140707507309 0 -0.2882496590958894 0.39023794275143442 0 -0.29874239202075642 0.37528196759933868 0 -0.28396634188800352 0.38487377460497352 0 -0.28714059247178902 0.37543321948423419 0 -0.29874239202075642 0.37528196759933868 0 -0.28396634188800352 0.38487377460497352 0 -0.2882496590958894 0.39023794275143442 0 -0.28396634188800352 0.38487377460497352 0 -0.28714059247178902 0.37543321948423419 0 -0.27747916353329311 0.37529003384729942 0 -0.28396634188800352 0.38487377460497352 0 -0.27747916353329311 0.37529003384729942 0 -0.26775424033426293 0.38456849691175748 0 -0.28396634188800352 0.38487377460497352 0 -0.26775424033426293 0.38456849691175748 0 -0.278827461574497 0.39790462172635238 0 -0.26470209097228098 0.37140351159401941 0 -0.27747916353329311 0.37529003384729942 0 -0.26775424033426293 0.38456849691175748 0 -0.278827461574497 0.39790462172635238 0 -0.26298604578065232 0.3973558675440883 0 -0.2677584473194361 0.40899541659639099 0 -0.26775424033426293 0.38456849691175748 0 -0.278827461574497 0.39790462172635238 0 -0.26298604578065232 0.3973558675440883 0 -0.26298604578065232 0.3973558675440883 0 -0.25152819264859128 0.38883491631829081 0 -0.2490618870264745 0.40647588616764979 0 -0.26298604578065232 0.3973558675440883 0 -0.2677584473194361 0.40899541659639099 0 -0.2490618870264745 0.40647588616764979 0 -0.25213085833087667 0.37355178257669552 0 -0.26775424033426293 0.38456849691175748 0 -0.25152819264859128 0.38883491631829081 0 -0.26775424033426293 0.38456849691175748 0 -0.26298604578065232 0.3973558675440883 0 -0.25152819264859128 0.38883491631829081 0 -0.26470209097228098 0.37140351159401941 0 -0.25213085833087667 0.37355178257669552 0 -0.26775424033426293 0.38456849691175748 0 -0.2572482915111563 0.42152384209731297 0 -0.26330490497154813 0.43976041958731371 0 -0.24092688658692171 0.43286849171069308 0 -0.2572482915111563 0.42152384209731297 0 -0.27163392734069919 0.42205675226444578 0 -0.26330490497154813 0.43976041958731371 0 -0.2572482915111563 0.42152384209731297 0 -0.2677584473194361 0.40899541659639099 0 -0.2490618870264745 0.40647588616764979 0 -0.2572482915111563 0.42152384209731297 0 -0.2677584473194361 0.40899541659639099 0 -0.27163392734069919 0.42205675226444578 0 -0.27940045790464241 0.41220012044695847 0 -0.27163392734069919 0.42205675226444578 0 -0.28418248977984512 0.43050084655080739 0 -0.2677584473194361 0.40899541659639099 0 -0.27940045790464241 0.41220012044695847 0 -0.27163392734069919 0.42205675226444578 0 -0.278827461574497 0.39790462172635238 0 -0.2677584473194361 0.40899541659639099 0 -0.27940045790464241 0.41220012044695847 0 -0.27163392734069919 0.42205675226444578 0 -0.28418248977984512 0.43050084655080739 0 -0.26330490497154813 0.43976041958731371 0 -0.28418248977984512 0.43050084655080739 0 -0.29943060469912958 0.42576946359573847 0 -0.28981068171355151 0.44369098771903792 0 -0.29146244090030071 0.40289140707507309 0 -0.28418248977984512 0.43050084655080739 0 -0.29146244090030071 0.40289140707507309 0 -0.27940045790464241 0.41220012044695847 0 -0.28418248977984512 0.43050084655080739 0 -0.28418248977984512 0.43050084655080739 0 -0.29725622628512233 0.40875679945997928 0 -0.29943060469912958 0.42576946359573847 0 -0.29146244090030071 0.40289140707507309 0 -0.28418248977984512 0.43050084655080739 0 -0.29725622628512233 0.40875679945997928 0 -0.31441363705571701 0.41408607272300291 0 -0.32505653004414181 0.39961172552874852 0 -0.29725622628512233 0.40875679945997928 0 -0.31441363705571701 0.41408607272300291 0 -0.29725622628512233 0.40875679945997928 0 -0.29943060469912958 0.42576946359573847 0 -0.31441363705571701 0.41408607272300291 0 -0.29943060469912958 0.42576946359573847 0 -0.31148998866141242 0.43181261152586448 0 -0.29943060469912958 0.42576946359573847 0 -0.31148998866141242 0.43181261152586448 0 -0.28981068171355151 0.44369098771903792 0 -0.31148998866141242 0.43181261152586448 0 -0.30120616623050861 0.45239726712555162 0 -0.31718999816658727 0.45065056632578487 0 -0.31148998866141242 0.43181261152586448 0 -0.30120616623050861 0.45239726712555162 0 -0.31148998866141242 0.43181261152586448 0 -0.30120616623050861 0.45239726712555162 0 -0.28981068171355151 0.44369098771903792 0 -0.30120616623050861 0.45239726712555162 0 -0.29092234379960469 0.47298192272523881 0 -0.30745775624609217 0.47728579204436761 0 -0.30120616623050861 0.45239726712555162 0 -0.30745775624609217 0.47728579204436761 0 -0.31718999816658727 0.45065056632578487 0 -0.2852957606144535 0.45730244818253718 0 -0.28186649269177161 0.46567885888970018 0 -0.29092234379960469 0.47298192272523881 0 -0.30120616623050861 0.45239726712555162 0 -0.29092234379960469 0.47298192272523881 0 -0.30120616623050861 0.45239726712555162 0 -0.2852957606144535 0.45730244818253718 0 -0.29092234379960469 0.47298192272523881 0 -0.2852957606144535 0.45730244818253718 0 -0.28186649269177161 0.46567885888970018 0 -0.27690253865938408 0.45811028602654041 0 -0.28418248977984512 0.43050084655080739 0 -0.28981068171355151 0.44369098771903792 0 -0.27690253865938408 0.45811028602654041 0 -0.30120616623050861 0.45239726712555162 0 -0.2852957606144535 0.45730244818253718 0 -0.28981068171355151 0.44369098771903792 0 -0.2852957606144535 0.45730244818253718 0 -0.28981068171355151 0.44369098771903792 0 -0.27690253865938408 0.45811028602654041 0 -0.28418248977984512 0.43050084655080739 0 -0.27690253865938408 0.45811028602654041 0 -0.28418248977984512 0.43050084655080739 0 -0.27690253865938408 0.45811028602654041 0 -0.26330490497154813 0.43976041958731371 0 -0.2852957606144535 0.45730244818253718 0 -0.27690253865938408 0.45811028602654041 0 -0.28186649269177161 0.46567885888970018 0 -0.27690253865938408 0.45811028602654041 0 -0.27835780074514338 0.47366975871288508 0 -0.27690253865938408 0.45811028602654041 0 -0.25345677561811758 0.46036691342989022 0 -0.27690253865938408 0.45811028602654041 0 -0.25345677561811758 0.46036691342989022 0 -0.26590293397843329 0.47057525233348851 0 -0.25345677561811758 0.46036691342989022 0 -0.25315469521642581 0.4750486889203015 0 -0.26590293397843329 0.47057525233348851 0 -0.25345677561811758 0.46036691342989022 0 -0.26330490497154813 0.43976041958731371 0 -0.24129970279445639 0.44943490890582899 0 -0.27690253865938408 0.45811028602654041 0 -0.25345677561811758 0.46036691342989022 0 -0.26330490497154813 0.43976041958731371 0 -0.26169037092037989 0.4910190989046625 0 -0.25397816739109252 0.5 0 -0.27113802145370669 0.49283981386083792 0 -0.26169037092037989 0.4910190989046625 0 -0.25474868654415728 0.48692894813519849 0 -0.26689660829256312 0.48430763362261348 0 -0.26169037092037989 0.4910190989046625 0 -0.25397816739109252 0.5 0 -0.25474868654415728 0.48692894813519849 0 -0.25315469521642581 0.4750486889203015 0 -0.26689660829256312 0.48430763362261348 0 -0.25315469521642581 0.4750486889203015 0 -0.26689660829256312 0.48430763362261348 0 -0.26590293397843329 0.47057525233348851 0 -0.25474868654415728 0.48692894813519849 0 -0.25315469521642581 0.4750486889203015 0 -0.26689660829256312 0.48430763362261348 0 -0.27690253865938408 0.45811028602654041 0 -0.26590293397843329 0.47057525233348851 0 -0.26946370716205509 0.4860372782758946 0 -0.27690253865938408 0.45811028602654041 0 -0.26946370716205509 0.4860372782758946 0 -0.27690253865938408 0.45811028602654041 0 -0.27835780074514338 0.47366975871288508 0 -0.26946370716205509 0.4860372782758946 0 -0.26689660829256312 0.48430763362261348 0 -0.26590293397843329 0.47057525233348851 0 -0.26946370716205509 0.4860372782758946 0 -0.28186649269177161 0.46567885888970018 0 -0.27835780074514338 0.47366975871288508 0 -0.28298297564177088 0.4743823417855309 0 -0.27835780074514338 0.47366975871288508 0 -0.2798907507987049 0.48286402398659151 0 -0.28298297564177088 0.4743823417855309 0 -0.27835780074514338 0.47366975871288508 0 -0.2798907507987049 0.48286402398659151 0 -0.26946370716205509 0.4860372782758946 0 -0.26946370716205509 0.4860372782758946 0 -0.28063852136870049 0.49356657832492562 0 -0.26946370716205509 0.4860372782758946 0 -0.27113802145370669 0.49283981386083792 0 -0.28063852136870049 0.49356657832492562 0 -0.2798907507987049 0.48286402398659151 0 -0.26946370716205509 0.4860372782758946 0 -0.28063852136870049 0.49356657832492562 0 -0.25397816739109252 0.5 0 -0.27113802145370669 0.49283981386083792 0 -0.27742446875513049 0.50000000000000155 0 -0.26689660829256312 0.48430763362261348 0 -0.26946370716205509 0.4860372782758946 0 -0.27113802145370669 0.49283981386083792 0 -0.26169037092037989 0.4910190989046625 0 -0.26689660829256312 0.48430763362261348 0 -0.27113802145370669 0.49283981386083792 0 -0.26689660829256312 0.48430763362261348 0 -0.26946370716205509 0.4860372782758946 0 -0.27113802145370669 0.49283981386083792 0 -0.28063852136870049 0.49356657832492562 0 -0.27742446875513049 0.50000000000000155 0 -0.28063852136870049 0.49356657832492562 0 -0.27742446875513049 0.50000000000000155 0 -0.28063852136870049 0.49356657832492562 0 -0.27742446875513049 0.50000000000000155 0 -0.29018685806186229 0.50000000000000122 0 -0.28063852136870049 0.49356657832492562 0 -0.29018685806186229 0.50000000000000122 0 -0.29092234379960469 0.47298192272523881 0 -0.28063852136870049 0.49356657832492562 0 -0.29018685806186229 0.50000000000000122 0 -0.29018685806186229 0.50000000000000122 0 -0.29092234379960469 0.47298192272523881 0 -0.30745775624609217 0.47728579204436761 0 -0.28063852136870049 0.49356657832492562 0 -0.29092234379960469 0.47298192272523881 0 -0.2798907507987049 0.48286402398659151 0 -0.28063852136870049 0.49356657832492562 0 -0.29092234379960469 0.47298192272523881 0 -0.28186649269177161 0.46567885888970018 0 -0.28298297564177088 0.4743823417855309 0 -0.29092234379960469 0.47298192272523881 0 -0.2798907507987049 0.48286402398659151 0 -0.28298297564177088 0.4743823417855309 0 -0.29092234379960469 0.47298192272523881 0 -0.29018685806186229 0.50000000000000122 0 -0.30745775624609217 0.47728579204436761 0 -0.3640375775585698 0.5 0 -0.30745775624609217 0.47728579204436761 0 -0.33122457162539992 0.46023714195115112 0 -0.3640375775585698 0.5 0 -0.30745775624609217 0.47728579204436761 0 -0.33122457162539992 0.46023714195115112 0 -0.30745775624609217 0.47728579204436761 0 -0.31718999816658727 0.45065056632578487 0 -0.33122457162539992 0.46023714195115112 0 -0.33223168701086447 0.43660936806356893 0 -0.31148998866141242 0.43181261152586448 0 -0.31718999816658727 0.45065056632578487 0 -0.33223168701086447 0.43660936806356893 0 -0.31718999816658727 0.45065056632578487 0 -0.33122457162539992 0.46023714195115112 0 -0.33122457162539992 0.46023714195115112 0 -0.35499138700470761 0.44318849185793469 0 -0.33223168701086447 0.43660936806356893 0 -0.33122457162539992 0.46023714195115112 0 -0.35499138700470761 0.44318849185793469 0 -0.33122457162539992 0.46023714195115112 0 -0.35376164566254242 0.46494380824906301 0 -0.35499138700470761 0.44318849185793469 0 -0.38249991962136642 0.44345487931465249 0 -0.35499138700470761 0.44318849185793469 0 -0.37103467036260362 0.45695891695805302 0 -0.38249991962136642 0.44345487931465249 0 -0.37875820238401509 0.42613984176471847 0 -0.35499138700470761 0.44318849185793469 0 -0.35376164566254242 0.46494380824906301 0 -0.35499138700470761 0.44318849185793469 0 -0.37103467036260362 0.45695891695805302 0 -0.35376164566254242 0.46494380824906301 0 -0.37103467036260362 0.45695891695805302 0 -0.36943712044780219 0.47475959506207249 0 -0.33122457162539992 0.46023714195115112 0 -0.35376164566254242 0.46494380824906301 0 -0.3640375775585698 0.5 0 -0.38891458820749281 0.47713565504117422 0 -0.36943712044780219 0.47475959506207249 0 -0.3640375775585698 0.5 0 -0.35376164566254242 0.46494380824906301 0 -0.36943712044780219 0.47475959506207249 0 -0.3640375775585698 0.5 0 -0.1410608215807003 0.47118489318428192 0 -0.1506389915883973 0.47451242435581331 0 -0.15779819732271971 0.4695739402503486 0 -0.1410608215807003 0.47118489318428192 0 -0.15779819732271971 0.4695739402503486 0 -0.1455325599989582 0.47665965757352818 0 -0.14983465253105441 0.48099067897208148 0 -0.1405957742956809 0.47995063378193648 0 -0.14983465253105441 0.48099067897208148 0 -0.14427471349546869 0.48965289008050411 0 -0.1405957742956809 0.47995063378193648 0 -0.1455325599989582 0.47665965757352818 0 -0.1410608215807003 0.47118489318428192 0 -0.1506389915883973 0.47451242435581331 0 -0.1455325599989582 0.47665965757352818 0 -0.1410608215807003 0.47118489318428192 0 -0.1405957742956809 0.47995063378193648 0 -0.1506389915883973 0.47451242435581331 0 -0.15682389603308189 0.47748605108520858 0 -0.15779819732271971 0.4695739402503486 0 -0.1506389915883973 0.47451242435581331 0 -0.14983465253105441 0.48099067897208148 0 -0.15682389603308189 0.47748605108520858 0 -0.1455325599989582 0.47665965757352818 0 -0.1506389915883973 0.47451242435581331 0 -0.14983465253105441 0.48099067897208148 0 -0.14983465253105441 0.48099067897208148 0 -0.1558122254133027 0.48316327461493752 0 -0.15682389603308189 0.47748605108520858 0 -0.14983465253105441 0.48099067897208148 0 -0.1558122254133027 0.48316327461493752 0 -0.15140604362779489 0.486968875654338 0 -0.1558122254133027 0.48316327461493752 0 -0.15140604362779489 0.486968875654338 0 -0.15545271364459581 0.49281799385228547 0 -0.14983465253105441 0.48099067897208148 0 -0.15140604362779489 0.486968875654338 0 -0.14427471349546869 0.48965289008050411 0 -0.15140604362779489 0.486968875654338 0 -0.15545271364459581 0.49281799385228547 0 -0.14427471349546869 0.48965289008050411 0 -0.15453849507163009 0.5 0 -0.14427471349546869 0.48965289008050411 0 -0.12543772684428189 0.5 0 -0.15453849507163009 0.5 0 -0.15545271364459581 0.49281799385228547 0 -0.14427471349546869 0.48965289008050411 0 -0.14427471349546869 0.48965289008050411 0 -0.12543772684428189 0.5 0 -0.13178312884530541 0.48627570230508688 0 -0.14427471349546869 0.48965289008050411 0 -0.13178312884530541 0.48627570230508688 0 -0.1405957742956809 0.47995063378193648 0 -0.13178312884530541 0.48627570230508688 0 -0.1317912103042716 0.47600940211286807 0 -0.11642361318749669 0.48420448820259387 0 -0.1317912103042716 0.47600940211286807 0 -0.14083201439797821 0.46516349611765162 0 -0.12052644250191399 0.4682622397032008 0 -0.13178312884530541 0.48627570230508688 0 -0.1405957742956809 0.47995063378193648 0 -0.1317912103042716 0.47600940211286807 0 -0.1410608215807003 0.47118489318428192 0 -0.1405957742956809 0.47995063378193648 0 -0.1317912103042716 0.47600940211286807 0 -0.1410608215807003 0.47118489318428192 0 -0.1317912103042716 0.47600940211286807 0 -0.14083201439797821 0.46516349611765162 0 -0.12618187852634369 0.45882241462805679 0 -0.14083201439797821 0.46516349611765162 0 -0.12052644250191399 0.4682622397032008 0 -0.14083201439797821 0.46516349611765162 0 -0.12052644250191399 0.4682622397032008 0 -0.12618187852634369 0.45882241462805679 0 -0.13621980461969219 0.45775649261309698 0 -0.13482926781972801 0.45201676164804122 0 -0.13621980461969219 0.45775649261309698 0 -0.13482926781972801 0.45201676164804122 0 -0.1430360577347192 0.45502329805863873 0 -0.13621980461969219 0.45775649261309698 0 -0.14083201439797821 0.46516349611765162 0 -0.1430360577347192 0.45502329805863873 0 -0.12618187852634369 0.45882241462805679 0 -0.13621980461969219 0.45775649261309698 0 -0.14083201439797821 0.46516349611765162 0 -0.12618187852634369 0.45882241462805679 0 -0.13482926781972801 0.45201676164804122 0 -0.1248743097581413 0.44162978393037222 0 -0.13482926781972801 0.45201676164804122 0 -0.13973201497409549 0.44099892737807922 0 -0.1415241139788854 0.4488412036993919 0 -0.13482926781972801 0.45201676164804122 0 -0.1415241139788854 0.4488412036993919 0 -0.1430360577347192 0.45502329805863873 0 -0.13973201497409549 0.44099892737807922 0 -0.13491063247587859 0.43073185275000708 0 -0.1248743097581413 0.44162978393037222 0 -0.13482926781972801 0.45201676164804122 0 -0.13973201497409549 0.44099892737807922 0 -0.1248743097581413 0.44162978393037222 0 -0.13973201497409549 0.44099892737807922 0 -0.14849911538699881 0.44732582771280882 0 -0.14949031039727409 0.43903968606904947 0 -0.14849911538699881 0.44732582771280882 0 -0.1430360577347192 0.45502329805863873 0 -0.15230793746503779 0.45507497120342549 0 -0.13973201497409549 0.44099892737807922 0 -0.1415241139788854 0.4488412036993919 0 -0.14849911538699881 0.44732582771280882 0 -0.1415241139788854 0.4488412036993919 0 -0.14849911538699881 0.44732582771280882 0 -0.1430360577347192 0.45502329805863873 0 -0.14849911538699881 0.44732582771280882 0 -0.15230793746503779 0.45507497120342549 0 -0.15767924869329919 0.44641741059368378 0 -0.14949031039727409 0.43903968606904947 0 -0.15767924869329919 0.44641741059368378 0 -0.15912083936695831 0.4347249498771325 0 -0.14849911538699881 0.44732582771280882 0 -0.14949031039727409 0.43903968606904947 0 -0.15767924869329919 0.44641741059368378 0 -0.14083201439797821 0.46516349611765162 0 -0.16113758629404229 0.46206475253210239 0 -0.15779819732271971 0.4695739402503486 0 -0.1410608215807003 0.47118489318428192 0 -0.14083201439797821 0.46516349611765162 0 -0.15779819732271971 0.4695739402503486 0 -0.14083201439797821 0.46516349611765162 0 -0.16113758629404229 0.46206475253210239 0 -0.14083201439797821 0.46516349611765162 0 -0.15230793746503779 0.45507497120342549 0 -0.16113758629404229 0.46206475253210239 0 -0.14083201439797821 0.46516349611765162 0 -0.1430360577347192 0.45502329805863873 0 -0.15230793746503779 0.45507497120342549 0 -0.16113758629404229 0.46206475253210239 0 -0.16940388650370539 0.44815354093755089 0 -0.18144315819010631 0.45896600894655282 0 -0.16113758629404229 0.46206475253210239 0 -0.18144315819010631 0.45896600894655282 0 -0.16113758629404229 0.46206475253210239 0 -0.17453557306473899 0.46796298731641428 0 -0.15779819732271971 0.4695739402503486 0 -0.15230793746503779 0.45507497120342549 0 -0.16113758629404229 0.46206475253210239 0 -0.16013216473902109 0.45292766881669072 0 -0.16113758629404229 0.46206475253210239 0 -0.16013216473902109 0.45292766881669072 0 -0.16940388650370539 0.44815354093755089 0 -0.15767924869329919 0.44641741059368378 0 -0.16940388650370539 0.44815354093755089 0 -0.15912083936695831 0.4347249498771325 0 -0.15230793746503779 0.45507497120342549 0 -0.16013216473902109 0.45292766881669072 0 -0.15767924869329919 0.44641741059368378 0 -0.16013216473902109 0.45292766881669072 0 -0.15767924869329919 0.44641741059368378 0 -0.16940388650370539 0.44815354093755089 0 -0.1829590266345629 0.45699162349075462 0 -0.18255950863604661 0.43173185523385532 0 -0.1829590266345629 0.45699162349075462 0 -0.19557533522393281 0.44055915781337712 0 -0.18255950863604661 0.43173185523385532 0 -0.16940388650370539 0.44815354093755089 0 -0.1829590266345629 0.45699162349075462 0 -0.18255950863604661 0.43173185523385532 0 -0.16113758629404229 0.46206475253210239 0 -0.17453557306473899 0.46796298731641428 0 -0.18144315819010631 0.45896600894655282 0 -0.17453557306473899 0.46796298731641428 0 -0.18144315819010631 0.45896600894655282 0 -0.17453557306473899 0.46796298731641428 0 -0.18311948649431831 0.46713679563994498 0 -0.16940388650370539 0.44815354093755089 0 -0.18144315819010631 0.45896600894655282 0 -0.1829590266345629 0.45699162349075462 0 -0.18144315819010631 0.45896600894655282 0 -0.1829590266345629 0.45699162349075462 0 -0.18144315819010631 0.45896600894655282 0 -0.1829865290739871 0.45873048193697258 0 -0.1829590266345629 0.45699162349075462 0 -0.18144315819010631 0.45896600894655282 0 -0.1829865290739871 0.45873048193697258 0 -0.1829865290739871 0.45873048193697258 0 -0.1829590266345629 0.45699162349075462 0 -0.17453557306473899 0.46796298731641428 0 -0.18144315819010631 0.45896600894655282 0 -0.18311948649431831 0.46713679563994498 0 -0.1829865290739871 0.45873048193697258 0 -0.18311948649431831 0.46713679563994498 0 -0.18144315819010631 0.45896600894655282 0 -0.1829865290739871 0.45873048193697258 0 -0.18311948649431831 0.46713679563994498 0 -0.18311948649431831 0.46713679563994498 0 -0.18337937489664821 0.48356839781997168 0 -0.19511197543601369 0.47606725323690458 0 -0.18311948649431831 0.46713679563994498 0 -0.18337937489664821 0.48356839781997168 0 -0.18311948649431831 0.46713679563994498 0 -0.18337937489664821 0.48356839781997168 0 -0.17485937494801759 0.47808814193434568 0 -0.17453557306473899 0.46796298731641428 0 -0.18311948649431831 0.46713679563994498 0 -0.17485937494801759 0.47808814193434568 0 -0.17453557306473899 0.46796298731641428 0 -0.15779819732271971 0.4695739402503486 0 -0.17453557306473899 0.46796298731641428 0 -0.16499414335466689 0.48039049058434952 0 -0.17453557306473899 0.46796298731641428 0 -0.16499414335466689 0.48039049058434952 0 -0.15779819732271971 0.4695739402503486 0 -0.17453557306473899 0.46796298731641428 0 -0.17485937494801759 0.47808814193434568 0 -0.16499414335466689 0.48039049058434952 0 -0.17485937494801759 0.47808814193434568 0 -0.16499414335466689 0.48039049058434952 0 -0.1699453859209171 0.49288017845899518 0 -0.1558122254133027 0.48316327461493752 0 -0.16499414335466689 0.48039049058434952 0 -0.15682389603308189 0.47748605108520858 0 -0.16499414335466689 0.48039049058434952 0 -0.15682389603308189 0.47748605108520858 0 -0.15779819732271971 0.4695739402503486 0 -0.15453849507163009 0.5 0 -0.1699453859209171 0.49288017845899518 0 -0.18363926329897839 0.49999999999999828 0 -0.15453849507163009 0.5 0 -0.15545271364459581 0.49281799385228547 0 -0.1699453859209171 0.49288017845899518 0 -0.15545271364459581 0.49281799385228547 0 -0.16499414335466689 0.48039049058434952 0 -0.1699453859209171 0.49288017845899518 0 -0.15545271364459581 0.49281799385228547 0 -0.16499414335466689 0.48039049058434952 0 -0.1558122254133027 0.48316327461493752 0 -0.15545271364459581 0.49281799385228547 0 -0.16499414335466689 0.48039049058434952 0 -0.18337937489664821 0.48356839781997168 0 -0.18363926329897839 0.49999999999999828 0 -0.18337937489664821 0.48356839781997168 0 -0.1699453859209171 0.49288017845899518 0 -0.18363926329897839 0.49999999999999828 0 -0.18337937489664821 0.48356839781997168 0 -0.17485937494801759 0.47808814193434568 0 -0.1699453859209171 0.49288017845899518 0 -0.18337937489664821 0.48356839781997168 0 -0.18363926329897839 0.49999999999999828 0 -0.19848883175809501 0.48685236178056529 0 -0.18363926329897839 0.49999999999999828 0 -0.19848883175809501 0.48685236178056529 0 -0.20708556466301639 0.5 0 -0.18311948649431831 0.46713679563994498 0 -0.19511197543601369 0.47606725323690458 0 -0.20656524953558469 0.46488016823659339 0 -0.18337937489664821 0.48356839781997168 0 -0.19848883175809501 0.48685236178056529 0 -0.19511197543601369 0.47606725323690458 0 -0.19848883175809501 0.48685236178056529 0 -0.19511197543601369 0.47606725323690458 0 -0.206747867840962 0.47700509082497228 0 -0.19511197543601369 0.47606725323690458 0 -0.206747867840962 0.47700509082497228 0 -0.20656524953558469 0.46488016823659339 0 -0.19848883175809501 0.48685236178056529 0 -0.206747867840962 0.47700509082497228 0 -0.21585796601610141 0.48648558657266339 0 -0.206747867840962 0.47700509082497228 0 -0.21852396914967101 0.47285401242330122 0 -0.20656524953558469 0.46488016823659339 0 -0.206747867840962 0.47700509082497228 0 -0.21852396914967101 0.47285401242330122 0 -0.21585796601610141 0.48648558657266339 0 -0.20708556466301639 0.5 0 -0.21585796601610141 0.48648558657266339 0 -0.23053186602705439 0.5 0 -0.19848883175809501 0.48685236178056529 0 -0.20708556466301639 0.5 0 -0.21585796601610141 0.48648558657266339 0 -0.21585796601610141 0.48648558657266339 0 -0.23053186602705439 0.5 0 -0.2373192826940049 0.48342253064983348 0 -0.21852396914967101 0.47285401242330122 0 -0.2373192826940049 0.48342253064983348 0 -0.23001101257685119 0.46262354083324181 0 -0.21852396914967101 0.47285401242330122 0 -0.21585796601610141 0.48648558657266339 0 -0.2373192826940049 0.48342253064983348 0 -0.25474868654415728 0.48692894813519849 0 -0.25315469521642581 0.4750486889203015 0 -0.2373192826940049 0.48342253064983348 0 -0.25315469521642581 0.4750486889203015 0 -0.2373192826940049 0.48342253064983348 0 -0.23001101257685119 0.46262354083324181 0 -0.25397816739109252 0.5 0 -0.23053186602705439 0.5 0 -0.2373192826940049 0.48342253064983348 0 -0.25397816739109252 0.5 0 -0.25474868654415728 0.48692894813519849 0 -0.2373192826940049 0.48342253064983348 0 -0.26330490497154813 0.43976041958731371 0 -0.24129970279445639 0.44943490890582899 0 -0.24092688658692171 0.43286849171069308 0 -0.24129970279445639 0.44943490890582899 0 -0.2242493546558077 0.44235471361969553 0 -0.24092688658692171 0.43286849171069308 0 -0.25345677561811758 0.46036691342989022 0 -0.23001101257685119 0.46262354083324181 0 -0.25345677561811758 0.46036691342989022 0 -0.24129970279445639 0.44943490890582899 0 -0.23001101257685119 0.46262354083324181 0 -0.25345677561811758 0.46036691342989022 0 -0.25315469521642581 0.4750486889203015 0 -0.23001101257685119 0.46262354083324181 0 -0.24129970279445639 0.44943490890582899 0 -0.23001101257685119 0.46262354083324181 0 -0.2242493546558077 0.44235471361969553 0 -0.23001101257685119 0.46262354083324181 0 -0.2242493546558077 0.44235471361969553 0 -0.2144914677851314 0.45380351874251162 0 -0.2242493546558077 0.44235471361969553 0 -0.20880164963731279 0.443380440886459 0 -0.2144914677851314 0.45380351874251162 0 -0.20880164963731279 0.443380440886459 0 -0.2144914677851314 0.45380351874251162 0 -0.20415969833182021 0.45549933815243238 0 -0.23001101257685119 0.46262354083324181 0 -0.2144914677851314 0.45380351874251162 0 -0.20656524953558469 0.46488016823659339 0 -0.21852396914967101 0.47285401242330122 0 -0.23001101257685119 0.46262354083324181 0 -0.20656524953558469 0.46488016823659339 0 -0.23001101257685119 0.46262354083324181 0 -0.20656524953558469 0.46488016823659339 0 -0.2144914677851314 0.45380351874251162 0 -0.20415969833182021 0.45549933815243238 0 -0.20656524953558469 0.46488016823659339 0 -0.1829865290739871 0.45873048193697258 0 -0.1829590266345629 0.45699162349075462 0 -0.20415969833182021 0.45549933815243238 0 -0.1829865290739871 0.45873048193697258 0 -0.20415969833182021 0.45549933815243238 0 -0.18311948649431831 0.46713679563994498 0 -0.20415969833182021 0.45549933815243238 0 -0.20656524953558469 0.46488016823659339 0 -0.1829865290739871 0.45873048193697258 0 -0.18311948649431831 0.46713679563994498 0 -0.20415969833182021 0.45549933815243238 0 -0.18311948649431831 0.46713679563994498 0 -0.20656524953558469 0.46488016823659339 0 -0.1829590266345629 0.45699162349075462 0 -0.19557533522393281 0.44055915781337712 0 -0.1829590266345629 0.45699162349075462 0 -0.20415969833182021 0.45549933815243238 0 -0.19557533522393281 0.44055915781337712 0 -0.20880164963731279 0.443380440886459 0 -0.20415969833182021 0.45549933815243238 0 -0.19557533522393281 0.44055915781337712 0 -0.19557533522393281 0.44055915781337712 0 -0.20819164381331129 0.42412669213600601 0 -0.19557533522393281 0.44055915781337712 0 -0.19413142888046839 0.4217351031076268 0 -0.18255950863604661 0.43173185523385532 0 -0.19557533522393281 0.44055915781337712 0 -0.19413142888046839 0.4217351031076268 0 -0.20819164381331129 0.42412669213600601 0 -0.19413142888046839 0.4217351031076268 0 -0.20819164381331129 0.42412669213600601 0 -0.2021706660915297 0.40578572337793972 0 -0.19413142888046839 0.4217351031076268 0 -0.2021706660915297 0.40578572337793972 0 -0.18215999063752189 0.40647208697695608 0 -0.20819164381331129 0.42412669213600601 0 -0.22405449890785839 0.40643558214578251 0 -0.2021706660915297 0.40578572337793972 0 -0.20880164963731279 0.443380440886459 0 -0.19557533522393281 0.44055915781337712 0 -0.20819164381331129 0.42412669213600601 0 -0.2242493546558077 0.44235471361969553 0 -0.20880164963731279 0.443380440886459 0 -0.20819164381331129 0.42412669213600601 0 -0.2242493546558077 0.44235471361969553 0 -0.20819164381331129 0.42412669213600601 0 -0.22600929792909111 0.42518400498706249 0 -0.2242493546558077 0.44235471361969553 0 -0.22600929792909111 0.42518400498706249 0 -0.24092688658692171 0.43286849171069308 0 -0.20819164381331129 0.42412669213600601 0 -0.22600929792909111 0.42518400498706249 0 -0.22405449890785839 0.40643558214578251 0 -0.22600929792909111 0.42518400498706249 0 -0.22405449890785839 0.40643558214578251 0 -0.2382988550227183 0.41778448946306668 0 -0.2572482915111563 0.42152384209731297 0 -0.2382988550227183 0.41778448946306668 0 -0.2490618870264745 0.40647588616764979 0 -0.22405449890785839 0.40643558214578251 0 -0.2382988550227183 0.41778448946306668 0 -0.2490618870264745 0.40647588616764979 0 -0.2572482915111563 0.42152384209731297 0 -0.2382988550227183 0.41778448946306668 0 -0.24092688658692171 0.43286849171069308 0 -0.22600929792909111 0.42518400498706249 0 -0.2382988550227183 0.41778448946306668 0 -0.24092688658692171 0.43286849171069308 0 -0.24000210142933509 0.37809552861286783 0 -0.23801773827758249 0.39392053259368742 0 -0.22567210936962789 0.38582584627882549 0 -0.25152819264859128 0.38883491631829081 0 -0.24000210142933509 0.37809552861286783 0 -0.23801773827758249 0.39392053259368742 0 -0.25213085833087667 0.37355178257669552 0 -0.25152819264859128 0.38883491631829081 0 -0.24000210142933509 0.37809552861286783 0 -0.25152819264859128 0.38883491631829081 0 -0.2490618870264745 0.40647588616764979 0 -0.23801773827758249 0.39392053259368742 0 -0.22405449890785839 0.40643558214578251 0 -0.2490618870264745 0.40647588616764979 0 -0.23801773827758249 0.39392053259368742 0 -0.22405449890785839 0.40643558214578251 0 -0.22567210936962789 0.38582584627882549 0 -0.2099895612515065 0.38861519238670661 0 -0.22405449890785839 0.40643558214578251 0 -0.23801773827758249 0.39392053259368742 0 -0.22567210936962789 0.38582584627882549 0 -0.22567210936962789 0.38582584627882549 0 -0.21752164111765379 0.37637519474985792 0 -0.23054114355980421 0.3681661286558337 0 -0.24000210142933509 0.37809552861286783 0 -0.22567210936962789 0.38582584627882549 0 -0.23054114355980421 0.3681661286558337 0 -0.22567210936962789 0.38582584627882549 0 -0.21752164111765379 0.37637519474985792 0 -0.2099895612515065 0.38861519238670661 0 -0.21752164111765379 0.37637519474985792 0 -0.2099895612515065 0.38861519238670661 0 -0.20825127389149589 0.37038948781896619 0 -0.2099895612515065 0.38861519238670661 0 -0.1956253707180633 0.37355818799515828 0 -0.20825127389149589 0.37038948781896619 0 -0.22405449890785839 0.40643558214578251 0 -0.2099895612515065 0.38861519238670661 0 -0.2021706660915297 0.40578572337793972 0 -0.2021706660915297 0.40578572337793972 0 -0.19434121226752371 0.39112870189136351 0 -0.18215999063752189 0.40647208697695608 0 -0.2099895612515065 0.38861519238670661 0 -0.2021706660915297 0.40578572337793972 0 -0.19434121226752371 0.39112870189136351 0 -0.2099895612515065 0.38861519238670661 0 -0.19434121226752371 0.39112870189136351 0 -0.1956253707180633 0.37355818799515828 0 -0.19434121226752371 0.39112870189136351 0 -0.18176047263899719 0.38121231872005679 0 -0.1956253707180633 0.37355818799515828 0 -0.18176047263899719 0.38121231872005679 0 -0.16585623702428451 0.39107516703040651 0 -0.16689278400863089 0.37048631692620287 0 -0.16585623702428451 0.39107516703040651 0 -0.1532541744773912 0.375434017343177 0 -0.15169756500005979 0.38990146883471011 0 -0.16585623702428451 0.39107516703040651 0 -0.1532541744773912 0.375434017343177 0 -0.16689278400863089 0.37048631692620287 0 -0.16585623702428451 0.39107516703040651 0 -0.1665369108918931 0.40914444316194981 0 -0.1556916669008335 0.40278409093046019 0 -0.16585623702428451 0.39107516703040651 0 -0.18215999063752189 0.40647208697695608 0 -0.1665369108918931 0.40914444316194981 0 -0.16585623702428451 0.39107516703040651 0 -0.15169756500005979 0.38990146883471011 0 -0.1556916669008335 0.40278409093046019 0 -0.18176047263899719 0.38121231872005679 0 -0.16585623702428451 0.39107516703040651 0 -0.18215999063752189 0.40647208697695608 0 -0.18176047263899719 0.38121231872005679 0 -0.18215999063752189 0.40647208697695608 0 -0.19434121226752371 0.39112870189136351 0 -0.18176047263899719 0.38121231872005679 0 -0.18215999063752189 0.40647208697695608 0 -0.18215999063752189 0.40647208697695608 0 -0.18255950863604661 0.43173185523385532 0 -0.18215999063752189 0.40647208697695608 0 -0.16958367679162159 0.42493542776846188 0 -0.1665369108918931 0.40914444316194981 0 -0.19413142888046839 0.4217351031076268 0 -0.18215999063752189 0.40647208697695608 0 -0.18255950863604661 0.43173185523385532 0 -0.18215999063752189 0.40647208697695608 0 -0.18255950863604661 0.43173185523385532 0 -0.16958367679162159 0.42493542776846188 0 -0.16940388650370539 0.44815354093755089 0 -0.18255950863604661 0.43173185523385532 0 -0.16958367679162159 0.42493542776846188 0 -0.16940388650370539 0.44815354093755089 0 -0.16958367679162159 0.42493542776846188 0 -0.15912083936695831 0.4347249498771325 0 -0.16958367679162159 0.42493542776846188 0 -0.15912083936695831 0.4347249498771325 0 -0.15604886632200479 0.41831593774319042 0 -0.16958367679162159 0.42493542776846188 0 -0.1665369108918931 0.40914444316194981 0 -0.15604886632200479 0.41831593774319042 0 -0.1665369108918931 0.40914444316194981 0 -0.15604886632200479 0.41831593774319042 0 -0.1556916669008335 0.40278409093046019 0 -0.15604886632200479 0.41831593774319042 0 -0.14768726638806501 0.40958107086639878 0 -0.1556916669008335 0.40278409093046019 0 -0.15604886632200479 0.41831593774319042 0 -0.1455440964649429 0.41771164433310332 0 -0.14575226394851429 0.42876386523653243 0 -0.15604886632200479 0.41831593774319042 0 -0.1455440964649429 0.41771164433310332 0 -0.14768726638806501 0.40958107086639878 0 -0.1455440964649429 0.41771164433310332 0 -0.14768726638806501 0.40958107086639878 0 -0.13820848934052041 0.41088683445876423 0 -0.15912083936695831 0.4347249498771325 0 -0.15604886632200479 0.41831593774319042 0 -0.14575226394851429 0.42876386523653243 0 -0.14949031039727409 0.43903968606904947 0 -0.15912083936695831 0.4347249498771325 0 -0.14575226394851429 0.42876386523653243 0 -0.1455440964649429 0.41771164433310332 0 -0.14575226394851429 0.42876386523653243 0 -0.13557398954387551 0.42076075412316039 0 -0.13973201497409549 0.44099892737807922 0 -0.14949031039727409 0.43903968606904947 0 -0.14575226394851429 0.42876386523653243 0 -0.13491063247587859 0.43073185275000708 0 -0.1242188050129694 0.42501783294758849 0 -0.1248743097581413 0.44162978393037222 0 -0.13973201497409549 0.44099892737807922 0 -0.14575226394851429 0.42876386523653243 0 -0.13491063247587859 0.43073185275000708 0 -0.14575226394851429 0.42876386523653243 0 -0.13491063247587859 0.43073185275000708 0 -0.13557398954387551 0.42076075412316039 0 -0.13491063247587859 0.43073185275000708 0 -0.13557398954387551 0.42076075412316039 0 -0.1242188050129694 0.42501783294758849 0 -0.13820848934052041 0.41088683445876423 0 -0.13557398954387551 0.42076075412316039 0 -0.12623023605756489 0.41143854881348008 0 -0.1455440964649429 0.41771164433310332 0 -0.13820848934052041 0.41088683445876423 0 -0.13557398954387551 0.42076075412316039 0 -0.13557398954387551 0.42076075412316039 0 -0.12623023605756489 0.41143854881348008 0 -0.1242188050129694 0.42501783294758849 0 -0.13820848934052041 0.41088683445876423 0 -0.12623023605756489 0.41143854881348008 0 -0.13398515235888339 0.40371564514020769 0 -0.12997925716256209 0.39431640422262348 0 -0.14074253368576661 0.38200722200303072 0 -0.1429432129120235 0.39820684686647628 0 -0.12623023605756489 0.41143854881348008 0 -0.13398515235888339 0.40371564514020769 0 -0.12997925716256209 0.39431640422262348 0 -0.13398515235888339 0.40371564514020769 0 -0.12997925716256209 0.39431640422262348 0 -0.1429432129120235 0.39820684686647628 0 -0.13820848934052041 0.41088683445876423 0 -0.13398515235888339 0.40371564514020769 0 -0.1429432129120235 0.39820684686647628 0 -0.12997925716256209 0.39431640422262348 0 -0.14074253368576661 0.38200722200303072 0 -0.12523428666698541 0.37069662222368049 0 -0.12997925716256209 0.39431640422262348 0 -0.12523428666698541 0.37069662222368049 0 -0.12103247972044499 0.39311621374447298 0 -0.14074253368576661 0.38200722200303072 0 -0.15169756500005979 0.38990146883471011 0 -0.1429432129120235 0.39820684686647628 0 -0.14074253368576661 0.38200722200303072 0 -0.1532541744773912 0.375434017343177 0 -0.15169756500005979 0.38990146883471011 0 -0.15169756500005979 0.38990146883471011 0 -0.1556916669008335 0.40278409093046019 0 -0.1429432129120235 0.39820684686647628 0 -0.14768726638806501 0.40958107086639878 0 -0.1556916669008335 0.40278409093046019 0 -0.1429432129120235 0.39820684686647628 0 -0.14768726638806501 0.40958107086639878 0 -0.13820848934052041 0.41088683445876423 0 -0.1429432129120235 0.39820684686647628 0 -0.14407255521749979 0.34403263722221961 0 -0.15504053286571459 0.3545366000593369 0 -0.14129669608781389 0.36249735492572199 0 -0.14407255521749979 0.34403263722221961 0 -0.15504053286571459 0.3545366000593369 0 -0.1549481930100888 0.34056708499864929 0 -0.14074253368576661 0.38200722200303072 0 -0.1532541744773912 0.375434017343177 0 -0.14129669608781389 0.36249735492572199 0 -0.1532541744773912 0.375434017343177 0 -0.15504053286571459 0.3545366000593369 0 -0.14129669608781389 0.36249735492572199 0 -0.14129669608781389 0.36249735492572199 0 -0.12523428666698541 0.37069662222368049 0 -0.1294360936135257 0.3482770307028879 0 -0.12523428666698541 0.37069662222368049 0 -0.1294360936135257 0.3482770307028879 0 -0.14074253368576661 0.38200722200303072 0 -0.14129669608781389 0.36249735492572199 0 -0.12523428666698541 0.37069662222368049 0 -0.14407255521749979 0.34403263722221961 0 -0.14129669608781389 0.36249735492572199 0 -0.1294360936135257 0.3482770307028879 0 -0.1294360936135257 0.3482770307028879 0 -0.13363790056006589 0.32585743918209531 0 -0.14407255521749979 0.34403263722221961 0 -0.1294360936135257 0.3482770307028879 0 -0.13363790056006589 0.32585743918209531 0 -0.1294360936135257 0.3482770307028879 0 -0.13363790056006589 0.32585743918209531 0 -0.1154499742120704 0.34086754873962172 0 -0.12722248981549561 0.3181430308760943 0 -0.13363790056006589 0.32585743918209531 0 -0.1360408951285694 0.3130357752318072 0 -0.12722248981549561 0.3181430308760943 0 -0.1360408951285694 0.3130357752318072 0 -0.12136448477009221 0.30951812845445109 0 -0.12722248981549561 0.3181430308760943 0 -0.13363790056006589 0.32585743918209531 0 -0.12142985306419619 0.32461006626398298 0 -0.13363790056006589 0.32585743918209531 0 -0.12142985306419619 0.32461006626398298 0 -0.13363790056006589 0.32585743918209531 0 -0.1360408951285694 0.3130357752318072 0 -0.14290423209994971 0.32095809222069871 0 -0.13363790056006589 0.32585743918209531 0 -0.1360408951285694 0.3130357752318072 0 -0.14290423209994971 0.32095809222069871 0 -0.1532404752523272 0.32269894785805692 0 -0.1464174014568787 0.29836992735667278 0 -0.13363790056006589 0.32585743918209531 0 -0.14290423209994971 0.32095809222069871 0 -0.15729966860100811 0.32827511069417059 0 -0.13363790056006589 0.32585743918209531 0 -0.15729966860100811 0.32827511069417059 0 -0.14290423209994971 0.32095809222069871 0 -0.1532404752523272 0.32269894785805692 0 -0.15729966860100811 0.32827511069417059 0 -0.1532404752523272 0.32269894785805692 0 -0.15943794807189979 0.31595908059817063 0 -0.1547819877644892 0.3091453549012102 0 -0.14407255521749979 0.34403263722221961 0 -0.13363790056006589 0.32585743918209531 0 -0.14748957934716561 0.33468306802428371 0 -0.13363790056006589 0.32585743918209531 0 -0.14748957934716561 0.33468306802428371 0 -0.15729966860100811 0.32827511069417059 0 -0.14748957934716561 0.33468306802428371 0 -0.1549481930100888 0.34056708499864929 0 -0.15729966860100811 0.32827511069417059 0 -0.14407255521749979 0.34403263722221961 0 -0.14748957934716561 0.33468306802428371 0 -0.1549481930100888 0.34056708499864929 0 -0.15729966860100811 0.32827511069417059 0 -0.18096143664194889 0.33069278220625808 0 -0.1549481930100888 0.34056708499864929 0 -0.15729966860100811 0.32827511069417059 0 -0.16781010436956259 0.34240718275037813 0 -0.15729966860100811 0.32827511069417059 0 -0.16781010436956259 0.34240718275037813 0 -0.18096143664194889 0.33069278220625808 0 -0.15729966860100811 0.32827511069417059 0 -0.17028988351433311 0.32233995817617028 0 -0.18096143664194889 0.33069278220625808 0 -0.15943794807189979 0.31595908059817063 0 -0.16495134068588049 0.31685297469802859 0 -0.1638395481514221 0.30983277085387728 0 -0.1532404752523272 0.32269894785805692 0 -0.15943794807189979 0.31595908059817063 0 -0.16037638850537991 0.32126535467967993 0 -0.15943794807189979 0.31595908059817063 0 -0.16037638850537991 0.32126535467967993 0 -0.16495134068588049 0.31685297469802859 0 -0.15729966860100811 0.32827511069417059 0 -0.16037638850537991 0.32126535467967993 0 -0.17028988351433311 0.32233995817617028 0 -0.1532404752523272 0.32269894785805692 0 -0.15729966860100811 0.32827511069417059 0 -0.16037638850537991 0.32126535467967993 0 -0.16495134068588049 0.31685297469802859 0 -0.17285953122972289 0.31090601179704258 0 -0.1638395481514221 0.30983277085387728 0 -0.17028988351433311 0.32233995817617028 0 -0.16495134068588049 0.31685297469802859 0 -0.17285953122972289 0.31090601179704258 0 -0.16037638850537991 0.32126535467967993 0 -0.17028988351433311 0.32233995817617028 0 -0.16495134068588049 0.31685297469802859 0 -0.18077272512400111 0.31876138179813301 0 -0.17285953122972289 0.31090601179704258 0 -0.17028988351433311 0.32233995817617028 0 -0.18077272512400111 0.31876138179813301 0 -0.17285953122972289 0.31090601179704258 0 -0.17028988351433311 0.32233995817617028 0 -0.18077272512400111 0.31876138179813301 0 -0.18096143664194889 0.33069278220625808 0 -0.18077272512400111 0.31876138179813301 0 -0.19386790912735871 0.33176087567547108 0 -0.18077272512400111 0.31876138179813301 0 -0.18096143664194889 0.33069278220625808 0 -0.18077272512400111 0.31876138179813301 0 -0.18096143664194889 0.33069278220625808 0 -0.19386790912735871 0.33176087567547108 0 -0.18096143664194889 0.33069278220625808 0 -0.1813609546404725 0.35595255046315749 0 -0.18096143664194889 0.33069278220625808 0 -0.1813609546404725 0.35595255046315749 0 -0.19258948339875709 0.33633707034479371 0 -0.16781010436956259 0.34240718275037813 0 -0.18096143664194889 0.33069278220625808 0 -0.1813609546404725 0.35595255046315749 0 -0.18096143664194889 0.33069278220625808 0 -0.19386790912735871 0.33176087567547108 0 -0.15504053286571459 0.3545366000593369 0 -0.16781010436956259 0.34240718275037813 0 -0.1813609546404725 0.35595255046315749 0 -0.15504053286571459 0.3545366000593369 0 -0.1549481930100888 0.34056708499864929 0 -0.16781010436956259 0.34240718275037813 0 -0.1532541744773912 0.375434017343177 0 -0.15504053286571459 0.3545366000593369 0 -0.16689278400863089 0.37048631692620287 0 -0.15504053286571459 0.3545366000593369 0 -0.1813609546404725 0.35595255046315749 0 -0.16689278400863089 0.37048631692620287 0 -0.18176047263899719 0.38121231872005679 0 -0.1813609546404725 0.35595255046315749 0 -0.18176047263899719 0.38121231872005679 0 -0.1813609546404725 0.35595255046315749 0 -0.1956253707180633 0.37355818799515828 0 -0.18176047263899719 0.38121231872005679 0 -0.1813609546404725 0.35595255046315749 0 -0.16689278400863089 0.37048631692620287 0 -0.1813609546404725 0.35595255046315749 0 -0.1956253707180633 0.37355818799515828 0 -0.2000380028121157 0.35856944723279938 0 -0.1956253707180633 0.37355818799515828 0 -0.2000380028121157 0.35856944723279938 0 -0.20825127389149589 0.37038948781896619 0 -0.1813609546404725 0.35595255046315749 0 -0.1951678646333711 0.34883535218340811 0 -0.19258948339875709 0.33633707034479371 0 -0.1813609546404725 0.35595255046315749 0 -0.1951678646333711 0.34883535218340811 0 -0.2000380028121157 0.35856944723279938 0 -0.1951678646333711 0.34883535218340811 0 -0.2000380028121157 0.35856944723279938 0 -0.20668301768213909 0.34448234069288158 0 -0.20668301768213909 0.34448234069288158 0 -0.2120127789660084 0.36084248239747968 0 -0.21921666942493959 0.3569244055809645 0 -0.2000380028121157 0.35856944723279938 0 -0.20668301768213909 0.34448234069288158 0 -0.2120127789660084 0.36084248239747968 0 -0.2120127789660084 0.36084248239747968 0 -0.21921666942493959 0.3569244055809645 0 -0.20668301768213909 0.34448234069288158 0 -0.21921666942493959 0.3569244055809645 0 -0.22158808080033929 0.34557455345049992 0 -0.20668301768213909 0.34448234069288158 0 -0.21921666942493959 0.3569244055809645 0 -0.2000380028121157 0.35856944723279938 0 -0.20825127389149589 0.37038948781896619 0 -0.2120127789660084 0.36084248239747968 0 -0.2120127789660084 0.36084248239747968 0 -0.2199937556016836 0.36693485901855288 0 -0.21921666942493959 0.3569244055809645 0 -0.20825127389149589 0.37038948781896619 0 -0.2120127789660084 0.36084248239747968 0 -0.2199937556016836 0.36693485901855288 0 -0.21752164111765379 0.37637519474985792 0 -0.20825127389149589 0.37038948781896619 0 -0.2199937556016836 0.36693485901855288 0 -0.21752164111765379 0.37637519474985792 0 -0.23054114355980421 0.3681661286558337 0 -0.2199937556016836 0.36693485901855288 0 -0.23054114355980421 0.3681661286558337 0 -0.21921666942493959 0.3569244055809645 0 -0.23305195790672301 0.35812934693154008 0 -0.23054114355980421 0.3681661286558337 0 -0.2199937556016836 0.36693485901855288 0 -0.21921666942493959 0.3569244055809645 0 -0.23054114355980421 0.3681661286558337 0 -0.21921666942493959 0.3569244055809645 0 -0.21921666942493959 0.3569244055809645 0 -0.22158808080033929 0.34557455345049992 0 -0.23915963598069589 0.34607775607121571 0 -0.21921666942493959 0.3569244055809645 0 -0.23915963598069589 0.34607775607121571 0 -0.21921666942493959 0.3569244055809645 0 -0.23305195790672301 0.35812934693154008 0 -0.23915963598069589 0.34607775607121571 0 -0.23305195790672301 0.35812934693154008 0 -0.23915963598069589 0.34607775607121571 0 -0.24329038266145239 0.36134909741814653 0 -0.25407523553642281 0.3497448278934856 0 -0.23915963598069589 0.34607775607121571 0 -0.24329038266145239 0.36134909741814653 0 -0.25213085833087667 0.37355178257669552 0 -0.24000210142933509 0.37809552861286783 0 -0.24329038266145239 0.36134909741814653 0 -0.24000210142933509 0.37809552861286783 0 -0.23054114355980421 0.3681661286558337 0 -0.24329038266145239 0.36134909741814653 0 -0.23054114355980421 0.3681661286558337 0 -0.23305195790672301 0.35812934693154008 0 -0.24329038266145239 0.36134909741814653 0 -0.23582541811145999 0.32679902143390172 0 -0.24885494741763489 0.31718848033418301 0 -0.23189508169276829 0.30076725351495531 0 -0.23582541811145999 0.32679902143390172 0 -0.24885494741763489 0.31718848033418301 0 -0.24633099797708269 0.32737693631841108 0 -0.25451497659773847 0.32559442806853028 0 -0.24885494741763489 0.31718848033418301 0 -0.24633099797708269 0.32737693631841108 0 -0.24843663428782739 0.33758714710907461 0 -0.22129300011358269 0.33481371145693772 0 -0.25451497659773847 0.32559442806853028 0 -0.24633099797708269 0.32737693631841108 0 -0.24843663428782739 0.33758714710907461 0 -0.25910260253645218 0.33523110656146687 0 -0.23915963598069589 0.34607775607121571 0 -0.23582541811145999 0.32679902143390172 0 -0.24633099797708269 0.32737693631841108 0 -0.24843663428782739 0.33758714710907461 0 -0.25910260253645218 0.33523110656146687 0 -0.23915963598069589 0.34607775607121571 0 -0.24843663428782739 0.33758714710907461 0 -0.23582541811145999 0.32679902143390172 0 -0.24843663428782739 0.33758714710907461 0 -0.22129300011358269 0.33481371145693772 0 -0.23915963598069589 0.34607775607121571 0 -0.24843663428782739 0.33758714710907461 0 -0.22129300011358269 0.33481371145693772 0 -0.22158808080033929 0.34557455345049992 0 -0.23915963598069589 0.34607775607121571 0 -0.22129300011358269 0.33481371145693772 0 -0.23582541811145999 0.32679902143390172 0 -0.21954464392232159 0.31820766509236142 0 -0.23189508169276829 0.30076725351495531 0 -0.23582541811145999 0.32679902143390172 0 -0.22129300011358269 0.33481371145693772 0 -0.21954464392232159 0.31820766509236142 0 -0.21954464392232159 0.31820766509236142 0 -0.20492818889453221 0.32276220977772679 0 -0.20060783596013981 0.3076349397264902 0 -0.22129300011358269 0.33481371145693772 0 -0.21954464392232159 0.31820766509236142 0 -0.20492818889453221 0.32276220977772679 0 -0.22129300011358269 0.33481371145693772 0 -0.20492818889453221 0.32276220977772679 0 -0.19386790912735871 0.33176087567547108 0 -0.22129300011358269 0.33481371145693772 0 -0.19386790912735871 0.33176087567547108 0 -0.20668301768213909 0.34448234069288158 0 -0.22129300011358269 0.33481371145693772 0 -0.19386790912735871 0.33176087567547108 0 -0.20668301768213909 0.34448234069288158 0 -0.22158808080033929 0.34557455345049992 0 -0.22129300011358269 0.33481371145693772 0 -0.20668301768213909 0.34448234069288158 0 -0.19386790912735871 0.33176087567547108 0 -0.19258948339875709 0.33633707034479371 0 -0.20668301768213909 0.34448234069288158 0 -0.19386790912735871 0.33176087567547108 0 -0.1951678646333711 0.34883535218340811 0 -0.20668301768213909 0.34448234069288158 0 -0.19258948339875709 0.33633707034479371 0 -0.18096143664194889 0.33069278220625808 0 -0.19386790912735871 0.33176087567547108 0 -0.19258948339875709 0.33633707034479371 0 -0.19386790912735871 0.33176087567547108 0 -0.19258948339875709 0.33633707034479371 0 -0.18077272512400111 0.31876138179813301 0 -0.19386790912735871 0.33176087567547108 0 -0.20060783596013981 0.3076349397264902 0 -0.20492818889453221 0.32276220977772679 0 -0.19386790912735871 0.33176087567547108 0 -0.20060783596013981 0.3076349397264902 0 -0.19386790912735871 0.33176087567547108 0 -0.20060783596013981 0.3076349397264902 0 -0.20060783596013981 0.3076349397264902 0 -0.20734776279292019 0.28350900377750898 0 -0.23189508169276829 0.30076725351495531 0 -0.21954464392232159 0.31820766509236142 0 -0.20060783596013981 0.3076349397264902 0 -0.23189508169276829 0.30076725351495531 0 -0.20060783596013981 0.3076349397264902 0 -0.20734776279292019 0.28350900377750898 0 -0.18034630435624241 0.29180066960649809 0 -0.20734776279292019 0.28350900377750898 0 -0.19375927737912041 0.2730469699042487 0 -0.18034630435624241 0.29180066960649809 0 -0.20060783596013981 0.3076349397264902 0 -0.20734776279292019 0.28350900377750898 0 -0.20734776279292019 0.28350900377750898 0 -0.23189508169276829 0.30076725351495531 0 -0.22396762922540969 0.27514125130055722 0 -0.23189508169276829 0.30076725351495531 0 -0.2378434694439332 0.28391349183279069 0 -0.22396762922540969 0.27514125130055722 0 -0.25673188405007052 0.28646841290673969 0 -0.23189508169276829 0.30076725351495531 0 -0.2378434694439332 0.28391349183279069 0 -0.25673188405007052 0.28646841290673969 0 -0.23189508169276829 0.30076725351495531 0 -0.25505401324638421 0.30366623925853881 0 -0.25673188405007052 0.28646841290673969 0 -0.23189508169276829 0.30076725351495531 0 -0.25505401324638421 0.30366623925853881 0 -0.24885494741763489 0.31718848033418301 0 -0.23189508169276829 0.30076725351495531 0 -0.25265925142613249 0.26128234508680298 0 -0.23885305679183191 0.2684477152547543 0 -0.23951274761537589 0.2474853768326048 0 -0.23885305679183191 0.2684477152547543 0 -0.22811192938500721 0.25829645972706228 0 -0.23951274761537589 0.2474853768326048 0 -0.25621817608628389 0.2460965770837312 0 -0.25265925142613249 0.26128234508680298 0 -0.23951274761537589 0.2474853768326048 0 -0.25673188405007052 0.28646841290673969 0 -0.2378434694439332 0.28391349183279069 0 -0.23885305679183191 0.2684477152547543 0 -0.25265925142613249 0.26128234508680298 0 -0.25673188405007052 0.28646841290673969 0 -0.23885305679183191 0.2684477152547543 0 -0.23885305679183191 0.2684477152547543 0 -0.22396762922540969 0.27514125130055722 0 -0.22811192938500721 0.25829645972706228 0 -0.2378434694439332 0.28391349183279069 0 -0.23885305679183191 0.2684477152547543 0 -0.22396762922540969 0.27514125130055722 0 -0.22811192938500721 0.25829645972706228 0 -0.22371849106378741 0.2462845034026982 0 -0.23951274761537589 0.2474853768326048 0 -0.22396762922540969 0.27514125130055722 0 -0.22811192938500721 0.25829645972706228 0 -0.21408768962570049 0.25938306782852782 0 -0.22811192938500721 0.25829645972706228 0 -0.21408768962570049 0.25938306782852782 0 -0.22371849106378741 0.2462845034026982 0 -0.21408768962570049 0.25938306782852782 0 -0.19928355658839081 0.25766712263582692 0 -0.2066863838603582 0.24242880758937649 0 -0.21408768962570049 0.25938306782852782 0 -0.20163280817849061 0.26608937016207479 0 -0.19928355658839081 0.25766712263582692 0 -0.20734776279292019 0.28350900377750898 0 -0.21408768962570049 0.25938306782852782 0 -0.20734776279292019 0.28350900377750898 0 -0.22396762922540969 0.27514125130055722 0 -0.21408768962570049 0.25938306782852782 0 -0.20734776279292019 0.28350900377750898 0 -0.21408768962570049 0.25938306782852782 0 -0.20163280817849061 0.26608937016207479 0 -0.20734776279292019 0.28350900377750898 0 -0.20163280817849061 0.26608937016207479 0 -0.19375927737912041 0.2730469699042487 0 -0.20163280817849061 0.26608937016207479 0 -0.19375927737912041 0.2730469699042487 0 -0.19160269433399771 0.26436194023610149 0 -0.19375927737912041 0.2730469699042487 0 -0.19160269433399771 0.26436194023610149 0 -0.17991988358848049 0.26483995741486333 0 -0.19928355658839081 0.25766712263582692 0 -0.18259587964237009 0.2606558300825601 0 -0.2066863838603582 0.24242880758937649 0 -0.18259587964237009 0.2606558300825601 0 -0.19333963139412971 0.24385714112684301 0 -0.19928355658839081 0.25766712263582692 0 -0.19160269433399771 0.26436194023610149 0 -0.18259587964237009 0.2606558300825601 0 -0.18259587964237009 0.2606558300825601 0 -0.2066863838603582 0.24242880758937649 0 -0.20163280817849061 0.26608937016207479 0 -0.19928355658839081 0.25766712263582692 0 -0.19160269433399771 0.26436194023610149 0 -0.17991988358848049 0.26483995741486333 0 -0.17951502337729761 0.2392424245160312 0 -0.17991988358848049 0.26483995741486333 0 -0.17042143569771079 0.26099360542817968 0 -0.17951502337729761 0.2392424245160312 0 -0.18259587964237009 0.2606558300825601 0 -0.17991988358848049 0.26483995741486333 0 -0.17951502337729761 0.2392424245160312 0 -0.19160269433399771 0.26436194023610149 0 -0.18259587964237009 0.2606558300825601 0 -0.17991988358848049 0.26483995741486333 0 -0.18259587964237009 0.2606558300825601 0 -0.17991988358848049 0.26483995741486333 0 -0.17991988358848049 0.26483995741486333 0 -0.17042143569771079 0.26099360542817968 0 -0.17716480609589361 0.26914773470870201 0 -0.17042143569771079 0.26099360542817968 0 -0.1627301728603629 0.26968240911070368 0 -0.1532221513837192 0.25419418888983192 0 -0.17042143569771079 0.26099360542817968 0 -0.1532221513837192 0.25419418888983192 0 -0.17951502337729761 0.2392424245160312 0 -0.1627301728603629 0.26968240911070368 0 -0.1620479085915319 0.28265904931380531 0 -0.15271877240598841 0.27446820953958367 0 -0.17042143569771079 0.26099360542817968 0 -0.1627301728603629 0.26968240911070368 0 -0.1699765768805111 0.26885491792894611 0 -0.1627301728603629 0.26968240911070368 0 -0.1699765768805111 0.26885491792894611 0 -0.16860704672851359 0.27535934789532951 0 -0.1627301728603629 0.26968240911070368 0 -0.16860704672851359 0.27535934789532951 0 -0.1620479085915319 0.28265904931380531 0 -0.16860704672851359 0.27535934789532951 0 -0.17077339862397739 0.28423195702734899 0 -0.1620479085915319 0.28265904931380531 0 -0.17991988358848049 0.26483995741486333 0 -0.18034630435624241 0.29180066960649809 0 -0.17991988358848049 0.26483995741486333 0 -0.17716480609589361 0.26914773470870201 0 -0.18034630435624241 0.29180066960649809 0 -0.16860704672851359 0.27535934789532951 0 -0.17716480609589361 0.26914773470870201 0 -0.17077339862397739 0.28423195702734899 0 -0.19375927737912041 0.2730469699042487 0 -0.17991988358848049 0.26483995741486333 0 -0.18034630435624241 0.29180066960649809 0 -0.17042143569771079 0.26099360542817968 0 -0.1699765768805111 0.26885491792894611 0 -0.17716480609589361 0.26914773470870201 0 -0.1699765768805111 0.26885491792894611 0 -0.16860704672851359 0.27535934789532951 0 -0.17716480609589361 0.26914773470870201 0 -0.17991988358848049 0.26483995741486333 0 -0.17716480609589361 0.26914773470870201 0 -0.17716480609589361 0.26914773470870201 0 -0.18034630435624241 0.29180066960649809 0 -0.17077339862397739 0.28423195702734899 0 -0.18034630435624241 0.29180066960649809 0 -0.16501618616712291 0.29775164083812761 0 -0.17077339862397739 0.28423195702734899 0 -0.18077272512400111 0.31876138179813301 0 -0.18034630435624241 0.29180066960649809 0 -0.18077272512400111 0.31876138179813301 0 -0.18034630435624241 0.29180066960649809 0 -0.17285953122972289 0.31090601179704258 0 -0.18034630435624241 0.29180066960649809 0 -0.17285953122972289 0.31090601179704258 0 -0.16501618616712291 0.29775164083812761 0 -0.18077272512400111 0.31876138179813301 0 -0.20060783596013981 0.3076349397264902 0 -0.18034630435624241 0.29180066960649809 0 -0.16501618616712291 0.29775164083812761 0 -0.15329008091572741 0.28945008379417048 0 -0.1547819877644892 0.3091453549012102 0 -0.17285953122972289 0.31090601179704258 0 -0.16501618616712291 0.29775164083812761 0 -0.1638395481514221 0.30983277085387728 0 -0.16501618616712291 0.29775164083812761 0 -0.1638395481514221 0.30983277085387728 0 -0.1547819877644892 0.3091453549012102 0 -0.15943794807189979 0.31595908059817063 0 -0.1638395481514221 0.30983277085387728 0 -0.1547819877644892 0.3091453549012102 0 -0.16501618616712291 0.29775164083812761 0 -0.17077339862397739 0.28423195702734899 0 -0.1620479085915319 0.28265904931380531 0 -0.16501618616712291 0.29775164083812761 0 -0.1620479085915319 0.28265904931380531 0 -0.15329008091572741 0.28945008379417048 0 -0.1464174014568787 0.29836992735667278 0 -0.13959432766143021 0.2740409068552887 0 -0.1620479085915319 0.28265904931380531 0 -0.15329008091572741 0.28945008379417048 0 -0.15271877240598841 0.27446820953958367 0 -0.15329008091572741 0.28945008379417048 0 -0.1464174014568787 0.29836992735667278 0 -0.13959432766143021 0.2740409068552887 0 -0.15329008091572741 0.28945008379417048 0 -0.1464174014568787 0.29836992735667278 0 -0.1547819877644892 0.3091453549012102 0 -0.1532404752523272 0.32269894785805692 0 -0.1464174014568787 0.29836992735667278 0 -0.1360408951285694 0.3130357752318072 0 -0.14290423209994971 0.32095809222069871 0 -0.1464174014568787 0.29836992735667278 0 -0.1532404752523272 0.32269894785805692 0 -0.1464174014568787 0.29836992735667278 0 -0.1547819877644892 0.3091453549012102 0 -0.1360408951285694 0.3130357752318072 0 -0.1264253840414637 0.29528772621663357 0 -0.12136448477009221 0.30951812845445109 0 -0.1360408951285694 0.3130357752318072 0 -0.1464174014568787 0.29836992735667278 0 -0.1264253840414637 0.29528772621663357 0 -0.1464174014568787 0.29836992735667278 0 -0.1264253840414637 0.29528772621663357 0 -0.13959432766143021 0.2740409068552887 0 -0.1264253840414637 0.29528772621663357 0 -0.13959432766143021 0.2740409068552887 0 -0.1185373796182298 0.27837978510360878 0 -0.13959432766143021 0.2740409068552887 0 -0.1327712538659816 0.24971188635390451 0 -0.13959432766143021 0.2740409068552887 0 -0.116744543106582 0.25728181003509248 0 -0.1327712538659816 0.24971188635390451 0 -0.13959432766143021 0.2740409068552887 0 -0.1532221513837192 0.25419418888983192 0 -0.1327712538659816 0.24971188635390451 0 -0.1627301728603629 0.26968240911070368 0 -0.1532221513837192 0.25419418888983192 0 -0.15271877240598841 0.27446820953958367 0 -0.13959432766143021 0.2740409068552887 0 -0.1532221513837192 0.25419418888983192 0 -0.15271877240598841 0.27446820953958367 0 -0.15329008091572741 0.28945008379417048 0 -0.13959432766143021 0.2740409068552887 0 -0.15271877240598841 0.27446820953958367 0 -0.1061606963602142 0.26761343855331338 0 -0.1001789302111205 0.27974269320078388 0 -0.1185373796182298 0.27837978510360878 0 -0.1061606963602142 0.26761343855331338 0 -0.1001789302111205 0.27974269320078388 0 -0.092613028744971265 0.26767711662392979 0 -0.1061606963602142 0.26761343855331338 0 -0.10005120432924321 0.25626016583208688 0 -0.116744543106582 0.25728181003509248 0 -0.1061606963602142 0.26761343855331338 0 -0.10005120432924321 0.25626016583208688 0 -0.092613028744971265 0.26767711662392979 0 -0.10005120432924321 0.25626016583208688 0 -0.116744543106582 0.25728181003509248 0 -0.1045487088169635 0.24438495162540061 0 -0.13959432766143021 0.2740409068552887 0 -0.116744543106582 0.25728181003509248 0 -0.1185373796182298 0.27837978510360878 0 -0.1061606963602142 0.26761343855331338 0 -0.116744543106582 0.25728181003509248 0 -0.1185373796182298 0.27837978510360878 0 -0.1264253840414637 0.29528772621663357 0 -0.1127724140037699 0.30190213115774378 0 -0.1091517300735869 0.29135078386346752 0 -0.1264253840414637 0.29528772621663357 0 -0.1185373796182298 0.27837978510360878 0 -0.1091517300735869 0.29135078386346752 0 -0.1264253840414637 0.29528772621663357 0 -0.12136448477009221 0.30951812845445109 0 -0.1127724140037699 0.30190213115774378 0 -0.12136448477009221 0.30951812845445109 0 -0.1127724140037699 0.30190213115774378 0 -0.1061991548417472 0.31213959050036899 0 -0.1127724140037699 0.30190213115774378 0 -0.1061991548417472 0.31213959050036899 0 -0.1005146973405663 0.30141191014932889 0 -0.1127724140037699 0.30190213115774378 0 -0.1005146973405663 0.30141191014932889 0 -0.1091517300735869 0.29135078386346752 0 -0.1005146973405663 0.30141191014932889 0 -0.094430836728355921 0.29177030977787999 0 -0.089068024122243669 0.30112896568664949 0 -0.1061991548417472 0.31213959050036899 0 -0.1005146973405663 0.30141191014932889 0 -0.090928135519314904 0.31087631578889069 0 -0.1001789302111205 0.27974269320078388 0 -0.1185373796182298 0.27837978510360878 0 -0.1091517300735869 0.29135078386346752 0 -0.1005146973405663 0.30141191014932889 0 -0.1091517300735869 0.29135078386346752 0 -0.094430836728355921 0.29177030977787999 0 -0.1001789302111205 0.27974269320078388 0 -0.1091517300735869 0.29135078386346752 0 -0.094430836728355921 0.29177030977787999 0 -0.1001789302111205 0.27974269320078388 0 -0.094430836728355921 0.29177030977787999 0 -0.086145563619835275 0.2816538088019015 0 -0.094430836728355921 0.29177030977787999 0 -0.086145563619835275 0.2816538088019015 0 -0.081526075002782958 0.29533369696514911 0 -0.094430836728355921 0.29177030977787999 0 -0.081526075002782958 0.29533369696514911 0 -0.089068024122243669 0.30112896568664949 0 -0.086145563619835275 0.2816538088019015 0 -0.081526075002782958 0.29533369696514911 0 -0.070830210313899522 0.29195808219782299 0 -0.090928135519314904 0.31087631578889069 0 -0.079482369404140468 0.30560554845979909 0 -0.074915307566508993 0.31649039264194578 0 -0.090928135519314904 0.31087631578889069 0 -0.089068024122243669 0.30112896568664949 0 -0.079482369404140468 0.30560554845979909 0 -0.1005146973405663 0.30141191014932889 0 -0.090928135519314904 0.31087631578889069 0 -0.089068024122243669 0.30112896568664949 0 -0.081526075002782958 0.29533369696514911 0 -0.089068024122243669 0.30112896568664949 0 -0.079482369404140468 0.30560554845979909 0 -0.054647974243728172 0.30430181459310768 0 -0.074915307566508993 0.31649039264194578 0 -0.079482369404140468 0.30560554845979909 0 -0.068661557073843291 0.3005821027458685 0 -0.074915307566508993 0.31649039264194578 0 -0.068661557073843291 0.3005821027458685 0 -0.054647974243728172 0.30430181459310768 0 -0.074915307566508993 0.31649039264194578 0 -0.081526075002782958 0.29533369696514911 0 -0.079482369404140468 0.30560554845979909 0 -0.068661557073843291 0.3005821027458685 0 -0.070830210313899522 0.29195808219782299 0 -0.067453711470644842 0.27023673344429472 0 -0.052574645638654917 0.28480468584225688 0 -0.081526075002782958 0.29533369696514911 0 -0.068661557073843291 0.3005821027458685 0 -0.070830210313899522 0.29195808219782299 0 -0.068661557073843291 0.3005821027458685 0 -0.070830210313899522 0.29195808219782299 0 -0.068661557073843291 0.3005821027458685 0 -0.070830210313899522 0.29195808219782299 0 -0.059610011597539182 0.29372125904316332 0 -0.086145563619835275 0.2816538088019015 0 -0.070830210313899522 0.29195808219782299 0 -0.077256670317037021 0.26667642926106078 0 -0.070830210313899522 0.29195808219782299 0 -0.067453711470644842 0.27023673344429472 0 -0.070830210313899522 0.29195808219782299 0 -0.077256670317037021 0.26667642926106078 0 -0.070830210313899522 0.29195808219782299 0 -0.067453711470644842 0.27023673344429472 0 -0.077256670317037021 0.26667642926106078 0 -0.086145563619835275 0.2816538088019015 0 -0.077256670317037021 0.26667642926106078 0 -0.092613028744971265 0.26767711662392979 0 -0.1001789302111205 0.27974269320078388 0 -0.086145563619835275 0.2816538088019015 0 -0.092613028744971265 0.26767711662392979 0 -0.077256670317037021 0.26667642926106078 0 -0.086302411784292182 0.25447467192259482 0 -0.083666647235009842 0.24139059785004849 0 -0.077256670317037021 0.26667642926106078 0 -0.083666647235009842 0.24139059785004849 0 -0.10005120432924321 0.25626016583208688 0 -0.086302411784292182 0.25447467192259482 0 -0.094679029848152713 0.24609146959404629 0 -0.10005120432924321 0.25626016583208688 0 -0.092613028744971265 0.26767711662392979 0 -0.086302411784292182 0.25447467192259482 0 -0.077256670317037021 0.26667642926106078 0 -0.092613028744971265 0.26767711662392979 0 -0.086302411784292182 0.25447467192259482 0 -0.077256670317037021 0.26667642926106078 0 -0.064077212627390134 0.24851538469076631 0 -0.083666647235009842 0.24139059785004849 0 -0.067453711470644842 0.27023673344429472 0 -0.077256670317037021 0.26667642926106078 0 -0.064077212627390134 0.24851538469076631 0 -0.067453711470644842 0.27023673344429472 0 -0.064077212627390134 0.24851538469076631 0 -0.067453711470644842 0.27023673344429472 0 -0.04634179854296408 0.26632715615711849 0 -0.064077212627390134 0.24851538469076631 0 -0.04634179854296408 0.26632715615711849 0 -0.064077212627390134 0.24851538469076631 0 -0.046578861792199937 0.24361118962503389 0 -0.067453711470644842 0.27023673344429472 0 -0.04634179854296408 0.26632715615711849 0 -0.052574645638654917 0.28480468584225688 0 -0.04634179854296408 0.26632715615711849 0 -0.034380640920947357 0.29211323654426968 0 -0.052574645638654917 0.28480468584225688 0 -0.04634179854296408 0.26632715615711849 0 -0.022607631921228569 0.27169805167723737 0 -0.034380640920947357 0.29211323654426968 0 -0.04634179854296408 0.26632715615711849 0 -0.03068766995985707 0.25286978792993342 0 -0.022607631921228569 0.27169805167723737 0 -0.04634179854296408 0.26632715615711849 0 -0.03068766995985707 0.25286978792993342 0 -0.046578861792199937 0.24361118962503389 0 -0.03068766995985707 0.25286978792993342 0 -0.022607631921228569 0.27169805167723737 0 -0.0098044441781452579 0.25473951632571468 0 -0.022607631921228569 0.27169805167723737 0 -0.015153941911089409 0.29208252597919021 0 3.3590645499582607e-05 0.27236849017123349 0 -0.022607631921228569 0.27169805167723737 0 -0.0098044441781452579 0.25473951632571468 0 3.3590645499582607e-05 0.27236849017123349 0 -0.0098044441781452579 0.25473951632571468 0 0.0073806355134042019 0.25529449578482938 0 3.3590645499582607e-05 0.27236849017123349 0 -0.0088759444352828343 0.31092800175718183 0 -0.015153941911089409 0.29208252597919021 0 0.0083336089875100904 0.29343585490586271 0 -0.015153941911089409 0.29208252597919021 0 0.0083336089875100904 0.29343585490586271 0 3.3590645499582607e-05 0.27236849017123349 0 -0.022607631921228569 0.27169805167723737 0 -0.015153941911089409 0.29208252597919021 0 -0.034380640920947357 0.29211323654426968 0 -0.0088759444352828343 0.31092800175718183 0 -0.015153941911089409 0.29208252597919021 0 -0.03508050583840458 0.3127012881250415 0 -0.015153941911089409 0.29208252597919021 0 -0.034380640920947357 0.29211323654426968 0 -0.03508050583840458 0.3127012881250415 0 -0.034380640920947357 0.29211323654426968 0 -0.054647974243728172 0.30430181459310768 0 -0.034380640920947357 0.29211323654426968 0 -0.054647974243728172 0.30430181459310768 0 -0.03508050583840458 0.3127012881250415 0 -0.034380640920947357 0.29211323654426968 0 -0.052574645638654917 0.28480468584225688 0 -0.054647974243728172 0.30430181459310768 0 -0.052574645638654917 0.28480468584225688 0 -0.059610011597539182 0.29372125904316332 0 -0.054647974243728172 0.30430181459310768 0 -0.070830210313899522 0.29195808219782299 0 -0.052574645638654917 0.28480468584225688 0 -0.059610011597539182 0.29372125904316332 0 -0.068661557073843291 0.3005821027458685 0 -0.059610011597539182 0.29372125904316332 0 -0.054647974243728172 0.30430181459310768 0 -0.058679851530075752 0.32054224196392622 0 -0.045885169747561752 0.33132665820789581 0 -0.073191842414501496 0.33174208285196288 0 -0.054647974243728172 0.30430181459310768 0 -0.058679851530075752 0.32054224196392622 0 -0.03508050583840458 0.3127012881250415 0 -0.045885169747561752 0.33132665820789581 0 -0.067541502003893042 0.3482616942848048 0 -0.073191842414501496 0.33174208285196288 0 -0.045885169747561752 0.33132665820789581 0 -0.073191842414501496 0.33174208285196288 0 -0.045885169747561752 0.33132665820789581 0 -0.018578497080621779 0.33091123356382868 0 -0.045885169747561752 0.33132665820789581 0 -0.03508050583840458 0.3127012881250415 0 -0.018578497080621779 0.33091123356382868 0 -0.058679851530075752 0.32054224196392622 0 -0.045885169747561752 0.33132665820789581 0 -0.03508050583840458 0.3127012881250415 0 -0.0088759444352828343 0.31092800175718183 0 -0.03508050583840458 0.3127012881250415 0 -0.018578497080621779 0.33091123356382868 0 -0.018578497080621779 0.33091123356382868 0 -0.0050552824635438226 0.34569829691311771 0 -0.02749858990914332 0.35301881799134821 0 -0.045885169747561752 0.33132665820789581 0 -0.018578497080621779 0.33091123356382868 0 -0.02749858990914332 0.35301881799134821 0 -0.018578497080621779 0.33091123356382868 0 -0.0050552824635438226 0.34569829691311771 0 0.0064742168078369342 0.3347740657525386 0 -0.018578497080621779 0.33091123356382868 0 0.0087281755863181168 0.33049580891976171 0 -0.018578497080621779 0.33091123356382868 0 0.0064742168078369342 0.3347740657525386 0 0.0087281755863181168 0.33049580891976171 0 -0.018578497080621779 0.33091123356382868 0 -0.003280447873963227 0.32161399115684158 0 0.0087281755863181168 0.33049580891976171 0 -0.0088759444352828343 0.31092800175718183 0 -0.018578497080621779 0.33091123356382868 0 -0.003280447873963227 0.32161399115684158 0 -0.0088759444352828343 0.31092800175718183 0 -0.003280447873963227 0.32161399115684158 0 0.0056044744337335906 0.31412092038659428 0 -0.0052616759920083916 0.36132776784546622 0 -0.0045342830833226501 0.3863935686212247 0 -0.0052616759920083916 0.36132776784546622 0 -0.024169526760701381 0.37267007813580277 0 -0.0045342830833226501 0.3863935686212247 0 -0.0052616759920083916 0.36132776784546622 0 -0.0045342830833226501 0.3863935686212247 0 0.0079023355216259559 0.37348921158265391 0 -0.0052616759920083916 0.36132776784546622 0 -0.0050552824635438226 0.34569829691311771 0 0.0061318462344260851 0.35417601161121459 0 -0.0052616759920083916 0.36132776784546622 0 -0.0050552824635438226 0.34569829691311771 0 -0.02749858990914332 0.35301881799134821 0 -0.02749858990914332 0.35301881799134821 0 -0.024169526760701381 0.37267007813580277 0 -0.04149310004589906 0.37124785083274592 0 -0.0052616759920083916 0.36132776784546622 0 -0.02749858990914332 0.35301881799134821 0 -0.024169526760701381 0.37267007813580277 0 -0.02749858990914332 0.35301881799134821 0 -0.04149310004589906 0.37124785083274592 0 -0.051818441616049399 0.35735321764765782 0 -0.045885169747561752 0.33132665820789581 0 -0.02749858990914332 0.35301881799134821 0 -0.051818441616049399 0.35735321764765782 0 -0.045885169747561752 0.33132665820789581 0 -0.051818441616049399 0.35735321764765782 0 -0.067541502003893042 0.3482616942848048 0 -0.04149310004589906 0.37124785083274592 0 -0.051818441616049399 0.35735321764765782 0 -0.056875823715872062 0.37631267096962301 0 -0.051818441616049399 0.35735321764765782 0 -0.069616273344600341 0.3650636543096733 0 -0.056875823715872062 0.37631267096962301 0 -0.069616273344600341 0.3650636543096733 0 -0.085055645225370236 0.37193713089684588 0 -0.071788917171084016 0.3809272333041443 0 -0.069616273344600341 0.3650636543096733 0 -0.071788917171084016 0.3809272333041443 0 -0.056875823715872062 0.37631267096962301 0 -0.069616273344600341 0.3650636543096733 0 -0.085055645225370236 0.37193713089684588 0 -0.084100884505446297 0.3554636863979832 0 -0.085055645225370236 0.37193713089684588 0 -0.084100884505446297 0.3554636863979832 0 -0.1008292236537022 0.36036332390371462 0 -0.084100884505446297 0.3554636863979832 0 -0.067541502003893042 0.3482616942848048 0 -0.085709514220790303 0.34113927750747819 0 -0.084100884505446297 0.3554636863979832 0 -0.085709514220790303 0.34113927750747819 0 -0.099722393067727538 0.34687368244968458 0 -0.069616273344600341 0.3650636543096733 0 -0.084100884505446297 0.3554636863979832 0 -0.067541502003893042 0.3482616942848048 0 -0.051818441616049399 0.35735321764765782 0 -0.069616273344600341 0.3650636543096733 0 -0.067541502003893042 0.3482616942848048 0 -0.067541502003893042 0.3482616942848048 0 -0.073191842414501496 0.33174208285196288 0 -0.085709514220790303 0.34113927750747819 0 -0.058679851530075752 0.32054224196392622 0 -0.073191842414501496 0.33174208285196288 0 -0.074915307566508993 0.31649039264194578 0 -0.054647974243728172 0.30430181459310768 0 -0.058679851530075752 0.32054224196392622 0 -0.074915307566508993 0.31649039264194578 0 -0.073191842414501496 0.33174208285196288 0 -0.074915307566508993 0.31649039264194578 0 -0.095182640889289766 0.32867897069078372 0 -0.090928135519314904 0.31087631578889069 0 -0.074915307566508993 0.31649039264194578 0 -0.095182640889289766 0.32867897069078372 0 -0.074915307566508993 0.31649039264194578 0 -0.095182640889289766 0.32867897069078372 0 -0.073191842414501496 0.33174208285196288 0 -0.085709514220790303 0.34113927750747819 0 -0.095182640889289766 0.32867897069078372 0 -0.085709514220790303 0.34113927750747819 0 -0.095182640889289766 0.32867897069078372 0 -0.099722393067727538 0.34687368244968458 0 -0.095182640889289766 0.32867897069078372 0 -0.1154499742120704 0.34086754873962172 0 -0.095182640889289766 0.32867897069078372 0 -0.1098512680755149 0.32470257897991811 0 -0.1154499742120704 0.34086754873962172 0 -0.095182640889289766 0.32867897069078372 0 -0.1154499742120704 0.34086754873962172 0 -0.099722393067727538 0.34687368244968458 0 -0.1061991548417472 0.31213959050036899 0 -0.090928135519314904 0.31087631578889069 0 -0.095182640889289766 0.32867897069078372 0 -0.1061991548417472 0.31213959050036899 0 -0.095182640889289766 0.32867897069078372 0 -0.1098512680755149 0.32470257897991811 0 -0.1061991548417472 0.31213959050036899 0 -0.115330384384618 0.31728312261503783 0 -0.1098512680755149 0.32470257897991811 0 -0.12136448477009221 0.30951812845445109 0 -0.1061991548417472 0.31213959050036899 0 -0.115330384384618 0.31728312261503783 0 -0.115330384384618 0.31728312261503783 0 -0.1098512680755149 0.32470257897991811 0 -0.12142985306419619 0.32461006626398298 0 -0.12722248981549561 0.3181430308760943 0 -0.115330384384618 0.31728312261503783 0 -0.12142985306419619 0.32461006626398298 0 -0.12722248981549561 0.3181430308760943 0 -0.12136448477009221 0.30951812845445109 0 -0.115330384384618 0.31728312261503783 0 -0.1098512680755149 0.32470257897991811 0 -0.12142985306419619 0.32461006626398298 0 -0.1154499742120704 0.34086754873962172 0 -0.13363790056006589 0.32585743918209531 0 -0.12142985306419619 0.32461006626398298 0 -0.1154499742120704 0.34086754873962172 0 -0.12523428666698541 0.37069662222368049 0 -0.1294360936135257 0.3482770307028879 0 -0.1154159689866658 0.35521970897278921 0 -0.1154499742120704 0.34086754873962172 0 -0.1154159689866658 0.35521970897278921 0 -0.099722393067727538 0.34687368244968458 0 -0.1294360936135257 0.3482770307028879 0 -0.1154499742120704 0.34086754873962172 0 -0.1154159689866658 0.35521970897278921 0 -0.12523428666698541 0.37069662222368049 0 -0.1154159689866658 0.35521970897278921 0 -0.11117961403065831 0.36839673047223442 0 -0.12523428666698541 0.37069662222368049 0 -0.11117961403065831 0.36839673047223442 0 -0.1123930043347208 0.38073562172137532 0 -0.11117961403065831 0.36839673047223442 0 -0.1008292236537022 0.36036332390371462 0 -0.09970079949094271 0.37763208900548878 0 -0.1154159689866658 0.35521970897278921 0 -0.11117961403065831 0.36839673047223442 0 -0.1008292236537022 0.36036332390371462 0 -0.085055645225370236 0.37193713089684588 0 -0.1008292236537022 0.36036332390371462 0 -0.09970079949094271 0.37763208900548878 0 -0.084100884505446297 0.3554636863979832 0 -0.1008292236537022 0.36036332390371462 0 -0.099722393067727538 0.34687368244968458 0 -0.1154159689866658 0.35521970897278921 0 -0.1008292236537022 0.36036332390371462 0 -0.099722393067727538 0.34687368244968458 0 -0.1036554482544351 0.39516830989393792 0 -0.1102807352191843 0.41378788895710661 0 -0.09259379641793411 0.40948313349934218 0 -0.1036554482544351 0.39516830989393792 0 -0.09970079949094271 0.37763208900548878 0 -0.1123930043347208 0.38073562172137532 0 -0.1036554482544351 0.39516830989393792 0 -0.09970079949094271 0.37763208900548878 0 -0.084297773186445962 0.39217279846007119 0 -0.11117961403065831 0.36839673047223442 0 -0.09970079949094271 0.37763208900548878 0 -0.1123930043347208 0.38073562172137532 0 -0.12523428666698541 0.37069662222368049 0 -0.1123930043347208 0.38073562172137532 0 -0.12103247972044499 0.39311621374447298 0 -0.1036554482544351 0.39516830989393792 0 -0.1123930043347208 0.38073562172137532 0 -0.12103247972044499 0.39311621374447298 0 -0.12523428666698541 0.37069662222368049 0 -0.12103247972044499 0.39311621374447298 0 -0.1036554482544351 0.39516830989393792 0 -0.12103247972044499 0.39311621374447298 0 -0.1102807352191843 0.41378788895710661 0 -0.12997925716256209 0.39431640422262348 0 -0.1102807352191843 0.41378788895710661 0 -0.12997925716256209 0.39431640422262348 0 -0.12103247972044499 0.39311621374447298 0 -0.1102807352191843 0.41378788895710661 0 -0.12623023605756489 0.41143854881348008 0 -0.1102807352191843 0.41378788895710661 0 -0.1242188050129694 0.42501783294758849 0 -0.12623023605756489 0.41143854881348008 0 -0.12997925716256209 0.39431640422262348 0 -0.1102807352191843 0.41378788895710661 0 -0.1102807352191843 0.41378788895710661 0 -0.1104760497445479 0.43296770510105842 0 -0.1242188050129694 0.42501783294758849 0 -0.1104760497445479 0.43296770510105842 0 -0.1242188050129694 0.42501783294758849 0 -0.1248743097581413 0.44162978393037222 0 -0.1102807352191843 0.41378788895710661 0 -0.090582213275806372 0.43325937369158968 0 -0.1102807352191843 0.41378788895710661 0 -0.1104760497445479 0.43296770510105842 0 -0.090582213275806372 0.43325937369158968 0 -0.1102807352191843 0.41378788895710661 0 -0.09259379641793411 0.40948313349934218 0 -0.090582213275806372 0.43325937369158968 0 -0.09259379641793411 0.40948313349934218 0 -0.090582213275806372 0.43325937369158968 0 -0.074152812153798875 0.41302729649400538 0 -0.090582213275806372 0.43325937369158968 0 -0.066022972602334681 0.42956105407568013 0 -0.074152812153798875 0.41302729649400538 0 -0.066022972602334681 0.42956105407568013 0 -0.074152812153798875 0.41302729649400538 0 -0.049329429094603867 0.41198700835812702 0 -0.074152812153798875 0.41302729649400538 0 -0.063154715464804681 0.39516467689365731 0 -0.084297773186445962 0.39217279846007119 0 -0.09259379641793411 0.40948313349934218 0 -0.074152812153798875 0.41302729649400538 0 -0.084297773186445962 0.39217279846007119 0 -0.1036554482544351 0.39516830989393792 0 -0.09259379641793411 0.40948313349934218 0 -0.084297773186445962 0.39217279846007119 0 -0.085055645225370236 0.37193713089684588 0 -0.09970079949094271 0.37763208900548878 0 -0.084297773186445962 0.39217279846007119 0 -0.085055645225370236 0.37193713089684588 0 -0.084297773186445962 0.39217279846007119 0 -0.071788917171084016 0.3809272333041443 0 -0.063154715464804681 0.39516467689365731 0 -0.084297773186445962 0.39217279846007119 0 -0.071788917171084016 0.3809272333041443 0 -0.063154715464804681 0.39516467689365731 0 -0.071788917171084016 0.3809272333041443 0 -0.056875823715872062 0.37631267096962301 0 -0.04149310004589906 0.37124785083274592 0 -0.056875823715872062 0.37631267096962301 0 -0.04338349465279491 0.38811939282985902 0 -0.063154715464804681 0.39516467689365731 0 -0.056875823715872062 0.37631267096962301 0 -0.04338349465279491 0.38811939282985902 0 -0.063154715464804681 0.39516467689365731 0 -0.04338349465279491 0.38811939282985902 0 -0.049329429094603867 0.41198700835812702 0 -0.04338349465279491 0.38811939282985902 0 -0.024844401122877391 0.39948633252540261 0 -0.049329429094603867 0.41198700835812702 0 -0.024169526760701381 0.37267007813580277 0 -0.04149310004589906 0.37124785083274592 0 -0.04338349465279491 0.38811939282985902 0 -0.024169526760701381 0.37267007813580277 0 -0.04338349465279491 0.38811939282985902 0 -0.024844401122877391 0.39948633252540261 0 -0.024169526760701381 0.37267007813580277 0 -0.024844401122877391 0.39948633252540261 0 -0.0045342830833226501 0.3863935686212247 0 -0.024844401122877391 0.39948633252540261 0 -0.0045342830833226501 0.3863935686212247 0 -0.0038092142255275289 0.41137928311071797 0 -0.0045342830833226501 0.3863935686212247 0 -0.0038092142255275289 0.41137928311071797 0 -0.024169526760701381 0.37267007813580277 0 -0.0045342830833226501 0.3863935686212247 0 -0.0030841453677343121 0.43636499760021141 0 -0.0038092142255275289 0.41137928311071797 0 -0.026324668085478481 0.42779129271708288 0 -0.0030841453677343121 0.43636499760021141 0 -0.0038092142255275289 0.41137928311071797 0 -0.024844401122877391 0.39948633252540261 0 -0.0038092142255275289 0.41137928311071797 0 -0.026324668085478481 0.42779129271708288 0 -0.026324668085478481 0.42779129271708288 0 -0.049329429094603867 0.41198700835812702 0 -0.049413859365407042 0.43472239834070731 0 -0.024844401122877391 0.39948633252540261 0 -0.026324668085478481 0.42779129271708288 0 -0.049329429094603867 0.41198700835812702 0 -0.074152812153798875 0.41302729649400538 0 -0.063154715464804681 0.39516467689365731 0 -0.049329429094603867 0.41198700835812702 0 -0.066022972602334681 0.42956105407568013 0 -0.049329429094603867 0.41198700835812702 0 -0.049413859365407042 0.43472239834070731 0 -0.066022972602334681 0.42956105407568013 0 -0.049413859365407042 0.43472239834070731 0 -0.0708836913324285 0.45273085842607269 0 -0.0393713920190637 0.45112048084748302 0 -0.052402143273794041 0.47435943831340011 0 -0.0708836913324285 0.45273085842607269 0 -0.049413859365407042 0.43472239834070731 0 -0.0393713920190637 0.45112048084748302 0 -0.0708836913324285 0.45273085842607269 0 -0.0393713920190637 0.45112048084748302 0 -0.02876560419008364 0.47203163756026523 0 -0.052402143273794041 0.47435943831340011 0 -0.026324668085478481 0.42779129271708288 0 -0.049413859365407042 0.43472239834070731 0 -0.0393713920190637 0.45112048084748302 0 -0.0030841453677343121 0.43636499760021141 0 -0.026324668085478481 0.42779129271708288 0 -0.01888650882967766 0.45329231687868837 0 -0.026324668085478481 0.42779129271708288 0 -0.0393713920190637 0.45112048084748302 0 -0.01888650882967766 0.45329231687868837 0 -0.0393713920190637 0.45112048084748302 0 -0.01888650882967766 0.45329231687868837 0 -0.02876560419008364 0.47203163756026523 0 -0.01888650882967766 0.45329231687868837 0 -0.01341416680576474 0.47109478045738301 0 -0.02876560419008364 0.47203163756026523 0 -0.01888650882967766 0.45329231687868837 0 -0.002359076509941094 0.46135071208970457 0 -0.01341416680576474 0.47109478045738301 0 -0.0030841453677343121 0.43636499760021141 0 -0.01888650882967766 0.45329231687868837 0 -0.002359076509941094 0.46135071208970457 0 -0.0030841453677343121 0.43636499760021141 0 -0.002359076509941094 0.46135071208970457 0 -0.0090346539348886701 0.5 0 -0.0016340076521478781 0.48633642657919801 0 -0.017460482120078509 0.48648722646036041 0 -0.0016340076521478781 0.48633642657919801 0 -0.01341416680576474 0.47109478045738301 0 -0.017460482120078509 0.48648722646036041 0 -0.002359076509941094 0.46135071208970457 0 -0.0016340076521478781 0.48633642657919801 0 -0.01341416680576474 0.47109478045738301 0 -0.002359076509941094 0.46135071208970457 0 -0.0016340076521478781 0.48633642657919801 0 -0.002359076509941094 0.46135071208970457 0 -0.0016340076521478781 0.48633642657919801 0 0.0036787250480955699 0.47408322248379448 0 -0.01341416680576474 0.47109478045738301 0 -0.02876560419008364 0.47203163756026523 0 -0.017460482120078509 0.48648722646036041 0 -0.02876560419008364 0.47203163756026523 0 -0.017460482120078509 0.48648722646036041 0 -0.038135422162237087 0.5 0 -0.0090346539348886701 0.5 0 -0.017460482120078509 0.48648722646036041 0 -0.038135422162237087 0.5 0 -0.02876560419008364 0.47203163756026523 0 -0.038135422162237087 0.5 0 -0.052402143273794041 0.47435943831340011 0 -0.038135422162237087 0.5 0 -0.052402143273794041 0.47435943831340011 0 -0.067236190389585393 0.5 0 -0.052402143273794041 0.47435943831340011 0 -0.067236190389585393 0.5 0 -0.073349005429332273 0.47921852398434828 0 -0.067236190389585393 0.5 0 -0.073349005429332273 0.47921852398434828 0 -0.096336958616933588 0.5 0 -0.073349005429332273 0.47921852398434828 0 -0.096336958616933588 0.5 0 -0.093805091172543903 0.47224368257650851 0 -0.052402143273794041 0.47435943831340011 0 -0.073349005429332273 0.47921852398434828 0 -0.0708836913324285 0.45273085842607269 0 -0.0708836913324285 0.45273085842607269 0 -0.1043361340672995 0.45358667135048331 0 -0.093805091172543903 0.47224368257650851 0 -0.090582213275806372 0.43325937369158968 0 -0.0708836913324285 0.45273085842607269 0 -0.1043361340672995 0.45358667135048331 0 -0.090582213275806372 0.43325937369158968 0 -0.066022972602334681 0.42956105407568013 0 -0.0708836913324285 0.45273085842607269 0 -0.090582213275806372 0.43325937369158968 0 -0.0708836913324285 0.45273085842607269 0 -0.073349005429332273 0.47921852398434828 0 -0.0708836913324285 0.45273085842607269 0 -0.093805091172543903 0.47224368257650851 0 -0.1043361340672995 0.45358667135048331 0 -0.12052644250191399 0.4682622397032008 0 -0.093805091172543903 0.47224368257650851 0 -0.1104760497445479 0.43296770510105842 0 -0.090582213275806372 0.43325937369158968 0 -0.1043361340672995 0.45358667135048331 0 -0.12618187852634369 0.45882241462805679 0 -0.1043361340672995 0.45358667135048331 0 -0.1248743097581413 0.44162978393037222 0 -0.1104760497445479 0.43296770510105842 0 -0.1043361340672995 0.45358667135048331 0 -0.1248743097581413 0.44162978393037222 0 -0.12618187852634369 0.45882241462805679 0 -0.1043361340672995 0.45358667135048331 0 -0.12052644250191399 0.4682622397032008 0 -0.1317912103042716 0.47600940211286807 0 -0.12052644250191399 0.4682622397032008 0 -0.11642361318749669 0.48420448820259387 0 -0.12052644250191399 0.4682622397032008 0 -0.11642361318749669 0.48420448820259387 0 -0.093805091172543903 0.47224368257650851 0 -0.12543772684428189 0.5 0 -0.11642361318749669 0.48420448820259387 0 -0.096336958616933588 0.5 0 -0.12543772684428189 0.5 0 -0.13178312884530541 0.48627570230508688 0 -0.11642361318749669 0.48420448820259387 0 -0.11642361318749669 0.48420448820259387 0 -0.096336958616933588 0.5 0 -0.093805091172543903 0.47224368257650851 0 -0.1693268494853358 0.079538523923443544 0 -0.16945340910355561 0.089496265134995978 0 -0.1618062267740645 0.07958177760614682 0 -0.16945340910355561 0.089496265134995978 0 -0.1618062267740645 0.07958177760614682 0 -0.1616157516695074 0.095139316102685473 0 -0.1618062267740645 0.07958177760614682 0 -0.1616157516695074 0.095139316102685473 0 -0.14767322655010931 0.084806545451415583 0 -0.1618062267740645 0.07958177760614682 0 -0.16640070467345031 0.07104807823334372 0 -0.15517576509654349 0.068304766057398533 0 -0.16640070467345031 0.07104807823334372 0 -0.15517576509654349 0.068304766057398533 0 -0.16451238623864939 0.061110077383343737 0 -0.16640070467345031 0.07104807823334372 0 -0.17354141001077031 0.063798093567348918 0 -0.16451238623864939 0.061110077383343737 0 -0.17157411485926041 0.074087910936242465 0 -0.16640070467345031 0.07104807823334372 0 -0.17354141001077031 0.063798093567348918 0 -0.1693268494853358 0.079538523923443544 0 -0.17157411485926041 0.074087910936242465 0 -0.16640070467345031 0.07104807823334372 0 -0.1693268494853358 0.079538523923443544 0 -0.1618062267740645 0.07958177760614682 0 -0.16640070467345031 0.07104807823334372 0 -0.17354141001077031 0.063798093567348918 0 -0.17702749526748529 0.081966948020833708 0 -0.17656426821359539 0.052679136019797047 0 -0.18185637422210199 0.067243003367259677 0 -0.17702749526748529 0.081966948020833708 0 -0.17656426821359539 0.052679136019797047 0 -0.17702749526748529 0.081966948020833708 0 -0.17656426821359539 0.052679136019797047 0 -0.17157411485926041 0.074087910936242465 0 -0.17354141001077031 0.063798093567348918 0 -0.17702749526748529 0.081966948020833708 0 -0.18185637422210199 0.067243003367259677 0 -0.1853153676200878 0.058850167416455039 0 -0.18892740292417859 0.064703221589215376 0 -0.18185637422210199 0.067243003367259677 0 -0.19050021368002351 0.072419239531055349 0 -0.18892740292417859 0.064703221589215376 0 -0.18185637422210199 0.067243003367259677 0 -0.18141962227324601 0.075216957450553817 0 -0.17702749526748529 0.081966948020833708 0 -0.18185637422210199 0.067243003367259677 0 -0.18141962227324601 0.075216957450553817 0 -0.19050021368002351 0.072419239531055349 0 -0.18141962227324601 0.075216957450553817 0 -0.1867192510276118 0.077748512173410014 0 -0.19050021368002351 0.072419239531055349 0 -0.18141962227324601 0.075216957450553817 0 -0.1867192510276118 0.077748512173410014 0 -0.1819129998543452 0.079414551687582866 0 -0.18248563084903771 0.082725789105533951 0 -0.17702749526748529 0.081966948020833708 0 -0.17749072232138041 0.1112547600218704 0 -0.1867192510276118 0.077748512173410014 0 -0.18248563084903771 0.082725789105533951 0 -0.1819129998543452 0.079414551687582866 0 -0.18141962227324601 0.075216957450553817 0 -0.1819129998543452 0.079414551687582866 0 -0.17702749526748529 0.081966948020833708 0 -0.18248563084903771 0.082725789105533951 0 -0.1819129998543452 0.079414551687582866 0 -0.17702749526748529 0.081966948020833708 0 -0.1693268494853358 0.079538523923443544 0 -0.16945340910355561 0.089496265134995978 0 -0.17702749526748529 0.081966948020833708 0 -0.1693268494853358 0.079538523923443544 0 -0.17157411485926041 0.074087910936242465 0 -0.17702749526748529 0.081966948020833708 0 -0.17702749526748529 0.081966948020833708 0 -0.17749072232138041 0.1112547600218704 0 -0.16945340910355561 0.089496265134995978 0 -0.17702749526748529 0.081966948020833708 0 -0.17749072232138041 0.1112547600218704 0 -0.17749072232138041 0.1112547600218704 0 -0.1951643137470572 0.093770439387570487 0 -0.18248563084903771 0.082725789105533951 0 -0.17749072232138041 0.1112547600218704 0 -0.1951643137470572 0.093770439387570487 0 -0.17749072232138041 0.1112547600218704 0 -0.19150979458678249 0.1243728737611647 0 -0.17789558253256721 0.1368522929207025 0 -0.17749072232138041 0.1112547600218704 0 -0.17789558253256721 0.1368522929207025 0 -0.17749072232138041 0.1112547600218704 0 -0.16113979031376621 0.12743058591966341 0 -0.17749072232138041 0.1112547600218704 0 -0.15084139672814201 0.110160429760413 0 -0.16113979031376621 0.12743058591966341 0 -0.17749072232138041 0.1112547600218704 0 -0.1616157516695074 0.095139316102685473 0 -0.15084139672814201 0.110160429760413 0 -0.16945340910355561 0.089496265134995978 0 -0.17749072232138041 0.1112547600218704 0 -0.1616157516695074 0.095139316102685473 0 -0.1616157516695074 0.095139316102685473 0 -0.15084139672814201 0.110160429760413 0 -0.14767322655010931 0.084806545451415583 0 -0.15084139672814201 0.110160429760413 0 -0.1348328660863515 0.097215266237156234 0 -0.14767322655010931 0.084806545451415583 0 -0.15084139672814201 0.110160429760413 0 -0.13137241316615089 0.11357835761918721 0 -0.14300315410871919 0.1253406317882016 0 -0.15084139672814201 0.110160429760413 0 -0.16113979031376621 0.12743058591966341 0 -0.14300315410871919 0.1253406317882016 0 -0.13137241316615089 0.11357835761918721 0 -0.14300315410871919 0.1253406317882016 0 -0.12687331202938101 0.13192737382428379 0 -0.13137241316615089 0.11357835761918721 0 -0.1348328660863515 0.097215266237156234 0 -0.1198812247159142 0.095002477965890675 0 -0.15084139672814201 0.110160429760413 0 -0.13137241316615089 0.11357835761918721 0 -0.1348328660863515 0.097215266237156234 0 -0.1348328660863515 0.097215266237156234 0 -0.12533951967512769 0.078274991835817334 0 -0.1198812247159142 0.095002477965890675 0 -0.1348328660863515 0.097215266237156234 0 -0.12533951967512769 0.078274991835817334 0 -0.14767322655010931 0.084806545451415583 0 -0.1618062267740645 0.07958177760614682 0 -0.14767322655010931 0.084806545451415583 0 -0.15517576509654349 0.068304766057398533 0 -0.14767322655010931 0.084806545451415583 0 -0.15517576509654349 0.068304766057398533 0 -0.14001017723872511 0.063978020277280875 0 -0.12533951967512769 0.078274991835817334 0 -0.14767322655010931 0.084806545451415583 0 -0.14001017723872511 0.063978020277280875 0 -0.12533951967512769 0.078274991835817334 0 -0.14001017723872511 0.063978020277280875 0 -0.1248745965026067 0.059896082918310993 0 -0.14001017723872511 0.063978020277280875 0 -0.13626681081840961 0.042829268155062397 0 -0.1248745965026067 0.059896082918310993 0 -0.13626681081840961 0.042829268155062397 0 -0.1339340902388827 0.022300844741854581 0 -0.1180188049733784 0.030804183747700629 0 -0.13626681081840961 0.042829268155062397 0 -0.1339340902388827 0.022300844741854581 0 -0.15968783393996419 0.037567277286728401 0 -0.13626681081840961 0.042829268155062397 0 -0.15351002702878311 0.053877414325468623 0 -0.15968783393996419 0.037567277286728401 0 -0.13626681081840961 0.042829268155062397 0 -0.15968783393996419 0.037567277286728401 0 -0.14001017723872511 0.063978020277280875 0 -0.13626681081840961 0.042829268155062397 0 -0.15351002702878311 0.053877414325468623 0 -0.15517576509654349 0.068304766057398533 0 -0.14001017723872511 0.063978020277280875 0 -0.15351002702878311 0.053877414325468623 0 -0.12735709500343681 0.004015926865657337 0 -0.15177498865293759 0.016606981474429749 0 -0.12735709500343681 0.004015926865657337 0 -0.1339340902388827 0.022300844741854581 0 -0.15177498865293759 0.016606981474429749 0 -0.12735709500343681 0.004015926865657337 0 -0.1339340902388827 0.022300844741854581 0 -0.11835839359799651 0.016938700943610479 0 -0.1339340902388827 0.022300844741854581 0 -0.15177498865293759 0.016606981474429749 0 -0.15968783393996419 0.037567277286728401 0 -0.1339340902388827 0.022300844741854581 0 -0.15968783393996419 0.037567277286728401 0 -0.12735709500343681 0.004015926865657337 0 -0.15177498865293759 0.016606981474429749 0 -0.14801408494475049 0.0031182785745780331 0 -0.15177498865293759 0.016606981474429749 0 -0.14801408494475049 0.0031182785745780331 0 -0.1619193683370386 0.0066468078375689294 0 -0.15773416148281841 -0.0035868741371463562 0 -0.14801408494475049 0.0031182785745780331 0 -0.1619193683370386 0.0066468078375689294 0 -0.15177498865293759 0.016606981474429749 0 -0.1619193683370386 0.0066468078375689294 0 -0.16760309597538539 0.015861310899326669 0 -0.16716832075785379 -0.0032078365625175 0 -0.1619193683370386 0.0066468078375689294 0 -0.17584419881677341 0.0071523107965592754 0 -0.1619193683370386 0.0066468078375689294 0 -0.16760309597538539 0.015861310899326669 0 -0.17584419881677341 0.0071523107965592754 0 -0.15177498865293759 0.016606981474429749 0 -0.17619288230243149 0.029198036083215671 0 -0.15177498865293759 0.016606981474429749 0 -0.17619288230243149 0.029198036083215671 0 -0.15968783393996419 0.037567277286728401 0 -0.15177498865293759 0.016606981474429749 0 -0.16760309597538539 0.015861310899326669 0 -0.17619288230243149 0.029198036083215671 0 -0.17619288230243149 0.029198036083215671 0 -0.1852069371874478 0.015311100034367831 0 -0.17584419881677341 0.0071523107965592754 0 -0.17619288230243149 0.029198036083215671 0 -0.17584419881677341 0.0071523107965592754 0 -0.16760309597538539 0.015861310899326669 0 -0.17619288230243149 0.029198036083215671 0 -0.17584419881677341 0.0071523107965592754 0 -0.17619288230243149 0.029198036083215671 0 -0.19572946351785711 0.039272048382664133 0 -0.19029700863621521 0.024089069561314659 0 -0.17619288230243149 0.029198036083215671 0 -0.1852069371874478 0.015311100034367831 0 -0.19029700863621521 0.024089069561314659 0 -0.1852069371874478 0.015311100034367831 0 -0.18717715497560061 0.0062623078557712403 0 -0.17584419881677341 0.0071523107965592754 0 -0.18154179604087481 -0.0036104187285780349 0 -0.18717715497560061 0.0062623078557712403 0 -0.17584419881677341 0.0071523107965592754 0 -0.15351002702878311 0.053877414325468623 0 -0.1659033968134131 0.050269055427132232 0 -0.15968783393996419 0.037567277286728401 0 -0.1659033968134131 0.050269055427132232 0 -0.16451238623864939 0.061110077383343737 0 -0.17656426821359539 0.052679136019797047 0 -0.17354141001077031 0.063798093567348918 0 -0.16451238623864939 0.061110077383343737 0 -0.17656426821359539 0.052679136019797047 0 -0.16451238623864939 0.061110077383343737 0 -0.17656426821359539 0.052679136019797047 0 -0.15351002702878311 0.053877414325468623 0 -0.1659033968134131 0.050269055427132232 0 -0.16451238623864939 0.061110077383343737 0 -0.15517576509654349 0.068304766057398533 0 -0.15351002702878311 0.053877414325468623 0 -0.16451238623864939 0.061110077383343737 0 -0.15968783393996419 0.037567277286728401 0 -0.1762663423330757 0.033842591165095401 0 -0.1659033968134131 0.050269055427132232 0 -0.15968783393996419 0.037567277286728401 0 -0.1764827173319595 0.047523031967639129 0 -0.17619288230243149 0.029198036083215671 0 -0.15968783393996419 0.037567277286728401 0 -0.1762663423330757 0.033842591165095401 0 -0.15968783393996419 0.037567277286728401 0 -0.1764827173319595 0.047523031967639129 0 -0.15968783393996419 0.037567277286728401 0 -0.1762663423330757 0.033842591165095401 0 -0.1764827173319595 0.047523031967639129 0 -0.17619288230243149 0.029198036083215671 0 -0.19572946351785711 0.039272048382664133 0 -0.181281627628781 0.040827380692469641 0 -0.18051660755046151 0.049914261515807259 0 -0.1764827173319595 0.047523031967639129 0 -0.17619288230243149 0.029198036083215671 0 -0.1762663423330757 0.033842591165095401 0 -0.19572946351785711 0.039272048382664133 0 -0.1762663423330757 0.033842591165095401 0 -0.181281627628781 0.040827380692469641 0 -0.19572946351785711 0.039272048382664133 0 -0.1762663423330757 0.033842591165095401 0 -0.181281627628781 0.040827380692469641 0 -0.1764827173319595 0.047523031967639129 0 -0.1762663423330757 0.033842591165095401 0 -0.1764827173319595 0.047523031967639129 0 -0.17619288230243149 0.029198036083215671 0 -0.1762663423330757 0.033842591165095401 0 -0.181281627628781 0.040827380692469641 0 -0.18051660755046151 0.049914261515807259 0 -0.19572946351785711 0.039272048382664133 0 -0.18051660755046151 0.049914261515807259 0 -0.17656426821359539 0.052679136019797047 0 -0.1853153676200878 0.058850167416455039 0 -0.18051660755046151 0.049914261515807259 0 -0.1764827173319595 0.047523031967639129 0 -0.1764827173319595 0.047523031967639129 0 -0.17656426821359539 0.052679136019797047 0 -0.1659033968134131 0.050269055427132232 0 -0.1764827173319595 0.047523031967639129 0 -0.17656426821359539 0.052679136019797047 0 -0.18051660755046151 0.049914261515807259 0 -0.1764827173319595 0.047523031967639129 0 -0.17656426821359539 0.052679136019797047 0 -0.18051660755046151 0.049914261515807259 0 -0.17656426821359539 0.052679136019797047 0 -0.18185637422210199 0.067243003367259677 0 -0.17656426821359539 0.052679136019797047 0 -0.1853153676200878 0.058850167416455039 0 -0.1853153676200878 0.058850167416455039 0 -0.19803765617450109 0.060300476042091433 0 -0.18892740292417859 0.064703221589215376 0 -0.18051660755046151 0.049914261515807259 0 -0.19803765617450109 0.060300476042091433 0 -0.1977866825790292 0.05007637869738242 0 -0.18051660755046151 0.049914261515807259 0 -0.1853153676200878 0.058850167416455039 0 -0.19803765617450109 0.060300476042091433 0 -0.18051660755046151 0.049914261515807259 0 -0.19803765617450109 0.060300476042091433 0 -0.19803765617450109 0.060300476042091433 0 -0.1977866825790292 0.05007637869738242 0 -0.2066297839190599 0.054855205218219752 0 -0.18051660755046151 0.049914261515807259 0 -0.1977866825790292 0.05007637869738242 0 -0.19572946351785711 0.039272048382664133 0 -0.18051660755046151 0.049914261515807259 0 -0.19572946351785711 0.039272048382664133 0 -0.19572946351785711 0.039272048382664133 0 -0.2098237389609823 0.029412342647955388 0 -0.1977866825790292 0.05007637869738242 0 -0.19572946351785711 0.039272048382664133 0 -0.2073344650466164 0.045256152092875389 0 -0.19572946351785711 0.039272048382664133 0 -0.2073344650466164 0.045256152092875389 0 -0.2073344650466164 0.045256152092875389 0 -0.21702036639386221 0.038769314305699548 0 -0.2098237389609823 0.029412342647955388 0 -0.19572946351785711 0.039272048382664133 0 -0.2073344650466164 0.045256152092875389 0 -0.2098237389609823 0.029412342647955388 0 -0.21702036639386221 0.038769314305699548 0 -0.2098237389609823 0.029412342647955388 0 -0.2284051488343061 0.035137669629428533 0 -0.2073344650466164 0.045256152092875389 0 -0.21702036639386221 0.038769314305699548 0 -0.22251811273354419 0.045271092852538893 0 -0.2073344650466164 0.045256152092875389 0 -0.21769334509658461 0.055951218203848879 0 -0.22251811273354419 0.045271092852538893 0 -0.21769334509658461 0.055951218203848879 0 -0.20947987249717179 0.060448397508133619 0 -0.2066297839190599 0.054855205218219752 0 -0.21769334509658461 0.055951218203848879 0 -0.20947987249717179 0.060448397508133619 0 -0.2155587047985415 0.070686690568374386 0 -0.19803765617450109 0.060300476042091433 0 -0.20947987249717179 0.060448397508133619 0 -0.2066297839190599 0.054855205218219752 0 -0.1977866825790292 0.05007637869738242 0 -0.2073344650466164 0.045256152092875389 0 -0.2066297839190599 0.054855205218219752 0 -0.2073344650466164 0.045256152092875389 0 -0.21769334509658461 0.055951218203848879 0 -0.2066297839190599 0.054855205218219752 0 -0.1989264366345522 -0.0080023544535597537 0 -0.1965234412062255 0.0098537758749781944 0 -0.20713549204565579 6.5395444916274768e-05 0 -0.19066530249761049 -0.0041303576494283751 0 -0.18717715497560061 0.0062623078557712403 0 -0.1965234412062255 0.0098537758749781944 0 -0.1852069371874478 0.015311100034367831 0 -0.18717715497560061 0.0062623078557712403 0 -0.1965234412062255 0.0098537758749781944 0 -0.1965234412062255 0.0098537758749781944 0 -0.20113962024173071 0.02227838771243261 0 -0.2107847094499361 0.011405203725301251 0 -0.19572946351785711 0.039272048382664133 0 -0.20113962024173071 0.02227838771243261 0 -0.2098237389609823 0.029412342647955388 0 -0.19572946351785711 0.039272048382664133 0 -0.20113962024173071 0.02227838771243261 0 -0.19029700863621521 0.024089069561314659 0 -0.1965234412062255 0.0098537758749781944 0 -0.20113962024173071 0.02227838771243261 0 -0.19029700863621521 0.024089069561314659 0 -0.1852069371874478 0.015311100034367831 0 -0.1965234412062255 0.0098537758749781944 0 -0.19029700863621521 0.024089069561314659 0 -0.2098237389609823 0.029412342647955388 0 -0.2107847094499361 0.011405203725301251 0 -0.22391801440410891 0.019552636913248388 0 -0.20113962024173071 0.02227838771243261 0 -0.2098237389609823 0.029412342647955388 0 -0.2107847094499361 0.011405203725301251 0 -0.2098237389609823 0.029412342647955388 0 -0.22391801440410891 0.019552636913248388 0 -0.21702438745170211 -0.0043907958627755336 0 -0.2107847094499361 0.011405203725301251 0 -0.20713549204565579 6.5395444916274768e-05 0 -0.21702438745170211 -0.0043907958627755336 0 -0.2107847094499361 0.011405203725301251 0 -0.22391801440410891 0.019552636913248388 0 -0.1965234412062255 0.0098537758749781944 0 -0.2107847094499361 0.011405203725301251 0 -0.20713549204565579 6.5395444916274768e-05 0 -0.22867745033346079 0.0038692188645070222 0 -0.22391801440410891 0.019552636913248388 0 -0.2344599051246074 0.012178015861532989 0 -0.21702438745170211 -0.0043907958627755336 0 -0.22391801440410891 0.019552636913248388 0 -0.21702438745170211 -0.0043907958627755336 0 -0.22867745033346079 0.0038692188645070222 0 -0.22391801440410891 0.019552636913248388 0 -0.22391801440410891 0.019552636913248388 0 -0.2403792472176362 0.02548084658656756 0 -0.2344599051246074 0.012178015861532989 0 -0.2098237389609823 0.029412342647955388 0 -0.22391801440410891 0.019552636913248388 0 -0.2284051488343061 0.035137669629428533 0 -0.22391801440410891 0.019552636913248388 0 -0.2403792472176362 0.02548084658656756 0 -0.2284051488343061 0.035137669629428533 0 -0.22391801440410891 0.019552636913248388 0 -0.2344599051246074 0.012178015861532989 0 -0.22391801440410891 0.019552636913248388 0 -0.2284051488343061 0.035137669629428533 0 -0.2522816967992324 0.037264740289820159 0 -0.25157722050270093 0.012682655753942951 0 -0.2403792472176362 0.02548084658656756 0 -0.25157722050270093 0.012682655753942951 0 -0.2403792472176362 0.02548084658656756 0 -0.2344599051246074 0.012178015861532989 0 -0.25267499080189931 -0.0034516002120552492 0 -0.25157722050270093 0.012682655753942951 0 -0.2401015516947359 0.00075261550232862703 0 -0.25157722050270093 0.012682655753942951 0 -0.2344599051246074 0.012178015861532989 0 -0.2401015516947359 0.00075261550232862703 0 -0.22867745033346079 0.0038692188645070222 0 -0.2344599051246074 0.012178015861532989 0 -0.2401015516947359 0.00075261550232862703 0 -0.21769334509658461 0.055951218203848879 0 -0.23255980098598539 0.056775429521547523 0 -0.2155587047985415 0.070686690568374386 0 -0.23289228326450309 0.050722702345608793 0 -0.22641588552015429 0.052180110730886013 0 -0.22251811273354419 0.045271092852538893 0 -0.23289228326450309 0.050722702345608793 0 -0.23255980098598539 0.056775429521547523 0 -0.22641588552015429 0.052180110730886013 0 -0.21769334509658461 0.055951218203848879 0 -0.23255980098598539 0.056775429521547523 0 -0.22641588552015429 0.052180110730886013 0 -0.21769334509658461 0.055951218203848879 0 -0.22641588552015429 0.052180110730886013 0 -0.22251811273354419 0.045271092852538893 0 -0.21702036639386221 0.038769314305699548 0 -0.22251811273354419 0.045271092852538893 0 -0.2284051488343061 0.035137669629428533 0 -0.23289228326450309 0.050722702345608793 0 -0.22251811273354419 0.045271092852538893 0 -0.2284051488343061 0.035137669629428533 0 -0.23289228326450309 0.050722702345608793 0 -0.2284051488343061 0.035137669629428533 0 -0.2522816967992324 0.037264740289820159 0 -0.2403792472176362 0.02548084658656756 0 -0.2284051488343061 0.035137669629428533 0 -0.2522816967992324 0.037264740289820159 0 -0.23289228326450309 0.050722702345608793 0 -0.2284051488343061 0.035137669629428533 0 -0.2522816967992324 0.037264740289820159 0 -0.23289228326450309 0.050722702345608793 0 -0.23255980098598539 0.056775429521547523 0 -0.2522816967992324 0.037264740289820159 0 -0.23255980098598539 0.056775429521547523 0 -0.2522816967992324 0.037264740289820159 0 -0.23255980098598539 0.056775429521547523 0 -0.24906194248509719 0.058488871325365822 0 -0.23255980098598539 0.056775429521547523 0 -0.24906194248509719 0.058488871325365822 0 -0.23770452364983391 0.071010308971772351 0 -0.26257114212692878 0.06573449919026883 0 -0.24906194248509719 0.058488871325365822 0 -0.23770452364983391 0.071010308971772351 0 -0.25261226255175379 0.080423606239198905 0 -0.23770452364983391 0.071010308971772351 0 -0.23158356521460469 0.085326977986282804 0 -0.25261226255175379 0.080423606239198905 0 -0.23158356521460469 0.085326977986282804 0 -0.24377998071086901 0.096378574065869249 0 -0.23158356521460469 0.085326977986282804 0 -0.21283790517273879 0.076286118753275345 0 -0.22135706029896429 0.097751395037259853 0 -0.23158356521460469 0.085326977986282804 0 -0.22135706029896429 0.097751395037259853 0 -0.24377998071086901 0.096378574065869249 0 -0.23255980098598539 0.056775429521547523 0 -0.21283790517273879 0.076286118753275345 0 -0.23770452364983391 0.071010308971772351 0 -0.23158356521460469 0.085326977986282804 0 -0.21283790517273879 0.076286118753275345 0 -0.23255980098598539 0.056775429521547523 0 -0.23770452364983391 0.071010308971772351 0 -0.21283790517273879 0.076286118753275345 0 -0.23255980098598539 0.056775429521547523 0 -0.21283790517273879 0.076286118753275345 0 -0.2155587047985415 0.070686690568374386 0 -0.23770452364983391 0.071010308971772351 0 -0.21283790517273879 0.076286118753275345 0 -0.19803765617450109 0.060300476042091433 0 -0.20947987249717179 0.060448397508133619 0 -0.2155587047985415 0.070686690568374386 0 -0.19803765617450109 0.060300476042091433 0 -0.20333782300263301 0.070680183335342567 0 -0.2155587047985415 0.070686690568374386 0 -0.19803765617450109 0.060300476042091433 0 -0.2155587047985415 0.070686690568374386 0 -0.21283790517273879 0.076286118753275345 0 -0.19766176801088831 0.079505953929404904 0 -0.20333782300263301 0.070680183335342567 0 -0.21283790517273879 0.076286118753275345 0 -0.19766176801088831 0.079505953929404904 0 -0.20333782300263301 0.070680183335342567 0 -0.21283790517273879 0.076286118753275345 0 -0.2155587047985415 0.070686690568374386 0 -0.21283790517273879 0.076286118753275345 0 -0.1951643137470572 0.093770439387570487 0 -0.22135706029896429 0.097751395037259853 0 -0.21283790517273879 0.076286118753275345 0 -0.1951643137470572 0.093770439387570487 0 -0.21283790517273879 0.076286118753275345 0 -0.19766176801088831 0.079505953929404904 0 -0.1951643137470572 0.093770439387570487 0 -0.18248563084903771 0.082725789105533951 0 -0.19766176801088831 0.079505953929404904 0 -0.1951643137470572 0.093770439387570487 0 -0.1867192510276118 0.077748512173410014 0 -0.18248563084903771 0.082725789105533951 0 -0.19766176801088831 0.079505953929404904 0 -0.18248563084903771 0.082725789105533951 0 -0.19766176801088831 0.079505953929404904 0 -0.1867192510276118 0.077748512173410014 0 -0.19766176801088831 0.079505953929404904 0 -0.19050021368002351 0.072419239531055349 0 -0.19803765617450109 0.060300476042091433 0 -0.19050021368002351 0.072419239531055349 0 -0.18892740292417859 0.064703221589215376 0 -0.19803765617450109 0.060300476042091433 0 -0.20333782300263301 0.070680183335342567 0 -0.19050021368002351 0.072419239531055349 0 -0.20333782300263301 0.070680183335342567 0 -0.19766176801088831 0.079505953929404904 0 -0.19050021368002351 0.072419239531055349 0 -0.17749072232138041 0.1112547600218704 0 -0.19150979458678249 0.1243728737611647 0 -0.1951643137470572 0.093770439387570487 0 -0.19150979458678249 0.1243728737611647 0 -0.1951643137470572 0.093770439387570487 0 -0.20994497012605751 0.11823125198409511 0 -0.1951643137470572 0.093770439387570487 0 -0.20994497012605751 0.11823125198409511 0 -0.22135706029896429 0.097751395037259853 0 -0.20994497012605751 0.11823125198409511 0 -0.2348316268224595 0.11651500804646669 0 -0.2235388627286797 0.12965651036182041 0 -0.20994497012605751 0.11823125198409511 0 -0.22135706029896429 0.097751395037259853 0 -0.2348316268224595 0.11651500804646669 0 -0.22135706029896429 0.097751395037259853 0 -0.24377998071086901 0.096378574065869249 0 -0.2348316268224595 0.11651500804646669 0 -0.25136603029008331 0.1103208693098497 0 -0.24377998071086901 0.096378574065869249 0 -0.2348316268224595 0.11651500804646669 0 -0.25922316449870308 0.12628093809151891 0 -0.25136603029008331 0.1103208693098497 0 -0.2348316268224595 0.11651500804646669 0 -0.25922316449870308 0.12628093809151891 0 -0.2348316268224595 0.11651500804646669 0 -0.2369615480924761 0.1404602413506009 0 -0.2369615480924761 0.1404602413506009 0 -0.2235388627286797 0.12965651036182041 0 -0.2124173058737257 0.14341954006611901 0 -0.2348316268224595 0.11651500804646669 0 -0.2369615480924761 0.1404602413506009 0 -0.2235388627286797 0.12965651036182041 0 -0.2369615480924761 0.1404602413506009 0 -0.22679867445049531 0.16064067306310431 0 -0.2124173058737257 0.14341954006611901 0 -0.2369615480924761 0.1404602413506009 0 -0.247018622616726 0.15992587597476091 0 -0.22679867445049531 0.16064067306310431 0 -0.25846103874104392 0.14702121199507179 0 -0.2369615480924761 0.1404602413506009 0 -0.247018622616726 0.15992587597476091 0 -0.247018622616726 0.15992587597476091 0 -0.23359887481107691 0.1809086922627815 0 -0.247018622616726 0.15992587597476091 0 -0.23359887481107691 0.1809086922627815 0 -0.22679867445049531 0.16064067306310431 0 -0.26439180367967152 0.18225540552070321 0 -0.247018622616726 0.15992587597476091 0 -0.23359887481107691 0.1809086922627815 0 -0.23359887481107691 0.1809086922627815 0 -0.20517995294037331 0.17379218369948349 0 -0.2201791270054278 0.2018915085508021 0 -0.23359887481107691 0.1809086922627815 0 -0.22679867445049531 0.16064067306310431 0 -0.20517995294037331 0.17379218369948349 0 -0.22679867445049531 0.16064067306310431 0 -0.20517995294037331 0.17379218369948349 0 -0.2124173058737257 0.14341954006611901 0 -0.20517995294037331 0.17379218369948349 0 -0.19274338499996449 0.14807478539393409 0 -0.17830044274374979 0.16244982581953471 0 -0.19150979458678249 0.1243728737611647 0 -0.19274338499996449 0.14807478539393409 0 -0.2124173058737257 0.14341954006611901 0 -0.20994497012605751 0.11823125198409511 0 -0.2235388627286797 0.12965651036182041 0 -0.2124173058737257 0.14341954006611901 0 -0.19150979458678249 0.1243728737611647 0 -0.20994497012605751 0.11823125198409511 0 -0.2124173058737257 0.14341954006611901 0 -0.20517995294037331 0.17379218369948349 0 -0.19274338499996449 0.14807478539393409 0 -0.2124173058737257 0.14341954006611901 0 -0.22371849106378741 0.2462845034026982 0 -0.23019370483249479 0.22382880503591951 0 -0.2066863838603582 0.24242880758937649 0 -0.22371849106378741 0.2462845034026982 0 -0.23951274761537589 0.2474853768326048 0 -0.23019370483249479 0.22382880503591951 0 -0.25272375818517617 0.22994970808158929 0 -0.25621817608628389 0.2460965770837312 0 -0.23951274761537589 0.2474853768326048 0 -0.25370102580463139 0.2052288024824625 0 -0.25272375818517617 0.22994970808158929 0 -0.23019370483249479 0.22382880503591951 0 -0.25272375818517617 0.22994970808158929 0 -0.23951274761537589 0.2474853768326048 0 -0.23019370483249479 0.22382880503591951 0 -0.25370102580463139 0.2052288024824625 0 -0.23359887481107691 0.1809086922627815 0 -0.2201791270054278 0.2018915085508021 0 -0.25370102580463139 0.2052288024824625 0 -0.23019370483249479 0.22382880503591951 0 -0.2201791270054278 0.2018915085508021 0 -0.23019370483249479 0.22382880503591951 0 -0.2201791270054278 0.2018915085508021 0 -0.20675937919977869 0.22287432483882261 0 -0.25370102580463139 0.2052288024824625 0 -0.23019370483249479 0.22382880503591951 0 -0.23359887481107691 0.1809086922627815 0 -0.2201791270054278 0.2018915085508021 0 -0.20517995294037331 0.17379218369948349 0 -0.2201791270054278 0.2018915085508021 0 -0.19686056424972551 0.20437535499954981 0 -0.20517995294037331 0.17379218369948349 0 -0.19686056424972551 0.20437535499954981 0 -0.17870530295493239 0.18804735871836689 0 -0.19686056424972551 0.20437535499954981 0 -0.20675937919977869 0.22287432483882261 0 -0.19122946023172571 0.22600186257262461 0 -0.19686056424972551 0.20437535499954981 0 -0.19122946023172571 0.22600186257262461 0 -0.179110163166115 0.21364489161719899 0 -0.2201791270054278 0.2018915085508021 0 -0.19686056424972551 0.20437535499954981 0 -0.20675937919977869 0.22287432483882261 0 -0.2201791270054278 0.2018915085508021 0 -0.20675937919977869 0.22287432483882261 0 -0.23019370483249479 0.22382880503591951 0 -0.2066863838603582 0.24242880758937649 0 -0.23019370483249479 0.22382880503591951 0 -0.20675937919977869 0.22287432483882261 0 -0.2066863838603582 0.24242880758937649 0 -0.20675937919977869 0.22287432483882261 0 -0.19333963139412971 0.24385714112684301 0 -0.20675937919977869 0.22287432483882261 0 -0.19122946023172571 0.22600186257262461 0 -0.19333963139412971 0.24385714112684301 0 -0.19122946023172571 0.22600186257262461 0 -0.19333963139412971 0.24385714112684301 0 -0.17951502337729761 0.2392424245160312 0 -0.20675937919977869 0.22287432483882261 0 -0.19333963139412971 0.24385714112684301 0 -0.2066863838603582 0.24242880758937649 0 -0.18259587964237009 0.2606558300825601 0 -0.19333963139412971 0.24385714112684301 0 -0.2066863838603582 0.24242880758937649 0 -0.21408768962570049 0.25938306782852782 0 -0.22371849106378741 0.2462845034026982 0 -0.2066863838603582 0.24242880758937649 0 -0.1532221513837192 0.25419418888983192 0 -0.17951502337729761 0.2392424245160312 0 -0.15110003921584569 0.22881829817408891 0 -0.18259587964237009 0.2606558300825601 0 -0.19333963139412971 0.24385714112684301 0 -0.17951502337729761 0.2392424245160312 0 -0.17951502337729761 0.2392424245160312 0 -0.1619547442009632 0.2162214427956837 0 -0.179110163166115 0.21364489161719899 0 -0.19122946023172571 0.22600186257262461 0 -0.17951502337729761 0.2392424245160312 0 -0.179110163166115 0.21364489161719899 0 -0.17951502337729761 0.2392424245160312 0 -0.179110163166115 0.21364489161719899 0 -0.17951502337729761 0.2392424245160312 0 -0.1619547442009632 0.2162214427956837 0 -0.15110003921584569 0.22881829817408891 0 -0.1619547442009632 0.2162214427956837 0 -0.179110163166115 0.21364489161719899 0 -0.17870530295493239 0.18804735871836689 0 -0.19686056424972551 0.20437535499954981 0 -0.179110163166115 0.21364489161719899 0 -0.17870530295493239 0.18804735871836689 0 -0.179110163166115 0.21364489161719899 0 -0.17870530295493239 0.18804735871836689 0 -0.1619547442009632 0.2162214427956837 0 -0.17870530295493239 0.18804735871836689 0 -0.15775407484820861 0.18727827749961631 0 -0.14804225966403101 0.20585853828705919 0 -0.15775407484820861 0.18727827749961631 0 -0.13876353146598761 0.18223131465273959 0 -0.1619547442009632 0.2162214427956837 0 -0.14804225966403101 0.20585853828705919 0 -0.15775407484820861 0.18727827749961631 0 -0.13876353146598761 0.18223131465273959 0 -0.1245765098090509 0.17966052017845999 0 -0.1190175871807343 0.20067046473278771 0 -0.14804225966403101 0.20585853828705919 0 -0.13876353146598761 0.18223131465273959 0 -0.1190175871807343 0.20067046473278771 0 -0.14804225966403101 0.20585853828705919 0 -0.13479108425045189 0.2189379304695287 0 -0.1190175871807343 0.20067046473278771 0 -0.13479108425045189 0.2189379304695287 0 -0.12594818007053379 0.2253828658525201 0 -0.1190175871807343 0.20067046473278771 0 -0.1619547442009632 0.2162214427956837 0 -0.14804225966403101 0.20585853828705919 0 -0.15110003921584569 0.22881829817408891 0 -0.14804225966403101 0.20585853828705919 0 -0.15110003921584569 0.22881829817408891 0 -0.13479108425045189 0.2189379304695287 0 -0.15110003921584569 0.22881829817408891 0 -0.13479108425045189 0.2189379304695287 0 -0.1378537507735782 0.22769286600650679 0 -0.15110003921584569 0.22881829817408891 0 -0.1378537507735782 0.22769286600650679 0 -0.13827307027013019 0.2362506378269415 0 -0.13479108425045189 0.2189379304695287 0 -0.12594818007053379 0.2253828658525201 0 -0.1378537507735782 0.22769286600650679 0 -0.12594818007053379 0.2253828658525201 0 -0.1378537507735782 0.22769286600650679 0 -0.13827307027013019 0.2362506378269415 0 -0.12594818007053379 0.2253828658525201 0 -0.13827307027013019 0.2362506378269415 0 -0.1327712538659816 0.24971188635390451 0 -0.12594818007053379 0.2253828658525201 0 -0.1327712538659816 0.24971188635390451 0 -0.1532221513837192 0.25419418888983192 0 -0.15110003921584569 0.22881829817408891 0 -0.13827307027013019 0.2362506378269415 0 -0.1532221513837192 0.25419418888983192 0 -0.13827307027013019 0.2362506378269415 0 -0.1327712538659816 0.24971188635390451 0 -0.16317411874061041 0.14897554401654969 0 -0.16113979031376621 0.12743058591966341 0 -0.1447888583061562 0.1436064118174607 0 -0.16317411874061041 0.14897554401654969 0 -0.16113979031376621 0.12743058591966341 0 -0.17789558253256721 0.1368522929207025 0 -0.17749072232138041 0.1112547600218704 0 -0.16113979031376621 0.12743058591966341 0 -0.17789558253256721 0.1368522929207025 0 -0.19150979458678249 0.1243728737611647 0 -0.19274338499996449 0.14807478539393409 0 -0.17789558253256721 0.1368522929207025 0 -0.16317411874061041 0.14897554401654969 0 -0.17789558253256721 0.1368522929207025 0 -0.17830044274374979 0.16244982581953471 0 -0.17789558253256721 0.1368522929207025 0 -0.17830044274374979 0.16244982581953471 0 -0.19274338499996449 0.14807478539393409 0 -0.17789558253256721 0.1368522929207025 0 -0.17830044274374979 0.16244982581953471 0 -0.20517995294037331 0.17379218369948349 0 -0.17870530295493239 0.18804735871836689 0 -0.17830044274374979 0.16244982581953471 0 -0.17870530295493239 0.18804735871836689 0 -0.17830044274374979 0.16244982581953471 0 -0.17870530295493239 0.18804735871836689 0 -0.17830044274374979 0.16244982581953471 0 -0.15775407484820861 0.18727827749961631 0 -0.17830044274374979 0.16244982581953471 0 -0.15775407484820861 0.18727827749961631 0 -0.15245232938168229 0.1648839185887534 0 -0.16317411874061041 0.14897554401654969 0 -0.17830044274374979 0.16244982581953471 0 -0.15245232938168229 0.1648839185887534 0 -0.15775407484820861 0.18727827749961631 0 -0.15245232938168229 0.1648839185887534 0 -0.13876353146598761 0.18223131465273959 0 -0.13876353146598761 0.18223131465273959 0 -0.12843792629854631 0.15978223771525801 0 -0.1245765098090509 0.17966052017845999 0 -0.15245232938168229 0.1648839185887534 0 -0.13876353146598761 0.18223131465273959 0 -0.12843792629854631 0.15978223771525801 0 -0.12843792629854631 0.15978223771525801 0 -0.1447888583061562 0.1436064118174607 0 -0.12843792629854631 0.15978223771525801 0 -0.1447888583061562 0.1436064118174607 0 -0.1204435081575875 0.14623213693654391 0 -0.16317411874061041 0.14897554401654969 0 -0.15245232938168229 0.1648839185887534 0 -0.1447888583061562 0.1436064118174607 0 -0.15245232938168229 0.1648839185887534 0 -0.12843792629854631 0.15978223771525801 0 -0.1447888583061562 0.1436064118174607 0 -0.16113979031376621 0.12743058591966341 0 -0.1447888583061562 0.1436064118174607 0 -0.14300315410871919 0.1253406317882016 0 -0.16113979031376621 0.12743058591966341 0 -0.1447888583061562 0.1436064118174607 0 -0.1447888583061562 0.1436064118174607 0 -0.12687331202938101 0.13192737382428379 0 -0.1204435081575875 0.14623213693654391 0 -0.1447888583061562 0.1436064118174607 0 -0.14300315410871919 0.1253406317882016 0 -0.12687331202938101 0.13192737382428379 0 -0.12687331202938101 0.13192737382428379 0 -0.1130049083687871 0.13722853083192951 0 -0.10667563132183119 0.1260080396076822 0 -0.12687331202938101 0.13192737382428379 0 -0.1130049083687871 0.13722853083192951 0 -0.1204435081575875 0.14623213693654391 0 -0.10667563132183119 0.1260080396076822 0 -0.081978849477511453 0.1384377215961772 0 -0.096577670607123245 0.1239972751083621 0 -0.10667563132183119 0.1260080396076822 0 -0.1008242758955458 0.1385116675773613 0 -0.081978849477511453 0.1384377215961772 0 -0.10667563132183119 0.1260080396076822 0 -0.081978849477511453 0.1384377215961772 0 -0.1130049083687871 0.13722853083192951 0 -0.10667563132183119 0.1260080396076822 0 -0.1008242758955458 0.1385116675773613 0 -0.1130049083687871 0.13722853083192951 0 -0.1008242758955458 0.1385116675773613 0 -0.1078791741402548 0.14587794917826699 0 -0.094422293866394627 0.1556947047027778 0 -0.094582816169344081 0.14500609667275041 0 -0.1078791741402548 0.14587794917826699 0 -0.1008242758955458 0.1385116675773613 0 -0.094582816169344081 0.14500609667275041 0 -0.1078791741402548 0.14587794917826699 0 -0.12843792629854631 0.15978223771525801 0 -0.1204435081575875 0.14623213693654391 0 -0.1073217141416921 0.15896651377475199 0 -0.1078791741402548 0.14587794917826699 0 -0.1204435081575875 0.14623213693654391 0 -0.1073217141416921 0.15896651377475199 0 -0.1130049083687871 0.13722853083192951 0 -0.1078791741402548 0.14587794917826699 0 -0.1204435081575875 0.14623213693654391 0 -0.12843792629854631 0.15978223771525801 0 -0.1245765098090509 0.17966052017845999 0 -0.1120869942909358 0.17595806361305491 0 -0.1120869942909358 0.17595806361305491 0 -0.1073217141416921 0.15896651377475199 0 -0.12843792629854631 0.15978223771525801 0 -0.1120869942909358 0.17595806361305491 0 -0.12843792629854631 0.15978223771525801 0 -0.1120869942909358 0.17595806361305491 0 -0.1073217141416921 0.15896651377475199 0 -0.1245765098090509 0.17966052017845999 0 -0.1120869942909358 0.17595806361305491 0 -0.1190175871807343 0.20067046473278771 0 -0.1120869942909358 0.17595806361305491 0 -0.1020860412129876 0.1687304780430319 0 -0.095149617161195271 0.19271405424946009 0 -0.1020860412129876 0.1687304780430319 0 -0.095149617161195271 0.19271405424946009 0 -0.1120869942909358 0.17595806361305491 0 -0.095149617161195271 0.19271405424946009 0 -0.1020860412129876 0.1687304780430319 0 -0.093279947424905002 0.17994671451597891 0 -0.095149617161195271 0.19271405424946009 0 -0.1020860412129876 0.1687304780430319 0 -0.089956478385260899 0.16811851343374709 0 -0.093279947424905002 0.17994671451597891 0 -0.094422293866394627 0.1556947047027778 0 -0.1078791741402548 0.14587794917826699 0 -0.1020860412129876 0.1687304780430319 0 -0.1078791741402548 0.14587794917826699 0 -0.1073217141416921 0.15896651377475199 0 -0.1020860412129876 0.1687304780430319 0 -0.1120869942909358 0.17595806361305491 0 -0.1073217141416921 0.15896651377475199 0 -0.1020860412129876 0.1687304780430319 0 -0.1078791741402548 0.14587794917826699 0 -0.1020860412129876 0.1687304780430319 0 -0.094422293866394627 0.1556947047027778 0 -0.1020860412129876 0.1687304780430319 0 -0.089956478385260899 0.16811851343374709 0 -0.094422293866394627 0.1556947047027778 0 -0.089956478385260899 0.16811851343374709 0 -0.084742563178951485 0.15922574422532609 0 -0.089956478385260899 0.16811851343374709 0 -0.080023232193096983 0.1657260639694961 0 -0.084742563178951485 0.15922574422532609 0 -0.089956478385260899 0.16811851343374709 0 -0.080023232193096983 0.1657260639694961 0 -0.081293191825158789 0.17801619480298669 0 -0.080023232193096983 0.1657260639694961 0 -0.084742563178951485 0.15922574422532609 0 -0.074930767296401246 0.15918989644816289 0 -0.081293191825158789 0.17801619480298669 0 -0.095149617161195271 0.19271405424946009 0 -0.073474196407973841 0.19079473501472519 0 -0.081293191825158789 0.17801619480298669 0 -0.095149617161195271 0.19271405424946009 0 -0.093279947424905002 0.17994671451597891 0 -0.081293191825158789 0.17801619480298669 0 -0.095149617161195271 0.19271405424946009 0 -0.089956478385260899 0.16811851343374709 0 -0.093279947424905002 0.17994671451597891 0 -0.081293191825158789 0.17801619480298669 0 -0.064604308801312821 0.18244611143699499 0 -0.069549912031587807 0.17131438064227461 0 -0.073474196407973841 0.19079473501472519 0 -0.081293191825158789 0.17801619480298669 0 -0.069549912031587807 0.17131438064227461 0 -0.073474196407973841 0.19079473501472519 0 -0.069549912031587807 0.17131438064227461 0 -0.073474196407973841 0.19079473501472519 0 -0.064604308801312821 0.18244611143699499 0 -0.069549912031587807 0.17131438064227461 0 -0.062041409668937363 0.1723934095439342 0 -0.084742563178951485 0.15922574422532609 0 -0.074930767296401246 0.15918989644816289 0 -0.074588176879671189 0.15080810715310269 0 -0.080023232193096983 0.1657260639694961 0 -0.074930767296401246 0.15918989644816289 0 -0.06743676648912228 0.16331833535651319 0 -0.081293191825158789 0.17801619480298669 0 -0.069549912031587807 0.17131438064227461 0 -0.06743676648912228 0.16331833535651319 0 -0.080023232193096983 0.1657260639694961 0 -0.081293191825158789 0.17801619480298669 0 -0.06743676648912228 0.16331833535651319 0 -0.081293191825158789 0.17801619480298669 0 -0.06743676648912228 0.16331833535651319 0 -0.069549912031587807 0.17131438064227461 0 -0.062031688412593149 0.16441565219234799 0 -0.062041409668937363 0.1723934095439342 0 -0.069549912031587807 0.17131438064227461 0 -0.06743676648912228 0.16331833535651319 0 -0.062031688412593149 0.16441565219234799 0 -0.06743676648912228 0.16331833535651319 0 -0.06725389334219653 0.15771987894696021 0 -0.062031688412593149 0.16441565219234799 0 -0.074930767296401246 0.15918989644816289 0 -0.06743676648912228 0.16331833535651319 0 -0.06725389334219653 0.15771987894696021 0 -0.081978849477511453 0.1384377215961772 0 -0.05728206763319247 0.1508674035846734 0 -0.06725389334219653 0.15771987894696021 0 -0.074588176879671189 0.15080810715310269 0 -0.05728206763319247 0.1508674035846734 0 -0.074588176879671189 0.15080810715310269 0 -0.081978849477511453 0.1384377215961772 0 -0.05728206763319247 0.1508674035846734 0 -0.081978849477511453 0.1384377215961772 0 -0.06070043620975589 0.134524720015781 0 -0.05728206763319247 0.1508674035846734 0 -0.074930767296401246 0.15918989644816289 0 -0.06725389334219653 0.15771987894696021 0 -0.074588176879671189 0.15080810715310269 0 -0.071786582042575819 0.1280585334591178 0 -0.081978849477511453 0.1384377215961772 0 -0.08034823769671974 0.121089655777625 0 -0.071786582042575819 0.1280585334591178 0 -0.081978849477511453 0.1384377215961772 0 -0.06070043620975589 0.134524720015781 0 -0.071786582042575819 0.1280585334591178 0 -0.06070043620975589 0.134524720015781 0 -0.06411880478631618 0.11818203644688791 0 -0.081978849477511453 0.1384377215961772 0 -0.08034823769671974 0.121089655777625 0 -0.096577670607123245 0.1239972751083621 0 -0.1008242758955458 0.1385116675773613 0 -0.094582816169344081 0.14500609667275041 0 -0.081978849477511453 0.1384377215961772 0 -0.094582816169344081 0.14500609667275041 0 -0.081978849477511453 0.1384377215961772 0 -0.0854808471676783 0.14892295327365951 0 -0.094422293866394627 0.1556947047027778 0 -0.084742563178951485 0.15922574422532609 0 -0.0854808471676783 0.14892295327365951 0 -0.094422293866394627 0.1556947047027778 0 -0.094582816169344081 0.14500609667275041 0 -0.0854808471676783 0.14892295327365951 0 -0.084742563178951485 0.15922574422532609 0 -0.074588176879671189 0.15080810715310269 0 -0.0854808471676783 0.14892295327365951 0 -0.074588176879671189 0.15080810715310269 0 -0.081978849477511453 0.1384377215961772 0 -0.0854808471676783 0.14892295327365951 0 -0.1045487088169635 0.24438495162540061 0 -0.11455994162881621 0.23631135170566109 0 -0.098826177075254387 0.23394696074010041 0 -0.10005120432924321 0.25626016583208688 0 -0.094679029848152713 0.24609146959404629 0 -0.1045487088169635 0.24438495162540061 0 -0.094679029848152713 0.24609146959404629 0 -0.1045487088169635 0.24438495162540061 0 -0.098826177075254387 0.23394696074010041 0 -0.116744543106582 0.25728181003509248 0 -0.1045487088169635 0.24438495162540061 0 -0.11455994162881621 0.23631135170566109 0 -0.116744543106582 0.25728181003509248 0 -0.1327712538659816 0.24971188635390451 0 -0.11455994162881621 0.23631135170566109 0 -0.12594818007053379 0.2253828658525201 0 -0.1327712538659816 0.24971188635390451 0 -0.11455994162881621 0.23631135170566109 0 -0.11455994162881621 0.23631135170566109 0 -0.1144435087069731 0.2232582902708152 0 -0.1063794885369051 0.22193246116811141 0 -0.12594818007053379 0.2253828658525201 0 -0.1144435087069731 0.2232582902708152 0 -0.1108864245916369 0.20940648235696879 0 -0.12594818007053379 0.2253828658525201 0 -0.11455994162881621 0.23631135170566109 0 -0.1144435087069731 0.2232582902708152 0 -0.11455994162881621 0.23631135170566109 0 -0.1063794885369051 0.22193246116811141 0 -0.098826177075254387 0.23394696074010041 0 -0.1063794885369051 0.22193246116811141 0 -0.098826177075254387 0.23394696074010041 0 -0.089950704149474564 0.21660149084549701 0 -0.1063794885369051 0.22193246116811141 0 -0.089950704149474564 0.21660149084549701 0 -0.10053720550511509 0.21148400771379949 0 -0.095149617161195271 0.19271405424946009 0 -0.089950704149474564 0.21660149084549701 0 -0.1063794885369051 0.22193246116811141 0 -0.10053720550511509 0.21148400771379949 0 -0.089950704149474564 0.21660149084549701 0 -0.10053720550511509 0.21148400771379949 0 -0.1108864245916369 0.20940648235696879 0 -0.095149617161195271 0.19271405424946009 0 -0.1063794885369051 0.22193246116811141 0 -0.10053720550511509 0.21148400771379949 0 -0.1108864245916369 0.20940648235696879 0 -0.12594818007053379 0.2253828658525201 0 -0.1190175871807343 0.20067046473278771 0 -0.12594818007053379 0.2253828658525201 0 -0.1108864245916369 0.20940648235696879 0 -0.1190175871807343 0.20067046473278771 0 -0.12594818007053379 0.2253828658525201 0 -0.1108864245916369 0.20940648235696879 0 -0.1144435087069731 0.2232582902708152 0 -0.1063794885369051 0.22193246116811141 0 -0.1108864245916369 0.20940648235696879 0 -0.1120869942909358 0.17595806361305491 0 -0.1190175871807343 0.20067046473278771 0 -0.1108864245916369 0.20940648235696879 0 -0.1190175871807343 0.20067046473278771 0 -0.10682171669235439 0.1942096232944058 0 -0.1120869942909358 0.17595806361305491 0 -0.1190175871807343 0.20067046473278771 0 -0.10682171669235439 0.1942096232944058 0 -0.1108864245916369 0.20940648235696879 0 -0.095149617161195271 0.19271405424946009 0 -0.1108864245916369 0.20940648235696879 0 -0.10682171669235439 0.1942096232944058 0 -0.095149617161195271 0.19271405424946009 0 -0.1120869942909358 0.17595806361305491 0 -0.10682171669235439 0.1942096232944058 0 -0.095149617161195271 0.19271405424946009 0 -0.095149617161195271 0.19271405424946009 0 -0.077398480784349299 0.2102750893871779 0 -0.095149617161195271 0.19271405424946009 0 -0.073474196407973841 0.19079473501472519 0 -0.077398480784349299 0.2102750893871779 0 -0.095149617161195271 0.19271405424946009 0 -0.077398480784349299 0.2102750893871779 0 -0.087241526055590657 0.20514135106535239 0 -0.073474196407973841 0.19079473501472519 0 -0.077398480784349299 0.2102750893871779 0 -0.073474196407973841 0.19079473501472519 0 -0.077398480784349299 0.2102750893871779 0 -0.068984895145132993 0.20348567813270921 0 -0.064604308801312821 0.18244611143699499 0 -0.073474196407973841 0.19079473501472519 0 -0.062951628171730722 0.19451437844324071 0 -0.073474196407973841 0.19079473501472519 0 -0.062951628171730722 0.19451437844324071 0 -0.068984895145132993 0.20348567813270921 0 -0.062951628171730722 0.19451437844324071 0 -0.068984895145132993 0.20348567813270921 0 -0.057478398324341332 0.20606456403591589 0 -0.068984895145132993 0.20348567813270921 0 -0.075683327299925024 0.21197187487555791 0 -0.057478398324341332 0.20606456403591589 0 -0.075683327299925024 0.21197187487555791 0 -0.060700713784132942 0.2267940359372384 0 -0.057478398324341332 0.20606456403591589 0 -0.075683327299925024 0.21197187487555791 0 -0.057478398324341332 0.20606456403591589 0 -0.077398480784349299 0.2102750893871779 0 -0.068984895145132993 0.20348567813270921 0 -0.075683327299925024 0.21197187487555791 0 -0.075683327299925024 0.21197187487555791 0 -0.077884159070199604 0.2126860219832131 0 -0.060700713784132942 0.2267940359372384 0 -0.075683327299925024 0.21197187487555791 0 -0.077884159070199604 0.2126860219832131 0 -0.077398480784349299 0.2102750893871779 0 -0.075683327299925024 0.21197187487555791 0 -0.077884159070199604 0.2126860219832131 0 -0.077398480784349299 0.2102750893871779 0 -0.077884159070199604 0.2126860219832131 0 -0.077398480784349299 0.2102750893871779 0 -0.075683327299925024 0.21197187487555791 0 -0.077884159070199604 0.2126860219832131 0 -0.089950704149474564 0.21660149084549701 0 -0.077884159070199604 0.2126860219832131 0 -0.087241526055590657 0.20514135106535239 0 -0.089950704149474564 0.21660149084549701 0 -0.095149617161195271 0.19271405424946009 0 -0.087241526055590657 0.20514135106535239 0 -0.089950704149474564 0.21660149084549701 0 -0.095149617161195271 0.19271405424946009 0 -0.089950704149474564 0.21660149084549701 0 -0.077398480784349299 0.2102750893871779 0 -0.077884159070199604 0.2126860219832131 0 -0.087241526055590657 0.20514135106535239 0 -0.077884159070199604 0.2126860219832131 0 -0.083666647235009842 0.24139059785004849 0 -0.089950704149474564 0.21660149084549701 0 -0.083666647235009842 0.24139059785004849 0 -0.077884159070199604 0.2126860219832131 0 -0.089950704149474564 0.21660149084549701 0 -0.083666647235009842 0.24139059785004849 0 -0.098826177075254387 0.23394696074010041 0 -0.089950704149474564 0.21660149084549701 0 -0.083666647235009842 0.24139059785004849 0 -0.077884159070199604 0.2126860219832131 0 -0.083666647235009842 0.24139059785004849 0 -0.060700713784132942 0.2267940359372384 0 -0.075683327299925024 0.21197187487555791 0 -0.060700713784132942 0.2267940359372384 0 -0.064077212627390134 0.24851538469076631 0 -0.083666647235009842 0.24139059785004849 0 -0.060700713784132942 0.2267940359372384 0 -0.086302411784292182 0.25447467192259482 0 -0.083666647235009842 0.24139059785004849 0 -0.094679029848152713 0.24609146959404629 0 -0.098826177075254387 0.23394696074010041 0 -0.083666647235009842 0.24139059785004849 0 -0.086302411784292182 0.25447467192259482 0 -0.094679029848152713 0.24609146959404629 0 -0.083666647235009842 0.24139059785004849 0 -0.03068766995985707 0.25286978792993342 0 -0.034335222642673788 0.23481172099035691 0 -0.046578861792199937 0.24361118962503389 0 -0.034335222642673788 0.23481172099035691 0 -0.046578861792199937 0.24361118962503389 0 -0.045510089746351297 0.2289623102588538 0 -0.064077212627390134 0.24851538469076631 0 -0.046578861792199937 0.24361118962503389 0 -0.055802081643016588 0.23164020743468811 0 -0.064077212627390134 0.24851538469076631 0 -0.055802081643016588 0.23164020743468811 0 -0.060700713784132942 0.2267940359372384 0 -0.064077212627390134 0.24851538469076631 0 -0.060700713784132942 0.2267940359372384 0 -0.046578861792199937 0.24361118962503389 0 -0.055802081643016588 0.23164020743468811 0 -0.045510089746351297 0.2289623102588538 0 -0.055802081643016588 0.23164020743468811 0 -0.053252725762674542 0.2222055350902031 0 -0.045510089746351297 0.2289623102588538 0 -0.055802081643016588 0.23164020743468811 0 -0.060700713784132942 0.2267940359372384 0 -0.053252725762674542 0.2222055350902031 0 -0.055802081643016588 0.23164020743468811 0 -0.060700713784132942 0.2267940359372384 0 -0.053252725762674542 0.2222055350902031 0 -0.045510089746351297 0.2289623102588538 0 -0.046772345315528908 0.21756655778431969 0 -0.045510089746351297 0.2289623102588538 0 -0.036443083940353373 0.22210497005765251 0 -0.046772345315528908 0.21756655778431969 0 -0.034335222642673788 0.23481172099035691 0 -0.045510089746351297 0.2289623102588538 0 -0.036443083940353373 0.22210497005765251 0 -0.034335222642673788 0.23481172099035691 0 -0.036443083940353373 0.22210497005765251 0 -0.024866254401544021 0.22078734426404351 0 -0.036443083940353373 0.22210497005765251 0 -0.046772345315528908 0.21756655778431969 0 -0.031637039445344017 0.19767931081015269 0 -0.046772345315528908 0.21756655778431969 0 -0.057478398324341332 0.20606456403591589 0 -0.031637039445344017 0.19767931081015269 0 -0.060700713784132942 0.2267940359372384 0 -0.053252725762674542 0.2222055350902031 0 -0.057478398324341332 0.20606456403591589 0 -0.060700713784132942 0.2267940359372384 0 -0.057478398324341332 0.20606456403591589 0 -0.053252725762674542 0.2222055350902031 0 -0.046772345315528908 0.21756655778431969 0 -0.057478398324341332 0.20606456403591589 0 -0.062951628171730722 0.19451437844324071 0 -0.057478398324341332 0.20606456403591589 0 -0.054948738746262903 0.1897910154656581 0 -0.057478398324341332 0.20606456403591589 0 -0.054948738746262903 0.1897910154656581 0 -0.031637039445344017 0.19767931081015269 0 -0.057478398324341332 0.20606456403591589 0 -0.054948738746262903 0.1897910154656581 0 -0.054948738746262903 0.1897910154656581 0 -0.031637039445344017 0.19767931081015269 0 -0.039999697082172873 0.18418677263352329 0 -0.057478398324341332 0.20606456403591589 0 -0.031637039445344017 0.19767931081015269 0 -0.031637039445344017 0.19767931081015269 0 -0.0057956805663459468 0.1892940575843915 0 -0.031637039445344017 0.19767931081015269 0 -0.0057956805663459468 0.1892940575843915 0 -0.024775833668462071 0.17590936267321361 0 -0.031637039445344017 0.19767931081015269 0 -0.0057956805663459468 0.1892940575843915 0 -0.01019634689217482 0.20814994011246479 0 -0.0057956805663459468 0.1892940575843915 0 -0.01019634689217482 0.20814994011246479 0 0.0090806704795409685 0.20996839310177981 0 -0.01019634689217482 0.20814994011246479 0 0.00014186162909880781 0.2338185852574263 0 0.0090806704795409685 0.20996839310177981 0 -0.036443083940353373 0.22210497005765251 0 -0.031637039445344017 0.19767931081015269 0 -0.024866254401544021 0.22078734426404351 0 -0.031637039445344017 0.19767931081015269 0 -0.01019634689217482 0.20814994011246479 0 -0.024866254401544021 0.22078734426404351 0 -0.034335222642673788 0.23481172099035691 0 -0.024866254401544021 0.22078734426404351 0 -0.01991034591062427 0.239405390953495 0 -0.024866254401544021 0.22078734426404351 0 0.00014186162909880781 0.2338185852574263 0 -0.024866254401544021 0.22078734426404351 0 -0.01991034591062427 0.239405390953495 0 0.00014186162909880781 0.2338185852574263 0 -0.01019634689217482 0.20814994011246479 0 -0.024866254401544021 0.22078734426404351 0 0.00014186162909880781 0.2338185852574263 0 -0.0098044441781452579 0.25473951632571468 0 0.00014186162909880781 0.2338185852574263 0 0.0073806355134042019 0.25529449578482938 0 -0.0098044441781452579 0.25473951632571468 0 -0.01991034591062427 0.239405390953495 0 0.00014186162909880781 0.2338185852574263 0 -0.03068766995985707 0.25286978792993342 0 -0.034335222642673788 0.23481172099035691 0 -0.01991034591062427 0.239405390953495 0 -0.03068766995985707 0.25286978792993342 0 -0.0098044441781452579 0.25473951632571468 0 -0.01991034591062427 0.239405390953495 0 -0.045513089216113363 0.1481501368583191 0 -0.039963318838929777 0.1583549670989208 0 -0.028048700007850699 0.14601834090005769 0 -0.045513089216113363 0.1481501368583191 0 -0.037584816749385713 0.12707105787504261 0 -0.028048700007850699 0.14601834090005769 0 -0.037584816749385713 0.12707105787504261 0 -0.028048700007850699 0.14601834090005769 0 -0.045513089216113363 0.1481501368583191 0 -0.037584816749385713 0.12707105787504261 0 -0.045513089216113363 0.1481501368583191 0 -0.037584816749385713 0.12707105787504261 0 -0.049753839012929922 0.13582205838018921 0 -0.037584816749385713 0.12707105787504261 0 -0.049753839012929922 0.13582205838018921 0 -0.051208231868337763 0.1260313133231428 0 -0.049753839012929922 0.13582205838018921 0 -0.06070043620975589 0.134524720015781 0 -0.052276118599972977 0.1457036522838337 0 -0.051208231868337763 0.1260313133231428 0 -0.06070043620975589 0.134524720015781 0 -0.06411880478631618 0.11818203644688791 0 -0.06070043620975589 0.134524720015781 0 -0.06411880478631618 0.11818203644688791 0 -0.049753839012929922 0.13582205838018921 0 -0.051208231868337763 0.1260313133231428 0 -0.06070043620975589 0.134524720015781 0 -0.06070043620975589 0.134524720015781 0 -0.052276118599972977 0.1457036522838337 0 -0.05728206763319247 0.1508674035846734 0 -0.06070043620975589 0.134524720015781 0 -0.05728206763319247 0.1508674035846734 0 -0.045513089216113363 0.1481501368583191 0 -0.049753839012929922 0.13582205838018921 0 -0.052276118599972977 0.1457036522838337 0 -0.045513089216113363 0.1481501368583191 0 -0.052276118599972977 0.1457036522838337 0 -0.053440893212920608 0.15280063427064891 0 -0.052276118599972977 0.1457036522838337 0 -0.053440893212920608 0.15280063427064891 0 -0.05728206763319247 0.1508674035846734 0 -0.053440893212920608 0.15280063427064891 0 -0.05728206763319247 0.1508674035846734 0 -0.05728206763319247 0.1508674035846734 0 -0.062031688412593149 0.16441565219234799 0 -0.053441361682841117 0.16922921584159559 0 -0.053440893212920608 0.15280063427064891 0 -0.05728206763319247 0.1508674035846734 0 -0.053441361682841117 0.16922921584159559 0 -0.045513089216113363 0.1481501368583191 0 -0.053440893212920608 0.15280063427064891 0 -0.053441361682841117 0.16922921584159559 0 -0.045513089216113363 0.1481501368583191 0 -0.053441361682841117 0.16922921584159559 0 -0.05728206763319247 0.1508674035846734 0 -0.053441361682841117 0.16922921584159559 0 -0.06725389334219653 0.15771987894696021 0 -0.05728206763319247 0.1508674035846734 0 -0.062031688412593149 0.16441565219234799 0 -0.062031688412593149 0.16441565219234799 0 -0.053441361682841117 0.16922921584159559 0 -0.062041409668937363 0.1723934095439342 0 -0.053441361682841117 0.16922921584159559 0 -0.047633738945979477 0.17108968717192211 0 -0.039963318838929777 0.1583549670989208 0 -0.052991971448818453 0.17137768000779441 0 -0.053441361682841117 0.16922921584159559 0 -0.047633738945979477 0.17108968717192211 0 -0.052991971448818453 0.17137768000779441 0 -0.053441361682841117 0.16922921584159559 0 -0.054948738746262903 0.1897910154656581 0 -0.052419079168185397 0.17351746689540021 0 -0.046888846475854867 0.17837904804597579 0 -0.062951628171730722 0.19451437844324071 0 -0.054948738746262903 0.1897910154656581 0 -0.052419079168185397 0.17351746689540021 0 -0.062951628171730722 0.19451437844324071 0 -0.052991971448818453 0.17137768000779441 0 -0.052419079168185397 0.17351746689540021 0 -0.064604308801312821 0.18244611143699499 0 -0.062951628171730722 0.19451437844324071 0 -0.053441361682841117 0.16922921584159559 0 -0.062951628171730722 0.19451437844324071 0 -0.052991971448818453 0.17137768000779441 0 -0.053441361682841117 0.16922921584159559 0 -0.054948738746262903 0.1897910154656581 0 -0.052419079168185397 0.17351746689540021 0 -0.062951628171730722 0.19451437844324071 0 -0.053441361682841117 0.16922921584159559 0 -0.064604308801312821 0.18244611143699499 0 -0.053441361682841117 0.16922921584159559 0 -0.062041409668937363 0.1723934095439342 0 -0.052991971448818453 0.17137768000779441 0 -0.047633738945979477 0.17108968717192211 0 -0.052419079168185397 0.17351746689540021 0 -0.047633738945979477 0.17108968717192211 0 -0.052419079168185397 0.17351746689540021 0 -0.046888846475854867 0.17837904804597579 0 -0.054948738746262903 0.1897910154656581 0 -0.046888846475854867 0.17837904804597579 0 -0.039999697082172873 0.18418677263352329 0 -0.031637039445344017 0.19767931081015269 0 -0.039999697082172873 0.18418677263352329 0 -0.024775833668462071 0.17590936267321361 0 -0.046888846475854867 0.17837904804597579 0 -0.039999697082172873 0.18418677263352329 0 -0.039442978436673673 0.17331029806337539 0 -0.047633738945979477 0.17108968717192211 0 -0.046888846475854867 0.17837904804597579 0 -0.039442978436673673 0.17331029806337539 0 -0.039442978436673673 0.17331029806337539 0 -0.032139483942643897 0.16694135859911591 0 -0.024775833668462071 0.17590936267321361 0 -0.039999697082172873 0.18418677263352329 0 -0.039442978436673673 0.17331029806337539 0 -0.024775833668462071 0.17590936267321361 0 -0.045513089216113363 0.1481501368583191 0 -0.053441361682841117 0.16922921584159559 0 -0.039963318838929777 0.1583549670989208 0 -0.039963318838929777 0.1583549670989208 0 -0.032139483942643897 0.16694135859911591 0 -0.02343924065842673 0.15869802647678349 0 -0.047633738945979477 0.17108968717192211 0 -0.039442978436673673 0.17331029806337539 0 -0.039963318838929777 0.1583549670989208 0 -0.039442978436673673 0.17331029806337539 0 -0.039963318838929777 0.1583549670989208 0 -0.032139483942643897 0.16694135859911591 0 -0.032139483942643897 0.16694135859911591 0 -0.02343924065842673 0.15869802647678349 0 -0.024775833668462071 0.17590936267321361 0 -0.02343924065842673 0.15869802647678349 0 -0.024775833668462071 0.17590936267321361 0 -0.0048034666842798916 0.1614245706846468 0 -0.0057956805663459468 0.1892940575843915 0 -0.024775833668462071 0.17590936267321361 0 -0.0048034666842798916 0.1614245706846468 0 -0.0048034666842798916 0.1614245706846468 0 -0.01090464080839405 0.14353955890474629 0 0.011098566836083609 0.13484946890849181 0 -0.02343924065842673 0.15869802647678349 0 -0.0048034666842798916 0.1614245706846468 0 -0.01090464080839405 0.14353955890474629 0 -0.039963318838929777 0.1583549670989208 0 -0.02343924065842673 0.15869802647678349 0 -0.028048700007850699 0.14601834090005769 0 -0.02343924065842673 0.15869802647678349 0 -0.01090464080839405 0.14353955890474629 0 -0.028048700007850699 0.14601834090005769 0 -0.037584816749385713 0.12707105787504261 0 -0.0187932077553963 0.1304023687453105 0 -0.02482114599867602 0.1199028763409456 0 -0.01090464080839405 0.14353955890474629 0 -0.028048700007850699 0.14601834090005769 0 -0.0187932077553963 0.1304023687453105 0 -0.037584816749385713 0.12707105787504261 0 -0.028048700007850699 0.14601834090005769 0 -0.0187932077553963 0.1304023687453105 0 -0.0064436606074630637 0.13109611639504981 0 -0.007175360702145514 0.1155930690216506 0 0.011098566836083609 0.13484946890849181 0 -0.01090464080839405 0.14353955890474629 0 -0.0064436606074630637 0.13109611639504981 0 0.011098566836083609 0.13484946890849181 0 -0.0187932077553963 0.1304023687453105 0 -0.0064436606074630637 0.13109611639504981 0 -0.007175360702145514 0.1155930690216506 0 -0.01090464080839405 0.14353955890474629 0 -0.0187932077553963 0.1304023687453105 0 -0.0064436606074630637 0.13109611639504981 0 -0.007175360702145514 0.1155930690216506 0 -0.0040088977147468936 0.097024336429998151 0 -0.013655752966245171 0.094180689311720855 0 -0.007175360702145514 0.1155930690216506 0 -0.0040088977147468936 0.097024336429998151 0 0.0025937760044158291 0.1064596481343341 0 -0.007175360702145514 0.1155930690216506 0 -0.013655752966245171 0.094180689311720855 0 -0.02544928824037461 0.096336669134809427 0 -0.029459919491476121 0.1011230655410132 0 -0.021580178673492881 0.1105609364200745 0 -0.037915498494119543 0.10215930426450601 0 -0.007175360702145514 0.1155930690216506 0 -0.02544928824037461 0.096336669134809427 0 -0.007175360702145514 0.1155930690216506 0 -0.02544928824037461 0.096336669134809427 0 -0.0241566231860777 0.1021061234229471 0 -0.02544928824037461 0.096336669134809427 0 -0.029459919491476121 0.1011230655410132 0 -0.035034026511796899 0.0954599165668297 0 -0.02544928824037461 0.096336669134809427 0 -0.029459919491476121 0.1011230655410132 0 -0.0241566231860777 0.1021061234229471 0 -0.02544928824037461 0.096336669134809427 0 -0.0241566231860777 0.1021061234229471 0 -0.029459919491476121 0.1011230655410132 0 -0.0241566231860777 0.1021061234229471 0 -0.021580178673492881 0.1105609364200745 0 -0.02482114599867602 0.1199028763409456 0 -0.021580178673492881 0.1105609364200745 0 -0.032585978911933711 0.11378053360982859 0 -0.007175360702145514 0.1155930690216506 0 -0.0241566231860777 0.1021061234229471 0 -0.021580178673492881 0.1105609364200745 0 -0.0187932077553963 0.1304023687453105 0 -0.007175360702145514 0.1155930690216506 0 -0.02482114599867602 0.1199028763409456 0 -0.007175360702145514 0.1155930690216506 0 -0.02482114599867602 0.1199028763409456 0 -0.021580178673492881 0.1105609364200745 0 -0.01109578586274463 0.07592966442077155 0 -0.01963881101933795 0.057650575484614511 0 -0.0089029190745683329 0.062319161291970238 0 -0.0031702267477386531 0.067180855403790804 0 -0.01109578586274463 0.07592966442077155 0 0.0065236609159091173 0.071671444604676282 0 -0.0031702267477386531 0.067180855403790804 0 -0.0089029190745683329 0.062319161291970238 0 0.00079413703044923156 0.058803151297745167 0 -0.0031702267477386531 0.067180855403790804 0 -0.01109578586274463 0.07592966442077155 0 -0.0089029190745683329 0.062319161291970238 0 -0.0040088977147468936 0.097024336429998151 0 -0.01109578586274463 0.07592966442077155 0 0.011643404763696401 0.092949868607662828 0 -0.0040088977147468936 0.097024336429998151 0 -0.013655752966245171 0.094180689311720855 0 -0.01109578586274463 0.07592966442077155 0 -0.013655752966245171 0.094180689311720855 0 -0.01109578586274463 0.07592966442077155 0 -0.02054943231121421 0.086019707551374502 0 -0.02544928824037461 0.096336669134809427 0 -0.02054943231121421 0.086019707551374502 0 -0.029642132364781061 0.077623064684345475 0 -0.02544928824037461 0.096336669134809427 0 -0.029642132364781061 0.077623064684345475 0 -0.036673455980692451 0.084509049595857907 0 -0.01109578586274463 0.07592966442077155 0 -0.02054943231121421 0.086019707551374502 0 -0.029642132364781061 0.077623064684345475 0 -0.02544928824037461 0.096336669134809427 0 -0.029642132364781061 0.077623064684345475 0 -0.013655752966245171 0.094180689311720855 0 -0.02544928824037461 0.096336669134809427 0 -0.02054943231121421 0.086019707551374502 0 -0.02544928824037461 0.096336669134809427 0 -0.036673455980692451 0.084509049595857907 0 -0.01109578586274463 0.07592966442077155 0 -0.033834976489186493 0.058909460233881362 0 -0.01109578586274463 0.07592966442077155 0 -0.029642132364781061 0.077623064684345475 0 -0.033834976489186493 0.058909460233881362 0 -0.01109578586274463 0.07592966442077155 0 -0.033834976489186493 0.058909460233881362 0 -0.01963881101933795 0.057650575484614511 0 -0.029642132364781061 0.077623064684345475 0 -0.033834976489186493 0.058909460233881362 0 -0.029642132364781061 0.077623064684345475 0 -0.036732086871232597 0.066761861307427367 0 -0.033834976489186493 0.058909460233881362 0 -0.042969512877196837 0.063698159366550891 0 -0.036732086871232597 0.066761861307427367 0 -0.038306240480512441 0.072768089837317376 0 -0.042969512877196837 0.063698159366550891 0 -0.038306240480512441 0.072768089837317376 0 -0.046136221960229658 0.070392563092827029 0 -0.042969512877196837 0.063698159366550891 0 -0.036732086871232597 0.066761861307427367 0 -0.038907572144486188 0.060810532415041758 0 -0.029642132364781061 0.077623064684345475 0 -0.036732086871232597 0.066761861307427367 0 -0.038306240480512441 0.072768089837317376 0 -0.038306240480512441 0.072768089837317376 0 -0.046136221960229658 0.070392563092827029 0 -0.043586306971417507 0.077534071189344175 0 -0.038306240480512441 0.072768089837317376 0 -0.043586306971417507 0.077534071189344175 0 -0.036673455980692451 0.084509049595857907 0 -0.043586306971417507 0.077534071189344175 0 -0.036673455980692451 0.084509049595857907 0 -0.046978765451358998 0.084182386091036676 0 -0.029642132364781061 0.077623064684345475 0 -0.038306240480512441 0.072768089837317376 0 -0.036673455980692451 0.084509049595857907 0 -0.02544928824037461 0.096336669134809427 0 -0.036673455980692451 0.084509049595857907 0 -0.035034026511796899 0.0954599165668297 0 -0.036673455980692451 0.084509049595857907 0 -0.044089979176562301 0.093675305350012283 0 -0.035034026511796899 0.0954599165668297 0 -0.036673455980692451 0.084509049595857907 0 -0.044089979176562301 0.093675305350012283 0 -0.046978765451358998 0.084182386091036676 0 -0.044089979176562301 0.093675305350012283 0 -0.057144835734191893 0.088207312209507505 0 -0.046978765451358998 0.084182386091036676 0 -0.057144835734191893 0.088207312209507505 0 -0.046978765451358998 0.084182386091036676 0 -0.053399249393930842 0.076986192110461482 0 -0.043586306971417507 0.077534071189344175 0 -0.046978765451358998 0.084182386091036676 0 -0.053399249393930842 0.076986192110461482 0 -0.053399249393930842 0.076986192110461482 0 -0.070406408885084593 0.061857930521202607 0 -0.059815066152941319 0.061788281472960463 0 -0.057144835734191893 0.088207312209507505 0 -0.053399249393930842 0.076986192110461482 0 -0.070406408885084593 0.061857930521202607 0 -0.046136221960229658 0.070392563092827029 0 -0.043586306971417507 0.077534071189344175 0 -0.053399249393930842 0.076986192110461482 0 -0.046136221960229658 0.070392563092827029 0 -0.053399249393930842 0.076986192110461482 0 -0.05257832837313995 0.068950164376806455 0 -0.053399249393930842 0.076986192110461482 0 -0.05257832837313995 0.068950164376806455 0 -0.059815066152941319 0.061788281472960463 0 -0.05257832837313995 0.068950164376806455 0 -0.052166049838275927 0.062310195238599278 0 -0.059815066152941319 0.061788281472960463 0 -0.046136221960229658 0.070392563092827029 0 -0.05257832837313995 0.068950164376806455 0 -0.052166049838275927 0.062310195238599278 0 -0.042969512877196837 0.063698159366550891 0 -0.046136221960229658 0.070392563092827029 0 -0.052166049838275927 0.062310195238599278 0 -0.021580178673492881 0.1105609364200745 0 -0.043883262583300407 0.11455669389781301 0 -0.021580178673492881 0.1105609364200745 0 -0.043883262583300407 0.11455669389781301 0 -0.032585978911933711 0.11378053360982859 0 -0.037584816749385713 0.12707105787504261 0 -0.051208231868337763 0.1260313133231428 0 -0.043883262583300407 0.11455669389781301 0 -0.037584816749385713 0.12707105787504261 0 -0.043883262583300407 0.11455669389781301 0 -0.037584816749385713 0.12707105787504261 0 -0.032585978911933711 0.11378053360982859 0 -0.037584816749385713 0.12707105787504261 0 -0.043883262583300407 0.11455669389781301 0 -0.032585978911933711 0.11378053360982859 0 -0.037584816749385713 0.12707105787504261 0 -0.02482114599867602 0.1199028763409456 0 -0.032585978911933711 0.11378053360982859 0 -0.021580178673492881 0.1105609364200745 0 -0.043883262583300407 0.11455669389781301 0 -0.037915498494119543 0.10215930426450601 0 -0.044089979176562301 0.093675305350012283 0 -0.043883262583300407 0.11455669389781301 0 -0.037915498494119543 0.10215930426450601 0 -0.044089979176562301 0.093675305350012283 0 -0.037915498494119543 0.10215930426450601 0 -0.035034026511796899 0.0954599165668297 0 -0.029459919491476121 0.1011230655410132 0 -0.037915498494119543 0.10215930426450601 0 -0.035034026511796899 0.0954599165668297 0 -0.044089979176562301 0.093675305350012283 0 -0.057144835734191893 0.088207312209507505 0 -0.043883262583300407 0.11455669389781301 0 -0.057144835734191893 0.088207312209507505 0 -0.043883262583300407 0.11455669389781301 0 -0.057144835734191893 0.088207312209507505 0 -0.043883262583300407 0.11455669389781301 0 -0.056175626513735713 0.104231459755559 0 -0.056175626513735713 0.104231459755559 0 -0.061770267295803899 0.1005995653590098 0 -0.06411880478631618 0.11818203644688791 0 -0.057144835734191893 0.088207312209507505 0 -0.056175626513735713 0.104231459755559 0 -0.061770267295803899 0.1005995653590098 0 -0.043883262583300407 0.11455669389781301 0 -0.06411880478631618 0.11818203644688791 0 -0.051208231868337763 0.1260313133231428 0 -0.043883262583300407 0.11455669389781301 0 -0.06411880478631618 0.11818203644688791 0 -0.043883262583300407 0.11455669389781301 0 -0.056175626513735713 0.104231459755559 0 -0.06411880478631618 0.11818203644688791 0 -0.071786582042575819 0.1280585334591178 0 -0.06411880478631618 0.11818203644688791 0 -0.08034823769671974 0.121089655777625 0 -0.06411880478631618 0.11818203644688791 0 -0.08034823769671974 0.121089655777625 0 -0.075381325115152609 0.106019298300689 0 -0.06411880478631618 0.11818203644688791 0 -0.08034823769671974 0.121089655777625 0 -0.08034823769671974 0.121089655777625 0 -0.096577670607123245 0.1239972751083621 0 -0.08034823769671974 0.121089655777625 0 -0.092569001324263961 0.1124699312803344 0 -0.096577670607123245 0.1239972751083621 0 -0.08034823769671974 0.121089655777625 0 -0.083967771981719092 0.1102844810624737 0 -0.092569001324263961 0.1124699312803344 0 -0.08034823769671974 0.121089655777625 0 -0.083967771981719092 0.1102844810624737 0 -0.075381325115152609 0.106019298300689 0 -0.087572523790740042 0.10155903889124659 0 -0.082071947835387321 0.094412947715560025 0 -0.09233625647768956 0.091651488650119919 0 -0.083967771981719092 0.1102844810624737 0 -0.092569001324263961 0.1124699312803344 0 -0.087572523790740042 0.10155903889124659 0 -0.083967771981719092 0.1102844810624737 0 -0.087572523790740042 0.10155903889124659 0 -0.075381325115152609 0.106019298300689 0 -0.087572523790740042 0.10155903889124659 0 -0.082071947835387321 0.094412947715560025 0 -0.075381325115152609 0.106019298300689 0 -0.06411880478631618 0.11818203644688791 0 -0.06964180214897181 0.091777453024084701 0 -0.082071947835387321 0.094412947715560025 0 -0.075381325115152609 0.106019298300689 0 -0.06964180214897181 0.091777453024084701 0 -0.06411880478631618 0.11818203644688791 0 -0.075381325115152609 0.106019298300689 0 -0.06964180214897181 0.091777453024084701 0 -0.061770267295803899 0.1005995653590098 0 -0.06411880478631618 0.11818203644688791 0 -0.06964180214897181 0.091777453024084701 0 -0.057144835734191893 0.088207312209507505 0 -0.061770267295803899 0.1005995653590098 0 -0.06964180214897181 0.091777453024084701 0 -0.06964180214897181 0.091777453024084701 0 -0.075164799511626648 0.065372869601281192 0 -0.057144835734191893 0.088207312209507505 0 -0.06964180214897181 0.091777453024084701 0 -0.068089461569968729 0.076803891339018993 0 -0.06964180214897181 0.091777453024084701 0 -0.068089461569968729 0.076803891339018993 0 -0.075164799511626648 0.065372869601281192 0 -0.057144835734191893 0.088207312209507505 0 -0.068089461569968729 0.076803891339018993 0 -0.070406408885084593 0.061857930521202607 0 -0.06964180214897181 0.091777453024084701 0 -0.075164799511626648 0.065372869601281192 0 -0.08073347634316104 0.073575546631144614 0 -0.057144835734191893 0.088207312209507505 0 -0.070406408885084593 0.061857930521202607 0 -0.068089461569968729 0.076803891339018993 0 -0.075164799511626648 0.065372869601281192 0 -0.070406408885084593 0.061857930521202607 0 -0.089923560922876636 0.068178037636278263 0 -0.08578586832533959 0.082170087930996366 0 -0.103675070998617 0.083967309240415983 0 -0.08073347634316104 0.073575546631144614 0 -0.089923560922876636 0.068178037636278263 0 -0.083186879645449088 0.059889597987781727 0 -0.075164799511626648 0.065372869601281192 0 -0.08073347634316104 0.073575546631144614 0 -0.083186879645449088 0.059889597987781727 0 -0.08073347634316104 0.073575546631144614 0 -0.089923560922876636 0.068178037636278263 0 -0.08578586832533959 0.082170087930996366 0 -0.06964180214897181 0.091777453024084701 0 -0.08073347634316104 0.073575546631144614 0 -0.08578586832533959 0.082170087930996366 0 -0.082071947835387321 0.094412947715560025 0 -0.06964180214897181 0.091777453024084701 0 -0.08578586832533959 0.082170087930996366 0 -0.082071947835387321 0.094412947715560025 0 -0.08578586832533959 0.082170087930996366 0 -0.09233625647768956 0.091651488650119919 0 -0.09233625647768956 0.091651488650119919 0 -0.103675070998617 0.083967309240415983 0 -0.10429444750695741 0.1014886749251958 0 -0.08578586832533959 0.082170087930996366 0 -0.09233625647768956 0.091651488650119919 0 -0.103675070998617 0.083967309240415983 0 -0.103675070998617 0.083967309240415983 0 -0.1198812247159142 0.095002477965890675 0 -0.10429444750695741 0.1014886749251958 0 -0.089923560922876636 0.068178037636278263 0 -0.103675070998617 0.083967309240415983 0 -0.10785209906359081 0.065371441260914459 0 -0.12533951967512769 0.078274991835817334 0 -0.103675070998617 0.083967309240415983 0 -0.10785209906359081 0.065371441260914459 0 -0.12533951967512769 0.078274991835817334 0 -0.10785209906359081 0.065371441260914459 0 -0.1248745965026067 0.059896082918310993 0 -0.12533951967512769 0.078274991835817334 0 -0.103675070998617 0.083967309240415983 0 -0.1198812247159142 0.095002477965890675 0 -0.13137241316615089 0.11357835761918721 0 -0.1198812247159142 0.095002477965890675 0 -0.10429444750695741 0.1014886749251958 0 -0.13137241316615089 0.11357835761918721 0 -0.12687331202938101 0.13192737382428379 0 -0.10667563132183119 0.1260080396076822 0 -0.13137241316615089 0.11357835761918721 0 -0.10667563132183119 0.1260080396076822 0 -0.1062978327852654 0.11550845570815239 0 -0.13137241316615089 0.11357835761918721 0 -0.1062978327852654 0.11550845570815239 0 -0.10429444750695741 0.1014886749251958 0 -0.13137241316615089 0.11357835761918721 0 -0.10667563132183119 0.1260080396076822 0 -0.10667563132183119 0.1260080396076822 0 -0.1062978327852654 0.11550845570815239 0 -0.096577670607123245 0.1239972751083621 0 -0.092569001324263961 0.1124699312803344 0 -0.1062978327852654 0.11550845570815239 0 -0.096577670607123245 0.1239972751083621 0 -0.092569001324263961 0.1124699312803344 0 -0.1062978327852654 0.11550845570815239 0 -0.10429444750695741 0.1014886749251958 0 -0.092569001324263961 0.1124699312803344 0 -0.087572523790740042 0.10155903889124659 0 -0.10429444750695741 0.1014886749251958 0 -0.087572523790740042 0.10155903889124659 0 -0.09233625647768956 0.091651488650119919 0 -0.10429444750695741 0.1014886749251958 0 -0.10370969952600501 0.019997694726909911 0 -0.098524362227562057 0.035744340183224317 0 -0.08645931971955316 0.02325136753113614 0 -0.10370969952600501 0.019997694726909911 0 -0.08645931971955316 0.02325136753113614 0 -0.091682611010439896 0.0063963380850077774 0 -0.10370969952600501 0.019997694726909911 0 -0.1180188049733784 0.030804183747700629 0 -0.098524362227562057 0.035744340183224317 0 -0.10370969952600501 0.019997694726909911 0 -0.10877227824827949 0.0075748546359299482 0 -0.091682611010439896 0.0063963380850077774 0 -0.1029392013539359 -0.0085751277431150782 0 -0.10877227824827949 0.0075748546359299482 0 -0.091682611010439896 0.0063963380850077774 0 -0.10370969952600501 0.019997694726909911 0 -0.10877227824827949 0.0075748546359299482 0 -0.11835839359799651 0.016938700943610479 0 -0.1029392013539359 -0.0085751277431150782 0 -0.12735709500343681 0.004015926865657337 0 -0.10877227824827949 0.0075748546359299482 0 -0.12735709500343681 0.004015926865657337 0 -0.10877227824827949 0.0075748546359299482 0 -0.11835839359799651 0.016938700943610479 0 -0.1339340902388827 0.022300844741854581 0 -0.11835839359799651 0.016938700943610479 0 -0.1180188049733784 0.030804183747700629 0 -0.10370969952600501 0.019997694726909911 0 -0.11835839359799651 0.016938700943610479 0 -0.1180188049733784 0.030804183747700629 0 -0.1180188049733784 0.030804183747700629 0 -0.1128457876968547 0.048091259023394652 0 -0.098524362227562057 0.035744340183224317 0 -0.13626681081840961 0.042829268155062397 0 -0.1128457876968547 0.048091259023394652 0 -0.13626681081840961 0.042829268155062397 0 -0.1180188049733784 0.030804183747700629 0 -0.1128457876968547 0.048091259023394652 0 -0.13626681081840961 0.042829268155062397 0 -0.1128457876968547 0.048091259023394652 0 -0.1248745965026067 0.059896082918310993 0 -0.10785209906359081 0.065371441260914459 0 -0.1128457876968547 0.048091259023394652 0 -0.1248745965026067 0.059896082918310993 0 -0.1128457876968547 0.048091259023394652 0 -0.089424764575299687 0.053353249891726941 0 -0.089923560922876636 0.068178037636278263 0 -0.10785209906359081 0.065371441260914459 0 -0.089424764575299687 0.053353249891726941 0 -0.10785209906359081 0.065371441260914459 0 -0.1128457876968547 0.048091259023394652 0 -0.089424764575299687 0.053353249891726941 0 -0.1128457876968547 0.048091259023394652 0 -0.098524362227562057 0.035744340183224317 0 -0.089424764575299687 0.053353249891726941 0 -0.098524362227562057 0.035744340183224317 0 -0.080687796874281473 0.038968286178477703 0 -0.08645931971955316 0.02325136753113614 0 -0.098524362227562057 0.035744340183224317 0 -0.080687796874281473 0.038968286178477703 0 -0.089424764575299687 0.053353249891726941 0 -0.080687796874281473 0.038968286178477703 0 -0.089424764575299687 0.053353249891726941 0 -0.083186879645449088 0.059889597987781727 0 -0.075164799511626648 0.065372869601281192 0 -0.080687796874281473 0.038968286178477703 0 -0.083186879645449088 0.059889597987781727 0 -0.089923560922876636 0.068178037636278263 0 -0.089424764575299687 0.053353249891726941 0 -0.083186879645449088 0.059889597987781727 0 -0.075164799511626648 0.065372869601281192 0 -0.080687796874281473 0.038968286178477703 0 -0.071303082845968715 0.053347503409362687 0 -0.075164799511626648 0.065372869601281192 0 -0.080687796874281473 0.038968286178477703 0 -0.075164799511626648 0.065372869601281192 0 -0.070406408885084593 0.061857930521202607 0 -0.071303082845968715 0.053347503409362687 0 -0.071303082845968715 0.053347503409362687 0 -0.064856269609628314 0.055117702274744398 0 -0.065400139349222536 0.045420728471107522 0 -0.070406408885084593 0.061857930521202607 0 -0.071303082845968715 0.053347503409362687 0 -0.064856269609628314 0.055117702274744398 0 -0.070406408885084593 0.061857930521202607 0 -0.064856269609628314 0.055117702274744398 0 -0.059815066152941319 0.061788281472960463 0 -0.080687796874281473 0.038968286178477703 0 -0.065400139349222536 0.045420728471107522 0 -0.063264057366842208 0.031259222641012697 0 -0.080687796874281473 0.038968286178477703 0 -0.063264057366842208 0.031259222641012697 0 -0.073460039823911166 0.024685388153665749 0 -0.080687796874281473 0.038968286178477703 0 -0.071303082845968715 0.053347503409362687 0 -0.065400139349222536 0.045420728471107522 0 -0.063264057366842208 0.031259222641012697 0 -0.073460039823911166 0.024685388153665749 0 -0.061440697951084179 0.017621877449499421 0 -0.073460039823911166 0.024685388153665749 0 -0.076769634387976737 0.01135693610240161 0 -0.061440697951084179 0.017621877449499421 0 -0.080687796874281473 0.038968286178477703 0 -0.073460039823911166 0.024685388153665749 0 -0.08645931971955316 0.02325136753113614 0 -0.073460039823911166 0.024685388153665749 0 -0.08645931971955316 0.02325136753113614 0 -0.076769634387976737 0.01135693610240161 0 -0.08645931971955316 0.02325136753113614 0 -0.091682611010439896 0.0063963380850077774 0 -0.076769634387976737 0.01135693610240161 0 -0.091682611010439896 0.0063963380850077774 0 -0.078933949510919491 0.00072378658541613432 0 -0.076769634387976737 0.01135693610240161 0 -0.086097875964997059 -0.0058870606910941042 0 -0.091682611010439896 0.0063963380850077774 0 -0.078933949510919491 0.00072378658541613432 0 -0.078933949510919491 0.00072378658541613432 0 -0.076769634387976737 0.01135693610240161 0 -0.068462160169621672 0.0025537029525893409 0 -0.068462160169621672 0.0025537029525893409 0 -0.057836245250817257 0.0062936453779614283 0 -0.061440697951084179 0.017621877449499421 0 -0.076769634387976737 0.01135693610240161 0 -0.068462160169621672 0.0025537029525893409 0 -0.061440697951084179 0.017621877449499421 0 -0.057836245250817257 0.0062936453779614283 0 -0.061440697951084179 0.017621877449499421 0 -0.042678209040760022 0.019440128409622049 0 -0.057836245250817257 0.0062936453779614283 0 -0.042678209040760022 0.019440128409622049 0 -0.044352522143416888 0.0050416822031405977 0 -0.063264057366842208 0.031259222641012697 0 -0.042678209040760022 0.019440128409622049 0 -0.05195897498334151 0.039592758420259042 0 -0.063264057366842208 0.031259222641012697 0 -0.061440697951084179 0.017621877449499421 0 -0.042678209040760022 0.019440128409622049 0 -0.042678209040760022 0.019440128409622049 0 -0.038256592764973757 0.039174794321751791 0 -0.042678209040760022 0.019440128409622049 0 -0.038256592764973757 0.039174794321751791 0 -0.027511467414372541 0.03001296694831072 0 -0.042678209040760022 0.019440128409622049 0 -0.028180513839983729 0.018098474401369 0 -0.027511467414372541 0.03001296694831072 0 -0.042678209040760022 0.019440128409622049 0 -0.032770024037711037 0.0084985419153508525 0 -0.028180513839983729 0.018098474401369 0 -0.032770024037711037 0.0084985419153508525 0 -0.03614709390981162 0.0015378833132510439 0 -0.044352522143416888 0.0050416822031405977 0 -0.029539197120254941 -0.00051038393964639519 0 -0.032770024037711037 0.0084985419153508525 0 -0.03614709390981162 0.0015378833132510439 0 -0.042678209040760022 0.019440128409622049 0 -0.032770024037711037 0.0084985419153508525 0 -0.044352522143416888 0.0050416822031405977 0 -0.042969512877196837 0.063698159366550891 0 -0.047980875447113908 0.056604040506729722 0 -0.052166049838275927 0.062310195238599278 0 -0.047980875447113908 0.056604040506729722 0 -0.052166049838275927 0.062310195238599278 0 -0.055804220694704088 0.051985500715961808 0 -0.064856269609628314 0.055117702274744398 0 -0.059815066152941319 0.061788281472960463 0 -0.055804220694704088 0.051985500715961808 0 -0.052166049838275927 0.062310195238599278 0 -0.059815066152941319 0.061788281472960463 0 -0.055804220694704088 0.051985500715961808 0 -0.064856269609628314 0.055117702274744398 0 -0.065400139349222536 0.045420728471107522 0 -0.055804220694704088 0.051985500715961808 0 -0.047980875447113908 0.056604040506729722 0 -0.055804220694704088 0.051985500715961808 0 -0.046350630683546529 0.050276175962098407 0 -0.055804220694704088 0.051985500715961808 0 -0.05195897498334151 0.039592758420259042 0 -0.046350630683546529 0.050276175962098407 0 -0.065400139349222536 0.045420728471107522 0 -0.055804220694704088 0.051985500715961808 0 -0.05195897498334151 0.039592758420259042 0 -0.065400139349222536 0.045420728471107522 0 -0.063264057366842208 0.031259222641012697 0 -0.05195897498334151 0.039592758420259042 0 -0.042678209040760022 0.019440128409622049 0 -0.05195897498334151 0.039592758420259042 0 -0.038256592764973757 0.039174794321751791 0 -0.05195897498334151 0.039592758420259042 0 -0.038256592764973757 0.039174794321751791 0 -0.046350630683546529 0.050276175962098407 0 -0.038256592764973757 0.039174794321751791 0 -0.033834976489186493 0.058909460233881362 0 -0.038256592764973757 0.039174794321751791 0 -0.038513274033404883 0.055407770980391423 0 -0.033834976489186493 0.058909460233881362 0 -0.038256592764973757 0.039174794321751791 0 -0.046350630683546529 0.050276175962098407 0 -0.038513274033404883 0.055407770980391423 0 -0.038256592764973757 0.039174794321751791 0 -0.033834976489186493 0.058909460233881362 0 -0.02879531395286377 0.050132256585483953 0 -0.046350630683546529 0.050276175962098407 0 -0.038513274033404883 0.055407770980391423 0 -0.042914570065583427 0.057802329486214707 0 -0.036732086871232597 0.066761861307427367 0 -0.033834976489186493 0.058909460233881362 0 -0.038907572144486188 0.060810532415041758 0 -0.038513274033404883 0.055407770980391423 0 -0.033834976489186493 0.058909460233881362 0 -0.038513274033404883 0.055407770980391423 0 -0.033834976489186493 0.058909460233881362 0 -0.038907572144486188 0.060810532415041758 0 -0.042969512877196837 0.063698159366550891 0 -0.038907572144486188 0.060810532415041758 0 -0.042914570065583427 0.057802329486214707 0 -0.038513274033404883 0.055407770980391423 0 -0.038907572144486188 0.060810532415041758 0 -0.042914570065583427 0.057802329486214707 0 -0.047980875447113908 0.056604040506729722 0 -0.046350630683546529 0.050276175962098407 0 -0.042914570065583427 0.057802329486214707 0 -0.042969512877196837 0.063698159366550891 0 -0.047980875447113908 0.056604040506729722 0 -0.042914570065583427 0.057802329486214707 0 -0.033834976489186493 0.058909460233881362 0 -0.01963881101933795 0.057650575484614511 0 -0.02879531395286377 0.050132256585483953 0 -0.01963881101933795 0.057650575484614511 0 -0.02879531395286377 0.050132256585483953 0 -0.02345087553795689 0.044794196301688183 0 -0.01963881101933795 0.057650575484614511 0 -0.02345087553795689 0.044794196301688183 0 -0.012175026131353321 0.050402421608982242 0 -0.02345087553795689 0.044794196301688183 0 -0.014695186475719159 0.0359408453649432 0 -0.012175026131353321 0.050402421608982242 0 -0.038256592764973757 0.039174794321751791 0 -0.02879531395286377 0.050132256585483953 0 -0.02345087553795689 0.044794196301688183 0 -0.038256592764973757 0.039174794321751791 0 -0.02345087553795689 0.044794196301688183 0 -0.027511467414372541 0.03001296694831072 0 -0.02345087553795689 0.044794196301688183 0 -0.014695186475719159 0.0359408453649432 0 -0.027511467414372541 0.03001296694831072 0 -0.014695186475719159 0.0359408453649432 0 -0.0023331541944977092 0.045311556235899067 0 0.00074240361007229996 0.028778475488121531 0 -0.014695186475719159 0.0359408453649432 0 -0.0023331541944977092 0.045311556235899067 0 -0.012175026131353321 0.050402421608982242 0 -0.0023331541944977092 0.045311556235899067 0 -0.012175026131353321 0.050402421608982242 0 0.00079413703044923156 0.058803151297745167 0 -0.012175026131353321 0.050402421608982242 0 -0.0089029190745683329 0.062319161291970238 0 0.00079413703044923156 0.058803151297745167 0 -0.01963881101933795 0.057650575484614511 0 -0.012175026131353321 0.050402421608982242 0 -0.0089029190745683329 0.062319161291970238 0 -0.021996997598287969 0.010981086364913869 0 -0.02112675760807068 0.0030512678310729521 0 -0.0083058662928979787 0.012079608812324741 0 -0.021996997598287969 0.010981086364913869 0 -0.01661374249992489 0.02103319015209278 0 -0.0083058662928979787 0.012079608812324741 0 -0.021996997598287969 0.010981086364913869 0 -0.02112675760807068 0.0030512678310729521 0 -0.02631380729169577 0.0053104208567875946 0 -0.029539197120254941 -0.00051038393964639519 0 -0.02112675760807068 0.0030512678310729521 0 -0.02631380729169577 0.0053104208567875946 0 -0.029539197120254941 -0.00051038393964639519 0 -0.032770024037711037 0.0084985419153508525 0 -0.02631380729169577 0.0053104208567875946 0 -0.032770024037711037 0.0084985419153508525 0 -0.021996997598287969 0.010981086364913869 0 -0.02631380729169577 0.0053104208567875946 0 -0.032770024037711037 0.0084985419153508525 0 -0.021996997598287969 0.010981086364913869 0 -0.028180513839983729 0.018098474401369 0 -0.028180513839983729 0.018098474401369 0 -0.027511467414372541 0.03001296694831072 0 -0.01661374249992489 0.02103319015209278 0 -0.014695186475719159 0.0359408453649432 0 -0.027511467414372541 0.03001296694831072 0 -0.01661374249992489 0.02103319015209278 0 -0.021996997598287969 0.010981086364913869 0 -0.028180513839983729 0.018098474401369 0 -0.01661374249992489 0.02103319015209278 0 -0.01661374249992489 0.02103319015209278 0 0.00074240361007229996 0.028778475488121531 0 -0.0083058662928979787 0.012079608812324741 0 0.0060294939382754481 0.01286563290641534 0 0.00074240361007229996 0.028778475488121531 0 -0.014695186475719159 0.0359408453649432 0 -0.01661374249992489 0.02103319015209278 0 0.00074240361007229996 0.028778475488121531 0 -0.0083058662928979787 0.012079608812324741 0 0.00074240361007229996 0.028778475488121531 0 -0.01661374249992489 0.02103319015209278 0 -0.0083058662928979787 0.012079608812324741 0 0.00074240361007229996 0.028778475488121531 0 -0.0072764121498596901 -0.0036325873431357339 0 -0.0083058662928979787 0.012079608812324741 0 0.0012074066645448821 -0.00065723147797176382 0 -0.0072764121498596901 -0.0036325873431357339 0 -0.013607688627124061 -0.00178224205395049 0 -0.0083058662928979787 0.012079608812324741 0 -0.017354136195868258 -0.0046192578634720229 0 -0.0083058662928979787 0.012079608812324741 0 -0.017354136195868258 -0.0046192578634720229 0 -0.013607688627124061 -0.00178224205395049 0 -0.0083058662928979787 0.012079608812324741 0 -0.0083058662928979787 0.012079608812324741 0 0.0060294939382754481 0.01286563290641534 0 0.0012074066645448821 -0.00065723147797176382 0 -0.017354136195868258 -0.0046192578634720229 0 -0.02112675760807068 0.0030512678310729521 0 -0.0083058662928979787 0.012079608812324741 0 0.0060294939382754481 0.01286563290641534 0 0.0012074066645448821 -0.00065723147797176382 0 0.01265631079038235 -0.01012693536007268 0 0.0060294939382754481 0.01286563290641534 0 0.020311547060899309 0.014329649790385431 0 0.01265631079038235 -0.01012693536007268 0 0.00074240361007229996 0.028778475488121531 0 0.015746539320639769 0.024046632949657649 0 0.022626785018342459 0.038544513255683338 0 0.0060294939382754481 0.01286563290641534 0 0.00074240361007229996 0.028778475488121531 0 0.015746539320639769 0.024046632949657649 0 0.0060294939382754481 0.01286563290641534 0 0.015746539320639769 0.024046632949657649 0 0.020311547060899309 0.014329649790385431 0 0.015746539320639769 0.024046632949657649 0 0.029022466975609298 0.02571489330768258 0 0.020311547060899309 0.014329649790385431 0 0.015746539320639769 0.024046632949657649 0 0.029022466975609298 0.02571489330768258 0 0.022626785018342459 0.038544513255683338 0 0.020311547060899309 0.014329649790385431 0 0.034885408484197772 0.0062912350017927032 0 0.01265631079038235 -0.01012693536007268 0 0.029022466975609298 0.02571489330768258 0 0.020311547060899309 0.014329649790385431 0 0.034885408484197772 0.0062912350017927032 0 0.00079413703044923156 0.058803151297745167 0 0.01366790099406239 0.052632887419703241 0 0.0065236609159091173 0.071671444604676282 0 -0.0023331541944977092 0.045311556235899067 0 0.00079413703044923156 0.058803151297745167 0 0.01366790099406239 0.052632887419703241 0 0.00074240361007229996 0.028778475488121531 0 0.01366790099406239 0.052632887419703241 0 0.022626785018342459 0.038544513255683338 0 0.00074240361007229996 0.028778475488121531 0 0.022626785018342459 0.038544513255683338 0 -0.0023331541944977092 0.045311556235899067 0 0.00074240361007229996 0.028778475488121531 0 0.01366790099406239 0.052632887419703241 0 0.00074240361007229996 0.028778475488121531 0 0.01366790099406239 0.052632887419703241 0 0.029022466975609298 0.02571489330768258 0 0.022626785018342459 0.038544513255683338 0 0.037630953216902623 0.033668105561091018 0 0.01366790099406239 0.052632887419703241 0 0.022626785018342459 0.038544513255683338 0 0.025434983742737761 0.055249644843112657 0 0.022626785018342459 0.038544513255683338 0 0.025434983742737761 0.055249644843112657 0 0.034616451435572633 0.051242168749322393 0 0.025434983742737761 0.055249644843112657 0 0.034062632092931817 0.061255223706808547 0 0.02703491536905472 0.067401080742933134 0 0.01366790099406239 0.052632887419703241 0 0.025434983742737761 0.055249644843112657 0 0.02703491536905472 0.067401080742933134 0 0.034616451435572633 0.051242168749322393 0 0.044511166426612833 0.04831055102324476 0 0.060132464308973767 0.062986029428160187 0 0.034616451435572633 0.051242168749322393 0 0.060132464308973767 0.062986029428160187 0 0.044258496001147778 0.063884183083345675 0 0.034062632092931817 0.061255223706808547 0 0.034616451435572633 0.051242168749322393 0 0.044258496001147778 0.063884183083345675 0 0.025434983742737761 0.055249644843112657 0 0.034062632092931817 0.061255223706808547 0 0.034616451435572633 0.051242168749322393 0 0.022626785018342459 0.038544513255683338 0 0.044511166426612833 0.04831055102324476 0 0.022626785018342459 0.038544513255683338 0 0.034616451435572633 0.051242168749322393 0 0.044511166426612833 0.04831055102324476 0 0.022626785018342459 0.038544513255683338 0 0.044511166426612833 0.04831055102324476 0 0.037630953216902623 0.033668105561091018 0 0.044511166426612833 0.04831055102324476 0 0.037630953216902623 0.033668105561091018 0 0.0484135161167236 0.034205204957136963 0 0.0484135161167236 0.034205204957136963 0 0.060669767880595721 0.038134724015348051 0 0.0518117103670514 0.042737821036878322 0 0.0484135161167236 0.034205204957136963 0 0.060669767880595721 0.038134724015348051 0 0.057623658326613529 0.02352368721002385 0 0.060669767880595721 0.038134724015348051 0 0.0518117103670514 0.042737821036878322 0 0.059559274975242667 0.047504887075434543 0 0.044511166426612833 0.04831055102324476 0 0.0518117103670514 0.042737821036878322 0 0.059559274975242667 0.047504887075434543 0 0.044511166426612833 0.04831055102324476 0 0.0484135161167236 0.034205204957136963 0 0.0518117103670514 0.042737821036878322 0 0.044511166426612833 0.04831055102324476 0 0.066395547834883203 0.05807658879080619 0 0.060132464308973767 0.062986029428160187 0 0.034616451435572633 0.051242168749322393 0 0.060132464308973767 0.062986029428160187 0 0.044511166426612833 0.04831055102324476 0 0.066395547834883203 0.05807658879080619 0 0.044511166426612833 0.04831055102324476 0 0.059559274975242667 0.047504887075434543 0 0.066395547834883203 0.05807658879080619 0 0.034885408484197772 0.0062912350017927032 0 0.052968053050369737 0.0090809173488315582 0 0.042517259973231587 -0.011683923625132649 0 0.034885408484197772 0.0062912350017927032 0 0.043580831547224863 0.021565365261707499 0 0.052968053050369737 0.0090809173488315582 0 0.029022466975609298 0.02571489330768258 0 0.034885408484197772 0.0062912350017927032 0 0.043580831547224863 0.021565365261707499 0 0.029022466975609298 0.02571489330768258 0 0.037630953216902623 0.033668105561091018 0 0.043580831547224863 0.021565365261707499 0 0.037630953216902623 0.033668105561091018 0 0.0484135161167236 0.034205204957136963 0 0.043580831547224863 0.021565365261707499 0 0.057623658326613529 0.02352368721002385 0 0.052968053050369737 0.0090809173488315582 0 0.071708216805815503 0.016768608491387289 0 0.043580831547224863 0.021565365261707499 0 0.057623658326613529 0.02352368721002385 0 0.052968053050369737 0.0090809173488315582 0 0.0484135161167236 0.034205204957136963 0 0.043580831547224863 0.021565365261707499 0 0.057623658326613529 0.02352368721002385 0 0.052968053050369737 0.0090809173488315582 0 0.071708216805815503 0.016768608491387289 0 0.067492943165135169 -0.0019794682467893379 0 0.083930998993742512 0.0059737405228527038 0 0.071708216805815503 0.016768608491387289 0 0.067492943165135169 -0.0019794682467893379 0 0.083930998993742512 0.0059737405228527038 0 0.098495163759696414 0.0029673617968291321 0 0.094917995650245529 0.021722354499223519 0 0.083930998993742512 0.0059737405228527038 0 0.071708216805815503 0.016768608491387289 0 0.094917995650245529 0.021722354499223519 0 0.071708216805815503 0.016768608491387289 0 0.07449934060461412 0.03258063005354956 0 0.094917995650245529 0.021722354499223519 0 0.07449934060461412 0.03258063005354956 0 0.087237150257314613 0.037926204838731957 0 0.094917995650245529 0.021722354499223519 0 0.057623658326613529 0.02352368721002385 0 0.071708216805815503 0.016768608491387289 0 0.07449934060461412 0.03258063005354956 0 0.060669767880595721 0.038134724015348051 0 0.057623658326613529 0.02352368721002385 0 0.07449934060461412 0.03258063005354956 0 0.060669767880595721 0.038134724015348051 0 0.069155187538762042 0.045022305850501279 0 0.07449934060461412 0.03258063005354956 0 0.060669767880595721 0.038134724015348051 0 0.059559274975242667 0.047504887075434543 0 0.069155187538762042 0.045022305850501279 0 0.069155187538762042 0.045022305850501279 0 0.07449934060461412 0.03258063005354956 0 0.079692196512252927 0.044953406994506007 0 0.059559274975242667 0.047504887075434543 0 0.069155187538762042 0.045022305850501279 0 0.067326156772233525 0.050603546620565112 0 0.059559274975242667 0.047504887075434543 0 0.066395547834883203 0.05807658879080619 0 0.067326156772233525 0.050603546620565112 0 0.066395547834883203 0.05807658879080619 0 0.067326156772233525 0.050603546620565112 0 0.074194616740046182 0.051810404765518438 0 0.069155187538762042 0.045022305850501279 0 0.067326156772233525 0.050603546620565112 0 0.074194616740046182 0.051810404765518438 0 0.069155187538762042 0.045022305850501279 0 0.074194616740046182 0.051810404765518438 0 0.079692196512252927 0.044953406994506007 0 0.066395547834883203 0.05807658879080619 0 0.074194616740046182 0.051810404765518438 0 0.080343143758095259 0.058335218209008277 0 0.066395547834883203 0.05807658879080619 0 0.080343143758095259 0.058335218209008277 0 0.08827992924315356 0.067842626558367619 0 0.080343143758095259 0.058335218209008277 0 0.083306510346727383 0.05351440315152866 0 0.090416084875221875 0.058235299142909973 0 0.074194616740046182 0.051810404765518438 0 0.083306510346727383 0.05351440315152866 0 0.079692196512252927 0.044953406994506007 0 0.083306510346727383 0.05351440315152866 0 0.089760373586053266 0.048866493307206167 0 0.079692196512252927 0.044953406994506007 0 0.074194616740046182 0.051810404765518438 0 0.080343143758095259 0.058335218209008277 0 0.083306510346727383 0.05351440315152866 0 0.083306510346727383 0.05351440315152866 0 0.089760373586053266 0.048866493307206167 0 0.090416084875221875 0.058235299142909973 0 0.089760373586053266 0.048866493307206167 0 0.090416084875221875 0.058235299142909973 0 0.099395501669828634 0.055681054702382278 0 0.080343143758095259 0.058335218209008277 0 0.090416084875221875 0.058235299142909973 0 0.08827992924315356 0.067842626558367619 0 0.087237150257314613 0.037926204838731957 0 0.098930039005792711 0.04227996871225087 0 0.094917995650245529 0.021722354499223519 0 0.07449934060461412 0.03258063005354956 0 0.079692196512252927 0.044953406994506007 0 0.087237150257314613 0.037926204838731957 0 0.089760373586053266 0.048866493307206167 0 0.079692196512252927 0.044953406994506007 0 0.087237150257314613 0.037926204838731957 0 0.089760373586053266 0.048866493307206167 0 0.087237150257314613 0.037926204838731957 0 0.098930039005792711 0.04227996871225087 0 0.10894092886672049 0.033503019923715648 0 0.098930039005792711 0.04227996871225087 0 0.11550376979223601 0.054551475820320147 0 0.10894092886672049 0.033503019923715648 0 0.098930039005792711 0.04227996871225087 0 0.094917995650245529 0.021722354499223519 0 0.098930039005792711 0.04227996871225087 0 0.099395501669828634 0.055681054702382278 0 0.11550376979223601 0.054551475820320147 0 0.099395501669828634 0.055681054702382278 0 0.11550376979223601 0.054551475820320147 0 0.10561354398445311 0.069921878226714862 0 0.090416084875221875 0.058235299142909973 0 0.099395501669828634 0.055681054702382278 0 0.095618088847860577 0.065038419849084594 0 0.089760373586053266 0.048866493307206167 0 0.098930039005792711 0.04227996871225087 0 0.099395501669828634 0.055681054702382278 0 0.10894092886672049 0.033503019923715648 0 0.11961069471150609 0.02296590295220987 0 0.12977361784467401 0.039215218793308727 0 0.10894092886672049 0.033503019923715648 0 0.11550376979223601 0.054551475820320147 0 0.12977361784467401 0.039215218793308727 0 0.11961069471150609 0.02296590295220987 0 0.1158546052028349 0.0064685721448778594 0 0.094917995650245529 0.021722354499223519 0 0.11961069471150609 0.02296590295220987 0 0.1158546052028349 0.0064685721448778594 0 0.13894824890776639 0.02136224913872127 0 0.1158546052028349 0.0064685721448778594 0 0.098495163759696414 0.0029673617968291321 0 0.094917995650245529 0.021722354499223519 0 0.10894092886672049 0.033503019923715648 0 0.11961069471150609 0.02296590295220987 0 0.094917995650245529 0.021722354499223519 0 0.097728221435088053 0.099184528615223033 0 0.110275064223293 0.10236359857942121 0 0.11116449005577619 0.086473750785835857 0 0.099894961061174667 0.1104201015940532 0 0.11150799601301251 0.1117412241471519 0 0.110275064223293 0.10236359857942121 0 0.097728221435088053 0.099184528615223033 0 0.099894961061174667 0.1104201015940532 0 0.110275064223293 0.10236359857942121 0 0.097728221435088053 0.099184528615223033 0 0.099894961061174667 0.1104201015940532 0 0.084925795867796111 0.1103515185161017 0 0.099894961061174667 0.1104201015940532 0 0.096984900528893664 0.1212489081817222 0 0.084925795867796111 0.1103515185161017 0 0.099894961061174667 0.1104201015940532 0 0.096984900528893664 0.1212489081817222 0 0.10712684862241641 0.1210429748963526 0 0.096984900528893664 0.1212489081817222 0 0.10712684862241641 0.1210429748963526 0 0.10589272808503949 0.13156516273042271 0 0.099894961061174667 0.1104201015940532 0 0.10712684862241641 0.1210429748963526 0 0.11150799601301251 0.1117412241471519 0 0.10712684862241641 0.1210429748963526 0 0.11150799601301251 0.1117412241471519 0 0.1187293914863337 0.1182846474287873 0 0.11150799601301251 0.1117412241471519 0 0.1187293914863337 0.1182846474287873 0 0.1197878353292403 0.1092484053650479 0 0.10712684862241641 0.1210429748963526 0 0.1187293914863337 0.1182846474287873 0 0.114987521205969 0.1268010028982309 0 0.1187293914863337 0.1182846474287873 0 0.12813823657366311 0.12049833089676459 0 0.12624189261331301 0.1140678077034443 0 0.1187293914863337 0.1182846474287873 0 0.12212988809696081 0.1249307776834532 0 0.12813823657366311 0.12049833089676459 0 0.1187293914863337 0.1182846474287873 0 0.12212988809696081 0.1249307776834532 0 0.114987521205969 0.1268010028982309 0 0.1187293914863337 0.1182846474287873 0 0.1197878353292403 0.1092484053650479 0 0.12624189261331301 0.1140678077034443 0 0.1216961693062274 0.1020981758197984 0 0.110275064223293 0.10236359857942121 0 0.11116449005577619 0.086473750785835857 0 0.1197878353292403 0.1092484053650479 0 0.1216961693062274 0.1020981758197984 0 0.1302764983332621 0.10693497851168419 0 0.1216961693062274 0.1020981758197984 0 0.11116449005577619 0.086473750785835857 0 0.13668050292917741 0.098217611464673699 0 0.1197878353292403 0.1092484053650479 0 0.1216961693062274 0.1020981758197984 0 0.110275064223293 0.10236359857942121 0 0.11150799601301251 0.1117412241471519 0 0.1197878353292403 0.1092484053650479 0 0.110275064223293 0.10236359857942121 0 0.11116449005577619 0.086473750785835857 0 0.1207366242219714 0.074251990558816788 0 0.1300820653953097 0.084166932106396392 0 0.11116449005577619 0.086473750785835857 0 0.13668050292917741 0.098217611464673699 0 0.11116449005577619 0.086473750785835857 0 0.1207366242219714 0.074251990558816788 0 0.10561354398445311 0.069921878226714862 0 0.11550376979223601 0.054551475820320147 0 0.1207366242219714 0.074251990558816788 0 0.13255022158949201 0.068763676371196639 0 0.11550376979223601 0.054551475820320147 0 0.1207366242219714 0.074251990558816788 0 0.10561354398445311 0.069921878226714862 0 0.11116449005577619 0.086473750785835857 0 0.10561354398445311 0.069921878226714862 0 0.085648477182374977 0.074729890106998029 0 0.10561354398445311 0.069921878226714862 0 0.095618088847860577 0.065038419849084594 0 0.085648477182374977 0.074729890106998029 0 0.099395501669828634 0.055681054702382278 0 0.10561354398445311 0.069921878226714862 0 0.095618088847860577 0.065038419849084594 0 0.11116449005577619 0.086473750785835857 0 0.085648477182374977 0.074729890106998029 0 0.11116449005577619 0.086473750785835857 0 0.090808031879269946 0.087622927320568048 0 0.085648477182374977 0.074729890106998029 0 0.097728221435088053 0.099184528615223033 0 0.11116449005577619 0.086473750785835857 0 0.090808031879269946 0.087622927320568048 0 0.097728221435088053 0.099184528615223033 0 0.090808031879269946 0.087622927320568048 0 0.080235742217082393 0.093435287859391092 0 0.090808031879269946 0.087622927320568048 0 0.078675001300488379 0.083882301042573534 0 0.085648477182374977 0.074729890106998029 0 0.090808031879269946 0.087622927320568048 0 0.078675001300488379 0.083882301042573534 0 0.080235742217082393 0.093435287859391092 0 0.066395547834883203 0.05807658879080619 0 0.08827992924315356 0.067842626558367619 0 0.085648477182374977 0.074729890106998029 0 0.095618088847860577 0.065038419849084594 0 0.08827992924315356 0.067842626558367619 0 0.085648477182374977 0.074729890106998029 0 0.090416084875221875 0.058235299142909973 0 0.095618088847860577 0.065038419849084594 0 0.08827992924315356 0.067842626558367619 0 0.066395547834883203 0.05807658879080619 0 0.085648477182374977 0.074729890106998029 0 0.060132464308973767 0.062986029428160187 0 0.066395547834883203 0.05807658879080619 0 0.08827992924315356 0.067842626558367619 0 0.085648477182374977 0.074729890106998029 0 0.068637102026180674 0.07792917868559901 0 0.060132464308973767 0.062986029428160187 0 0.085648477182374977 0.074729890106998029 0 0.060132464308973767 0.062986029428160187 0 0.078675001300488379 0.083882301042573534 0 0.085648477182374977 0.074729890106998029 0 0.068637102026180674 0.07792917868559901 0 0.080235742217082393 0.093435287859391092 0 0.069503799956795384 0.087722797055870286 0 0.068523875558259784 0.095111972458496966 0 0.078675001300488379 0.083882301042573534 0 0.080235742217082393 0.093435287859391092 0 0.069503799956795384 0.087722797055870286 0 0.078675001300488379 0.083882301042573534 0 0.068637102026180674 0.07792917868559901 0 0.069503799956795384 0.087722797055870286 0 0.068637102026180674 0.07792917868559901 0 0.069503799956795384 0.087722797055870286 0 0.060111091978902922 0.083782113849914977 0 0.069503799956795384 0.087722797055870286 0 0.06135777996986308 0.093915161513068182 0 0.060111091978902922 0.083782113849914977 0 0.069503799956795384 0.087722797055870286 0 0.068523875558259784 0.095111972458496966 0 0.06135777996986308 0.093915161513068182 0 0.068523875558259784 0.095111972458496966 0 0.071520258741129425 0.10189571548122769 0 0.062413973273008162 0.1018934272394761 0 0.068523875558259784 0.095111972458496966 0 0.062413973273008162 0.1018934272394761 0 0.06135777996986308 0.093915161513068182 0 0.071520258741129425 0.10189571548122769 0 0.072821304814728441 0.1108529925529516 0 0.063718101814298073 0.11016590081819259 0 0.071520258741129425 0.10189571548122769 0 0.063718101814298073 0.11016590081819259 0 0.062413973273008162 0.1018934272394761 0 0.071520258741129425 0.10189571548122769 0 0.084925795867796111 0.1103515185161017 0 0.072821304814728441 0.1108529925529516 0 0.080235742217082393 0.093435287859391092 0 0.068523875558259784 0.095111972458496966 0 0.071520258741129425 0.10189571548122769 0 0.097728221435088053 0.099184528615223033 0 0.080235742217082393 0.093435287859391092 0 0.084925795867796111 0.1103515185161017 0 0.080235742217082393 0.093435287859391092 0 0.071520258741129425 0.10189571548122769 0 0.084925795867796111 0.1103515185161017 0 0.084925795867796111 0.1103515185161017 0 0.074154959480044275 0.1204842858357125 0 0.087075880893963842 0.12621803440601359 0 0.096984900528893664 0.1212489081817222 0 0.084925795867796111 0.1103515185161017 0 0.087075880893963842 0.12621803440601359 0 0.084925795867796111 0.1103515185161017 0 0.074154959480044275 0.1204842858357125 0 0.072821304814728441 0.1108529925529516 0 0.074154959480044275 0.1204842858357125 0 0.072821304814728441 0.1108529925529516 0 0.063718101814298073 0.11016590081819259 0 0.074154959480044275 0.1204842858357125 0 0.063718101814298073 0.11016590081819259 0 0.060124536552058239 0.11864948812996751 0 0.074154959480044275 0.1204842858357125 0 0.060124536552058239 0.11864948812996751 0 0.061109117960118017 0.12720913792676911 0 0.060124536552058239 0.11864948812996751 0 0.052595679859244633 0.1236025024456274 0 0.054913207086597561 0.11271600588853189 0 0.060124536552058239 0.11864948812996751 0 0.052595679859244633 0.1236025024456274 0 0.061109117960118017 0.12720913792676911 0 0.052595679859244633 0.1236025024456274 0 0.054913207086597561 0.11271600588853189 0 0.046771683079868627 0.1089772416004138 0 0.063718101814298073 0.11016590081819259 0 0.060124536552058239 0.11864948812996751 0 0.054913207086597561 0.11271600588853189 0 0.063718101814298073 0.11016590081819259 0 0.062413973273008162 0.1018934272394761 0 0.053620768430252298 0.1031656988462608 0 0.063718101814298073 0.11016590081819259 0 0.054913207086597561 0.11271600588853189 0 0.053620768430252298 0.1031656988462608 0 0.06135777996986308 0.093915161513068182 0 0.053620768430252298 0.1031656988462608 0 0.051535176025136201 0.090416251810209708 0 0.062413973273008162 0.1018934272394761 0 0.06135777996986308 0.093915161513068182 0 0.053620768430252298 0.1031656988462608 0 0.053620768430252298 0.1031656988462608 0 0.042875633238578528 0.09739353282270094 0 0.051535176025136201 0.090416251810209708 0 0.053620768430252298 0.1031656988462608 0 0.046771683079868627 0.1089772416004138 0 0.042875633238578528 0.09739353282270094 0 0.054913207086597561 0.11271600588853189 0 0.053620768430252298 0.1031656988462608 0 0.046771683079868627 0.1089772416004138 0 0.046771683079868627 0.1089772416004138 0 0.042875633238578528 0.09739353282270094 0 0.034382595390138257 0.1099700727945534 0 0.042875633238578528 0.09739353282270094 0 0.034382595390138257 0.1099700727945534 0 0.030708755379597181 0.088685576768743155 0 0.034382595390138257 0.1099700727945534 0 0.030708755379597181 0.088685576768743155 0 0.052595679859244633 0.1236025024456274 0 0.046771683079868627 0.1089772416004138 0 0.034382595390138257 0.1099700727945534 0 0.034382595390138257 0.1099700727945534 0 0.02520709702204247 0.1232263280856261 0 0.037354296692750887 0.12718670835402709 0 0.052595679859244633 0.1236025024456274 0 0.034382595390138257 0.1099700727945534 0 0.037354296692750887 0.12718670835402709 0 0.034382595390138257 0.1099700727945534 0 0.037354296692750887 0.12718670835402709 0 0.052595679859244633 0.1236025024456274 0 0.034382595390138257 0.1099700727945534 0 0.060132464308973767 0.062986029428160187 0 0.051537231586459821 0.0703604747810012 0 0.044258496001147778 0.063884183083345675 0 0.051537231586459821 0.0703604747810012 0 0.045053238281461433 0.071665999821029613 0 0.044258496001147778 0.063884183083345675 0 0.060132464308973767 0.062986029428160187 0 0.058160070023191839 0.074213970699792686 0 0.051537231586459821 0.0703604747810012 0 0.068637102026180674 0.07792917868559901 0 0.060132464308973767 0.062986029428160187 0 0.058160070023191839 0.074213970699792686 0 0.051537231586459821 0.0703604747810012 0 0.049495561811348857 0.078896267932753172 0 0.045053238281461433 0.071665999821029613 0 0.058160070023191839 0.074213970699792686 0 0.051537231586459821 0.0703604747810012 0 0.049495561811348857 0.078896267932753172 0 0.049495561811348857 0.078896267932753172 0 0.051535176025136201 0.090416251810209708 0 0.041750220721871581 0.085344735896560275 0 0.049495561811348857 0.078896267932753172 0 0.060111091978902922 0.083782113849914977 0 0.051535176025136201 0.090416251810209708 0 0.068637102026180674 0.07792917868559901 0 0.058160070023191839 0.074213970699792686 0 0.060111091978902922 0.083782113849914977 0 0.058160070023191839 0.074213970699792686 0 0.049495561811348857 0.078896267932753172 0 0.060111091978902922 0.083782113849914977 0 0.06135777996986308 0.093915161513068182 0 0.060111091978902922 0.083782113849914977 0 0.051535176025136201 0.090416251810209708 0 0.042875633238578528 0.09739353282270094 0 0.051535176025136201 0.090416251810209708 0 0.041750220721871581 0.085344735896560275 0 0.042875633238578528 0.09739353282270094 0 0.041750220721871581 0.085344735896560275 0 0.030708755379597181 0.088685576768743155 0 0.041750220721871581 0.085344735896560275 0 0.037489048909448763 0.07466528487264068 0 0.030708755379597181 0.088685576768743155 0 0.049495561811348857 0.078896267932753172 0 0.041750220721871581 0.085344735896560275 0 0.037489048909448763 0.07466528487264068 0 0.037489048909448763 0.07466528487264068 0 0.02703491536905472 0.067401080742933134 0 0.030708755379597181 0.088685576768743155 0 0.049495561811348857 0.078896267932753172 0 0.045053238281461433 0.071665999821029613 0 0.037489048909448763 0.07466528487264068 0 0.045053238281461433 0.071665999821029613 0 0.037489048909448763 0.07466528487264068 0 0.037579666130808903 0.067774354445351542 0 0.034062632092931817 0.061255223706808547 0 0.037579666130808903 0.067774354445351542 0 0.02703491536905472 0.067401080742933134 0 0.037489048909448763 0.07466528487264068 0 0.037579666130808903 0.067774354445351542 0 0.02703491536905472 0.067401080742933134 0 0.034062632092931817 0.061255223706808547 0 0.037579666130808903 0.067774354445351542 0 0.044258496001147778 0.063884183083345675 0 0.045053238281461433 0.071665999821029613 0 0.037579666130808903 0.067774354445351542 0 0.044258496001147778 0.063884183083345675 0 0.02703491536905472 0.067401080742933134 0 0.030708755379597181 0.088685576768743155 0 0.01366790099406239 0.052632887419703241 0 0.026593398378051959 0.076487299351285121 0 0.01366790099406239 0.052632887419703241 0 0.02703491536905472 0.067401080742933134 0 0.026593398378051959 0.076487299351285121 0 0.02703491536905472 0.067401080742933134 0 0.026593398378051959 0.076487299351285121 0 0.030708755379597181 0.088685576768743155 0 0.01366790099406239 0.052632887419703241 0 0.026593398378051959 0.076487299351285121 0 0.01611389888654503 0.070322973248010373 0 0.026593398378051959 0.076487299351285121 0 0.01611389888654503 0.070322973248010373 0 0.01767063525815666 0.080500261616376856 0 0.01767063525815666 0.080500261616376856 0 0.030708755379597181 0.088685576768743155 0 0.011643404763696401 0.092949868607662828 0 0.026593398378051959 0.076487299351285121 0 0.01767063525815666 0.080500261616376856 0 0.030708755379597181 0.088685576768743155 0 0.01767063525815666 0.080500261616376856 0 0.011643404763696401 0.092949868607662828 0 0.0065236609159091173 0.071671444604676282 0 -0.01109578586274463 0.07592966442077155 0 0.011643404763696401 0.092949868607662828 0 0.0065236609159091173 0.071671444604676282 0 -0.01109578586274463 0.07592966442077155 0 0.011643404763696401 0.092949868607662828 0 0.01366790099406239 0.052632887419703241 0 0.01611389888654503 0.070322973248010373 0 0.0065236609159091173 0.071671444604676282 0 0.01611389888654503 0.070322973248010373 0 0.01767063525815666 0.080500261616376856 0 0.0065236609159091173 0.071671444604676282 0 -0.0031702267477386531 0.067180855403790804 0 0.00079413703044923156 0.058803151297745167 0 0.0065236609159091173 0.071671444604676282 0 0.034382595390138257 0.1099700727945534 0 0.02520709702204247 0.1232263280856261 0 0.01356063639681436 0.11371506303709419 0 0.02520709702204247 0.1232263280856261 0 0.01356063639681436 0.11371506303709419 0 0.011098566836083609 0.13484946890849181 0 0.034382595390138257 0.1099700727945534 0 0.011643404763696401 0.092949868607662828 0 0.01356063639681436 0.11371506303709419 0 0.034382595390138257 0.1099700727945534 0 0.011643404763696401 0.092949868607662828 0 0.034382595390138257 0.1099700727945534 0 0.030708755379597181 0.088685576768743155 0 0.011643404763696401 0.092949868607662828 0 -0.0040088977147468936 0.097024336429998151 0 0.011643404763696401 0.092949868607662828 0 0.0025937760044158291 0.1064596481343341 0 0.011643404763696401 0.092949868607662828 0 0.0025937760044158291 0.1064596481343341 0 0.01356063639681436 0.11371506303709419 0 -0.007175360702145514 0.1155930690216506 0 0.0025937760044158291 0.1064596481343341 0 0.01356063639681436 0.11371506303709419 0 -0.007175360702145514 0.1155930690216506 0 0.01356063639681436 0.11371506303709419 0 0.011098566836083609 0.13484946890849181 0 -0.007175360702145514 0.1155930690216506 0 0.011098566836083609 0.13484946890849181 0 0.02520709702204247 0.1232263280856261 0 0.011098566836083609 0.13484946890849181 0 0.028759663239593541 0.13617761485890201 0 0.02520709702204247 0.1232263280856261 0 0.028759663239593541 0.13617761485890201 0 0.037354296692750887 0.12718670835402709 0 0.011098566836083609 0.13484946890849181 0 0.029372494374312729 0.15410586879533311 0 0.013538337341477229 0.1636201682865295 0 0.011098566836083609 0.13484946890849181 0 0.028759663239593541 0.13617761485890201 0 0.029372494374312729 0.15410586879533311 0 0.011098566836083609 0.13484946890849181 0 0.029372494374312729 0.15410586879533311 0 -0.0048034666842798916 0.1614245706846468 0 0.011098566836083609 0.13484946890849181 0 0.013538337341477229 0.1636201682865295 0 -0.0057956805663459468 0.1892940575843915 0 -0.0048034666842798916 0.1614245706846468 0 0.013538337341477229 0.1636201682865295 0 -0.0057956805663459468 0.1892940575843915 0 0.013538337341477229 0.1636201682865295 0 0.020045678312652242 0.18090880435863019 0 -0.0057956805663459468 0.1892940575843915 0 0.020045678312652242 0.18090880435863019 0 0.029372494374312729 0.15410586879533311 0 0.013538337341477229 0.1636201682865295 0 0.020045678312652242 0.18090880435863019 0 0.029372494374312729 0.15410586879533311 0 0.045887037191650451 0.17252355113286891 0 0.04813315871709322 0.1541455757588851 0 0.029372494374312729 0.15410586879533311 0 0.020045678312652242 0.18090880435863019 0 0.045887037191650451 0.17252355113286891 0 0.020045678312652242 0.18090880435863019 0 0.045887037191650451 0.17252355113286891 0 0.020045678312652242 0.18090880435863019 0 0.045887037191650451 0.17252355113286891 0 0.041991232206495782 0.1919910870650737 0 0.045887037191650451 0.17252355113286891 0 0.060802696405823108 0.1787365445376432 0 0.041991232206495782 0.1919910870650737 0 0.045887037191650451 0.17252355113286891 0 0.071728396070648653 0.1641382979071076 0 0.045887037191650451 0.17252355113286891 0 0.060802696405823108 0.1787365445376432 0 0.071728396070648653 0.1641382979071076 0 0.045887037191650451 0.17252355113286891 0 0.059657673584757237 0.15824269734654939 0 0.04813315871709322 0.1541455757588851 0 0.045887037191650451 0.17252355113286891 0 0.059657673584757237 0.15824269734654939 0 0.071728396070648653 0.1641382979071076 0 0.059657673584757237 0.15824269734654939 0 0.04813315871709322 0.1541455757588851 0 0.060329678829100349 0.1474246815113264 0 0.04813315871709322 0.1541455757588851 0 0.050215372913412007 0.1458935282758238 0 0.060329678829100349 0.1474246815113264 0 0.050215372913412007 0.1458935282758238 0 0.060329678829100349 0.1474246815113264 0 0.052072656112092337 0.13760051191958289 0 0.050215372913412007 0.1458935282758238 0 0.052072656112092337 0.13760051191958289 0 0.040325997995362128 0.14440334391350099 0 0.060329678829100349 0.1474246815113264 0 0.062159468211553673 0.13737243366585769 0 0.052072656112092337 0.13760051191958289 0 0.062159468211553673 0.13737243366585769 0 0.054733357378362921 0.13083888414419281 0 0.052072656112092337 0.13760051191958289 0 0.052595679859244633 0.1236025024456274 0 0.054733357378362921 0.13083888414419281 0 0.061109117960118017 0.12720913792676911 0 0.062159468211553673 0.13737243366585769 0 0.054733357378362921 0.13083888414419281 0 0.061109117960118017 0.12720913792676911 0 0.052595679859244633 0.1236025024456274 0 0.054733357378362921 0.13083888414419281 0 0.046346625143134958 0.1312929959830558 0 0.054733357378362921 0.13083888414419281 0 0.052072656112092337 0.13760051191958289 0 0.046346625143134958 0.1312929959830558 0 0.037354296692750887 0.12718670835402709 0 0.040325997995362128 0.14440334391350099 0 0.046346625143134958 0.1312929959830558 0 0.037354296692750887 0.12718670835402709 0 0.040325997995362128 0.14440334391350099 0 0.028759663239593541 0.13617761485890201 0 0.037354296692750887 0.12718670835402709 0 0.040325997995362128 0.14440334391350099 0 0.052072656112092337 0.13760051191958289 0 0.046346625143134958 0.1312929959830558 0 0.040325997995362128 0.14440334391350099 0 0.052595679859244633 0.1236025024456274 0 0.046346625143134958 0.1312929959830558 0 0.037354296692750887 0.12718670835402709 0 0.028759663239593541 0.13617761485890201 0 0.029372494374312729 0.15410586879533311 0 0.040325997995362128 0.14440334391350099 0 0.029372494374312729 0.15410586879533311 0 0.04813315871709322 0.1541455757588851 0 0.040325997995362128 0.14440334391350099 0 0.04813315871709322 0.1541455757588851 0 0.050215372913412007 0.1458935282758238 0 0.040325997995362128 0.14440334391350099 0 0.025149977659741599 0.24684982625080901 0 0.00014186162909880781 0.2338185852574263 0 0.02177620002751179 0.22559840920251981 0 0.025149977659741599 0.24684982625080901 0 0.00014186162909880781 0.2338185852574263 0 0.025149977659741599 0.24684982625080901 0 0.00014186162909880781 0.2338185852574263 0 0.0073806355134042019 0.25529449578482938 0 0.00014186162909880781 0.2338185852574263 0 0.02177620002751179 0.22559840920251981 0 0.0090806704795409685 0.20996839310177981 0 0.025149977659741599 0.24684982625080901 0 0.02177620002751179 0.22559840920251981 0 0.039960986899899173 0.22780444499479169 0 0.02177620002751179 0.22559840920251981 0 0.0090806704795409685 0.20996839310177981 0 0.034547503469278373 0.20955079640779209 0 0.0090806704795409685 0.20996839310177981 0 0.02162293693503077 0.1981024475624624 0 0.034547503469278373 0.20955079640779209 0 -0.0057956805663459468 0.1892940575843915 0 0.0090806704795409685 0.20996839310177981 0 0.02162293693503077 0.1981024475624624 0 -0.0057956805663459468 0.1892940575843915 0 0.020045678312652242 0.18090880435863019 0 0.02162293693503077 0.1981024475624624 0 0.020045678312652242 0.18090880435863019 0 0.02162293693503077 0.1981024475624624 0 0.041991232206495782 0.1919910870650737 0 0.02162293693503077 0.1981024475624624 0 0.041991232206495782 0.1919910870650737 0 0.034547503469278373 0.20955079640779209 0 0.041991232206495782 0.1919910870650737 0 0.05849467095877426 0.1965416733816682 0 0.050764695011206777 0.20916964222725651 0 0.060802696405823108 0.1787365445376432 0 0.041991232206495782 0.1919910870650737 0 0.05849467095877426 0.1965416733816682 0 0.050764695011206777 0.20916964222725651 0 0.066981886553135278 0.20878848804672309 0 0.05849467095877426 0.1965416733816682 0 0.050764695011206777 0.20916964222725651 0 0.066981886553135278 0.20878848804672309 0 0.050764695011206777 0.20916964222725651 0 0.061514006406540499 0.23071042489022231 0 0.066981886553135278 0.20878848804672309 0 0.050764695011206777 0.20916964222725651 0 0.034547503469278373 0.20955079640779209 0 0.039960986899899173 0.22780444499479169 0 0.050764695011206777 0.20916964222725651 0 0.034547503469278373 0.20955079640779209 0 0.041991232206495782 0.1919910870650737 0 0.050764695011206777 0.20916964222725651 0 0.034547503469278373 0.20955079640779209 0 0.02177620002751179 0.22559840920251981 0 0.034547503469278373 0.20955079640779209 0 0.039960986899899173 0.22780444499479169 0 0.039960986899899173 0.22780444499479169 0 0.061514006406540499 0.23071042489022231 0 0.045472231705318063 0.24424317023843681 0 0.050764695011206777 0.20916964222725651 0 0.039960986899899173 0.22780444499479169 0 0.061514006406540499 0.23071042489022231 0 0.061514006406540499 0.23071042489022231 0 0.056046126259945157 0.25263236173372139 0 0.061514006406540499 0.23071042489022231 0 0.056046126259945157 0.25263236173372139 0 0.067905867336300579 0.25358800162702 0 0.061514006406540499 0.23071042489022231 0 0.045472231705318063 0.24424317023843681 0 0.056046126259945157 0.25263236173372139 0 0.025149977659741599 0.24684982625080901 0 0.039960986899899173 0.22780444499479169 0 0.045472231705318063 0.24424317023843681 0 0.092857250133516089 0.24175825718487831 0 0.078525547080241467 0.2465942846531784 0 0.093798877441032588 0.2579700649065903 0 0.092857250133516089 0.24175825718487831 0 0.078525547080241467 0.2465942846531784 0 0.081986142109724491 0.22560265144644431 0 0.061514006406540499 0.23071042489022231 0 0.078525547080241467 0.2465942846531784 0 0.067905867336300579 0.25358800162702 0 0.061514006406540499 0.23071042489022231 0 0.078525547080241467 0.2465942846531784 0 0.081986142109724491 0.22560265144644431 0 0.061514006406540499 0.23071042489022231 0 0.081986142109724491 0.22560265144644431 0 0.066981886553135278 0.20878848804672309 0 0.061514006406540499 0.23071042489022231 0 0.066981886553135278 0.20878848804672309 0 0.081986142109724491 0.22560265144644431 0 0.09236794217301933 0.20819183719001669 0 0.066981886553135278 0.20878848804672309 0 0.09236794217301933 0.20819183719001669 0 0.066981886553135278 0.20878848804672309 0 0.09236794217301933 0.20819183719001669 0 0.066981886553135278 0.20878848804672309 0 0.071445073857882777 0.19089458628000441 0 0.060802696405823108 0.1787365445376432 0 0.05849467095877426 0.1965416733816682 0 0.071445073857882777 0.19089458628000441 0 0.066981886553135278 0.20878848804672309 0 0.071445073857882777 0.19089458628000441 0 0.05849467095877426 0.1965416733816682 0 0.066981886553135278 0.20878848804672309 0 0.071445073857882777 0.19089458628000441 0 0.09236794217301933 0.20819183719001669 0 0.071445073857882777 0.19089458628000441 0 0.086464584236575506 0.1862285865309723 0 0.09236794217301933 0.20819183719001669 0 0.086464584236575506 0.1862285865309723 0 0.1023855527362314 0.18749689463882899 0 0.09236794217301933 0.20819183719001669 0 0.11775399779290339 0.20759518633331239 0 0.1023855527362314 0.18749689463882899 0 0.11775399779290339 0.20759518633331239 0 0.1023855527362314 0.18749689463882899 0 0.12550986450034471 0.186594373040398 0 0.09236794217301933 0.20819183719001669 0 0.11775399779290339 0.20759518633331239 0 0.09236794217301933 0.20819183719001669 0 0.11775399779290339 0.20759518633331239 0 0.10906069526472741 0.22998953009969161 0 0.092857250133516089 0.24175825718487831 0 0.081986142109724491 0.22560265144644431 0 0.10906069526472741 0.22998953009969161 0 0.081986142109724491 0.22560265144644431 0 0.09236794217301933 0.20819183719001669 0 0.10906069526472741 0.22998953009969161 0 0.11775399779290339 0.20759518633331239 0 0.10906069526472741 0.22998953009969161 0 0.1382648444377183 0.22719855966067881 0 0.10906069526472741 0.22998953009969161 0 0.12787711237058769 0.24521089126939841 0 0.1100607559553454 0.25396994184181759 0 0.092857250133516089 0.24175825718487831 0 0.10906069526472741 0.22998953009969161 0 0.1100607559553454 0.25396994184181759 0 0.081151633673542972 0.15313158297098389 0 0.083920606388658545 0.14050817004821939 0 0.0975697549496468 0.15575304468134629 0 0.081151633673542972 0.15313158297098389 0 0.083920606388658545 0.14050817004821939 0 0.071387777285217918 0.15212681924726251 0 0.074154959480044275 0.1204842858357125 0 0.087075880893963842 0.12621803440601359 0 0.083920606388658545 0.14050817004821939 0 0.087075880893963842 0.12621803440601359 0 0.083920606388658545 0.14050817004821939 0 0.097906888154765004 0.1362305538396491 0 0.062159468211553673 0.13737243366585769 0 0.061109117960118017 0.12720913792676911 0 0.083920606388658545 0.14050817004821939 0 0.074154959480044275 0.1204842858357125 0 0.061109117960118017 0.12720913792676911 0 0.083920606388658545 0.14050817004821939 0 0.061109117960118017 0.12720913792676911 0 0.083920606388658545 0.14050817004821939 0 0.062159468211553673 0.13737243366585769 0 0.083920606388658545 0.14050817004821939 0 0.069449382678632612 0.1443580261181665 0 0.060329678829100349 0.1474246815113264 0 0.062159468211553673 0.13737243366585769 0 0.069449382678632612 0.1443580261181665 0 0.060329678829100349 0.1474246815113264 0 0.069449382678632612 0.1443580261181665 0 0.071387777285217918 0.15212681924726251 0 0.083920606388658545 0.14050817004821939 0 0.069449382678632612 0.1443580261181665 0 0.071387777285217918 0.15212681924726251 0 0.059657673584757237 0.15824269734654939 0 0.060329678829100349 0.1474246815113264 0 0.071387777285217918 0.15212681924726251 0 0.059657673584757237 0.15824269734654939 0 0.071387777285217918 0.15212681924726251 0 0.071728396070648653 0.1641382979071076 0 0.081151633673542972 0.15313158297098389 0 0.071387777285217918 0.15212681924726251 0 0.071728396070648653 0.1641382979071076 0 0.071445073857882777 0.19089458628000441 0 0.075908261162629706 0.17300068451328551 0 0.086464584236575506 0.1862285865309723 0 0.060802696405823108 0.1787365445376432 0 0.071445073857882777 0.19089458628000441 0 0.075908261162629706 0.17300068451328551 0 0.071445073857882777 0.19089458628000441 0 0.075908261162629706 0.17300068451328551 0 0.060802696405823108 0.1787365445376432 0 0.071728396070648653 0.1641382979071076 0 0.075908261162629706 0.17300068451328551 0 0.086464584236575506 0.1862285865309723 0 0.090216091253114361 0.17155893003272579 0 0.1023855527362314 0.18749689463882899 0 0.075908261162629706 0.17300068451328551 0 0.086464584236575506 0.1862285865309723 0 0.090216091253114361 0.17155893003272579 0 0.081151633673542972 0.15313158297098389 0 0.071728396070648653 0.1641382979071076 0 0.0975697549496468 0.15575304468134629 0 0.071728396070648653 0.1641382979071076 0 0.090216091253114361 0.17155893003272579 0 0.0975697549496468 0.15575304468134629 0 0.071728396070648653 0.1641382979071076 0 0.075908261162629706 0.17300068451328551 0 0.090216091253114361 0.17155893003272579 0 0.071728396070648653 0.1641382979071076 0 0.0975697549496468 0.15575304468134629 0 0.090216091253114361 0.17155893003272579 0 0.1064810698159025 0.16893633516972181 0 0.0975697549496468 0.15575304468134629 0 0.1064810698159025 0.16893633516972181 0 0.1067320948171991 0.1538072021696697 0 0.0975697549496468 0.15575304468134629 0 0.090216091253114361 0.17155893003272579 0 0.1064810698159025 0.16893633516972181 0 0.1023855527362314 0.18749689463882899 0 0.1064810698159025 0.16893633516972181 0 0.12954358324573961 0.16710623429112001 0 0.12550986450034471 0.186594373040398 0 0.1064810698159025 0.16893633516972181 0 0.1023855527362314 0.18749689463882899 0 0.12550986450034471 0.186594373040398 0 0.1064810698159025 0.16893633516972181 0 0.1067320948171991 0.1538072021696697 0 0.12954358324573961 0.16710623429112001 0 0.1067320948171991 0.1538072021696697 0 0.1262856736452258 0.1537478882528979 0 0.12954358324573961 0.16710623429112001 0 0.1067320948171991 0.1538072021696697 0 0.12954358324573961 0.16710623429112001 0 0.1148569119608701 0.14824987142416859 0 0.1067320948171991 0.1538072021696697 0 0.1262856736452258 0.1537478882528979 0 0.118317888191051 0.14254191757659121 0 0.1148569119608701 0.14824987142416859 0 0.1262856736452258 0.1537478882528979 0 0.118317888191051 0.14254191757659121 0 0.12756241452120801 0.13893694775055651 0 0.1262856736452258 0.1537478882528979 0 0.1148569119608701 0.14824987142416859 0 0.1067320948171991 0.1538072021696697 0 0.1080919911900045 0.14290247769751591 0 0.118317888191051 0.14254191757659121 0 0.1148569119608701 0.14824987142416859 0 0.1080919911900045 0.14290247769751591 0 0.083920606388658545 0.14050817004821939 0 0.1067320948171991 0.1538072021696697 0 0.1067320948171991 0.1538072021696697 0 0.1080919911900045 0.14290247769751591 0 0.097906888154765004 0.1362305538396491 0 0.083920606388658545 0.14050817004821939 0 0.1067320948171991 0.1538072021696697 0 0.097906888154765004 0.1362305538396491 0 0.083920606388658545 0.14050817004821939 0 0.1067320948171991 0.1538072021696697 0 0.0975697549496468 0.15575304468134629 0 0.096984900528893664 0.1212489081817222 0 0.097906888154765004 0.1362305538396491 0 0.10589272808503949 0.13156516273042271 0 0.096984900528893664 0.1212489081817222 0 0.087075880893963842 0.12621803440601359 0 0.097906888154765004 0.1362305538396491 0 0.1080919911900045 0.14290247769751591 0 0.097906888154765004 0.1362305538396491 0 0.10589272808503949 0.13156516273042271 0 0.1080919911900045 0.14290247769751591 0 0.10589272808503949 0.13156516273042271 0 0.11327312463209829 0.13597294690712769 0 0.10712684862241641 0.1210429748963526 0 0.10589272808503949 0.13156516273042271 0 0.114987521205969 0.1268010028982309 0 0.10589272808503949 0.13156516273042271 0 0.114987521205969 0.1268010028982309 0 0.11327312463209829 0.13597294690712769 0 0.114987521205969 0.1268010028982309 0 0.11327312463209829 0.13597294690712769 0 0.1203000125167645 0.13336293759413789 0 0.118317888191051 0.14254191757659121 0 0.1080919911900045 0.14290247769751591 0 0.11327312463209829 0.13597294690712769 0 0.118317888191051 0.14254191757659121 0 0.1203000125167645 0.13336293759413789 0 0.12756241452120801 0.13893694775055651 0 0.118317888191051 0.14254191757659121 0 0.11327312463209829 0.13597294690712769 0 0.1203000125167645 0.13336293759413789 0 0.12212988809696081 0.1249307776834532 0 0.114987521205969 0.1268010028982309 0 0.1203000125167645 0.13336293759413789 0 0.12212988809696081 0.1249307776834532 0 0.1203000125167645 0.13336293759413789 0 0.12788127083107459 0.1291064789800366 0 0.12788127083107459 0.1291064789800366 0 0.13409394305489639 0.1257339851238449 0 0.12813823657366311 0.12049833089676459 0 0.12788127083107459 0.1291064789800366 0 0.13410827310584911 0.13282331674432049 0 0.13409394305489639 0.1257339851238449 0 0.12788127083107459 0.1291064789800366 0 0.12756241452120801 0.13893694775055651 0 0.13410827310584911 0.13282331674432049 0 0.1203000125167645 0.13336293759413789 0 0.12788127083107459 0.1291064789800366 0 0.12756241452120801 0.13893694775055651 0 0.13410827310584911 0.13282331674432049 0 0.14295710802469111 0.12768772724150559 0 0.13848136883728299 0.14203914735535511 0 0.12756241452120801 0.13893694775055651 0 0.13410827310584911 0.13282331674432049 0 0.13848136883728299 0.14203914735535511 0 0.13410827310584911 0.13282331674432049 0 0.13409394305489639 0.1257339851238449 0 0.14295710802469111 0.12768772724150559 0 0.14295710802469111 0.12768772724150559 0 0.15698787762036359 0.14007723406829989 0 0.15364605026385231 0.1227496740475859 0 0.14295710802469111 0.12768772724150559 0 0.13848136883728299 0.14203914735535511 0 0.15698787762036359 0.14007723406829989 0 0.13848136883728299 0.14203914735535511 0 0.1441447949138806 0.1573716891147208 0 0.15698787762036359 0.14007723406829989 0 0.1441447949138806 0.1573716891147208 0 0.1598153361361678 0.15982657838785511 0 0.15698787762036359 0.14007723406829989 0 0.13848136883728299 0.14203914735535511 0 0.1262856736452258 0.1537478882528979 0 0.1441447949138806 0.1573716891147208 0 0.12756241452120801 0.13893694775055651 0 0.13848136883728299 0.14203914735535511 0 0.1262856736452258 0.1537478882528979 0 0.1262856736452258 0.1537478882528979 0 0.12954358324573961 0.16710623429112001 0 0.1441447949138806 0.1573716891147208 0 0.12954358324573961 0.16710623429112001 0 0.12550986450034471 0.186594373040398 0 0.15375492999850379 0.1814330523327968 0 0.12954358324573961 0.16710623429112001 0 0.15375492999850379 0.1814330523327968 0 0.1441447949138806 0.1573716891147208 0 0.15375492999850379 0.1814330523327968 0 0.1441447949138806 0.1573716891147208 0 0.1598153361361678 0.15982657838785511 0 0.1598153361361678 0.15982657838785511 0 0.17205847002769489 0.1711246398383999 0 0.17247097746626519 0.1464629757798975 0 0.15375492999850379 0.1814330523327968 0 0.1598153361361678 0.15982657838785511 0 0.17205847002769489 0.1711246398383999 0 0.15375492999850379 0.1814330523327968 0 0.17205847002769489 0.1711246398383999 0 0.18411838942066619 0.18828130780555291 0 0.17205847002769489 0.1711246398383999 0 0.18411838942066619 0.18828130780555291 0 0.19050902449260759 0.164433536692701 0 0.17205847002769489 0.1711246398383999 0 0.17247097746626519 0.1464629757798975 0 0.19050902449260759 0.164433536692701 0 0.17247097746626519 0.1464629757798975 0 0.1903693880120208 0.14015559280000461 0 0.19050902449260759 0.164433536692701 0 0.17247097746626519 0.1464629757798975 0 0.18002451345814399 0.12716596121819479 0 0.1903693880120208 0.14015559280000461 0 0.17247097746626519 0.1464629757798975 0 0.18002451345814399 0.12716596121819479 0 0.16417220099380411 0.12505127510387981 0 0.15698787762036359 0.14007723406829989 0 0.16417220099380411 0.12505127510387981 0 0.15364605026385231 0.1227496740475859 0 0.17247097746626519 0.1464629757798975 0 0.15698787762036359 0.14007723406829989 0 0.16417220099380411 0.12505127510387981 0 0.1598153361361678 0.15982657838785511 0 0.17247097746626519 0.1464629757798975 0 0.15698787762036359 0.14007723406829989 0 0.14702044576598061 0.2478904659134552 0 0.1382648444377183 0.22719855966067881 0 0.15828943790025421 0.22969507774947781 0 0.14702044576598061 0.2478904659134552 0 0.12787711237058769 0.24521089126939841 0 0.1382648444377183 0.22719855966067881 0 0.10906069526472741 0.22998953009969161 0 0.12787711237058769 0.24521089126939841 0 0.1382648444377183 0.22719855966067881 0 0.1382648444377183 0.22719855966067881 0 0.14314005341278749 0.20699853547660821 0 0.15828943790025421 0.22969507774947781 0 0.14314005341278749 0.20699853547660821 0 0.16852610903267151 0.206401884619904 0 0.11775399779290339 0.20759518633331239 0 0.1382648444377183 0.22719855966067881 0 0.14314005341278749 0.20699853547660821 0 0.11775399779290339 0.20759518633331239 0 0.14314005341278749 0.20699853547660821 0 0.11775399779290339 0.20759518633331239 0 0.12550986450034471 0.186594373040398 0 0.14314005341278749 0.20699853547660821 0 0.15375492999850379 0.1814330523327968 0 0.14314005341278749 0.20699853547660821 0 0.16852610903267151 0.206401884619904 0 0.12550986450034471 0.186594373040398 0 0.15375492999850379 0.1814330523327968 0 0.14314005341278749 0.20699853547660821 0 0.15375492999850379 0.1814330523327968 0 0.18411838942066619 0.18828130780555291 0 0.16852610903267151 0.206401884619904 0 0.18411838942066619 0.18828130780555291 0 0.16852610903267151 0.206401884619904 0 0.1878214256448299 0.20672411698152671 0 0.16852610903267151 0.206401884619904 0 0.17766068788986381 0.23020170431202469 0 0.1878214256448299 0.20672411698152671 0 0.14314005341278749 0.20699853547660821 0 0.16852610903267151 0.206401884619904 0 0.15828943790025421 0.22969507774947781 0 0.16852610903267151 0.206401884619904 0 0.15828943790025421 0.22969507774947781 0 0.17766068788986381 0.23020170431202469 0 0.17766068788986381 0.23020170431202469 0 0.19353513124668931 0.22246748781277501 0 0.1878214256448299 0.20672411698152671 0 0.17766068788986381 0.23020170431202469 0 0.18692125413578081 0.24552837502103991 0 0.19379669244916639 0.23440003217329089 0 0.17766068788986381 0.23020170431202469 0 0.18692125413578081 0.24552837502103991 0 0.16774616909827719 0.2460930353984315 0 0.15828943790025421 0.22969507774947781 0 0.17766068788986381 0.23020170431202469 0 0.16774616909827719 0.2460930353984315 0 0.14702044576598061 0.2478904659134552 0 0.15828943790025421 0.22969507774947781 0 0.16774616909827719 0.2460930353984315 0 0.21557305570370441 0.24515722135805329 0 0.2029257889591993 0.24295866219667439 0 0.23007231546290949 0.2334513308517342 0 0.2029257889591993 0.24295866219667439 0 0.23007231546290949 0.2334513308517342 0 0.21557305570370441 0.24515722135805329 0 0.2029257889591993 0.24295866219667439 0 0.20107379594449931 0.25686311186437227 0 0.18692125413578081 0.24552837502103991 0 0.2029257889591993 0.24295866219667439 0 0.20107379594449931 0.25686311186437227 0 0.18692125413578081 0.24552837502103991 0 0.19379669244916639 0.23440003217329089 0 0.2029257889591993 0.24295866219667439 0 0.17766068788986381 0.23020170431202469 0 0.19379669244916639 0.23440003217329089 0 0.19353513124668931 0.22246748781277501 0 0.19379669244916639 0.23440003217329089 0 0.2029257889591993 0.24295866219667439 0 0.20920449219815451 0.22515354045629349 0 0.19379669244916639 0.23440003217329089 0 0.19353513124668931 0.22246748781277501 0 0.20920449219815451 0.22515354045629349 0 0.2029257889591993 0.24295866219667439 0 0.20920449219815451 0.22515354045629349 0 0.23007231546290949 0.2334513308517342 0 0.19353513124668931 0.22246748781277501 0 0.20920449219815451 0.22515354045629349 0 0.20732414099141369 0.20672295990195361 0 0.20920449219815451 0.22515354045629349 0 0.20732414099141369 0.20672295990195361 0 0.22783619495118521 0.20973527166224001 0 0.19353513124668931 0.22246748781277501 0 0.20732414099141369 0.20672295990195361 0 0.1878214256448299 0.20672411698152671 0 0.18411838942066619 0.18828130780555291 0 0.1878214256448299 0.20672411698152671 0 0.20343121377691101 0.18825927067945539 0 0.20732414099141369 0.20672295990195361 0 0.1878214256448299 0.20672411698152671 0 0.20343121377691101 0.18825927067945539 0 0.20732414099141369 0.20672295990195361 0 0.20343121377691101 0.18825927067945539 0 0.2219787971027708 0.18678942035429349 0 0.20732414099141369 0.20672295990195361 0 0.22783619495118521 0.20973527166224001 0 0.2219787971027708 0.18678942035429349 0 0.24528107816237801 0.1907036486386274 0 0.22783619495118521 0.20973527166224001 0 0.2219787971027708 0.18678942035429349 0 0.24528107816237801 0.1907036486386274 0 0.25242827713160498 0.21540237912569379 0 0.24528107816237801 0.1907036486386274 0 0.22783619495118521 0.20973527166224001 0 0.25242827713160498 0.21540237912569379 0 0.20920449219815451 0.22515354045629349 0 0.22783619495118521 0.20973527166224001 0 0.23007231546290949 0.2334513308517342 0 0.23007231546290949 0.2334513308517342 0 0.25242827713160498 0.21540237912569379 0 0.23007231546290949 0.2334513308517342 0 0.25511338863332461 0.22468137717712711 0 0.25242827713160498 0.21540237912569379 0 0.23007231546290949 0.2334513308517342 0 0.25511338863332461 0.22468137717712711 0 0.23007231546290949 0.2334513308517342 0 0.2457442494512444 0.24022391879071339 0 0.25511338863332461 0.22468137717712711 0 0.22783619495118521 0.20973527166224001 0 0.23007231546290949 0.2334513308517342 0 0.25242827713160498 0.21540237912569379 0 0.2457442494512444 0.24022391879071339 0 0.23628031136540401 0.25597328662156199 0 0.26221447651104962 0.2479993693513689 0 0.23007231546290949 0.2334513308517342 0 0.2457442494512444 0.24022391879071339 0 0.23628031136540401 0.25597328662156199 0 0.21557305570370441 0.24515722135805329 0 0.23007231546290949 0.2334513308517342 0 0.23628031136540401 0.25597328662156199 0 0.21557305570370441 0.24515722135805329 0 0.23007231546290949 0.2334513308517342 0 0.21023583046185859 0.14706018503428281 0 0.22521494488481819 0.12557893006429149 0 0.2001236667938262 0.1180422718546187 0 0.18002451345814399 0.12716596121819479 0 0.1903693880120208 0.14015559280000461 0 0.2001236667938262 0.1180422718546187 0 0.21023583046185859 0.14706018503428281 0 0.1903693880120208 0.14015559280000461 0 0.2001236667938262 0.1180422718546187 0 0.21023583046185859 0.14706018503428281 0 0.1903693880120208 0.14015559280000461 0 0.19050902449260759 0.164433536692701 0 0.18411838942066619 0.18828130780555291 0 0.20343121377691101 0.18825927067945539 0 0.19050902449260759 0.164433536692701 0 0.20343121377691101 0.18825927067945539 0 0.19050902449260759 0.164433536692701 0 0.20962662881846919 0.1707346457134423 0 0.20343121377691101 0.18825927067945539 0 0.20962662881846919 0.1707346457134423 0 0.2219787971027708 0.18678942035429349 0 0.21023583046185859 0.14706018503428281 0 0.20962662881846919 0.1707346457134423 0 0.2254160648188453 0.164078398330023 0 0.21023583046185859 0.14706018503428281 0 0.19050902449260759 0.164433536692701 0 0.20962662881846919 0.1707346457134423 0 0.20962662881846919 0.1707346457134423 0 0.2254160648188453 0.164078398330023 0 0.2219787971027708 0.18678942035429349 0 0.2254160648188453 0.164078398330023 0 0.2219787971027708 0.18678942035429349 0 0.23714843650665229 0.1758398884969993 0 0.24528107816237801 0.1907036486386274 0 0.2219787971027708 0.18678942035429349 0 0.23714843650665229 0.1758398884969993 0 0.24528107816237801 0.1907036486386274 0 0.23714843650665229 0.1758398884969993 0 0.25292738168467233 0.17649485219682931 0 0.2254160648188453 0.164078398330023 0 0.24653130607993951 0.16237692388552691 0 0.23688534306575301 0.1458043597726891 0 0.23714843650665229 0.1758398884969993 0 0.24653130607993951 0.16237692388552691 0 0.25292738168467233 0.17649485219682931 0 0.2254160648188453 0.164078398330023 0 0.23714843650665229 0.1758398884969993 0 0.24653130607993951 0.16237692388552691 0 0.24653130607993951 0.16237692388552691 0 0.2496536413094039 0.15044712256699261 0 0.23688534306575301 0.1458043597726891 0 0.2496536413094039 0.15044712256699261 0 0.23688534306575301 0.1458043597726891 0 0.25004344172447263 0.14019424959050239 0 0.21023583046185859 0.14706018503428281 0 0.2254160648188453 0.164078398330023 0 0.23688534306575301 0.1458043597726891 0 0.21023583046185859 0.14706018503428281 0 0.23688534306575301 0.1458043597726891 0 0.22521494488481819 0.12557893006429149 0 0.22521494488481819 0.12557893006429149 0 0.25030622297580962 0.13311558827396619 0 0.23688534306575301 0.1458043597726891 0 0.22521494488481819 0.12557893006429149 0 0.25030622297580962 0.13311558827396619 0 0.23688534306575301 0.1458043597726891 0 0.25004344172447263 0.14019424959050239 0 0.25030622297580962 0.13311558827396619 0 0.22521494488481819 0.12557893006429149 0 0.2369469616243938 0.1144798656387125 0 0.25030622297580962 0.13311558827396619 0 0.2369469616243938 0.1144798656387125 0 0.25094552198087999 0.11589449234768209 0 0.25030622297580962 0.13311558827396619 0 0.2369469616243938 0.1144798656387125 0 0.25158482098595109 0.098673396421397969 0 0.25094552198087999 0.11589449234768209 0 0.2369469616243938 0.1144798656387125 0 0.2308580048349978 0.09939168424622695 0 0.25158482098595109 0.098673396421397969 0 0.2308580048349978 0.09939168424622695 0 0.2177667053289645 0.10879872465146249 0 0.21723881235993189 0.092441087960636145 0 0.2369469616243938 0.1144798656387125 0 0.2308580048349978 0.09939168424622695 0 0.2177667053289645 0.10879872465146249 0 0.22521494488481819 0.12557893006429149 0 0.2369469616243938 0.1144798656387125 0 0.2177667053289645 0.10879872465146249 0 0.2177667053289645 0.10879872465146249 0 0.1970849337058638 0.1019164286603922 0 0.2001236667938262 0.1180422718546187 0 0.22521494488481819 0.12557893006429149 0 0.2177667053289645 0.10879872465146249 0 0.2001236667938262 0.1180422718546187 0 0.22521494488481819 0.12557893006429149 0 0.2001236667938262 0.1180422718546187 0 0.1970849337058638 0.1019164286603922 0 0.20420713705815571 0.090978010823124941 0 0.21723881235993189 0.092441087960636145 0 0.1970849337058638 0.1019164286603922 0 0.21723881235993189 0.092441087960636145 0 0.2177667053289645 0.10879872465146249 0 0.1970849337058638 0.1019164286603922 0 0.21723881235993189 0.092441087960636145 0 0.1970849337058638 0.1019164286603922 0 0.1916307843626972 0.08827444688259839 0 0.17503238870283441 0.11050561364494491 0 0.2001236667938262 0.1180422718546187 0 0.17503238870283441 0.11050561364494491 0 0.1970849337058638 0.1019164286603922 0 0.2001236667938262 0.1180422718546187 0 0.17503238870283441 0.11050561364494491 0 0.1916307843626972 0.08827444688259839 0 0.2082291800225603 0.066043280120252124 0 0.19067723801237901 0.065525043857756982 0 0.1916307843626972 0.08827444688259839 0 0.2082291800225603 0.066043280120252124 0 0.1916307843626972 0.08827444688259839 0 0.21087401780412959 0.081280079788873041 0 0.20420713705815571 0.090978010823124941 0 0.1970849337058638 0.1019164286603922 0 0.1916307843626972 0.08827444688259839 0 0.20420713705815571 0.090978010823124941 0 0.1916307843626972 0.08827444688259839 0 0.21087401780412959 0.081280079788873041 0 0.2082291800225603 0.066043280120252124 0 0.21087401780412959 0.081280079788873041 0 0.20420713705815571 0.090978010823124941 0 0.21723881235993189 0.092441087960636145 0 0.21087401780412959 0.081280079788873041 0 0.21723881235993189 0.092441087960636145 0 0.22613356481757629 0.0775902723280468 0 0.21087401780412959 0.081280079788873041 0 0.2082291800225603 0.066043280120252124 0 0.22613356481757629 0.0775902723280468 0 0.2082291800225603 0.066043280120252124 0 0.22613356481757629 0.0775902723280468 0 0.2082291800225603 0.066043280120252124 0 0.2259496113806885 0.070300708218039992 0 0.21450653174737461 0.057635669175196122 0 0.2259496113806885 0.070300708218039992 0 0.21450653174737461 0.057635669175196122 0 0.2082291800225603 0.066043280120252124 0 0.2259496113806885 0.070300708218039992 0 0.22613356481757629 0.0775902723280468 0 0.2259496113806885 0.070300708218039992 0 0.2248665156508784 0.061611733455129589 0 0.21450653174737461 0.057635669175196122 0 0.2259496113806885 0.070300708218039992 0 0.22613356481757629 0.0775902723280468 0 0.23739269101400209 0.082965747260884265 0 0.2259496113806885 0.070300708218039992 0 0.23739269101400209 0.082965747260884265 0 0.237967452106535 0.070105640596903412 0 0.2259496113806885 0.070300708218039992 0 0.23739269101400209 0.082965747260884265 0 0.2259496113806885 0.070300708218039992 0 0.2330718446673557 0.064441819436705627 0 0.2248665156508784 0.061611733455129589 0 0.2259496113806885 0.070300708218039992 0 0.2330718446673557 0.064441819436705627 0 0.237967452106535 0.070105640596903412 0 0.2308580048349978 0.09939168424622695 0 0.21723881235993189 0.092441087960636145 0 0.23739269101400209 0.082965747260884265 0 0.21723881235993189 0.092441087960636145 0 0.22613356481757629 0.0775902723280468 0 0.23739269101400209 0.082965747260884265 0 0.21723881235993189 0.092441087960636145 0 0.23739269101400209 0.082965747260884265 0 0.23739269101400209 0.082965747260884265 0 0.25158482098595109 0.098673396421397969 0 0.23739269101400209 0.082965747260884265 0 0.25243039498113262 0.075895774732197205 0 0.25158482098595109 0.098673396421397969 0 0.2308580048349978 0.09939168424622695 0 0.23739269101400209 0.082965747260884265 0 0.25158482098595109 0.098673396421397969 0 0.23739269101400209 0.082965747260884265 0 0.25243039498113262 0.075895774732197205 0 0.23934469018649959 0.064583282500140851 0 0.237967452106535 0.070105640596903412 0 0.24496427956833819 0.066036472520138348 0 0.2330718446673557 0.064441819436705627 0 0.23934469018649959 0.064583282500140851 0 0.2376257901407148 0.059976102198904507 0 0.2330718446673557 0.064441819436705627 0 0.23934469018649959 0.064583282500140851 0 0.237967452106535 0.070105640596903412 0 0.23739269101400209 0.082965747260884265 0 0.237967452106535 0.070105640596903412 0 0.24429048066179679 0.072622021298478806 0 0.24429048066179679 0.072622021298478806 0 0.24842415088314279 0.069033451464499671 0 0.25243039498113262 0.075895774732197205 0 0.23739269101400209 0.082965747260884265 0 0.24429048066179679 0.072622021298478806 0 0.25243039498113262 0.075895774732197205 0 0.24842415088314279 0.069033451464499671 0 0.24853219730195361 0.063845178725116872 0 0.25274476311700622 0.067427493409812952 0 0.237967452106535 0.070105640596903412 0 0.24429048066179679 0.072622021298478806 0 0.24496427956833819 0.066036472520138348 0 0.24429048066179679 0.072622021298478806 0 0.24842415088314279 0.069033451464499671 0 0.24496427956833819 0.066036472520138348 0 0.23934469018649959 0.064583282500140851 0 0.24496427956833819 0.066036472520138348 0 0.24309408444955441 0.062356377748052388 0 0.24496427956833819 0.066036472520138348 0 0.24602681454492631 0.062964227281045088 0 0.24309408444955441 0.062356377748052388 0 0.24496427956833819 0.066036472520138348 0 0.24602681454492631 0.062964227281045088 0 0.24853219730195361 0.063845178725116872 0 0.24842415088314279 0.069033451464499671 0 0.24496427956833819 0.066036472520138348 0 0.24853219730195361 0.063845178725116872 0 0.24751669685985911 0.059618880130872708 0 0.24309408444955441 0.062356377748052388 0 0.2376257901407148 0.059976102198904507 0 0.24751669685985911 0.059618880130872708 0 0.24426241142214139 0.049994713685017962 0 0.2310385276818335 0.053106641608170198 0 0.24751669685985911 0.059618880130872708 0 0.2376257901407148 0.059976102198904507 0 0.2310385276818335 0.053106641608170198 0 0.24751669685985911 0.059618880130872708 0 0.2310385276818335 0.053106641608170198 0 0.24853219730195361 0.063845178725116872 0 0.24751669685985911 0.059618880130872708 0 0.2530174900015254 0.0600809219264858 0 0.24602681454492631 0.062964227281045088 0 0.24853219730195361 0.063845178725116872 0 0.24751669685985911 0.059618880130872708 0 0.24602681454492631 0.062964227281045088 0 0.24751669685985911 0.059618880130872708 0 0.24309408444955441 0.062356377748052388 0 0.23934469018649959 0.064583282500140851 0 0.24309408444955441 0.062356377748052388 0 0.2376257901407148 0.059976102198904507 0 0.24426241142214139 0.049994713685017962 0 0.23928634064401511 0.040096757013566242 0 0.2310385276818335 0.053106641608170198 0 0.24751669685985911 0.059618880130872708 0 0.24426241142214139 0.049994713685017962 0 0.25102243244437311 0.053297338652025752 0 0.24426241142214139 0.049994713685017962 0 0.25174039047255609 0.044464402284776217 0 0.25102243244437311 0.053297338652025752 0 0.23928634064401511 0.040096757013566242 0 0.2320502206633881 0.021165953515508481 0 0.25044211127373811 0.032849993626191502 0 0.23928634064401511 0.040096757013566242 0 0.25044211127373811 0.032849993626191502 0 0.25174039047255609 0.044464402284776217 0 0.24426241142214139 0.049994713685017962 0 0.23928634064401511 0.040096757013566242 0 0.25174039047255609 0.044464402284776217 0 0.22618438235043381 0.038998837361733103 0 0.2320502206633881 0.021165953515508481 0 0.20963369093729961 0.03941564640516447 0 0.23928634064401511 0.040096757013566242 0 0.22618438235043381 0.038998837361733103 0 0.2320502206633881 0.021165953515508481 0 0.22618438235043381 0.038998837361733103 0 0.2310385276818335 0.053106641608170198 0 0.21456035850380811 0.046594403085467223 0 0.23928634064401511 0.040096757013566242 0 0.22618438235043381 0.038998837361733103 0 0.2310385276818335 0.053106641608170198 0 0.2310385276818335 0.053106641608170198 0 0.21456035850380811 0.046594403085467223 0 0.2248665156508784 0.061611733455129589 0 0.2310385276818335 0.053106641608170198 0 0.21456035850380811 0.046594403085467223 0 0.2248665156508784 0.061611733455129589 0 0.21456035850380811 0.046594403085467223 0 0.2330718446673557 0.064441819436705627 0 0.2248665156508784 0.061611733455129589 0 0.23150027442910881 0.059501590197602497 0 0.2248665156508784 0.061611733455129589 0 0.23150027442910881 0.059501590197602497 0 0.2310385276818335 0.053106641608170198 0 0.2330718446673557 0.064441819436705627 0 0.2376257901407148 0.059976102198904507 0 0.23150027442910881 0.059501590197602497 0 0.2376257901407148 0.059976102198904507 0 0.23150027442910881 0.059501590197602497 0 0.2310385276818335 0.053106641608170198 0 0.2320502206633881 0.021165953515508481 0 0.22999165343287109 0.0038227322559807589 0 0.25446675038947358 0.0029162606258486688 0 0.2320502206633881 0.021165953515508481 0 0.2600935707136679 0.019574361616358959 0 0.25446675038947358 0.0029162606258486688 0 0.22999165343287109 0.0038227322559807589 0 0.25446675038947358 0.0029162606258486688 0 0.24138147174972829 -0.0061427828714447699 0 0.2320502206633881 0.021165953515508481 0 0.25446675038947358 0.0029162606258486688 0 0.2320502206633881 0.021165953515508481 0 0.2600935707136679 0.019574361616358959 0 0.25044211127373811 0.032849993626191502 0 0.2320502206633881 0.021165953515508481 0 0.20963369093729961 0.03941564640516447 0 0.22999165343287109 0.0038227322559807589 0 0.21340461703840111 0.0096506044731711187 0 0.21351355446813719 -0.0021103410187178909 0 0.2320502206633881 0.021165953515508481 0 0.22999165343287109 0.0038227322559807589 0 0.21340461703840111 0.0096506044731711187 0 0.21340461703840111 0.0096506044731711187 0 0.1998105265397013 0.00335350757378736 0 0.21351355446813719 -0.0021103410187178909 0 0.21340461703840111 0.0096506044731711187 0 0.20371525389429951 0.01279949030761077 0 0.2082588668535221 0.02245160931237615 0 0.21340461703840111 0.0096506044731711187 0 0.20371525389429951 0.01279949030761077 0 0.1998105265397013 0.00335350757378736 0 0.2320502206633881 0.021165953515508481 0 0.2082588668535221 0.02245160931237615 0 0.20963369093729961 0.03941564640516447 0 0.2320502206633881 0.021165953515508481 0 0.21340461703840111 0.0096506044731711187 0 0.2082588668535221 0.02245160931237615 0 0.2082588668535221 0.02245160931237615 0 0.19338700514557339 0.015742239871108451 0 0.20963369093729961 0.03941564640516447 0 0.19338700514557339 0.015742239871108451 0 0.1989601287501698 0.040429129743079398 0 0.18048502430789731 0.01998114488410483 0 0.1989601287501698 0.040429129743079398 0 0.18048502430789731 0.01998114488410483 0 0.19338700514557339 0.015742239871108451 0 0.20963369093729961 0.03941564640516447 0 0.20371525389429951 0.01279949030761077 0 0.2082588668535221 0.02245160931237615 0 0.19338700514557339 0.015742239871108451 0 0.19338700514557339 0.015742239871108451 0 0.1998105265397013 0.00335350757378736 0 0.17714031935384769 -0.0079311666629475405 0 0.20371525389429951 0.01279949030761077 0 0.19338700514557339 0.015742239871108451 0 0.1998105265397013 0.00335350757378736 0 0.21450653174737461 0.057635669175196122 0 0.2029561920580818 0.044851916216142339 0 0.21450653174737461 0.057635669175196122 0 0.2029561920580818 0.044851916216142339 0 0.2021088015620611 0.053433964061651712 0 0.21450653174737461 0.057635669175196122 0 0.21456035850380811 0.046594403085467223 0 0.2029561920580818 0.044851916216142339 0 0.2082291800225603 0.066043280120252124 0 0.21450653174737461 0.057635669175196122 0 0.2021088015620611 0.053433964061651712 0 0.2248665156508784 0.061611733455129589 0 0.21450653174737461 0.057635669175196122 0 0.21456035850380811 0.046594403085467223 0 0.2082291800225603 0.066043280120252124 0 0.21450653174737461 0.057635669175196122 0 0.22618438235043381 0.038998837361733103 0 0.21456035850380811 0.046594403085467223 0 0.20963369093729961 0.03941564640516447 0 0.21456035850380811 0.046594403085467223 0 0.20963369093729961 0.03941564640516447 0 0.21456035850380811 0.046594403085467223 0 0.20530753189452691 0.042937648913457381 0 0.2029561920580818 0.044851916216142339 0 0.20963369093729961 0.03941564640516447 0 0.20530753189452691 0.042937648913457381 0 0.1989601287501698 0.040429129743079398 0 0.21456035850380811 0.046594403085467223 0 0.20530753189452691 0.042937648913457381 0 0.21456035850380811 0.046594403085467223 0 0.20963369093729961 0.03941564640516447 0 0.20530753189452691 0.042937648913457381 0 0.20963369093729961 0.03941564640516447 0 0.20530753189452691 0.042937648913457381 0 0.20530753189452691 0.042937648913457381 0 0.2029561920580818 0.044851916216142339 0 0.1989601287501698 0.040429129743079398 0 0.1774654858828027 0.031934360706524292 0 0.2029561920580818 0.044851916216142339 0 0.1989601287501698 0.040429129743079398 0 0.19971656766465989 0.047489351670260083 0 0.1989601287501698 0.040429129743079398 0 0.19133087755196571 0.045131483978966998 0 0.19971656766465989 0.047489351670260083 0 0.2029561920580818 0.044851916216142339 0 0.19971656766465989 0.047489351670260083 0 0.19338700514557339 0.015742239871108451 0 0.20963369093729961 0.03941564640516447 0 0.1989601287501698 0.040429129743079398 0 0.1989601287501698 0.040429129743079398 0 0.19133087755196571 0.045131483978966998 0 0.18298678422305309 0.040980100737508622 0 0.20530753189452691 0.042937648913457381 0 0.2029561920580818 0.044851916216142339 0 0.1989601287501698 0.040429129743079398 0 0.20530753189452691 0.042937648913457381 0 0.1989601287501698 0.040429129743079398 0 0.2029561920580818 0.044851916216142339 0 0.1989601287501698 0.040429129743079398 0 0.2082291800225603 0.066043280120252124 0 0.18513553631762919 0.051149603126408108 0 0.2021088015620611 0.053433964061651712 0 0.19971656766465989 0.047489351670260083 0 0.18513553631762919 0.051149603126408108 0 0.2082291800225603 0.066043280120252124 0 0.2021088015620611 0.053433964061651712 0 0.18513553631762919 0.051149603126408108 0 0.19067723801237901 0.065525043857756982 0 0.2082291800225603 0.066043280120252124 0 0.18513553631762919 0.051149603126408108 0 0.19133087755196571 0.045131483978966998 0 0.19971656766465989 0.047489351670260083 0 0.18513553631762919 0.051149603126408108 0 0.2029561920580818 0.044851916216142339 0 0.2021088015620611 0.053433964061651712 0 0.19971656766465989 0.047489351670260083 0 0.17734631865053521 0.060730067185729229 0 0.18513553631762919 0.051149603126408108 0 0.16725106424272049 0.052894846580172288 0 0.19067723801237901 0.065525043857756982 0 0.17734631865053521 0.060730067185729229 0 0.18513553631762919 0.051149603126408108 0 0.18298678422305309 0.040980100737508622 0 0.1774654858828027 0.031934360706524292 0 0.1620418926126978 0.036255926132564682 0 0.19133087755196571 0.045131483978966998 0 0.18513553631762919 0.051149603126408108 0 0.18298678422305309 0.040980100737508622 0 0.18513553631762919 0.051149603126408108 0 0.18298678422305309 0.040980100737508622 0 0.1620418926126978 0.036255926132564682 0 0.1989601287501698 0.040429129743079398 0 0.18298678422305309 0.040980100737508622 0 0.1774654858828027 0.031934360706524292 0 0.18513553631762919 0.051149603126408108 0 0.1620418926126978 0.036255926132564682 0 0.1620418926126978 0.036255926132564682 0 0.16725106424272049 0.052894846580172288 0 0.15541952745182569 0.04677658384696623 0 0.18513553631762919 0.051149603126408108 0 0.1620418926126978 0.036255926132564682 0 0.16725106424272049 0.052894846580172288 0 0.16725106424272049 0.052894846580172288 0 0.15507694825043991 0.057889849327421902 0 0.15541952745182569 0.04677658384696623 0 0.16725106424272049 0.052894846580172288 0 0.15507694825043991 0.057889849327421902 0 0.1653937448538241 0.067538194789913991 0 0.17734631865053521 0.060730067185729229 0 0.16725106424272049 0.052894846580172288 0 0.1653937448538241 0.067538194789913991 0 0.18048502430789731 0.01998114488410483 0 0.1657030786406338 0.0084270166623369204 0 0.17714031935384769 -0.0079311666629475405 0 0.19338700514557339 0.015742239871108451 0 0.17714031935384769 -0.0079311666629475405 0 0.19338700514557339 0.015742239871108451 0 0.18048502430789731 0.01998114488410483 0 0.17714031935384769 -0.0079311666629475405 0 0.1989601287501698 0.040429129743079398 0 0.1774654858828027 0.031934360706524292 0 0.18048502430789731 0.01998114488410483 0 0.1774654858828027 0.031934360706524292 0 0.18048502430789731 0.01998114488410483 0 0.16935520337559401 0.020657770454092759 0 0.1774654858828027 0.031934360706524292 0 0.15597084301543529 0.02343959166996953 0 0.1774654858828027 0.031934360706524292 0 0.1620418926126978 0.036255926132564682 0 0.15597084301543529 0.02343959166996953 0 0.1774654858828027 0.031934360706524292 0 0.16935520337559401 0.020657770454092759 0 0.15597084301543529 0.02343959166996953 0 0.16935520337559401 0.020657770454092759 0 0.1657030786406338 0.0084270166623369204 0 0.15597084301543529 0.02343959166996953 0 0.18048502430789731 0.01998114488410483 0 0.16935520337559401 0.020657770454092759 0 0.1657030786406338 0.0084270166623369204 0 0.1657030786406338 0.0084270166623369204 0 0.14883794818754281 0.01110572894874149 0 0.15480995508657039 -0.001084596553268768 0 0.1657030786406338 0.0084270166623369204 0 0.14883794818754281 0.01110572894874149 0 0.15597084301543529 0.02343959166996953 0 0.14883794818754281 0.01110572894874149 0 0.13464870039648349 0.00080453217212592717 0 0.15480995508657039 -0.001084596553268768 0 0.14883794818754281 0.01110572894874149 0 0.13894824890776639 0.02136224913872127 0 0.13464870039648349 0.00080453217212592717 0 0.1620418926126978 0.036255926132564682 0 0.13894824890776639 0.02136224913872127 0 0.14883794818754281 0.01110572894874149 0 0.15597084301543529 0.02343959166996953 0 0.13894824890776639 0.02136224913872127 0 0.1620418926126978 0.036255926132564682 0 0.15597084301543529 0.02343959166996953 0 0.13894824890776639 0.02136224913872127 0 0.11961069471150609 0.02296590295220987 0 0.13894824890776639 0.02136224913872127 0 0.12977361784467401 0.039215218793308727 0 0.1158546052028349 0.0064685721448778594 0 0.13894824890776639 0.02136224913872127 0 0.1158546052028349 0.0064685721448778594 0 0.13894824890776639 0.02136224913872127 0 0.13464870039648349 0.00080453217212592717 0 0.14278372382386809 0.048416123664777412 0 0.1428601767931531 0.062084067640591357 0 0.15507694825043991 0.057889849327421902 0 0.14278372382386809 0.048416123664777412 0 0.15507694825043991 0.057889849327421902 0 0.15541952745182569 0.04677658384696623 0 0.1620418926126978 0.036255926132564682 0 0.13894824890776639 0.02136224913872127 0 0.14579340212816641 0.038405220315267663 0 0.1620418926126978 0.036255926132564682 0 0.15541952745182569 0.04677658384696623 0 0.14579340212816641 0.038405220315267663 0 0.14278372382386809 0.048416123664777412 0 0.15541952745182569 0.04677658384696623 0 0.14579340212816641 0.038405220315267663 0 0.14278372382386809 0.048416123664777412 0 0.14579340212816641 0.038405220315267663 0 0.12977361784467401 0.039215218793308727 0 0.13894824890776639 0.02136224913872127 0 0.14579340212816641 0.038405220315267663 0 0.12977361784467401 0.039215218793308727 0 0.11550376979223601 0.054551475820320147 0 0.12977361784467401 0.039215218793308727 0 0.1326943019686847 0.054606112458038862 0 0.11550376979223601 0.054551475820320147 0 0.1326943019686847 0.054606112458038862 0 0.13255022158949201 0.068763676371196639 0 0.14278372382386809 0.048416123664777412 0 0.12977361784467401 0.039215218793308727 0 0.1326943019686847 0.054606112458038862 0 0.14278372382386809 0.048416123664777412 0 0.1428601767931531 0.062084067640591357 0 0.1326943019686847 0.054606112458038862 0 0.1428601767931531 0.062084067640591357 0 0.1326943019686847 0.054606112458038862 0 0.13255022158949201 0.068763676371196639 0 0.1207366242219714 0.074251990558816788 0 0.13255022158949201 0.068763676371196639 0 0.13578085374332971 0.077614708003019631 0 0.13255022158949201 0.068763676371196639 0 0.13578085374332971 0.077614708003019631 0 0.1430759120552613 0.073085192731263071 0 0.1428601767931531 0.062084067640591357 0 0.13255022158949201 0.068763676371196639 0 0.1430759120552613 0.073085192731263071 0 0.1428601767931531 0.062084067640591357 0 0.1430759120552613 0.073085192731263071 0 0.15260580868734391 0.069203578475014266 0 0.1430759120552613 0.073085192731263071 0 0.14969883640752091 0.076610515579137797 0 0.14563192422462459 0.083183778073064013 0 0.13578085374332971 0.077614708003019631 0 0.1430759120552613 0.073085192731263071 0 0.14563192422462459 0.083183778073064013 0 0.1430759120552613 0.073085192731263071 0 0.14969883640752091 0.076610515579137797 0 0.15260580868734391 0.069203578475014266 0 0.14969883640752091 0.076610515579137797 0 0.15260580868734391 0.069203578475014266 0 0.15677919641446331 0.080277826610221981 0 0.1428601767931531 0.062084067640591357 0 0.15507694825043991 0.057889849327421902 0 0.15260580868734391 0.069203578475014266 0 0.1506819444987289 0.088437751930635633 0 0.14868901735932749 0.09586058707093438 0 0.157853861938485 0.092527754269896317 0 0.1506819444987289 0.088437751930635633 0 0.15677919641446331 0.080277826610221981 0 0.157853861938485 0.092527754269896317 0 0.14969883640752091 0.076610515579137797 0 0.14563192422462459 0.083183778073064013 0 0.15677919641446331 0.080277826610221981 0 0.1506819444987289 0.088437751930635633 0 0.14563192422462459 0.083183778073064013 0 0.15677919641446331 0.080277826610221981 0 0.14563192422462459 0.083183778073064013 0 0.1444557225567443 0.090338813629061501 0 0.13888671887288589 0.088270852986767859 0 0.1506819444987289 0.088437751930635633 0 0.14563192422462459 0.083183778073064013 0 0.1444557225567443 0.090338813629061501 0 0.1444557225567443 0.090338813629061501 0 0.14209274384079601 0.094639397504520467 0 0.14868901735932749 0.09586058707093438 0 0.1506819444987289 0.088437751930635633 0 0.1444557225567443 0.090338813629061501 0 0.14868901735932749 0.09586058707093438 0 0.1444557225567443 0.090338813629061501 0 0.13888671887288589 0.088270852986767859 0 0.14209274384079601 0.094639397504520467 0 0.13888671887288589 0.088270852986767859 0 0.13668050292917741 0.098217611464673699 0 0.14209274384079601 0.094639397504520467 0 0.13888671887288589 0.088270852986767859 0 0.1300820653953097 0.084166932106396392 0 0.13668050292917741 0.098217611464673699 0 0.11116449005577619 0.086473750785835857 0 0.1300820653953097 0.084166932106396392 0 0.13668050292917741 0.098217611464673699 0 0.13578085374332971 0.077614708003019631 0 0.13888671887288589 0.088270852986767859 0 0.1300820653953097 0.084166932106396392 0 0.13578085374332971 0.077614708003019631 0 0.14563192422462459 0.083183778073064013 0 0.13888671887288589 0.088270852986767859 0 0.1207366242219714 0.074251990558816788 0 0.13578085374332971 0.077614708003019631 0 0.1300820653953097 0.084166932106396392 0 0.1216961693062274 0.1020981758197984 0 0.1302764983332621 0.10693497851168419 0 0.13668050292917741 0.098217611464673699 0 0.1302764983332621 0.10693497851168419 0 0.13758713408363871 0.1043360441680015 0 0.13668050292917741 0.098217611464673699 0 0.1302764983332621 0.10693497851168419 0 0.1360833458267342 0.1084620534226548 0 0.13758713408363871 0.1043360441680015 0 0.1360833458267342 0.1084620534226548 0 0.13758713408363871 0.1043360441680015 0 0.14314356584317489 0.10755645506983 0 0.13758713408363871 0.1043360441680015 0 0.13668050292917741 0.098217611464673699 0 0.14175175748584509 0.1005091223711649 0 0.13668050292917741 0.098217611464673699 0 0.14209274384079601 0.094639397504520467 0 0.14175175748584509 0.1005091223711649 0 0.12813823657366311 0.12049833089676459 0 0.13246275659848361 0.1130811342378658 0 0.13708322035591489 0.118794437000363 0 0.12212988809696081 0.1249307776834532 0 0.12788127083107459 0.1291064789800366 0 0.12813823657366311 0.12049833089676459 0 0.1197878353292403 0.1092484053650479 0 0.1302764983332621 0.10693497851168419 0 0.12624189261331301 0.1140678077034443 0 0.12813823657366311 0.12049833089676459 0 0.12624189261331301 0.1140678077034443 0 0.13246275659848361 0.1130811342378658 0 0.1302764983332621 0.10693497851168419 0 0.12624189261331301 0.1140678077034443 0 0.13246275659848361 0.1130811342378658 0 0.138866780176991 0.11235807520418389 0 0.13708322035591489 0.118794437000363 0 0.14572099158606311 0.1154247658161887 0 0.1360833458267342 0.1084620534226548 0 0.13246275659848361 0.1130811342378658 0 0.138866780176991 0.11235807520418389 0 0.1302764983332621 0.10693497851168419 0 0.1360833458267342 0.1084620534226548 0 0.13246275659848361 0.1130811342378658 0 0.1360833458267342 0.1084620534226548 0 0.138866780176991 0.11235807520418389 0 0.14314356584317489 0.10755645506983 0 0.13246275659848361 0.1130811342378658 0 0.138866780176991 0.11235807520418389 0 0.13708322035591489 0.118794437000363 0 0.13409394305489639 0.1257339851238449 0 0.14295710802469111 0.12768772724150559 0 0.13708322035591489 0.118794437000363 0 0.13409394305489639 0.1257339851238449 0 0.12813823657366311 0.12049833089676459 0 0.13708322035591489 0.118794437000363 0 0.14572099158606311 0.1154247658161887 0 0.15364605026385231 0.1227496740475859 0 0.15839207309433961 0.10550736800805539 0 0.14295710802469111 0.12768772724150559 0 0.13708322035591489 0.118794437000363 0 0.14572099158606311 0.1154247658161887 0 0.14295710802469111 0.12768772724150559 0 0.14572099158606311 0.1154247658161887 0 0.15364605026385231 0.1227496740475859 0 0.138866780176991 0.11235807520418389 0 0.14572099158606311 0.1154247658161887 0 0.14314356584317489 0.10755645506983 0 0.14572099158606311 0.1154247658161887 0 0.14314356584317489 0.10755645506983 0 0.15839207309433961 0.10550736800805539 0 0.14175175748584509 0.1005091223711649 0 0.15839207309433961 0.10550736800805539 0 0.14175175748584509 0.1005091223711649 0 0.14314356584317489 0.10755645506983 0 0.15839207309433961 0.10550736800805539 0 0.14175175748584509 0.1005091223711649 0 0.14868901735932749 0.09586058707093438 0 0.15839207309433961 0.10550736800805539 0 0.14209274384079601 0.094639397504520467 0 0.14175175748584509 0.1005091223711649 0 0.14868901735932749 0.09586058707093438 0 0.13758713408363871 0.1043360441680015 0 0.14175175748584509 0.1005091223711649 0 0.14314356584317489 0.10755645506983 0 0.14868901735932749 0.09586058707093438 0 0.15839207309433961 0.10550736800805539 0 0.157853861938485 0.092527754269896317 0 0.15839207309433961 0.10550736800805539 0 0.17503238870283441 0.11050561364494491 0 0.15839207309433961 0.10550736800805539 0 0.1705578526620479 0.095927182961129481 0 0.157853861938485 0.092527754269896317 0 0.15839207309433961 0.10550736800805539 0 0.1705578526620479 0.095927182961129481 0 0.17503238870283441 0.11050561364494491 0 0.16417220099380411 0.12505127510387981 0 0.15839207309433961 0.10550736800805539 0 0.17503238870283441 0.11050561364494491 0 0.16417220099380411 0.12505127510387981 0 0.15364605026385231 0.1227496740475859 0 0.15839207309433961 0.10550736800805539 0 0.16417220099380411 0.12505127510387981 0 0.17503238870283441 0.11050561364494491 0 0.18002451345814399 0.12716596121819479 0 0.16417220099380411 0.12505127510387981 0 0.17503238870283441 0.11050561364494491 0 0.18002451345814399 0.12716596121819479 0 0.2001236667938262 0.1180422718546187 0 0.17503238870283441 0.11050561364494491 0 0.1916307843626972 0.08827444688259839 0 0.1705578526620479 0.095927182961129481 0 0.17503238870283441 0.11050561364494491 0 0.1916307843626972 0.08827444688259839 0 0.17503238870283441 0.11050561364494491 0 0.1916307843626972 0.08827444688259839 0 0.17935943521264269 0.07135827912697662 0 0.16988015521188329 0.08282073200015258 0 0.1916307843626972 0.08827444688259839 0 0.1705578526620479 0.095927182961129481 0 0.16988015521188329 0.08282073200015258 0 0.19067723801237901 0.065525043857756982 0 0.1916307843626972 0.08827444688259839 0 0.17935943521264269 0.07135827912697662 0 0.19067723801237901 0.065525043857756982 0 0.17734631865053521 0.060730067185729229 0 0.17935943521264269 0.07135827912697662 0 0.17734631865053521 0.060730067185729229 0 0.17935943521264269 0.07135827912697662 0 0.1653937448538241 0.067538194789913991 0 0.17935943521264269 0.07135827912697662 0 0.1653937448538241 0.067538194789913991 0 0.16988015521188329 0.08282073200015258 0 0.15507694825043991 0.057889849327421902 0 0.15260580868734391 0.069203578475014266 0 0.1653937448538241 0.067538194789913991 0 0.15260580868734391 0.069203578475014266 0 0.1653937448538241 0.067538194789913991 0 0.15677919641446331 0.080277826610221981 0 0.1653937448538241 0.067538194789913991 0 0.15677919641446331 0.080277826610221981 0 0.16988015521188329 0.08282073200015258 0 0.15677919641446331 0.080277826610221981 0 0.157853861938485 0.092527754269896317 0 0.16988015521188329 0.08282073200015258 0 0.1705578526620479 0.095927182961129481 0 0.157853861938485 0.092527754269896317 0 0.16988015521188329 0.08282073200015258 0 0.099456207782380623 0.4822659283708195 0 0.1141892196830592 0.48396198267476093 0 0.11304725129434449 0.46767028325629811 0 0.099456207782380623 0.4822659283708195 0 0.11304725129434449 0.46767028325629811 0 0.096803680563272876 0.46646214520586099 0 0.099456207782380623 0.4822659283708195 0 0.10782601469385079 0.5 0 0.078267650747156567 0.50000000000000133 0 0.099456207782380623 0.4822659283708195 0 0.10782601469385079 0.5 0 0.1141892196830592 0.48396198267476093 0 0.10782601469385079 0.5 0 0.1249193769550877 0.49369376296818718 0 0.1141892196830592 0.48396198267476093 0 0.1249193769550877 0.49369376296818718 0 0.1141892196830592 0.48396198267476093 0 0.12569724768963239 0.47617993877849962 0 0.10782601469385079 0.5 0 0.1249193769550877 0.49369376296818718 0 0.13738437864054501 0.5 0 0.1141892196830592 0.48396198267476093 0 0.11304725129434449 0.46767028325629811 0 0.12569724768963239 0.47617993877849962 0 0.11304725129434449 0.46767028325629811 0 0.1267882431275838 0.46370707134437261 0 0.12569724768963239 0.47617993877849962 0 0.11304725129434449 0.46767028325629811 0 0.1221607865463437 0.4507156547582637 0 0.1004821270038239 0.44949914822431608 0 0.11304725129434449 0.46767028325629811 0 0.1221607865463437 0.4507156547582637 0 0.1267882431275838 0.46370707134437261 0 0.1221607865463437 0.4507156547582637 0 0.1004821270038239 0.44949914822431608 0 0.12259086230274099 0.42947812748907283 0 0.1004821270038239 0.44949914822431608 0 0.096803680563272876 0.46646214520586099 0 0.084307548883437972 0.45862843933572522 0 0.11304725129434449 0.46767028325629811 0 0.1004821270038239 0.44949914822431608 0 0.096803680563272876 0.46646214520586099 0 0.084307548883437972 0.45862843933572522 0 0.070120974899159305 0.46867166915081548 0 0.08254081050968877 0.47642281665818748 0 0.096803680563272876 0.46646214520586099 0 0.084307548883437972 0.45862843933572522 0 0.08254081050968877 0.47642281665818748 0 0.084307548883437972 0.45862843933572522 0 0.083205653112744402 0.44008551456546158 0 0.070599818540594342 0.45171728711773013 0 0.1004821270038239 0.44949914822431608 0 0.084307548883437972 0.45862843933572522 0 0.083205653112744402 0.44008551456546158 0 0.1004821270038239 0.44949914822431608 0 0.083205653112744402 0.44008551456546158 0 0.095892719888732866 0.42453745382262881 0 0.070599818540594342 0.45171728711773013 0 0.057347956450285731 0.44480695268810438 0 0.068330088192809502 0.43602814955066621 0 0.083205653112744402 0.44008551456546158 0 0.070599818540594342 0.45171728711773013 0 0.068330088192809502 0.43602814955066621 0 0.070599818540594342 0.45171728711773013 0 0.070120974899159305 0.46867166915081548 0 0.05832870883015126 0.45973880463956351 0 0.084307548883437972 0.45862843933572522 0 0.070599818540594342 0.45171728711773013 0 0.070120974899159305 0.46867166915081548 0 0.070120974899159305 0.46867166915081548 0 0.08254081050968877 0.47642281665818748 0 0.061557047466102868 0.48310025102256282 0 0.070120974899159305 0.46867166915081548 0 0.061557047466102868 0.48310025102256282 0 0.05832870883015126 0.45973880463956351 0 0.099456207782380623 0.4822659283708195 0 0.096803680563272876 0.46646214520586099 0 0.08254081050968877 0.47642281665818748 0 0.099456207782380623 0.4822659283708195 0 0.08254081050968877 0.47642281665818748 0 0.078267650747156567 0.50000000000000133 0 0.078267650747156567 0.50000000000000133 0 0.049166882519808157 0.5 0 0.061557047466102868 0.48310025102256282 0 0.08254081050968877 0.47642281665818748 0 0.078267650747156567 0.50000000000000133 0 0.061557047466102868 0.48310025102256282 0 0.078267650747156567 0.50000000000000133 0 0.061557047466102868 0.48310025102256282 0 0.049166882519808157 0.5 0 0.061557047466102868 0.48310025102256282 0 0.038208171894904559 0.48286056860770488 0 0.061557047466102868 0.48310025102256282 0 0.044846444185049857 0.46620050204512359 0 0.05832870883015126 0.45973880463956351 0 0.061557047466102868 0.48310025102256282 0 0.044846444185049857 0.46620050204512359 0 0.061557047466102868 0.48310025102256282 0 0.038208171894904559 0.48286056860770488 0 0.044846444185049857 0.46620050204512359 0 0.038208171894904559 0.48286056860770488 0 0.029572045059576241 0.469060477695939 0 0.044846444185049857 0.46620050204512359 0 0.049166882519808157 0.5 0 0.038208171894904559 0.48286056860770488 0 0.020066114292459799 0.5 0 0.038208171894904559 0.48286056860770488 0 0.020066114292459799 0.5 0 0.021055159894441029 0.48095839664786189 0 0.038208171894904559 0.48286056860770488 0 0.029572045059576241 0.469060477695939 0 0.021055159894441029 0.48095839664786189 0 0.029572045059576241 0.469060477695939 0 0.021055159894441029 0.48095839664786189 0 0.01561460841948897 0.46598216811131982 0 0.021055159894441029 0.48095839664786189 0 0.0030933759349822849 0.48266358315495572 0 0.01561460841948897 0.46598216811131982 0 0.0030933759349822849 0.48266358315495572 0 0.01561460841948897 0.46598216811131982 0 0.0036787250480955699 0.47408322248379448 0 0.0030933759349822849 0.48266358315495572 0 0.01561460841948897 0.46598216811131982 0 -0.0016340076521478781 0.48633642657919801 0 0.0036787250480955699 0.47408322248379448 0 0.0030933759349822849 0.48266358315495572 0 0.020066114292459799 0.5 0 0.021055159894441029 0.48095839664786189 0 0.0030933759349822849 0.48266358315495572 0 -0.0090346539348886701 0.5 0 -0.0016340076521478781 0.48633642657919801 0 0.020066114292459799 0.5 0 -0.0016340076521478781 0.48633642657919801 0 0.020066114292459799 0.5 0 0.0030933759349822849 0.48266358315495572 0 -0.0030841453677343121 0.43636499760021141 0 -0.002359076509941094 0.46135071208970457 0 0.010470448459028871 0.45111158928184719 0 -0.0030841453677343121 0.43636499760021141 0 0.010470448459028871 0.45111158928184719 0 0.017893296784651399 0.43894227458572882 0 -0.002359076509941094 0.46135071208970457 0 0.010470448459028871 0.45111158928184719 0 0.01561460841948897 0.46598216811131982 0 -0.002359076509941094 0.46135071208970457 0 0.0036787250480955699 0.47408322248379448 0 0.01561460841948897 0.46598216811131982 0 0.010470448459028871 0.45111158928184719 0 0.01561460841948897 0.46598216811131982 0 0.0281358409039968 0.44930075306768458 0 0.029572045059576241 0.469060477695939 0 0.01561460841948897 0.46598216811131982 0 0.0281358409039968 0.44930075306768458 0 0.01561460841948897 0.46598216811131982 0 0.0281358409039968 0.44930075306768458 0 0.010470448459028871 0.45111158928184719 0 0.0281358409039968 0.44930075306768458 0 0.017893296784651399 0.43894227458572882 0 0.0281358409039968 0.44930075306768458 0 0.017893296784651399 0.43894227458572882 0 0.03800042812263172 0.43615865433005307 0 0.0281358409039968 0.44930075306768458 0 0.017893296784651399 0.43894227458572882 0 0.0281358409039968 0.44930075306768458 0 0.04587361322417214 0.448769157871174 0 0.03800042812263172 0.43615865433005307 0 0.0281358409039968 0.44930075306768458 0 0.03800042812263172 0.43615865433005307 0 0.04587361322417214 0.448769157871174 0 0.049411209704934803 0.43621283219101809 0 0.03800042812263172 0.43615865433005307 0 0.029572045059576241 0.469060477695939 0 0.0281358409039968 0.44930075306768458 0 0.044846444185049857 0.46620050204512359 0 0.0281358409039968 0.44930075306768458 0 0.04587361322417214 0.448769157871174 0 0.044846444185049857 0.46620050204512359 0 0.0281358409039968 0.44930075306768458 0 0.044846444185049857 0.46620050204512359 0 0.04587361322417214 0.448769157871174 0 0.044846444185049857 0.46620050204512359 0 0.05832870883015126 0.45973880463956351 0 0.04587361322417214 0.448769157871174 0 0.057347956450285731 0.44480695268810438 0 0.049411209704934803 0.43621283219101809 0 0.04587361322417214 0.448769157871174 0 0.05832870883015126 0.45973880463956351 0 0.057347956450285731 0.44480695268810438 0 0.070599818540594342 0.45171728711773013 0 0.05832870883015126 0.45973880463956351 0 0.057347956450285731 0.44480695268810438 0 0.057347956450285731 0.44480695268810438 0 0.058238482531349368 0.43512174465279091 0 0.068330088192809502 0.43602814955066621 0 0.057347956450285731 0.44480695268810438 0 0.058238482531349368 0.43512174465279091 0 0.049411209704934803 0.43621283219101809 0 0.058238482531349368 0.43512174465279091 0 0.05412352915042095 0.42739076434297479 0 0.063786863135573219 0.4234822836218442 0 0.05412352915042095 0.42739076434297479 0 0.047865015341267358 0.42301655559242213 0 0.049411209704934803 0.43621283219101809 0 0.05412352915042095 0.42739076434297479 0 0.047865015341267358 0.42301655559242213 0 0.058238482531349368 0.43512174465279091 0 0.05412352915042095 0.42739076434297479 0 0.049411209704934803 0.43621283219101809 0 0.047865015341267358 0.42301655559242213 0 0.055388731832649349 0.41299308245440008 0 0.044385004541519633 0.40583709082877739 0 0.055388731832649349 0.41299308245440008 0 0.057103340742871267 0.4006394318358022 0 0.0691327228978319 0.40699071288372829 0 0.05412352915042095 0.42739076434297479 0 0.055388731832649349 0.41299308245440008 0 0.063786863135573219 0.4234822836218442 0 0.047865015341267358 0.42301655559242213 0 0.055388731832649349 0.41299308245440008 0 0.05412352915042095 0.42739076434297479 0 0.047865015341267358 0.42301655559242213 0 0.055388731832649349 0.41299308245440008 0 0.055388731832649349 0.41299308245440008 0 0.044385004541519633 0.40583709082877739 0 0.057103340742871267 0.4006394318358022 0 0.047865015341267358 0.42301655559242213 0 0.030398582533070099 0.41080889326869052 0 0.044385004541519633 0.40583709082877739 0 0.047865015341267358 0.42301655559242213 0 0.035686717363660143 0.42423985257235269 0 0.030398582533070099 0.41080889326869052 0 0.047865015341267358 0.42301655559242213 0 0.030398582533070099 0.41080889326869052 0 0.047865015341267358 0.42301655559242213 0 0.049411209704934803 0.43621283219101809 0 0.03800042812263172 0.43615865433005307 0 0.047865015341267358 0.42301655559242213 0 0.03800042812263172 0.43615865433005307 0 0.047865015341267358 0.42301655559242213 0 0.035686717363660143 0.42423985257235269 0 0.03800042812263172 0.43615865433005307 0 0.035686717363660143 0.42423985257235269 0 0.03800042812263172 0.43615865433005307 0 0.0264828434576714 0.42697530709824522 0 0.017893296784651399 0.43894227458572882 0 0.0264828434576714 0.42697530709824522 0 0.013451351612083251 0.42022136891186163 0 0.017893296784651399 0.43894227458572882 0 0.03800042812263172 0.43615865433005307 0 0.0264828434576714 0.42697530709824522 0 0.030398582533070099 0.41080889326869052 0 0.013451351612083251 0.42022136891186163 0 0.012932149724872831 0.39860123094495892 0 0.0264828434576714 0.42697530709824522 0 0.030398582533070099 0.41080889326869052 0 0.013451351612083251 0.42022136891186163 0 0.035686717363660143 0.42423985257235269 0 0.0264828434576714 0.42697530709824522 0 0.030398582533070099 0.41080889326869052 0 -0.0038092142255275289 0.41137928311071797 0 0.013451351612083251 0.42022136891186163 0 0.012932149724872831 0.39860123094495892 0 -0.0030841453677343121 0.43636499760021141 0 0.017893296784651399 0.43894227458572882 0 0.013451351612083251 0.42022136891186163 0 -0.0030841453677343121 0.43636499760021141 0 -0.0038092142255275289 0.41137928311071797 0 0.013451351612083251 0.42022136891186163 0 -0.0045342830833226501 0.3863935686212247 0 0.012932149724872831 0.39860123094495892 0 0.0079023355216259559 0.37348921158265391 0 0.012932149724872831 0.39860123094495892 0 0.025375843575522711 0.38021681034322929 0 0.0079023355216259559 0.37348921158265391 0 -0.0045342830833226501 0.3863935686212247 0 0.012932149724872831 0.39860123094495892 0 -0.0045342830833226501 0.3863935686212247 0 -0.0038092142255275289 0.41137928311071797 0 0.012932149724872831 0.39860123094495892 0 0.030398582533070099 0.41080889326869052 0 0.012932149724872831 0.39860123094495892 0 0.030398582533070099 0.41080889326869052 0 0.012932149724872831 0.39860123094495892 0 0.030218872497922818 0.39559608178221078 0 0.012932149724872831 0.39860123094495892 0 0.030218872497922818 0.39559608178221078 0 0.025375843575522711 0.38021681034322929 0 0.025375843575522711 0.38021681034322929 0 0.045236422390978262 0.39339421550307069 0 0.045418656597819553 0.37354288132317159 0 0.030218872497922818 0.39559608178221078 0 0.025375843575522711 0.38021681034322929 0 0.045236422390978262 0.39339421550307069 0 0.030398582533070099 0.41080889326869052 0 0.030218872497922818 0.39559608178221078 0 0.044385004541519633 0.40583709082877739 0 0.030218872497922818 0.39559608178221078 0 0.045236422390978262 0.39339421550307069 0 0.044385004541519633 0.40583709082877739 0 0.045236422390978262 0.39339421550307069 0 0.057103340742871267 0.4006394318358022 0 0.06607043693335328 0.38973814947632979 0 0.045236422390978262 0.39339421550307069 0 0.044385004541519633 0.40583709082877739 0 0.057103340742871267 0.4006394318358022 0 0.045236422390978262 0.39339421550307069 0 0.06607043693335328 0.38973814947632979 0 0.045418656597819553 0.37354288132317159 0 0.06607043693335328 0.38973814947632979 0 0.066778362586220691 0.36264744131756171 0 0.045418656597819553 0.37354288132317159 0 0.06607043693335328 0.38973814947632979 0 0.086713905658550791 0.37461406501925459 0 0.066778362586220691 0.36264744131756171 0 0.091303312773641829 0.3995757594209417 0 0.1025776524751303 0.38486691706586951 0 0.086713905658550791 0.37461406501925459 0 0.06607043693335328 0.38973814947632979 0 0.091303312773641829 0.3995757594209417 0 0.086713905658550791 0.37461406501925459 0 0.091303312773641829 0.3995757594209417 0 0.086713905658550791 0.37461406501925459 0 0.06607043693335328 0.38973814947632979 0 0.091303312773641829 0.3995757594209417 0 0.0691327228978319 0.40699071288372829 0 0.057103340742871267 0.4006394318358022 0 0.06607043693335328 0.38973814947632979 0 0.0691327228978319 0.40699071288372829 0 0.055388731832649349 0.41299308245440008 0 0.0691327228978319 0.40699071288372829 0 0.063786863135573219 0.4234822836218442 0 0.0691327228978319 0.40699071288372829 0 0.077714875811277062 0.4214876261871765 0 0.063786863135573219 0.4234822836218442 0 0.083205653112744402 0.44008551456546158 0 0.077714875811277062 0.4214876261871765 0 0.068330088192809502 0.43602814955066621 0 0.058238482531349368 0.43512174465279091 0 0.068330088192809502 0.43602814955066621 0 0.063786863135573219 0.4234822836218442 0 0.077714875811277062 0.4214876261871765 0 0.068330088192809502 0.43602814955066621 0 0.063786863135573219 0.4234822836218442 0 0.083205653112744402 0.44008551456546158 0 0.077714875811277062 0.4214876261871765 0 0.095892719888732866 0.42453745382262881 0 0.091303312773641829 0.3995757594209417 0 0.0691327228978319 0.40699071288372829 0 0.077714875811277062 0.4214876261871765 0 0.091303312773641829 0.3995757594209417 0 0.095892719888732866 0.42453745382262881 0 0.091303312773641829 0.3995757594209417 0 0.077714875811277062 0.4214876261871765 0 0.095892719888732866 0.42453745382262881 0 0.091303312773641829 0.3995757594209417 0 0.095892719888732866 0.42453745382262881 0 0.115428724103706 0.40267530492779557 0 0.1004821270038239 0.44949914822431608 0 0.095892719888732866 0.42453745382262881 0 0.12259086230274099 0.42947812748907283 0 0.1004821270038239 0.44949914822431608 0 0.095892719888732866 0.42453745382262881 0 0.095892719888732866 0.42453745382262881 0 0.12259086230274099 0.42947812748907283 0 0.115428724103706 0.40267530492779557 0 0.115428724103706 0.40267530492779557 0 0.119448870245615 0.38256434187866972 0 0.13692284990477191 0.38930777957628943 0 0.119448870245615 0.38256434187866972 0 0.1025776524751303 0.38486691706586951 0 0.1087205780393706 0.3656269003386084 0 0.115428724103706 0.40267530492779557 0 0.119448870245615 0.38256434187866972 0 0.1025776524751303 0.38486691706586951 0 0.1025776524751303 0.38486691706586951 0 0.1087205780393706 0.3656269003386084 0 0.086713905658550791 0.37461406501925459 0 0.091303312773641829 0.3995757594209417 0 0.115428724103706 0.40267530492779557 0 0.1025776524751303 0.38486691706586951 0 0.1087205780393706 0.3656269003386084 0 0.1202868522871179 0.34060046584014031 0 0.0915497208986496 0.34709204532757532 0 0.1087205780393706 0.3656269003386084 0 0.0915497208986496 0.34709204532757532 0 0.086713905658550791 0.37461406501925459 0 0.119448870245615 0.38256434187866972 0 0.1087205780393706 0.3656269003386084 0 0.13274728415341139 0.36410634055334368 0 0.1087205780393706 0.3656269003386084 0 0.1202868522871179 0.34060046584014031 0 0.13274728415341139 0.36410634055334368 0 0.1202868522871179 0.34060046584014031 0 0.1104734498024164 0.31171603628350752 0 0.14183880654046921 0.32250528078568202 0 0.1202868522871179 0.34060046584014031 0 0.1016552612267161 0.33013161519950079 0 0.1104734498024164 0.31171603628350752 0 0.1016552612267161 0.33013161519950079 0 0.081254576285268804 0.3210829637434266 0 0.1104734498024164 0.31171603628350752 0 0.1202868522871179 0.34060046584014031 0 0.1016552612267161 0.33013161519950079 0 0.0915497208986496 0.34709204532757532 0 0.081254576285268804 0.3210829637434266 0 0.072654821413094289 0.33942743407960763 0 0.0915497208986496 0.34709204532757532 0 0.1016552612267161 0.33013161519950079 0 0.081254576285268804 0.3210829637434266 0 0.0915497208986496 0.34709204532757532 0 0.081254576285268804 0.3210829637434266 0 0.06358813508901956 0.32234581427363851 0 0.071244474661197085 0.3036312559279935 0 0.081254576285268804 0.3210829637434266 0 0.06358813508901956 0.32234581427363851 0 0.072654821413094289 0.33942743407960763 0 0.06358813508901956 0.32234581427363851 0 0.072654821413094289 0.33942743407960763 0 0.055199983679349987 0.34246375673151652 0 0.072654821413094289 0.33942743407960763 0 0.066778362586220691 0.36264744131756171 0 0.055199983679349987 0.34246375673151652 0 0.072654821413094289 0.33942743407960763 0 0.0915497208986496 0.34709204532757532 0 0.066778362586220691 0.36264744131756171 0 0.0915497208986496 0.34709204532757532 0 0.086713905658550791 0.37461406501925459 0 0.066778362586220691 0.36264744131756171 0 0.066778362586220691 0.36264744131756171 0 0.044951457965310811 0.3555124197003488 0 0.045418656597819553 0.37354288132317159 0 0.066778362586220691 0.36264744131756171 0 0.044951457965310811 0.3555124197003488 0 0.055199983679349987 0.34246375673151652 0 0.044951457965310811 0.3555124197003488 0 0.021903196078839001 0.35746348141110651 0 0.035457090884324839 0.34144453771838768 0 0.044951457965310811 0.3555124197003488 0 0.035457090884324839 0.34144453771838768 0 0.055199983679349987 0.34246375673151652 0 0.044951457965310811 0.3555124197003488 0 0.045418656597819553 0.37354288132317159 0 0.021903196078839001 0.35746348141110651 0 0.025375843575522711 0.38021681034322929 0 0.021903196078839001 0.35746348141110651 0 0.0079023355216259559 0.37348921158265391 0 0.025375843575522711 0.38021681034322929 0 0.045418656597819553 0.37354288132317159 0 0.021903196078839001 0.35746348141110651 0 0.021903196078839001 0.35746348141110651 0 0.017151683724365509 0.3376665205351736 0 0.035457090884324839 0.34144453771838768 0 0.021903196078839001 0.35746348141110651 0 0.0095650341834115256 0.34490192427506011 0 0.017151683724365509 0.3376665205351736 0 0.021903196078839001 0.35746348141110651 0 0.0095650341834115256 0.34490192427506011 0 0.0061318462344260851 0.35417601161121459 0 -0.0050552824635438226 0.34569829691311771 0 0.0095650341834115256 0.34490192427506011 0 0.0061318462344260851 0.35417601161121459 0 0.021903196078839001 0.35746348141110651 0 0.0061318462344260851 0.35417601161121459 0 0.0079023355216259559 0.37348921158265391 0 -0.0052616759920083916 0.36132776784546622 0 0.0061318462344260851 0.35417601161121459 0 0.0079023355216259559 0.37348921158265391 0 0.0087281755863181168 0.33049580891976171 0 0.020410497070949891 0.30832150289807031 0 0.0056044744337335906 0.31412092038659428 0 0.0087281755863181168 0.33049580891976171 0 0.020410497070949891 0.30832150289807031 0 -0.003280447873963227 0.32161399115684158 0 0.0056044744337335906 0.31412092038659428 0 0.0087281755863181168 0.33049580891976171 0 0.0064742168078369342 0.3347740657525386 0 0.0087281755863181168 0.33049580891976171 0 -0.0050552824635438226 0.34569829691311771 0 0.0095650341834115256 0.34490192427506011 0 0.0064742168078369342 0.3347740657525386 0 0.0095650341834115256 0.34490192427506011 0 0.0064742168078369342 0.3347740657525386 0 0.017151683724365509 0.3376665205351736 0 0.0064742168078369342 0.3347740657525386 0 0.0087281755863181168 0.33049580891976171 0 0.017151683724365509 0.3376665205351736 0 0.0087281755863181168 0.33049580891976171 0 0.025353163704189718 0.33024288796319817 0 0.017151683724365509 0.3376665205351736 0 0.0087281755863181168 0.33049580891976171 0 0.025353163704189718 0.33024288796319817 0 0.025353163704189718 0.33024288796319817 0 0.017151683724365509 0.3376665205351736 0 0.035457090884324839 0.34144453771838768 0 0.0087281755863181168 0.33049580891976171 0 0.025353163704189718 0.33024288796319817 0 0.020410497070949891 0.30832150289807031 0 0.025353163704189718 0.33024288796319817 0 0.038017806832533571 0.30672300381527179 0 0.020410497070949891 0.30832150289807031 0 0.025353163704189718 0.33024288796319817 0 0.045812945845809312 0.32351293560108041 0 0.038017806832533571 0.30672300381527179 0 0.025353163704189718 0.33024288796319817 0 0.045812945845809312 0.32351293560108041 0 0.035457090884324839 0.34144453771838768 0 0.045812945845809312 0.32351293560108041 0 0.035457090884324839 0.34144453771838768 0 0.055199983679349987 0.34246375673151652 0 0.06358813508901956 0.32234581427363851 0 0.045812945845809312 0.32351293560108041 0 0.055199983679349987 0.34246375673151652 0 0.06358813508901956 0.32234581427363851 0 0.045812945845809312 0.32351293560108041 0 0.055148108477292443 0.3057593846019967 0 0.055148108477292443 0.3057593846019967 0 0.047586914097201803 0.29032131063477928 0 0.038017806832533571 0.30672300381527179 0 0.055148108477292443 0.3057593846019967 0 0.047586914097201803 0.29032131063477928 0 0.066935962560195753 0.28615893812798288 0 0.047586914097201803 0.29032131063477928 0 0.050578246113349837 0.27455429857722041 0 0.066935962560195753 0.28615893812798288 0 0.047586914097201803 0.29032131063477928 0 0.032092818555581597 0.28614719687637868 0 0.038017806832533571 0.30672300381527179 0 0.047586914097201803 0.29032131063477928 0 0.032092818555581597 0.28614719687637868 0 0.050578246113349837 0.27455429857722041 0 0.045812945845809312 0.32351293560108041 0 0.055148108477292443 0.3057593846019967 0 0.038017806832533571 0.30672300381527179 0 0.032092818555581597 0.28614719687637868 0 0.038017806832533571 0.30672300381527179 0 0.020410497070949891 0.30832150289807031 0 0.032092818555581597 0.28614719687637868 0 0.020410497070949891 0.30832150289807031 0 0.032092818555581597 0.28614719687637868 0 0.020410497070949891 0.30832150289807031 0 0.0083336089875100904 0.29343585490586271 0 0.032092818555581597 0.28614719687637868 0 0.0083336089875100904 0.29343585490586271 0 0.021382191810826279 0.2686960609189637 0 -0.0088759444352828343 0.31092800175718183 0 0.0056044744337335906 0.31412092038659428 0 0.0083336089875100904 0.29343585490586271 0 0.0056044744337335906 0.31412092038659428 0 0.020410497070949891 0.30832150289807031 0 0.0083336089875100904 0.29343585490586271 0 0.0073806355134042019 0.25529449578482938 0 3.3590645499582607e-05 0.27236849017123349 0 0.021382191810826279 0.2686960609189637 0 0.0083336089875100904 0.29343585490586271 0 3.3590645499582607e-05 0.27236849017123349 0 0.021382191810826279 0.2686960609189637 0 0.025149977659741599 0.24684982625080901 0 0.0073806355134042019 0.25529449578482938 0 0.021382191810826279 0.2686960609189637 0 0.025149977659741599 0.24684982625080901 0 0.021382191810826279 0.2686960609189637 0 0.043775140040213267 0.26397289085468728 0 0.025149977659741599 0.24684982625080901 0 0.045472231705318063 0.24424317023843681 0 0.050158093690384618 0.2598810672441918 0 0.025149977659741599 0.24684982625080901 0 0.050158093690384618 0.2598810672441918 0 0.025149977659741599 0.24684982625080901 0 0.043775140040213267 0.26397289085468728 0 0.050158093690384618 0.2598810672441918 0 0.032092818555581597 0.28614719687637868 0 0.043775140040213267 0.26397289085468728 0 0.032092818555581597 0.28614719687637868 0 0.021382191810826279 0.2686960609189637 0 0.043775140040213267 0.26397289085468728 0 0.032092818555581597 0.28614719687637868 0 0.043775140040213267 0.26397289085468728 0 0.050578246113349837 0.27455429857722041 0 0.050578246113349837 0.27455429857722041 0 0.063875668081316214 0.2678607518654692 0 0.066935962560195753 0.28615893812798288 0 0.043775140040213267 0.26397289085468728 0 0.050578246113349837 0.27455429857722041 0 0.050158093690384618 0.2598810672441918 0 0.050578246113349837 0.27455429857722041 0 0.056046126259945157 0.25263236173372139 0 0.063875668081316214 0.2678607518654692 0 0.050578246113349837 0.27455429857722041 0 0.050158093690384618 0.2598810672441918 0 0.056046126259945157 0.25263236173372139 0 0.045472231705318063 0.24424317023843681 0 0.050158093690384618 0.2598810672441918 0 0.056046126259945157 0.25263236173372139 0 0.050578246113349837 0.27455429857722041 0 0.056046126259945157 0.25263236173372139 0 0.078525547080241467 0.2465942846531784 0 0.067905867336300579 0.25358800162702 0 0.079567988853459573 0.27014218499250892 0 0.067905867336300579 0.25358800162702 0 0.079567988853459573 0.27014218499250892 0 0.063875668081316214 0.2678607518654692 0 0.056046126259945157 0.25263236173372139 0 0.067905867336300579 0.25358800162702 0 0.063875668081316214 0.2678607518654692 0 0.078525547080241467 0.2465942846531784 0 0.079567988853459573 0.27014218499250892 0 0.093798877441032588 0.2579700649065903 0 0.079567988853459573 0.27014218499250892 0 0.063875668081316214 0.2678607518654692 0 0.066935962560195753 0.28615893812798288 0 0.079567988853459573 0.27014218499250892 0 0.066935962560195753 0.28615893812798288 0 0.087430381393448858 0.29852998767476718 0 0.066935962560195753 0.28615893812798288 0 0.071244474661197085 0.3036312559279935 0 0.087430381393448858 0.29852998767476718 0 0.055148108477292443 0.3057593846019967 0 0.066935962560195753 0.28615893812798288 0 0.071244474661197085 0.3036312559279935 0 0.06358813508901956 0.32234581427363851 0 0.055148108477292443 0.3057593846019967 0 0.071244474661197085 0.3036312559279935 0 0.081254576285268804 0.3210829637434266 0 0.087430381393448858 0.29852998767476718 0 0.1104734498024164 0.31171603628350752 0 0.081254576285268804 0.3210829637434266 0 0.071244474661197085 0.3036312559279935 0 0.087430381393448858 0.29852998767476718 0 0.079567988853459573 0.27014218499250892 0 0.087430381393448858 0.29852998767476718 0 0.1079828451826004 0.27738565586056829 0 0.087430381393448858 0.29852998767476718 0 0.1104734498024164 0.31171603628350752 0 0.1079828451826004 0.27738565586056829 0 0.1104734498024164 0.31171603628350752 0 0.1079828451826004 0.27738565586056829 0 0.13401849175413849 0.29214957311260448 0 0.1079828451826004 0.27738565586056829 0 0.13401849175413849 0.29214957311260448 0 0.1100607559553454 0.25396994184181759 0 0.1079828451826004 0.27738565586056829 0 0.13366986361514199 0.26692500362740812 0 0.12787711237058769 0.24521089126939841 0 0.1100607559553454 0.25396994184181759 0 0.13366986361514199 0.26692500362740812 0 0.092857250133516089 0.24175825718487831 0 0.1100607559553454 0.25396994184181759 0 0.093798877441032588 0.2579700649065903 0 0.1100607559553454 0.25396994184181759 0 0.093798877441032588 0.2579700649065903 0 0.1079828451826004 0.27738565586056829 0 0.079567988853459573 0.27014218499250892 0 0.093798877441032588 0.2579700649065903 0 0.1079828451826004 0.27738565586056829 0 0.13366986361514199 0.26692500362740812 0 0.1558685034792309 0.28595093384994291 0 0.15959452244756481 0.26367036214955358 0 0.14702044576598061 0.2478904659134552 0 0.13366986361514199 0.26692500362740812 0 0.15959452244756481 0.26367036214955358 0 0.14702044576598061 0.2478904659134552 0 0.12787711237058769 0.24521089126939841 0 0.13366986361514199 0.26692500362740812 0 0.1079828451826004 0.27738565586056829 0 0.13366986361514199 0.26692500362740812 0 0.13401849175413849 0.29214957311260448 0 0.1104734498024164 0.31171603628350752 0 0.13401849175413849 0.29214957311260448 0 0.14183880654046921 0.32250528078568202 0 0.13401849175413849 0.29214957311260448 0 0.16005413832567669 0.30691349036464077 0 0.14183880654046921 0.32250528078568202 0 0.13401849175413849 0.29214957311260448 0 0.16005413832567669 0.30691349036464077 0 0.13401849175413849 0.29214957311260448 0 0.1558685034792309 0.28595093384994291 0 0.16005413832567669 0.30691349036464077 0 0.13366986361514199 0.26692500362740812 0 0.13401849175413849 0.29214957311260448 0 0.1558685034792309 0.28595093384994291 0 0.1558685034792309 0.28595093384994291 0 0.1700220001876428 0.28782965529906401 0 0.16005413832567669 0.30691349036464077 0 0.1558685034792309 0.28595093384994291 0 0.1700220001876428 0.28782965529906401 0 0.17370236977615991 0.27502287964280692 0 0.1700220001876428 0.28782965529906401 0 0.16005413832567669 0.30691349036464077 0 0.1764196225356903 0.29880027385689728 0 0.16005413832567669 0.30691349036464077 0 0.1764196225356903 0.29880027385689728 0 0.18686192329242929 0.31378732528256248 0 0.1764196225356903 0.29880027385689728 0 0.18674031124236579 0.30201460306836742 0 0.19086383386244751 0.2907864273273883 0 0.1764196225356903 0.29880027385689728 0 0.18674031124236579 0.30201460306836742 0 0.18686192329242929 0.31378732528256248 0 0.1700220001876428 0.28782965529906401 0 0.18013512871176271 0.28566990799825959 0 0.17370236977615991 0.27502287964280692 0 0.1700220001876428 0.28782965529906401 0 0.1764196225356903 0.29880027385689728 0 0.18013512871176271 0.28566990799825959 0 0.1764196225356903 0.29880027385689728 0 0.18013512871176271 0.28566990799825959 0 0.19086383386244751 0.2907864273273883 0 0.18013512871176271 0.28566990799825959 0 0.1896678171968729 0.27591030386514148 0 0.19086383386244751 0.2907864273273883 0 0.18251379545819379 0.26835647973838378 0 0.17370236977615991 0.27502287964280692 0 0.1896678171968729 0.27591030386514148 0 0.18013512871176271 0.28566990799825959 0 0.17370236977615991 0.27502287964280692 0 0.1896678171968729 0.27591030386514148 0 0.18251379545819379 0.26835647973838378 0 0.17370236977615991 0.27502287964280692 0 0.17699066645021869 0.2595722272450377 0 0.17370236977615991 0.27502287964280692 0 0.15959452244756481 0.26367036214955358 0 0.17699066645021869 0.2595722272450377 0 0.1558685034792309 0.28595093384994291 0 0.17370236977615991 0.27502287964280692 0 0.15959452244756481 0.26367036214955358 0 0.16774616909827719 0.2460930353984315 0 0.15959452244756481 0.26367036214955358 0 0.17699066645021869 0.2595722272450377 0 0.14702044576598061 0.2478904659134552 0 0.16774616909827719 0.2460930353984315 0 0.15959452244756481 0.26367036214955358 0 0.18692125413578081 0.24552837502103991 0 0.16774616909827719 0.2460930353984315 0 0.17699066645021869 0.2595722272450377 0 0.18692125413578081 0.24552837502103991 0 0.17699066645021869 0.2595722272450377 0 0.19242781921148469 0.26384338938458129 0 0.18251379545819379 0.26835647973838378 0 0.17699066645021869 0.2595722272450377 0 0.19242781921148469 0.26384338938458129 0 0.18692125413578081 0.24552837502103991 0 0.19242781921148469 0.26384338938458129 0 0.20107379594449931 0.25686311186437227 0 0.18692125413578081 0.24552837502103991 0 0.20107379594449931 0.25686311186437227 0 0.19242781921148469 0.26384338938458129 0 0.20107379594449931 0.25686311186437227 0 0.2008998280478862 0.26959186196165702 0 0.19242781921148469 0.26384338938458129 0 0.20107379594449931 0.25686311186437227 0 0.19242781921148469 0.26384338938458129 0 0.1896678171968729 0.27591030386514148 0 0.2008998280478862 0.26959186196165702 0 0.18251379545819379 0.26835647973838378 0 0.19242781921148469 0.26384338938458129 0 0.1896678171968729 0.27591030386514148 0 0.1896678171968729 0.27591030386514148 0 0.2008998280478862 0.26959186196165702 0 0.20354188417430641 0.281093168015905 0 0.2008998280478862 0.26959186196165702 0 0.2177878237122676 0.27024933667828532 0 0.20354188417430641 0.281093168015905 0 0.2177878237122676 0.27024933667828532 0 0.20354188417430641 0.281093168015905 0 0.2166033006779626 0.28924568688104418 0 0.21557305570370441 0.24515722135805329 0 0.20107379594449931 0.25686311186437227 0 0.2177878237122676 0.27024933667828532 0 0.20107379594449931 0.25686311186437227 0 0.2177878237122676 0.27024933667828532 0 0.20107379594449931 0.25686311186437227 0 0.2008998280478862 0.26959186196165702 0 0.2177878237122676 0.27024933667828532 0 0.21557305570370441 0.24515722135805329 0 0.20107379594449931 0.25686311186437227 0 0.21557305570370441 0.24515722135805329 0 0.2177878237122676 0.27024933667828532 0 0.23628031136540401 0.25597328662156199 0 0.2177878237122676 0.27024933667828532 0 0.23628031136540401 0.25597328662156199 0 0.23450185148003599 0.28363556149219821 0 0.2177878237122676 0.27024933667828532 0 0.23450185148003599 0.28363556149219821 0 0.2166033006779626 0.28924568688104418 0 0.2177878237122676 0.27024933667828532 0 0.23450185148003599 0.28363556149219821 0 0.23628031136540401 0.25597328662156199 0 0.23450185148003599 0.28363556149219821 0 0.25102838231212438 0.26850893423506528 0 0.23450185148003599 0.28363556149219821 0 0.25953152444998728 0.28294166139542631 0 0.25102838231212438 0.26850893423506528 0 0.23628031136540401 0.25597328662156199 0 0.25102838231212438 0.26850893423506528 0 0.26221447651104962 0.2479993693513689 0 0.2297645605960125 0.30261029929826411 0 0.25121587924780342 0.29702178630611242 0 0.2484846271056145 0.31037308609574782 0 0.2297645605960125 0.30261029929826411 0 0.23798581837376781 0.31938142953188831 0 0.2484846271056145 0.31037308609574782 0 0.2297645605960125 0.30261029929826411 0 0.25121587924780342 0.29702178630611242 0 0.23450185148003599 0.28363556149219821 0 0.2297645605960125 0.30261029929826411 0 0.25121587924780342 0.29702178630611242 0 0.23450185148003599 0.28363556149219821 0 0.25121587924780342 0.29702178630611242 0 0.23450185148003599 0.28363556149219821 0 0.25953152444998728 0.28294166139542631 0 0.25121587924780342 0.29702178630611242 0 0.23450185148003599 0.28363556149219821 0 0.2297645605960125 0.30261029929826411 0 0.2166033006779626 0.28924568688104418 0 0.2297645605960125 0.30261029929826411 0 0.20831324194422091 0.30819881229041318 0 0.2297645605960125 0.30261029929826411 0 0.20831324194422091 0.30819881229041318 0 0.21977364325038071 0.31928170538083578 0 0.20831324194422091 0.30819881229041318 0 0.2166033006779626 0.28924568688104418 0 0.20288664267638859 0.29424953150154581 0 0.2297645605960125 0.30261029929826411 0 0.20831324194422091 0.30819881229041318 0 0.2166033006779626 0.28924568688104418 0 0.20354188417430641 0.281093168015905 0 0.2166033006779626 0.28924568688104418 0 0.20288664267638859 0.29424953150154581 0 0.20354188417430641 0.281093168015905 0 0.20288664267638859 0.29424953150154581 0 0.19086383386244751 0.2907864273273883 0 0.20288664267638859 0.29424953150154581 0 0.19086383386244751 0.2907864273273883 0 0.19511095272300569 0.3019235629929784 0 0.1896678171968729 0.27591030386514148 0 0.20354188417430641 0.281093168015905 0 0.19086383386244751 0.2907864273273883 0 0.20831324194422091 0.30819881229041318 0 0.18686192329242929 0.31378732528256248 0 0.20831324194422091 0.30819881229041318 0 0.19511095272300569 0.3019235629929784 0 0.18686192329242929 0.31378732528256248 0 0.20831324194422091 0.30819881229041318 0 0.20288664267638859 0.29424953150154581 0 0.19511095272300569 0.3019235629929784 0 0.18674031124236579 0.30201460306836742 0 0.19086383386244751 0.2907864273273883 0 0.19511095272300569 0.3019235629929784 0 0.18674031124236579 0.30201460306836742 0 0.19511095272300569 0.3019235629929784 0 0.18686192329242929 0.31378732528256248 0 0.20141288137377081 0.31920030670374799 0 0.18686192329242929 0.31378732528256248 0 0.18608978489721489 0.32167740761667712 0 0.20831324194422091 0.30819881229041318 0 0.20141288137377081 0.31920030670374799 0 0.18686192329242929 0.31378732528256248 0 0.20141288137377081 0.31920030670374799 0 0.21212543146875301 0.33644132486871342 0 0.18608978489721489 0.32167740761667712 0 0.21212543146875301 0.33644132486871342 0 0.18608978489721489 0.32167740761667712 0 0.19231113454718349 0.34165597013868199 0 0.21212543146875301 0.33644132486871342 0 0.18608978489721489 0.32167740761667712 0 0.20831324194422091 0.30819881229041318 0 0.20141288137377081 0.31920030670374799 0 0.21977364325038071 0.31928170538083578 0 0.20141288137377081 0.31920030670374799 0 0.21212543146875301 0.33644132486871342 0 0.21977364325038071 0.31928170538083578 0 0.21977364325038071 0.31928170538083578 0 0.2290399257457596 0.32985805959198788 0 0.23798581837376781 0.31938142953188831 0 0.2297645605960125 0.30261029929826411 0 0.21977364325038071 0.31928170538083578 0 0.23798581837376781 0.31938142953188831 0 0.21212543146875301 0.33644132486871342 0 0.21977364325038071 0.31928170538083578 0 0.2290399257457596 0.32985805959198788 0 0.21212543146875301 0.33644132486871342 0 0.23060518033342339 0.33807106122714048 0 0.2290399257457596 0.32985805959198788 0 0.21212543146875301 0.33644132486871342 0 0.23060518033342339 0.33807106122714048 0 0.23816107804029091 0.35120524212074949 0 0.23060518033342339 0.33807106122714048 0 0.2290399257457596 0.32985805959198788 0 0.2430942860788903 0.33477961832711151 0 0.23060518033342339 0.33807106122714048 0 0.2430942860788903 0.33477961832711151 0 0.23816107804029091 0.35120524212074949 0 0.2484846271056145 0.31037308609574782 0 0.23798581837376781 0.31938142953188831 0 0.25508783524565293 0.32209220201309929 0 0.2430942860788903 0.33477961832711151 0 0.23798581837376781 0.31938142953188831 0 0.25508783524565293 0.32209220201309929 0 0.2290399257457596 0.32985805959198788 0 0.2430942860788903 0.33477961832711151 0 0.23798581837376781 0.31938142953188831 0 0.23439037865920059 0.35560025357312369 0 0.2386764282036242 0.37725286527910618 0 0.24311907173897271 0.36013203008567057 0 0.23439037865920059 0.35560025357312369 0 0.2386764282036242 0.37725286527910618 0 0.2492643002430574 0.365916522193315 0 0.24311907173897271 0.36013203008567057 0 0.2386764282036242 0.37725286527910618 0 0.2492643002430574 0.365916522193315 0 0.2386764282036242 0.37725286527910618 0 0.25383912625151372 0.37755129754335942 0 0.24311907173897271 0.36013203008567057 0 0.23816107804029091 0.35120524212074949 0 0.2641967246118288 0.36596915937278562 0 0.2430942860788903 0.33477961832711151 0 0.23816107804029091 0.35120524212074949 0 0.26173146881309822 0.35734024057335978 0 0.24311907173897271 0.36013203008567057 0 0.23816107804029091 0.35120524212074949 0 0.23439037865920059 0.35560025357312369 0 0.21212543146875301 0.33644132486871342 0 0.23816107804029091 0.35120524212074949 0 0.21848510057545151 0.35453686872473111 0 0.23816107804029091 0.35120524212074949 0 0.23439037865920059 0.35560025357312369 0 0.21848510057545151 0.35453686872473111 0 0.21212543146875301 0.33644132486871342 0 0.23816107804029091 0.35120524212074949 0 0.23439037865920059 0.35560025357312369 0 0.22513916990612379 0.36868200325308897 0 0.2386764282036242 0.37725286527910618 0 0.23439037865920059 0.35560025357312369 0 0.22513916990612379 0.36868200325308897 0 0.21848510057545151 0.35453686872473111 0 0.22513916990612379 0.36868200325308897 0 0.20931495008602691 0.36890180222237801 0 0.21961872799640589 0.38146559318592133 0 0.22513916990612379 0.36868200325308897 0 0.20931495008602691 0.36890180222237801 0 0.21848510057545151 0.35453686872473111 0 0.20931495008602691 0.36890180222237801 0 0.21848510057545151 0.35453686872473111 0 0.2018014651714847 0.35413555731190122 0 0.21212543146875301 0.33644132486871342 0 0.21848510057545151 0.35453686872473111 0 0.2018014651714847 0.35413555731190122 0 0.19231113454718349 0.34165597013868199 0 0.2018014651714847 0.35413555731190122 0 0.1832131523033072 0.3569188224833833 0 0.19231113454718349 0.34165597013868199 0 0.21212543146875301 0.33644132486871342 0 0.2018014651714847 0.35413555731190122 0 0.20931495008602691 0.36890180222237801 0 0.2018014651714847 0.35413555731190122 0 0.19217836357317111 0.36996972767433872 0 0.20931495008602691 0.36890180222237801 0 0.19217836357317111 0.36996972767433872 0 0.20289108470775991 0.38370682355227331 0 0.2018014651714847 0.35413555731190122 0 0.19217836357317111 0.36996972767433872 0 0.1832131523033072 0.3569188224833833 0 0.19217836357317111 0.36996972767433872 0 0.17197644233242751 0.37002706837148541 0 0.1832131523033072 0.3569188224833833 0 0.17197644233242751 0.37002706837148541 0 0.16866852787741549 0.35230522619665788 0 0.1832131523033072 0.3569188224833833 0 0.17197644233242751 0.37002706837148541 0 0.16866852787741549 0.35230522619665788 0 0.15186920095361911 0.35620033980905319 0 0.17197644233242751 0.37002706837148541 0 0.15186920095361911 0.35620033980905319 0 0.15185568245476189 0.37707061606136422 0 0.16866852787741549 0.35230522619665788 0 0.1579580049025659 0.33927316190663209 0 0.15186920095361911 0.35620033980905319 0 0.16866852787741549 0.35230522619665788 0 0.1832131523033072 0.3569188224833833 0 0.17832583889515771 0.33910673841273542 0 0.19231113454718349 0.34165597013868199 0 0.1832131523033072 0.3569188224833833 0 0.17832583889515771 0.33910673841273542 0 0.17832583889515771 0.33910673841273542 0 0.18608978489721489 0.32167740761667712 0 0.16647560889869609 0.32578562508456149 0 0.19231113454718349 0.34165597013868199 0 0.17832583889515771 0.33910673841273542 0 0.18608978489721489 0.32167740761667712 0 0.16005413832567669 0.30691349036464077 0 0.18608978489721489 0.32167740761667712 0 0.16005413832567669 0.30691349036464077 0 0.18686192329242929 0.31378732528256248 0 0.18608978489721489 0.32167740761667712 0 0.16005413832567669 0.30691349036464077 0 0.18608978489721489 0.32167740761667712 0 0.16647560889869609 0.32578562508456149 0 0.17832583889515771 0.33910673841273542 0 0.16647560889869609 0.32578562508456149 0 0.1579580049025659 0.33927316190663209 0 0.16866852787741549 0.35230522619665788 0 0.17832583889515771 0.33910673841273542 0 0.1579580049025659 0.33927316190663209 0 0.16647560889869609 0.32578562508456149 0 0.1579580049025659 0.33927316190663209 0 0.14183880654046921 0.32250528078568202 0 0.1579580049025659 0.33927316190663209 0 0.14183880654046921 0.32250528078568202 0 0.14054269679001921 0.34363296691054102 0 0.16005413832567669 0.30691349036464077 0 0.16647560889869609 0.32578562508456149 0 0.14183880654046921 0.32250528078568202 0 0.1202868522871179 0.34060046584014031 0 0.14183880654046921 0.32250528078568202 0 0.14054269679001921 0.34363296691054102 0 0.1202868522871179 0.34060046584014031 0 0.14054269679001921 0.34363296691054102 0 0.13274728415341139 0.36410634055334368 0 0.13274728415341139 0.36410634055334368 0 0.15186920095361911 0.35620033980905319 0 0.15185568245476189 0.37707061606136422 0 0.14054269679001921 0.34363296691054102 0 0.13274728415341139 0.36410634055334368 0 0.15186920095361911 0.35620033980905319 0 0.1579580049025659 0.33927316190663209 0 0.14054269679001921 0.34363296691054102 0 0.15186920095361911 0.35620033980905319 0 0.15352992747694119 0.40026604784697911 0 0.13692284990477191 0.38930777957628943 0 0.1397509022148696 0.40843688002483958 0 0.15352992747694119 0.40026604784697911 0 0.15185568245476189 0.37707061606136422 0 0.13692284990477191 0.38930777957628943 0 0.13274728415341139 0.36410634055334368 0 0.15185568245476189 0.37707061606136422 0 0.13692284990477191 0.38930777957628943 0 0.119448870245615 0.38256434187866972 0 0.13274728415341139 0.36410634055334368 0 0.13692284990477191 0.38930777957628943 0 0.115428724103706 0.40267530492779557 0 0.13692284990477191 0.38930777957628943 0 0.1397509022148696 0.40843688002483958 0 0.12259086230274099 0.42947812748907283 0 0.1397509022148696 0.40843688002483958 0 0.14363603346764281 0.42707530835579988 0 0.12259086230274099 0.42947812748907283 0 0.115428724103706 0.40267530492779557 0 0.1397509022148696 0.40843688002483958 0 0.12259086230274099 0.42947812748907283 0 0.14363603346764281 0.42707530835579988 0 0.13510526379757609 0.44116740875256688 0 0.14363603346764281 0.42707530835579988 0 0.16526304614212209 0.42908608809292892 0 0.1507341445198021 0.44370602134863157 0 0.14363603346764281 0.42707530835579988 0 0.15527295380072001 0.4153931176925994 0 0.16526304614212209 0.42908608809292892 0 0.14363603346764281 0.42707530835579988 0 0.1507341445198021 0.44370602134863157 0 0.13510526379757609 0.44116740875256688 0 0.1397509022148696 0.40843688002483958 0 0.14363603346764281 0.42707530835579988 0 0.15527295380072001 0.4153931176925994 0 0.15352992747694119 0.40026604784697911 0 0.1397509022148696 0.40843688002483958 0 0.15527295380072001 0.4153931176925994 0 0.15527295380072001 0.4153931176925994 0 0.1711416470664554 0.41062619466687539 0 0.16526304614212209 0.42908608809292892 0 0.15352992747694119 0.40026604784697911 0 0.15527295380072001 0.4153931176925994 0 0.1711416470664554 0.41062619466687539 0 0.16526304614212209 0.42908608809292892 0 0.1809560021812836 0.43814832633623357 0 0.16598328874466911 0.44273574664910909 0 0.16526304614212209 0.42908608809292892 0 0.18469425222239219 0.42125941149134333 0 0.1809560021812836 0.43814832633623357 0 0.1711416470664554 0.41062619466687539 0 0.16526304614212209 0.42908608809292892 0 0.18469425222239219 0.42125941149134333 0 0.1711416470664554 0.41062619466687539 0 0.18469425222239219 0.42125941149134333 0 0.1843100454414533 0.40126956181167389 0 0.1711416470664554 0.41062619466687539 0 0.1843100454414533 0.40126956181167389 0 0.16952276405911931 0.3912061138884545 0 0.1843100454414533 0.40126956181167389 0 0.16952276405911931 0.3912061138884545 0 0.18589276442329861 0.38606835492789338 0 0.15352992747694119 0.40026604784697911 0 0.1711416470664554 0.41062619466687539 0 0.16952276405911931 0.3912061138884545 0 0.15352992747694119 0.40026604784697911 0 0.15185568245476189 0.37707061606136422 0 0.16952276405911931 0.3912061138884545 0 0.17197644233242751 0.37002706837148541 0 0.15185568245476189 0.37707061606136422 0 0.16952276405911931 0.3912061138884545 0 0.17197644233242751 0.37002706837148541 0 0.16952276405911931 0.3912061138884545 0 0.18589276442329861 0.38606835492789338 0 0.19217836357317111 0.36996972767433872 0 0.17197644233242751 0.37002706837148541 0 0.18589276442329861 0.38606835492789338 0 0.18589276442329861 0.38606835492789338 0 0.20289108470775991 0.38370682355227331 0 0.19700705340585539 0.39579078134538831 0 0.19217836357317111 0.36996972767433872 0 0.18589276442329861 0.38606835492789338 0 0.20289108470775991 0.38370682355227331 0 0.19700705340585539 0.39579078134538831 0 0.21316338490038089 0.39704202397260657 0 0.19877798755638451 0.41086714246249401 0 0.1843100454414533 0.40126956181167389 0 0.19700705340585539 0.39579078134538831 0 0.19877798755638451 0.41086714246249401 0 0.1843100454414533 0.40126956181167389 0 0.18589276442329861 0.38606835492789338 0 0.19700705340585539 0.39579078134538831 0 0.20289108470775991 0.38370682355227331 0 0.19700705340585539 0.39579078134538831 0 0.21316338490038089 0.39704202397260657 0 0.20931495008602691 0.36890180222237801 0 0.20289108470775991 0.38370682355227331 0 0.21961872799640589 0.38146559318592133 0 0.20289108470775991 0.38370682355227331 0 0.21316338490038089 0.39704202397260657 0 0.21961872799640589 0.38146559318592133 0 0.22513916990612379 0.36868200325308897 0 0.21961872799640589 0.38146559318592133 0 0.2386764282036242 0.37725286527910618 0 0.21961872799640589 0.38146559318592133 0 0.22852735017452019 0.39320804083607441 0 0.2386764282036242 0.37725286527910618 0 0.21316338490038089 0.39704202397260657 0 0.21961872799640589 0.38146559318592133 0 0.22852735017452019 0.39320804083607441 0 0.21316338490038089 0.39704202397260657 0 0.22852735017452019 0.39320804083607441 0 0.22983145469658259 0.40925978250573319 0 0.21316338490038089 0.39704202397260657 0 0.22983145469658259 0.40925978250573319 0 0.22852735017452019 0.39320804083607441 0 0.2429624777480478 0.39890547698508871 0 0.22983145469658259 0.40925978250573319 0 0.2429624777480478 0.39890547698508871 0 0.2386764282036242 0.37725286527910618 0 0.22852735017452019 0.39320804083607441 0 0.2429624777480478 0.39890547698508871 0 0.2386764282036242 0.37725286527910618 0 0.2429624777480478 0.39890547698508871 0 0.2386764282036242 0.37725286527910618 0 0.25341304662754638 0.38974012394171498 0 0.2386764282036242 0.37725286527910618 0 0.25383912625151372 0.37755129754335942 0 0.25341304662754638 0.38974012394171498 0 0.24649952449278431 0.42147754103885982 0 0.22996656543308741 0.44177288309861867 0 0.24946733303660301 0.43176723098649622 0 0.24649952449278431 0.42147754103885982 0 0.22996656543308741 0.44177288309861867 0 0.24649952449278431 0.42147754103885982 0 0.22738899126970491 0.42458926785457718 0 0.22996656543308741 0.44177288309861867 0 0.24946733303660301 0.43176723098649622 0 0.24649952449278431 0.42147754103885982 0 0.2429624777480478 0.39890547698508871 0 0.24649952449278431 0.42147754103885982 0 0.24649952449278431 0.42147754103885982 0 0.22983145469658259 0.40925978250573319 0 0.22738899126970491 0.42458926785457718 0 0.24649952449278431 0.42147754103885982 0 0.22983145469658259 0.40925978250573319 0 0.2429624777480478 0.39890547698508871 0 0.24649952449278431 0.42147754103885982 0 0.22983145469658259 0.40925978250573319 0 0.21316338490038089 0.39704202397260657 0 0.22983145469658259 0.40925978250573319 0 0.21370806227123909 0.41789950377956148 0 0.22983145469658259 0.40925978250573319 0 0.22738899126970491 0.42458926785457718 0 0.21370806227123909 0.41789950377956148 0 0.22738899126970491 0.42458926785457718 0 0.21739304288862979 0.43200563017257382 0 0.22996656543308741 0.44177288309861867 0 0.22738899126970491 0.42458926785457718 0 0.21739304288862979 0.43200563017257382 0 0.21370806227123909 0.41789950377956148 0 0.21739304288862979 0.43200563017257382 0 0.1999317510848099 0.43097584272053618 0 0.2111195299095035 0.44359306409302351 0 0.21739304288862979 0.43200563017257382 0 0.21370806227123909 0.41789950377956148 0 0.1999317510848099 0.43097584272053618 0 0.21370806227123909 0.41789950377956148 0 0.19877798755638451 0.41086714246249401 0 0.1999317510848099 0.43097584272053618 0 0.21316338490038089 0.39704202397260657 0 0.21370806227123909 0.41789950377956148 0 0.19877798755638451 0.41086714246249401 0 0.18469425222239219 0.42125941149134333 0 0.19877798755638451 0.41086714246249401 0 0.1999317510848099 0.43097584272053618 0 0.18469425222239219 0.42125941149134333 0 0.1843100454414533 0.40126956181167389 0 0.19877798755638451 0.41086714246249401 0 0.18469425222239219 0.42125941149134333 0 0.1999317510848099 0.43097584272053618 0 0.1809560021812836 0.43814832633623357 0 0.1999317510848099 0.43097584272053618 0 0.19479511809318301 0.4526549487178691 0 0.2111195299095035 0.44359306409302351 0 0.1999317510848099 0.43097584272053618 0 0.19479511809318301 0.4526549487178691 0 0.1809560021812836 0.43814832633623357 0 0.19479511809318301 0.4526549487178691 0 0.213169792932182 0.46047172596691099 0 0.19211155850092579 0.47790980627879082 0 0.19479511809318301 0.4526549487178691 0 0.19211155850092579 0.47790980627879082 0 0.18348770279874721 0.46143911161818069 0 0.213169792932182 0.46047172596691099 0 0.2111195299095035 0.44359306409302351 0 0.22996656543308741 0.44177288309861867 0 0.19479511809318301 0.4526549487178691 0 0.213169792932182 0.46047172596691099 0 0.2111195299095035 0.44359306409302351 0 0.21739304288862979 0.43200563017257382 0 0.2111195299095035 0.44359306409302351 0 0.22996656543308741 0.44177288309861867 0 0.22996656543308741 0.44177288309861867 0 0.22854105436186559 0.46372788353366717 0 0.24141841662185301 0.45603819576859073 0 0.213169792932182 0.46047172596691099 0 0.22854105436186559 0.46372788353366717 0 0.221321310837439 0.47674074212904899 0 0.213169792932182 0.46047172596691099 0 0.22996656543308741 0.44177288309861867 0 0.22854105436186559 0.46372788353366717 0 0.24141841662185301 0.45603819576859073 0 0.23645949407781469 0.47608243786178739 0 0.25047151807745072 0.47036873115219768 0 0.22854105436186559 0.46372788353366717 0 0.24141841662185301 0.45603819576859073 0 0.23645949407781469 0.47608243786178739 0 0.24141841662185301 0.45603819576859073 0 0.25047151807745072 0.47036873115219768 0 0.25477099823403621 0.45804476415031298 0 0.24141841662185301 0.45603819576859073 0 0.25282491994113748 0.44831200937164878 0 0.25477099823403621 0.45804476415031298 0 0.22996656543308741 0.44177288309861867 0 0.24141841662185301 0.45603819576859073 0 0.24583280085865111 0.44361242472787987 0 0.24946733303660301 0.43176723098649622 0 0.22996656543308741 0.44177288309861867 0 0.24583280085865111 0.44361242472787987 0 0.24141841662185301 0.45603819576859073 0 0.24583280085865111 0.44361242472787987 0 0.25282491994113748 0.44831200937164878 0 0.24904418528453851 0.48634810883828161 0 0.23645949407781469 0.47608243786178739 0 0.23352830384551029 0.49999999999999978 0 0.24904418528453851 0.48634810883828161 0 0.23352830384551029 0.49999999999999978 0 0.25181722630913472 0.5 0 0.24904418528453851 0.48634810883828161 0 0.23645949407781469 0.47608243786178739 0 0.25047151807745072 0.47036873115219768 0 0.23645949407781469 0.47608243786178739 0 0.221321310837439 0.47674074212904899 0 0.23352830384551029 0.49999999999999978 0 0.22854105436186559 0.46372788353366717 0 0.23645949407781469 0.47608243786178739 0 0.221321310837439 0.47674074212904899 0 0.23352830384551029 0.49999999999999978 0 0.2128199311732181 0.48895490313939532 0 0.21702906166474581 0.5 0 0.23352830384551029 0.49999999999999978 0 0.2128199311732181 0.48895490313939532 0 0.221321310837439 0.47674074212904899 0 0.23352830384551029 0.49999999999999978 0 0.2128199311732181 0.48895490313939532 0 0.2128199311732181 0.48895490313939532 0 0.21702906166474581 0.5 0 0.20052981948398141 0.49999999999999989 0 0.213169792932182 0.46047172596691099 0 0.221321310837439 0.47674074212904899 0 0.19211155850092579 0.47790980627879082 0 0.221321310837439 0.47674074212904899 0 0.2128199311732181 0.48895490313939532 0 0.19211155850092579 0.47790980627879082 0 0.2128199311732181 0.48895490313939532 0 0.19211155850092579 0.47790980627879082 0 0.2128199311732181 0.48895490313939532 0 0.20052981948398141 0.49999999999999989 0 0.19295831529489699 0.4905304616351287 0 0.2128199311732181 0.48895490313939532 0 0.19211155850092579 0.47790980627879082 0 0.19295831529489699 0.4905304616351287 0 0.20052981948398141 0.49999999999999989 0 0.1839227339461352 0.49861489743603538 0 0.20052981948398141 0.49999999999999989 0 0.19295831529489699 0.4905304616351287 0 0.1839227339461352 0.49861489743603538 0 0.19211155850092579 0.47790980627879082 0 0.19295831529489699 0.4905304616351287 0 0.1809625144841838 0.48570342190566712 0 0.1839227339461352 0.49861489743603538 0 0.1809625144841838 0.48570342190566712 0 0.16731564840828889 0.49722979487207219 0 0.1839227339461352 0.49861489743603538 0 0.16731564840828889 0.49722979487207219 0 0.1839227339461352 0.49861489743603538 0 0.1669427425872391 0.49999999999999922 0 0.16731564840828889 0.49722979487207219 0 0.19295831529489699 0.4905304616351287 0 0.1839227339461352 0.49861489743603538 0 0.1809625144841838 0.48570342190566712 0 0.1809625144841838 0.48570342190566712 0 0.16731564840828889 0.49722979487207219 0 0.16935941711846161 0.48204725214512889 0 0.16731564840828889 0.49722979487207219 0 0.157708884996551 0.48584061526662409 0 0.14611751268168829 0.49546177892012921 0 0.16731564840828889 0.49722979487207219 0 0.14611751268168829 0.49546177892012921 0 0.1669427425872391 0.49999999999999922 0 0.16731564840828889 0.49722979487207219 0 0.14611751268168829 0.49546177892012921 0 0.1669427425872391 0.49999999999999922 0 0.16731564840828889 0.49722979487207219 0 0.16731564840828889 0.49722979487207219 0 0.16935941711846161 0.48204725214512889 0 0.16731564840828889 0.49722979487207219 0 0.157708884996551 0.48584061526662409 0 0.16935941711846161 0.48204725214512889 0 0.16382575626869561 0.4735735187060508 0 0.15802571703479451 0.46684670821381258 0 0.1531189490294651 0.47544631339495541 0 0.157708884996551 0.48584061526662409 0 0.16382575626869561 0.4735735187060508 0 0.1531189490294651 0.47544631339495541 0 0.157708884996551 0.48584061526662409 0 0.16382575626869561 0.4735735187060508 0 0.16935941711846161 0.48204725214512889 0 0.16935941711846161 0.48204725214512889 0 0.17140318582863401 0.46686470941818559 0 0.16382575626869561 0.4735735187060508 0 0.16935941711846161 0.48204725214512889 0 0.17140318582863401 0.46686470941818559 0 0.1809625144841838 0.48570342190566712 0 0.16935941711846161 0.48204725214512889 0 0.17140318582863401 0.46686470941818559 0 0.19211155850092579 0.47790980627879082 0 0.1809625144841838 0.48570342190566712 0 0.17140318582863401 0.46686470941818559 0 0.19211155850092579 0.47790980627879082 0 0.17140318582863401 0.46686470941818559 0 0.19479511809318301 0.4526549487178691 0 0.18348770279874721 0.46143911161818069 0 0.17341546959919829 0.45191605883299152 0 0.19211155850092579 0.47790980627879082 0 0.18348770279874721 0.46143911161818069 0 0.17140318582863401 0.46686470941818559 0 0.18348770279874721 0.46143911161818069 0 0.17341546959919829 0.45191605883299152 0 0.17140318582863401 0.46686470941818559 0 0.17341546959919829 0.45191605883299152 0 0.17140318582863401 0.46686470941818559 0 0.19479511809318301 0.4526549487178691 0 0.1809560021812836 0.43814832633623357 0 0.17341546959919829 0.45191605883299152 0 0.1809560021812836 0.43814832633623357 0 0.17341546959919829 0.45191605883299152 0 0.16598328874466911 0.44273574664910909 0 0.17341546959919829 0.45191605883299152 0 0.16598328874466911 0.44273574664910909 0 0.15954778128093949 0.4508222386347599 0 0.16598328874466911 0.44273574664910909 0 0.15954778128093949 0.4508222386347599 0 0.1507341445198021 0.44370602134863157 0 0.16526304614212209 0.42908608809292892 0 0.16598328874466911 0.44273574664910909 0 0.1507341445198021 0.44370602134863157 0 0.16382575626869561 0.4735735187060508 0 0.1651762257979181 0.46354347419730452 0 0.17140318582863401 0.46686470941818559 0 0.1651762257979181 0.46354347419730452 0 0.17140318582863401 0.46686470941818559 0 0.17341546959919829 0.45191605883299152 0 0.1651762257979181 0.46354347419730452 0 0.17140318582863401 0.46686470941818559 0 0.17341546959919829 0.45191605883299152 0 0.15954778128093949 0.4508222386347599 0 0.1651762257979181 0.46354347419730452 0 0.15954778128093949 0.4508222386347599 0 0.1651762257979181 0.46354347419730452 0 0.1582471669695637 0.45974252444074731 0 0.16382575626869561 0.4735735187060508 0 0.1651762257979181 0.46354347419730452 0 0.15802571703479451 0.46684670821381258 0 0.1651762257979181 0.46354347419730452 0 0.1582471669695637 0.45974252444074731 0 0.15802571703479451 0.46684670821381258 0 0.14976048710833001 0.46192771033000529 0 0.1507341445198021 0.44370602134863157 0 0.136404492151351 0.45486193181106682 0 0.1582471669695637 0.45974252444074731 0 0.15802571703479451 0.46684670821381258 0 0.14976048710833001 0.46192771033000529 0 0.15802571703479451 0.46684670821381258 0 0.14976048710833001 0.46192771033000529 0 0.1531189490294651 0.47544631339495541 0 0.15954778128093949 0.4508222386347599 0 0.1582471669695637 0.45974252444074731 0 0.14976048710833001 0.46192771033000529 0 0.14976048710833001 0.46192771033000529 0 0.136404492151351 0.45486193181106682 0 0.13663143795624749 0.46910754811773492 0 0.15954778128093949 0.4508222386347599 0 0.14976048710833001 0.46192771033000529 0 0.1507341445198021 0.44370602134863157 0 0.1507341445198021 0.44370602134863157 0 0.13510526379757609 0.44116740875256688 0 0.136404492151351 0.45486193181106682 0 0.1221607865463437 0.4507156547582637 0 0.12259086230274099 0.42947812748907283 0 0.13510526379757609 0.44116740875256688 0 0.1221607865463437 0.4507156547582637 0 0.13510526379757609 0.44116740875256688 0 0.136404492151351 0.45486193181106682 0 0.136404492151351 0.45486193181106682 0 0.1267882431275838 0.46370707134437261 0 0.13663143795624749 0.46910754811773492 0 0.1221607865463437 0.4507156547582637 0 0.136404492151351 0.45486193181106682 0 0.1267882431275838 0.46370707134437261 0 0.1267882431275838 0.46370707134437261 0 0.12569724768963239 0.47617993877849962 0 0.13663143795624749 0.46910754811773492 0 0.12569724768963239 0.47617993877849962 0 0.13663143795624749 0.46910754811773492 0 0.1364132019148096 0.48384982340983701 0 0.13663143795624749 0.46910754811773492 0 0.1364132019148096 0.48384982340983701 0 0.14361111091913481 0.47574478002545789 0 0.1249193769550877 0.49369376296818718 0 0.1364132019148096 0.48384982340983701 0 0.14611751268168829 0.49546177892012921 0 0.1249193769550877 0.49369376296818718 0 0.14611751268168829 0.49546177892012921 0 0.1249193769550877 0.49369376296818718 0 0.12569724768963239 0.47617993877849962 0 0.1364132019148096 0.48384982340983701 0 0.1249193769550877 0.49369376296818718 0 0.13738437864054501 0.5 0 0.14611751268168829 0.49546177892012921 0 0.1364132019148096 0.48384982340983701 0 0.14611751268168829 0.49546177892012921 0 0.14718343377546941 0.48347361591025501 0 0.1669427425872391 0.49999999999999922 0 0.13738437864054501 0.5 0 0.14611751268168829 0.49546177892012921 0 0.157708884996551 0.48584061526662409 0 0.14611751268168829 0.49546177892012921 0 0.14718343377546941 0.48347361591025501 0 0.157708884996551 0.48584061526662409 0 0.1531189490294651 0.47544631339495541 0 0.14718343377546941 0.48347361591025501 0 0.14976048710833001 0.46192771033000529 0 0.1531189490294651 0.47544631339495541 0 0.14361111091913481 0.47574478002545789 0 0.14976048710833001 0.46192771033000529 0 0.13663143795624749 0.46910754811773492 0 0.14361111091913481 0.47574478002545789 0 0.1364132019148096 0.48384982340983701 0 0.14361111091913481 0.47574478002545789 0 0.14718343377546941 0.48347361591025501 0 0.1531189490294651 0.47544631339495541 0 0.14361111091913481 0.47574478002545789 0 0.14718343377546941 0.48347361591025501 0 0.35832214194920592 0.47929915408112939 0 0.34611268429232461 0.46591887339206078 0 0.3375369348076922 0.4829399206954248 0 0.35832214194920592 0.47929915408112939 0 0.35850557312216419 0.5 0 0.3375369348076922 0.4829399206954248 0 0.35850557312216419 0.5 0 0.37801407526051067 0.48065415083330842 0 0.38797204790529932 0.5 0 0.35832214194920592 0.47929915408112939 0 0.35850557312216419 0.5 0 0.37801407526051067 0.48065415083330842 0 0.35832214194920592 0.47929915408112939 0 0.36980735363827261 0.46050290225189661 0 0.37801407526051067 0.48065415083330842 0 0.36980735363827261 0.46050290225189661 0 0.34502769605759259 0.44546544446971242 0 0.36959298495063608 0.43610817863788948 0 0.35832214194920592 0.47929915408112939 0 0.36980735363827261 0.46050290225189661 0 0.34611268429232461 0.46591887339206078 0 0.36980735363827261 0.46050290225189661 0 0.34502769605759259 0.44546544446971242 0 0.34611268429232461 0.46591887339206078 0 0.36980735363827261 0.46050290225189661 0 0.34611268429232461 0.46591887339206078 0 0.34611268429232461 0.46591887339206078 0 0.3317687487832644 0.45597005559148451 0 0.32241801494637662 0.47133484453222518 0 0.34502769605759259 0.44546544446971242 0 0.34611268429232461 0.46591887339206078 0 0.3317687487832644 0.45597005559148451 0 0.34611268429232461 0.46591887339206078 0 0.32241801494637662 0.47133484453222518 0 0.34502769605759259 0.44546544446971242 0 0.3317687487832644 0.45597005559148451 0 0.32480939915707069 0.44218818576869201 0 0.34502769605759259 0.44546544446971242 0 0.32480939915707069 0.44218818576869201 0 0.33523501366627878 0.43221560569608392 0 0.3107318966111981 0.4514989769174147 0 0.3227404476219688 0.42624713816244092 0 0.3317687487832644 0.45597005559148451 0 0.32480939915707069 0.44218818576869201 0 0.3107318966111981 0.4514989769174147 0 0.32480939915707069 0.44218818576869201 0 0.3107318966111981 0.4514989769174147 0 0.3227404476219688 0.42624713816244092 0 0.3317687487832644 0.45597005559148451 0 0.32241801494637662 0.47133484453222518 0 0.3107318966111981 0.4514989769174147 0 0.32241801494637662 0.47133484453222518 0 0.3375369348076922 0.4829399206954248 0 0.31372501333874958 0.48784291822244708 0 0.34611268429232461 0.46591887339206078 0 0.32241801494637662 0.47133484453222518 0 0.3375369348076922 0.4829399206954248 0 0.35850557312216419 0.5 0 0.3375369348076922 0.4829399206954248 0 0.32903909833902928 0.5 0 0.32903909833902928 0.5 0 0.31372501333874958 0.48784291822244708 0 0.29957262355589431 0.5 0 0.3375369348076922 0.4829399206954248 0 0.32903909833902928 0.5 0 0.31372501333874958 0.48784291822244708 0 0.31372501333874958 0.48784291822244708 0 0.30130976803097798 0.48891801032572652 0 0.29957262355589431 0.5 0 0.31372501333874958 0.48784291822244708 0 0.30130976803097798 0.48891801032572652 0 0.29872334560042851 0.47675081567238892 0 0.30130976803097798 0.48891801032572652 0 0.29957262355589431 0.5 0 0.28978827390519868 0.49553967616935518 0 0.32241801494637662 0.47133484453222518 0 0.29872334560042851 0.47675081567238892 0 0.32241801494637662 0.47133484453222518 0 0.31372501333874958 0.48784291822244708 0 0.29872334560042851 0.47675081567238892 0 0.29872334560042851 0.47675081567238892 0 0.28397488520641462 0.48012192141307769 0 0.28978827390519868 0.49553967616935518 0 0.29872334560042851 0.47675081567238892 0 0.28929399795500932 0.47058792179259418 0 0.29703527816799058 0.46117092995693892 0 0.29872334560042851 0.47675081567238892 0 0.28929399795500932 0.47058792179259418 0 0.28397488520641462 0.48012192141307769 0 0.29872334560042851 0.47675081567238892 0 0.28397488520641462 0.48012192141307769 0 0.28929399795500932 0.47058792179259418 0 0.28397488520641462 0.48012192141307769 0 0.27920072977811172 0.47805830749059319 0 0.28397488520641462 0.48012192141307769 0 0.28978827390519868 0.49553967616935518 0 0.27010614877275918 0.50000000000000067 0 0.29957262355589431 0.5 0 0.28978827390519868 0.49553967616935518 0 0.27010614877275918 0.50000000000000067 0 0.30130976803097798 0.48891801032572652 0 0.29872334560042851 0.47675081567238892 0 0.28978827390519868 0.49553967616935518 0 0.29872334560042851 0.47675081567238892 0 0.28978827390519868 0.49553967616935518 0 0.28397488520641462 0.48012192141307769 0 0.27010614877275918 0.50000000000000067 0 0.27920072977811172 0.47805830749059319 0 0.27010614877275918 0.50000000000000067 0 0.26909437115437917 0.48384867389528768 0 0.26130641782501518 0.49139676135406141 0 0.27010614877275918 0.50000000000000067 0 0.27920072977811172 0.47805830749059319 0 0.26909437115437917 0.48384867389528768 0 0.27010614877275918 0.50000000000000067 0 0.27920072977811172 0.47805830749059319 0 0.27920072977811172 0.47805830749059319 0 0.27306774476234302 0.47644699960251641 0 0.26909437115437917 0.48384867389528768 0 0.27920072977811172 0.47805830749059319 0 0.27306774476234302 0.47644699960251641 0 0.27643472525740193 0.46726539210963169 0 0.26824582816420722 0.47348896141386071 0 0.27306774476234302 0.47644699960251641 0 0.27643472525740193 0.46726539210963169 0 0.26824582816420722 0.47348896141386071 0 0.26909437115437917 0.48384867389528768 0 0.25993240985832161 0.47939275616227872 0 0.26824582816420722 0.47348896141386071 0 0.27306774476234302 0.47644699960251641 0 0.26909437115437917 0.48384867389528768 0 0.24904418528453851 0.48634810883828161 0 0.25993240985832161 0.47939275616227872 0 0.25047151807745072 0.47036873115219768 0 0.26824582816420722 0.47348896141386071 0 0.25993240985832161 0.47939275616227872 0 0.26165523792153211 0.46576309323832682 0 0.25993240985832161 0.47939275616227872 0 0.25047151807745072 0.47036873115219768 0 0.26165523792153211 0.46576309323832682 0 0.27010614877275918 0.50000000000000067 0 0.25181722630913472 0.5 0 0.26130641782501518 0.49139676135406141 0 0.24904418528453851 0.48634810883828161 0 0.25993240985832161 0.47939275616227872 0 0.26130641782501518 0.49139676135406141 0 0.24904418528453851 0.48634810883828161 0 0.25181722630913472 0.5 0 0.26130641782501518 0.49139676135406141 0 0.26909437115437917 0.48384867389528768 0 0.25993240985832161 0.47939275616227872 0 0.26130641782501518 0.49139676135406141 0 0.26490489917960358 0.45079530358348557 0 0.25548676926057468 0.44017180441404491 0 0.26331147225899149 0.43380076267102891 0 0.24946733303660301 0.43176723098649622 0 0.24583280085865111 0.44361242472787987 0 0.25548676926057468 0.44017180441404491 0 0.24583280085865111 0.44361242472787987 0 0.25548676926057468 0.44017180441404491 0 0.25282491994113748 0.44831200937164878 0 0.26490489917960358 0.45079530358348557 0 0.25548676926057468 0.44017180441404491 0 0.25282491994113748 0.44831200937164878 0 0.26490489917960358 0.45079530358348557 0 0.25282491994113748 0.44831200937164878 0 0.25477099823403621 0.45804476415031298 0 0.25047151807745072 0.47036873115219768 0 0.25477099823403621 0.45804476415031298 0 0.26165523792153211 0.46576309323832682 0 0.26490489917960358 0.45079530358348557 0 0.25477099823403621 0.45804476415031298 0 0.26165523792153211 0.46576309323832682 0 0.26490489917960358 0.45079530358348557 0 0.27160577401557351 0.46248804296782559 0 0.27679169795675967 0.45600994403837303 0 0.26490489917960358 0.45079530358348557 0 0.26165523792153211 0.46576309323832682 0 0.27160577401557351 0.46248804296782559 0 0.26824582816420722 0.47348896141386071 0 0.27160577401557351 0.46248804296782559 0 0.27643472525740193 0.46726539210963169 0 0.26824582816420722 0.47348896141386071 0 0.26165523792153211 0.46576309323832682 0 0.27160577401557351 0.46248804296782559 0 0.27160577401557351 0.46248804296782559 0 0.27643472525740193 0.46726539210963169 0 0.27679169795675967 0.45600994403837303 0 0.27643472525740193 0.46726539210963169 0 0.27679169795675967 0.45600994403837303 0 0.28829531078346382 0.45611661498118572 0 0.27903440424894049 0.4453257315987294 0 0.26331147225899149 0.43380076267102891 0 0.26490489917960358 0.45079530358348557 0 0.27903440424894049 0.4453257315987294 0 0.26331147225899149 0.43380076267102891 0 0.26490489917960358 0.45079530358348557 0 0.27679169795675967 0.45600994403837303 0 0.27903440424894049 0.4453257315987294 0 0.27903440424894049 0.4453257315987294 0 0.2917470315179379 0.44281751567604499 0 0.28179675760275558 0.42932557237874241 0 0.27679169795675967 0.45600994403837303 0 0.27903440424894049 0.4453257315987294 0 0.28829531078346382 0.45611661498118572 0 0.27903440424894049 0.4453257315987294 0 0.2917470315179379 0.44281751567604499 0 0.28829531078346382 0.45611661498118572 0 0.2917470315179379 0.44281751567604499 0 0.28829531078346382 0.45611661498118572 0 0.29813183988985342 0.45090032042111128 0 0.27920072977811172 0.47805830749059319 0 0.27643472525740193 0.46726539210963169 0 0.28829531078346382 0.45611661498118572 0 0.28929399795500932 0.47058792179259418 0 0.27920072977811172 0.47805830749059319 0 0.28829531078346382 0.45611661498118572 0 0.27920072977811172 0.47805830749059319 0 0.28829531078346382 0.45611661498118572 0 0.28829531078346382 0.45611661498118572 0 0.29703527816799058 0.46117092995693892 0 0.29813183988985342 0.45090032042111128 0 0.28929399795500932 0.47058792179259418 0 0.28829531078346382 0.45611661498118572 0 0.29703527816799058 0.46117092995693892 0 0.29872334560042851 0.47675081567238892 0 0.29703527816799058 0.46117092995693892 0 0.3107318966111981 0.4514989769174147 0 0.29872334560042851 0.47675081567238892 0 0.3107318966111981 0.4514989769174147 0 0.32241801494637662 0.47133484453222518 0 0.29872334560042851 0.47675081567238892 0 0.3107318966111981 0.4514989769174147 0 0.29703527816799058 0.46117092995693892 0 0.29813183988985342 0.45090032042111128 0 0.3107318966111981 0.4514989769174147 0 0.30159082278473881 0.44219288247638061 0 0.3107318966111981 0.4514989769174147 0 0.30884109342504262 0.43428586920116352 0 0.2917470315179379 0.44281751567604499 0 0.30159082278473881 0.44219288247638061 0 0.29850225247966211 0.43146173016616862 0 0.2917470315179379 0.44281751567604499 0 0.30159082278473881 0.44219288247638061 0 0.29813183988985342 0.45090032042111128 0 0.30159082278473881 0.44219288247638061 0 0.29813183988985342 0.45090032042111128 0 0.3107318966111981 0.4514989769174147 0 0.30884109342504262 0.43428586920116352 0 0.29850225247966211 0.43146173016616862 0 0.30862162828234507 0.42004495563460759 0 0.29850225247966211 0.43146173016616862 0 0.30862162828234507 0.42004495563460759 0 0.29547148538100448 0.41817397575591742 0 0.30159082278473881 0.44219288247638061 0 0.30884109342504262 0.43428586920116352 0 0.29850225247966211 0.43146173016616862 0 0.30862162828234507 0.42004495563460759 0 0.30304430461131138 0.40735012112542651 0 0.3196782615082488 0.40265332564926309 0 0.30862162828234507 0.42004495563460759 0 0.30304430461131138 0.40735012112542651 0 0.29547148538100448 0.41817397575591742 0 0.30304430461131138 0.40735012112542651 0 0.29062365375375682 0.40708788978866228 0 0.29547148538100448 0.41817397575591742 0 0.29062365375375682 0.40708788978866228 0 0.29547148538100448 0.41817397575591742 0 0.28288479604298378 0.41446876034122271 0 0.29547148538100448 0.41817397575591742 0 0.28288479604298378 0.41446876034122271 0 0.28179675760275558 0.42932557237874241 0 0.29062365375375682 0.40708788978866228 0 0.28288479604298378 0.41446876034122271 0 0.28001120465417539 0.40182109974822727 0 0.29850225247966211 0.43146173016616862 0 0.29547148538100448 0.41817397575591742 0 0.28179675760275558 0.42932557237874241 0 0.2917470315179379 0.44281751567604499 0 0.29850225247966211 0.43146173016616862 0 0.28179675760275558 0.42932557237874241 0 0.28179675760275558 0.42932557237874241 0 0.27042562322166658 0.41684269204638819 0 0.26331147225899149 0.43380076267102891 0 0.27903440424894049 0.4453257315987294 0 0.28179675760275558 0.42932557237874241 0 0.26331147225899149 0.43380076267102891 0 0.27042562322166658 0.41684269204638819 0 0.26380858941988822 0.4002294757553399 0 0.28001120465417539 0.40182109974822727 0 0.28288479604298378 0.41446876034122271 0 0.28179675760275558 0.42932557237874241 0 0.27042562322166658 0.41684269204638819 0 0.28288479604298378 0.41446876034122271 0 0.27042562322166658 0.41684269204638819 0 0.28001120465417539 0.40182109974822727 0 0.24649952449278431 0.42147754103885982 0 0.25492995388566009 0.41993008507457552 0 0.26380858941988822 0.4002294757553399 0 0.27042562322166658 0.41684269204638819 0 0.25492995388566009 0.41993008507457552 0 0.26380858941988822 0.4002294757553399 0 0.24649952449278431 0.42147754103885982 0 0.26380858941988822 0.4002294757553399 0 0.2429624777480478 0.39890547698508871 0 0.24649952449278431 0.42147754103885982 0 0.26380858941988822 0.4002294757553399 0 0.24946733303660301 0.43176723098649622 0 0.24649952449278431 0.42147754103885982 0 0.26331147225899149 0.43380076267102891 0 0.24649952449278431 0.42147754103885982 0 0.25492995388566009 0.41993008507457552 0 0.26331147225899149 0.43380076267102891 0 0.24649952449278431 0.42147754103885982 0 0.26331147225899149 0.43380076267102891 0 0.27042562322166658 0.41684269204638819 0 0.25492995388566009 0.41993008507457552 0 0.26331147225899149 0.43380076267102891 0 0.24946733303660301 0.43176723098649622 0 0.25548676926057468 0.44017180441404491 0 0.26331147225899149 0.43380076267102891 0 0.26350653962281989 0.38010735630523079 0 0.25341304662754638 0.38974012394171498 0 0.26380858941988822 0.4002294757553399 0 0.26350653962281989 0.38010735630523079 0 0.25383912625151372 0.37755129754335942 0 0.25710864090743918 0.37145542319719338 0 0.26350653962281989 0.38010735630523079 0 0.25383912625151372 0.37755129754335942 0 0.25341304662754638 0.38974012394171498 0 0.2429624777480478 0.39890547698508871 0 0.25341304662754638 0.38974012394171498 0 0.26380858941988822 0.4002294757553399 0 0.26380858941988822 0.4002294757553399 0 0.28001120465417539 0.40182109974822727 0 0.28036865154730628 0.37990086281960789 0 0.26350653962281989 0.38010735630523079 0 0.28036865154730628 0.37990086281960789 0 0.2641967246118288 0.36596915937278562 0 0.26380858941988822 0.4002294757553399 0 0.28036865154730628 0.37990086281960789 0 0.26350653962281989 0.38010735630523079 0 0.26380858941988822 0.4002294757553399 0 0.28036865154730628 0.37990086281960789 0 0.28036865154730628 0.37990086281960789 0 0.29170647807930872 0.39362549197251728 0 0.2987730087010142 0.37934426936791982 0 0.28036865154730628 0.37990086281960789 0 0.29170647807930872 0.39362549197251728 0 0.28001120465417539 0.40182109974822727 0 0.28036865154730628 0.37990086281960789 0 0.29170647807930872 0.39362549197251728 0 0.29062365375375682 0.40708788978866228 0 0.28001120465417539 0.40182109974822727 0 0.29170647807930872 0.39362549197251728 0 0.30304430461131138 0.40735012112542651 0 0.29062365375375682 0.40708788978866228 0 0.29170647807930872 0.39362549197251728 0 0.30304430461131138 0.40735012112542651 0 0.30637452063024528 0.39219955594670219 0 0.3196782615082488 0.40265332564926309 0 0.30304430461131138 0.40735012112542651 0 0.29170647807930872 0.39362549197251728 0 0.30304430461131138 0.40735012112542651 0 0.29170647807930872 0.39362549197251728 0 0.30637452063024528 0.39219955594670219 0 0.30637452063024528 0.39219955594670219 0 0.2987730087010142 0.37934426936791982 0 0.31661607539452802 0.37905951313608538 0 0.29170647807930872 0.39362549197251728 0 0.30637452063024528 0.39219955594670219 0 0.2987730087010142 0.37934426936791982 0 0.31661607539452802 0.37905951313608538 0 0.32905198958534931 0.38831461949406398 0 0.3196782615082488 0.40265332564926309 0 0.31661607539452802 0.37905951313608538 0 0.32905198958534931 0.38831461949406398 0 0.33389487655237682 0.3658352592629312 0 0.32905198958534931 0.38831461949406398 0 0.34270248502322931 0.38427053755298168 0 0.33389487655237682 0.3658352592629312 0 0.32905198958534931 0.38831461949406398 0 0.34270248502322931 0.38427053755298168 0 0.33272146632259869 0.40525883785771122 0 0.34270248502322931 0.38427053755298168 0 0.33272146632259869 0.40525883785771122 0 0.34270248502322931 0.38427053755298168 0 0.33272146632259869 0.40525883785771122 0 0.34670895149724801 0.40816004440777182 0 0.31661607539452802 0.37905951313608538 0 0.3196782615082488 0.40265332564926309 0 0.32905198958534931 0.38831461949406398 0 0.33272146632259869 0.40525883785771122 0 0.3196782615082488 0.40265332564926309 0 0.30637452063024528 0.39219955594670219 0 0.31661607539452802 0.37905951313608538 0 0.3196782615082488 0.40265332564926309 0 0.3196782615082488 0.40265332564926309 0 0.3227404476219688 0.42624713816244092 0 0.30862162828234507 0.42004495563460759 0 0.3196782615082488 0.40265332564926309 0 0.3227404476219688 0.42624713816244092 0 0.33272146632259869 0.40525883785771122 0 0.3196782615082488 0.40265332564926309 0 0.3227404476219688 0.42624713816244092 0 0.33272146632259869 0.40525883785771122 0 0.3227404476219688 0.42624713816244092 0 0.32480939915707069 0.44218818576869201 0 0.3227404476219688 0.42624713816244092 0 0.3107318966111981 0.4514989769174147 0 0.30884109342504262 0.43428586920116352 0 0.3227404476219688 0.42624713816244092 0 0.32480939915707069 0.44218818576869201 0 0.3227404476219688 0.42624713816244092 0 0.33523501366627878 0.43221560569608392 0 0.30884109342504262 0.43428586920116352 0 0.30862162828234507 0.42004495563460759 0 0.3227404476219688 0.42624713816244092 0 0.34502769605759259 0.44546544446971242 0 0.33523501366627878 0.43221560569608392 0 0.34795858503051302 0.425881111768525 0 0.3227404476219688 0.42624713816244092 0 0.33523501366627878 0.43221560569608392 0 0.33659904832278342 0.4201421825902541 0 0.33523501366627878 0.43221560569608392 0 0.33659904832278342 0.4201421825902541 0 0.34795858503051302 0.425881111768525 0 0.33272146632259869 0.40525883785771122 0 0.3227404476219688 0.42624713816244092 0 0.33659904832278342 0.4201421825902541 0 0.33272146632259869 0.40525883785771122 0 0.33659904832278342 0.4201421825902541 0 0.34670895149724801 0.40816004440777182 0 0.33659904832278342 0.4201421825902541 0 0.34670895149724801 0.40816004440777182 0 0.34795858503051302 0.425881111768525 0 0.34670895149724801 0.40816004440777182 0 0.34795858503051302 0.425881111768525 0 0.36336601300371613 0.41450991002864218 0 0.34670895149724801 0.40816004440777182 0 0.36336601300371613 0.41450991002864218 0 0.35690611128064731 0.3988976866485166 0 0.34502769605759259 0.44546544446971242 0 0.34795858503051302 0.425881111768525 0 0.36959298495063608 0.43610817863788948 0 0.34795858503051302 0.425881111768525 0 0.36959298495063608 0.43610817863788948 0 0.36336601300371613 0.41450991002864218 0 0.36959298495063608 0.43610817863788948 0 0.36336601300371613 0.41450991002864218 0 0.38530342098431941 0.41064856824057122 0 0.36336601300371613 0.41450991002864218 0 0.3736470799201031 0.39378130610698531 0 0.38530342098431941 0.41064856824057122 0 0.3736470799201031 0.39378130610698531 0 0.3601059063978746 0.38125551426405008 0 0.35690611128064731 0.3988976866485166 0 0.36336601300371613 0.41450991002864218 0 0.3736470799201031 0.39378130610698531 0 0.35690611128064731 0.3988976866485166 0 0.3736470799201031 0.39378130610698531 0 0.3601059063978746 0.38125551426405008 0 0.37414389550204002 0.36898578533419818 0 0.34270248502322931 0.38427053755298168 0 0.3601059063978746 0.38125551426405008 0 0.35690611128064731 0.3988976866485166 0 0.34270248502322931 0.38427053755298168 0 0.3601059063978746 0.38125551426405008 0 0.35268350372385993 0.36328223724825232 0 0.34270248502322931 0.38427053755298168 0 0.34670895149724801 0.40816004440777182 0 0.35690611128064731 0.3988976866485166 0 0.35268350372385993 0.36328223724825232 0 0.36266452242448938 0.34229393694352239 0 0.35030182712711511 0.35130594720886232 0 0.35268350372385993 0.36328223724825232 0 0.36266452242448938 0.34229393694352239 0 0.35030182712711511 0.35130594720886232 0 0.35146565257524442 0.34420791440797271 0 0.36266452242448938 0.34229393694352239 0 0.35030182712711511 0.35130594720886232 0 0.35146565257524442 0.34420791440797271 0 0.34269927497721508 0.34493512072036142 0 0.35030182712711511 0.35130594720886232 0 0.35268350372385993 0.36328223724825232 0 0.33389487655237682 0.3658352592629312 0 0.34270248502322931 0.38427053755298168 0 0.35268350372385993 0.36328223724825232 0 0.3601059063978746 0.38125551426405008 0 0.35268350372385993 0.36328223724825232 0 0.37414389550204002 0.36898578533419818 0 0.35268350372385993 0.36328223724825232 0 0.37414389550204002 0.36898578533419818 0 0.36300645299402812 0.35604351837507042 0 0.37414389550204002 0.36898578533419818 0 0.37228166628853332 0.35471301169251829 0 0.36300645299402812 0.35604351837507042 0 0.35268350372385993 0.36328223724825232 0 0.36300645299402812 0.35604351837507042 0 0.36266452242448938 0.34229393694352239 0 0.37228166628853332 0.35471301169251829 0 0.36300645299402812 0.35604351837507042 0 0.36840829020790361 0.34668560051738673 0 0.36300645299402812 0.35604351837507042 0 0.36840829020790361 0.34668560051738673 0 0.36266452242448938 0.34229393694352239 0 0.36840829020790361 0.34668560051738673 0 0.36266452242448938 0.34229393694352239 0 0.36587418437400321 0.34278907974668538 0 0.37228166628853332 0.35471301169251829 0 0.36840829020790361 0.34668560051738673 0 0.37486749369974542 0.34694596905823039 0 0.37486749369974542 0.34694596905823039 0 0.37256750073976291 0.34304532959464751 0 0.37670219357667811 0.34177383067972761 0 0.36840829020790361 0.34668560051738673 0 0.37486749369974542 0.34694596905823039 0 0.37256750073976291 0.34304532959464751 0 0.36124897776362869 0.33531944770056321 0 0.36266452242448938 0.34229393694352239 0 0.36411885078159001 0.32644375487552563 0 0.37256750073976291 0.34304532959464751 0 0.36916640720496519 0.34145859007673351 0 0.37369311900952262 0.33836265764115908 0 0.37256750073976291 0.34304532959464751 0 0.37369311900952262 0.33836265764115908 0 0.37670219357667811 0.34177383067972761 0 0.36266452242448938 0.34229393694352239 0 0.37014896644917339 0.316543878568457 0 0.36770298492566261 0.33637877995368609 0 0.36266452242448938 0.34229393694352239 0 0.37368960646642962 0.31911015363466272 0 0.36770298492566261 0.33637877995368609 0 0.36985494237623989 0.33311962493185521 0 0.37368960646642962 0.31911015363466272 0 0.36266452242448938 0.34229393694352239 0 0.37368960646642962 0.31911015363466272 0 0.36266452242448938 0.34229393694352239 0 0.37014896644917339 0.316543878568457 0 0.36411885078159001 0.32644375487552563 0 0.36840829020790361 0.34668560051738673 0 0.36916640720496519 0.34145859007673351 0 0.36587418437400321 0.34278907974668538 0 0.36840829020790361 0.34668560051738673 0 0.37256750073976291 0.34304532959464751 0 0.36916640720496519 0.34145859007673351 0 0.36916640720496519 0.34145859007673351 0 0.36587418437400321 0.34278907974668538 0 0.36708394454210669 0.33994961910346172 0 0.36916640720496519 0.34145859007673351 0 0.37010024416019238 0.33739894816112592 0 0.36708394454210669 0.33994961910346172 0 0.36916640720496519 0.34145859007673351 0 0.37010024416019238 0.33739894816112592 0 0.37369311900952262 0.33836265764115908 0 0.36770298492566261 0.33637877995368609 0 0.37010024416019238 0.33739894816112592 0 0.36708394454210669 0.33994961910346172 0 0.37010024416019238 0.33739894816112592 0 0.37369311900952262 0.33836265764115908 0 0.3722735272100694 0.33425106354392481 0 0.3722735272100694 0.33425106354392481 0 0.37245621682226088 0.32924087979990557 0 0.375263113682131 0.33313320718557798 0 0.37369311900952262 0.33836265764115908 0 0.3722735272100694 0.33425106354392481 0 0.375263113682131 0.33313320718557798 0 0.3722735272100694 0.33425106354392481 0 0.37245621682226088 0.32924087979990557 0 0.36985494237623989 0.33311962493185521 0 0.37245621682226088 0.32924087979990557 0 0.37577016905582622 0.32787937856968757 0 0.375263113682131 0.33313320718557798 0 0.37010024416019238 0.33739894816112592 0 0.3722735272100694 0.33425106354392481 0 0.36985494237623989 0.33311962493185521 0 0.36770298492566261 0.33637877995368609 0 0.37010024416019238 0.33739894816112592 0 0.36985494237623989 0.33311962493185521 0 0.36128237795215928 0.33126347269122047 0 0.36124897776362869 0.33531944770056321 0 0.36411885078159001 0.32644375487552563 0 0.36150631125237548 0.32912422255951068 0 0.36128237795215928 0.33126347269122047 0 0.36411885078159001 0.32644375487552563 0 0.36150631125237548 0.32912422255951068 0 0.35994194411877378 0.32646204206530971 0 0.35835984371964152 0.33045614064968309 0 0.36128237795215928 0.33126347269122047 0 0.35899626180536931 0.33430086833413269 0 0.35835984371964152 0.33045614064968309 0 0.36150631125237548 0.32912422255951068 0 0.36128237795215928 0.33126347269122047 0 0.35835984371964152 0.33045614064968309 0 0.36128237795215928 0.33126347269122047 0 0.36124897776362869 0.33531944770056321 0 0.35899626180536931 0.33430086833413269 0 0.36124897776362869 0.33531944770056321 0 0.36001134864139028 0.33778823672905661 0 0.35899626180536931 0.33430086833413269 0 0.36124897776362869 0.33531944770056321 0 0.36001134864139028 0.33778823672905661 0 0.36266452242448938 0.34229393694352239 0 0.36001134864139028 0.33778823672905661 0 0.36266452242448938 0.34229393694352239 0 0.3582225103283424 0.33883319475427592 0 0.36266452242448938 0.34229393694352239 0 0.36587418437400321 0.34278907974668538 0 0.36708394454210669 0.33994961910346172 0 0.36770298492566261 0.33637877995368609 0 0.36266452242448938 0.34229393694352239 0 0.36708394454210669 0.33994961910346172 0 0.36266452242448938 0.34229393694352239 0 0.37368960646642962 0.31911015363466272 0 0.37014896644917339 0.316543878568457 0 0.37014896644917339 0.316543878568457 0 0.36604953812300478 0.31497278055865852 0 0.36630954626425261 0.31087512405144152 0 0.37499251130121058 0.31593455150060828 0 0.37014896644917339 0.316543878568457 0 0.37695808612291098 0.31120865645681561 0 0.37499251130121058 0.31593455150060828 0 0.37368960646642962 0.31911015363466272 0 0.37014896644917339 0.316543878568457 0 0.37014896644917339 0.316543878568457 0 0.36646072203027302 0.32009490443849897 0 0.3659238024377004 0.31770243144255911 0 0.37014896644917339 0.316543878568457 0 0.3659238024377004 0.31770243144255911 0 0.36604953812300478 0.31497278055865852 0 0.37245621682226088 0.32924087979990557 0 0.36985494237623989 0.33311962493185521 0 0.37368960646642962 0.31911015363466272 0 0.37245621682226088 0.32924087979990557 0 0.37368960646642962 0.31911015363466272 0 0.37506056064123422 0.32471797871916308 0 0.37245621682226088 0.32924087979990557 0 0.37577016905582622 0.32787937856968757 0 0.37506056064123422 0.32471797871916308 0 0.37014896644917339 0.316543878568457 0 0.36411885078159001 0.32644375487552563 0 0.36646072203027302 0.32009490443849897 0 0.36411885078159001 0.32644375487552563 0 0.35994194411877378 0.32646204206530971 0 0.36132202517978662 0.32303080634539388 0 0.36150631125237548 0.32912422255951068 0 0.36411885078159001 0.32644375487552563 0 0.35994194411877378 0.32646204206530971 0 0.36132202517978662 0.32303080634539388 0 0.36348301458407639 0.32047903077872458 0 0.35962675317161102 0.31893041505789499 0 0.36411885078159001 0.32644375487552563 0 0.36132202517978662 0.32303080634539388 0 0.36348301458407639 0.32047903077872458 0 0.36411885078159001 0.32644375487552563 0 0.36348301458407639 0.32047903077872458 0 0.36646072203027302 0.32009490443849897 0 0.36348301458407639 0.32047903077872458 0 0.36646072203027302 0.32009490443849897 0 0.3659238024377004 0.31770243144255911 0 0.3659238024377004 0.31770243144255911 0 0.36344593390349789 0.31667187251247519 0 0.36604953812300478 0.31497278055865852 0 0.36348301458407639 0.32047903077872458 0 0.3659238024377004 0.31770243144255911 0 0.36344593390349789 0.31667187251247519 0 0.36348301458407639 0.32047903077872458 0 0.36344593390349789 0.31667187251247519 0 0.35962675317161102 0.31893041505789499 0 0.36344593390349789 0.31667187251247519 0 0.35962675317161102 0.31893041505789499 0 0.35878641637012221 0.31305233625990619 0 0.36344593390349789 0.31667187251247519 0 0.36331333565659901 0.31283202127524651 0 0.35878641637012221 0.31305233625990619 0 0.36331333565659901 0.31283202127524651 0 0.36604953812300478 0.31497278055865852 0 0.36630954626425261 0.31087512405144152 0 0.36344593390349789 0.31667187251247519 0 0.36331333565659901 0.31283202127524651 0 0.36604953812300478 0.31497278055865852 0 0.35878641637012221 0.31305233625990619 0 0.35512602374864599 0.31718053618965047 0 0.35090510471213721 0.31152713165908658 0 0.35512602374864599 0.31718053618965047 0 0.34983435518440159 0.31943204998396652 0 0.35090510471213721 0.31152713165908658 0 0.35962675317161102 0.31893041505789499 0 0.35878641637012221 0.31305233625990619 0 0.35512602374864599 0.31718053618965047 0 0.35962675317161102 0.31893041505789499 0 0.35512602374864599 0.31718053618965047 0 0.35673455485560862 0.32229528426682241 0 0.35512602374864599 0.31718053618965047 0 0.35673455485560862 0.32229528426682241 0 0.34983435518440159 0.31943204998396652 0 0.35673455485560862 0.32229528426682241 0 0.35060422568955008 0.32587015674736058 0 0.34983435518440159 0.31943204998396652 0 0.35994194411877378 0.32646204206530971 0 0.36132202517978662 0.32303080634539388 0 0.35673455485560862 0.32229528426682241 0 0.36132202517978662 0.32303080634539388 0 0.35962675317161102 0.31893041505789499 0 0.35673455485560862 0.32229528426682241 0 0.35994194411877378 0.32646204206530971 0 0.35673455485560862 0.32229528426682241 0 0.35627338036128769 0.32705738058013539 0 0.35994194411877378 0.32646204206530971 0 0.35627338036128769 0.32705738058013539 0 0.35835984371964152 0.33045614064968309 0 0.35627338036128769 0.32705738058013539 0 0.35060422568955008 0.32587015674736058 0 0.35398721241228231 0.33095327650953749 0 0.35673455485560862 0.32229528426682241 0 0.35627338036128769 0.32705738058013539 0 0.35060422568955008 0.32587015674736058 0 0.35060422568955008 0.32587015674736058 0 0.34514221143703899 0.32919058107390442 0 0.34284551192874652 0.32364904383841531 0 0.35060422568955008 0.32587015674736058 0 0.34983435518440159 0.31943204998396652 0 0.34284551192874652 0.32364904383841531 0 0.34983435518440159 0.31943204998396652 0 0.34480088275632298 0.31606258733578418 0 0.35090510471213721 0.31152713165908658 0 0.34983435518440159 0.31943204998396652 0 0.34480088275632298 0.31606258733578418 0 0.34284551192874652 0.32364904383841531 0 0.35146565257524442 0.34420791440797271 0 0.36266452242448938 0.34229393694352239 0 0.35562031764263757 0.34031424282986023 0 0.35302683950207769 0.33602013814058929 0 0.35562031764263757 0.34031424282986023 0 0.35672120529774148 0.33684362974708199 0 0.35202203774268331 0.33965573310897551 0 0.35302683950207769 0.33602013814058929 0 0.35562031764263757 0.34031424282986023 0 0.35146565257524442 0.34420791440797271 0 0.35202203774268331 0.33965573310897551 0 0.35562031764263757 0.34031424282986023 0 0.36266452242448938 0.34229393694352239 0 0.35562031764263757 0.34031424282986023 0 0.3582225103283424 0.33883319475427592 0 0.35562031764263757 0.34031424282986023 0 0.3582225103283424 0.33883319475427592 0 0.35672120529774148 0.33684362974708199 0 0.36001134864139028 0.33778823672905661 0 0.3582225103283424 0.33883319475427592 0 0.35672120529774148 0.33684362974708199 0 0.36001134864139028 0.33778823672905661 0 0.35672120529774148 0.33684362974708199 0 0.35899626180536931 0.33430086833413269 0 0.35899626180536931 0.33430086833413269 0 0.35641212776078268 0.33381706902087938 0 0.35835984371964152 0.33045614064968309 0 0.35672120529774148 0.33684362974708199 0 0.35899626180536931 0.33430086833413269 0 0.35641212776078268 0.33381706902087938 0 0.35627338036128769 0.32705738058013539 0 0.35835984371964152 0.33045614064968309 0 0.35398721241228231 0.33095327650953749 0 0.35641212776078268 0.33381706902087938 0 0.35835984371964152 0.33045614064968309 0 0.35398721241228231 0.33095327650953749 0 0.35302683950207769 0.33602013814058929 0 0.35641212776078268 0.33381706902087938 0 0.35398721241228231 0.33095327650953749 0 0.35302683950207769 0.33602013814058929 0 0.35398721241228231 0.33095327650953749 0 0.34924685744035389 0.33249877391857741 0 0.35302683950207769 0.33602013814058929 0 0.35672120529774148 0.33684362974708199 0 0.35641212776078268 0.33381706902087938 0 0.35302683950207769 0.33602013814058929 0 0.34924685744035389 0.33249877391857741 0 0.34788509595764172 0.33882226599831611 0 0.35060422568955008 0.32587015674736058 0 0.34924685744035389 0.33249877391857741 0 0.34514221143703899 0.32919058107390442 0 0.35060422568955008 0.32587015674736058 0 0.35398721241228231 0.33095327650953749 0 0.34924685744035389 0.33249877391857741 0 0.34924685744035389 0.33249877391857741 0 0.34514221143703899 0.32919058107390442 0 0.34474234507332802 0.33433591834825649 0 0.34924685744035389 0.33249877391857741 0 0.34474234507332802 0.33433591834825649 0 0.34788509595764172 0.33882226599831611 0 0.34474234507332802 0.33433591834825649 0 0.34788509595764172 0.33882226599831611 0 0.34057592936449049 0.33809639891542392 0 0.35146565257524442 0.34420791440797271 0 0.34788509595764172 0.33882226599831611 0 0.34269927497721508 0.34493512072036142 0 0.35202203774268331 0.33965573310897551 0 0.35302683950207769 0.33602013814058929 0 0.34788509595764172 0.33882226599831611 0 0.35146565257524442 0.34420791440797271 0 0.35202203774268331 0.33965573310897551 0 0.34788509595764172 0.33882226599831611 0 0.34057592936449049 0.33809639891542392 0 0.33318390910610529 0.34358855052096038 0 0.34269927497721508 0.34493512072036142 0 0.34788509595764172 0.33882226599831611 0 0.34057592936449049 0.33809639891542392 0 0.34269927497721508 0.34493512072036142 0 0.34474234507332802 0.33433591834825649 0 0.34057592936449049 0.33809639891542392 0 0.33946855119551672 0.33096103471374028 0 0.34514221143703899 0.32919058107390442 0 0.34474234507332802 0.33433591834825649 0 0.33946855119551672 0.33096103471374028 0 0.34057592936449049 0.33809639891542392 0 0.33946855119551672 0.33096103471374028 0 0.33283637980140879 0.33469331179832718 0 0.33946855119551672 0.33096103471374028 0 0.33283637980140879 0.33469331179832718 0 0.33464693517381472 0.32630086361949601 0 0.33283637980140879 0.33469331179832718 0 0.33464693517381472 0.32630086361949601 0 0.3250964778074269 0.32978689602061512 0 0.34057592936449049 0.33809639891542392 0 0.33283637980140879 0.33469331179832718 0 0.33318390910610529 0.34358855052096038 0 0.33283637980140879 0.33469331179832718 0 0.33318390910610529 0.34358855052096038 0 0.32611481079287369 0.33974729713420021 0 0.34480088275632298 0.31606258733578418 0 0.33769186663180051 0.31814262317354819 0 0.34192449374142192 0.30753297203612773 0 0.34480088275632298 0.31606258733578418 0 0.33769186663180051 0.31814262317354819 0 0.34284551192874652 0.32364904383841531 0 0.33946855119551672 0.33096103471374028 0 0.34284551192874652 0.32364904383841531 0 0.33464693517381472 0.32630086361949601 0 0.33769186663180051 0.31814262317354819 0 0.34284551192874652 0.32364904383841531 0 0.33464693517381472 0.32630086361949601 0 0.34514221143703899 0.32919058107390442 0 0.33946855119551672 0.33096103471374028 0 0.34284551192874652 0.32364904383841531 0 0.33769186663180051 0.31814262317354819 0 0.33464693517381472 0.32630086361949601 0 0.32994282367798861 0.32057227217232959 0 0.33464693517381472 0.32630086361949601 0 0.32994282367798861 0.32057227217232959 0 0.3250964778074269 0.32978689602061512 0 0.33769186663180051 0.31814262317354819 0 0.32994282367798861 0.32057227217232959 0 0.32867162081685902 0.31028670060733149 0 0.32176892132522322 0.32006025561378759 0 0.31440941436971798 0.31242774502049953 0 0.32867162081685902 0.31028670060733149 0 0.32994282367798861 0.32057227217232959 0 0.32176892132522322 0.32006025561378759 0 0.32867162081685902 0.31028670060733149 0 0.32176892132522322 0.32006025561378759 0 0.31484893044661 0.32778579360563193 0 0.3250964778074269 0.32978689602061512 0 0.32994282367798861 0.32057227217232959 0 0.32176892132522322 0.32006025561378759 0 0.3250964778074269 0.32978689602061512 0 0.32176892132522322 0.32006025561378759 0 0.31484893044661 0.32778579360563193 0 0.31440941436971798 0.31242774502049953 0 0.32611481079287369 0.33974729713420021 0 0.3250964778074269 0.32978689602061512 0 0.31767498628904178 0.33862919533695518 0 0.32611481079287369 0.33974729713420021 0 0.31767498628904178 0.33862919533695518 0 0.32336406622478242 0.34852958887145069 0 0.33283637980140879 0.33469331179832718 0 0.32611481079287369 0.33974729713420021 0 0.3250964778074269 0.32978689602061512 0 0.31484893044661 0.32778579360563193 0 0.31767498628904178 0.33862919533695518 0 0.30654896287530792 0.34033791233229299 0 0.31484893044661 0.32778579360563193 0 0.3250964778074269 0.32978689602061512 0 0.31767498628904178 0.33862919533695518 0 0.31767498628904178 0.33862919533695518 0 0.31315570067328902 0.3464643712977632 0 0.32336406622478242 0.34852958887145069 0 0.31315570067328902 0.3464643712977632 0 0.31355388928080707 0.35546570062290778 0 0.32336406622478242 0.34852958887145069 0 0.32336406622478242 0.34852958887145069 0 0.33442175170730049 0.35218858713626039 0 0.32437013183195901 0.3602157298059272 0 0.31355388928080707 0.35546570062290778 0 0.32336406622478242 0.34852958887145069 0 0.32437013183195901 0.3602157298059272 0 0.33318390910610529 0.34358855052096038 0 0.32611481079287369 0.33974729713420021 0 0.32336406622478242 0.34852958887145069 0 0.35030182712711511 0.35130594720886232 0 0.33442175170730049 0.35218858713626039 0 0.33389487655237682 0.3658352592629312 0 0.33318390910610529 0.34358855052096038 0 0.32336406622478242 0.34852958887145069 0 0.33442175170730049 0.35218858713626039 0 0.35030182712711511 0.35130594720886232 0 0.33442175170730049 0.35218858713626039 0 0.34269927497721508 0.34493512072036142 0 0.33318390910610529 0.34358855052096038 0 0.33442175170730049 0.35218858713626039 0 0.34269927497721508 0.34493512072036142 0 0.34270248502322931 0.38427053755298168 0 0.35268350372385993 0.36328223724825232 0 0.33389487655237682 0.3658352592629312 0 0.33442175170730049 0.35218858713626039 0 0.33389487655237682 0.3658352592629312 0 0.32437013183195901 0.3602157298059272 0 0.31661607539452802 0.37905951313608538 0 0.33389487655237682 0.3658352592629312 0 0.32437013183195901 0.3602157298059272 0 0.31661607539452802 0.37905951313608538 0 0.31355388928080707 0.35546570062290778 0 0.32437013183195901 0.3602157298059272 0 0.31661607539452802 0.37905951313608538 0 0.31355388928080707 0.35546570062290778 0 0.31661607539452802 0.37905951313608538 0 0.31355388928080707 0.35546570062290778 0 0.30541822204374358 0.36584678197342768 0 0.2987730087010142 0.37934426936791982 0 0.31661607539452802 0.37905951313608538 0 0.30541822204374358 0.36584678197342768 0 0.30541822204374358 0.36584678197342768 0 0.30393955747459928 0.35096595789874813 0 0.29215410451095353 0.36543341035917859 0 0.2987730087010142 0.37934426936791982 0 0.30541822204374358 0.36584678197342768 0 0.29215410451095353 0.36543341035917859 0 0.31315570067328902 0.3464643712977632 0 0.30393955747459928 0.35096595789874813 0 0.30654896287530792 0.34033791233229299 0 0.31315570067328902 0.3464643712977632 0 0.31355388928080707 0.35546570062290778 0 0.30393955747459928 0.35096595789874813 0 0.31355388928080707 0.35546570062290778 0 0.30541822204374358 0.36584678197342768 0 0.30393955747459928 0.35096595789874813 0 0.30393955747459928 0.35096595789874813 0 0.29215410451095353 0.36543341035917859 0 0.30393955747459928 0.35096595789874813 0 0.29720735802849829 0.34424744790442102 0 0.29027641861796738 0.35164951467646482 0 0.30393955747459928 0.35096595789874813 0 0.29720735802849829 0.34424744790442102 0 0.30654896287530792 0.34033791233229299 0 0.29720735802849829 0.34424744790442102 0 0.29027641861796738 0.35164951467646482 0 0.28998304713239348 0.34105976447064218 0 0.30393955747459928 0.35096595789874813 0 0.29027641861796738 0.35164951467646482 0 0.29215410451095353 0.36543341035917859 0 0.29027641861796738 0.35164951467646482 0 0.29215410451095353 0.36543341035917859 0 0.27920137084664282 0.3573603676334649 0 0.29027641861796738 0.35164951467646482 0 0.27920137084664282 0.3573603676334649 0 0.28068773357058369 0.34198453751068081 0 0.29027641861796738 0.35164951467646482 0 0.28068773357058369 0.34198453751068081 0 0.28998304713239348 0.34105976447064218 0 0.28036865154730628 0.37990086281960789 0 0.29215410451095353 0.36543341035917859 0 0.27920137084664282 0.3573603676334649 0 0.28036865154730628 0.37990086281960789 0 0.2987730087010142 0.37934426936791982 0 0.29215410451095353 0.36543341035917859 0 0.28036865154730628 0.37990086281960789 0 0.29215410451095353 0.36543341035917859 0 0.28036865154730628 0.37990086281960789 0 0.27920137084664282 0.3573603676334649 0 0.26173146881309822 0.35734024057335978 0 0.28036865154730628 0.37990086281960789 0 0.26173146881309822 0.35734024057335978 0 0.28036865154730628 0.37990086281960789 0 0.26173146881309822 0.35734024057335978 0 0.2641967246118288 0.36596915937278562 0 0.27920137084664282 0.3573603676334649 0 0.27030047393074008 0.3474963096498429 0 0.26173146881309822 0.35734024057335978 0 0.27920137084664282 0.3573603676334649 0 0.27030047393074008 0.3474963096498429 0 0.28068773357058369 0.34198453751068081 0 0.2430942860788903 0.33477961832711151 0 0.26173146881309822 0.35734024057335978 0 0.27030047393074008 0.3474963096498429 0 0.26173146881309822 0.35734024057335978 0 0.26240083601839698 0.33727672217147331 0 0.23816107804029091 0.35120524212074949 0 0.26173146881309822 0.35734024057335978 0 0.2641967246118288 0.36596915937278562 0 0.23816107804029091 0.35120524212074949 0 0.2641967246118288 0.36596915937278562 0 0.2492643002430574 0.365916522193315 0 0.24311907173897271 0.36013203008567057 0 0.2641967246118288 0.36596915937278562 0 0.2492643002430574 0.365916522193315 0 0.25710864090743918 0.37145542319719338 0 0.2641967246118288 0.36596915937278562 0 0.2492643002430574 0.365916522193315 0 0.25383912625151372 0.37755129754335942 0 0.25710864090743918 0.37145542319719338 0 0.26350653962281989 0.38010735630523079 0 0.25710864090743918 0.37145542319719338 0 0.2641967246118288 0.36596915937278562 0 0.2484846271056145 0.31037308609574782 0 0.25508783524565293 0.32209220201309929 0 0.26836904206483531 0.31075971332937607 0 0.25508783524565293 0.32209220201309929 0 0.26240083601839698 0.33727672217147331 0 0.26677092012209491 0.32204036282613252 0 0.25508783524565293 0.32209220201309929 0 0.26677092012209491 0.32204036282613252 0 0.26836904206483531 0.31075971332937607 0 0.2430942860788903 0.33477961832711151 0 0.25508783524565293 0.32209220201309929 0 0.26240083601839698 0.33727672217147331 0 0.2430942860788903 0.33477961832711151 0 0.26173146881309822 0.35734024057335978 0 0.26240083601839698 0.33727672217147331 0 0.26240083601839698 0.33727672217147331 0 0.27184092000699639 0.33891315949469752 0 0.27388917516664008 0.32964775149744319 0 0.26240083601839698 0.33727672217147331 0 0.27388917516664008 0.32964775149744319 0 0.26677092012209491 0.32204036282613252 0 0.27030047393074008 0.3474963096498429 0 0.26240083601839698 0.33727672217147331 0 0.27184092000699639 0.33891315949469752 0 0.27030047393074008 0.3474963096498429 0 0.27184092000699639 0.33891315949469752 0 0.28068773357058369 0.34198453751068081 0 0.27184092000699639 0.33891315949469752 0 0.28068773357058369 0.34198453751068081 0 0.27388917516664008 0.32964775149744319 0 0.28068773357058369 0.34198453751068081 0 0.27388917516664008 0.32964775149744319 0 0.28570907475377572 0.33188311037056872 0 0.27388917516664008 0.32964775149744319 0 0.26677092012209491 0.32204036282613252 0 0.28178409254690689 0.31684790712797722 0 0.27388917516664008 0.32964775149744319 0 0.28178409254690689 0.31684790712797722 0 0.28570907475377572 0.33188311037056872 0 0.26677092012209491 0.32204036282613252 0 0.28178409254690689 0.31684790712797722 0 0.26836904206483531 0.31075971332937607 0 0.28178409254690689 0.31684790712797722 0 0.29262159606390598 0.32453461147271162 0 0.29660332646403359 0.30785121346786842 0 0.28178409254690689 0.31684790712797722 0 0.29262159606390598 0.32453461147271162 0 0.28570907475377572 0.33188311037056872 0 0.28068773357058369 0.34198453751068081 0 0.28570907475377572 0.33188311037056872 0 0.28998304713239348 0.34105976447064218 0 0.29262159606390598 0.32453461147271162 0 0.28570907475377572 0.33188311037056872 0 0.29603465069114282 0.33553421189107618 0 0.29720735802849829 0.34424744790442102 0 0.29603465069114282 0.33553421189107618 0 0.28998304713239348 0.34105976447064218 0 0.28570907475377572 0.33188311037056872 0 0.29603465069114282 0.33553421189107618 0 0.28998304713239348 0.34105976447064218 0 0.29720735802849829 0.34424744790442102 0 0.29603465069114282 0.33553421189107618 0 0.30654896287530792 0.34033791233229299 0 0.29603465069114282 0.33553421189107618 0 0.30654896287530792 0.34033791233229299 0 0.30445412428221041 0.32558903425911379 0 0.29262159606390598 0.32453461147271162 0 0.29603465069114282 0.33553421189107618 0 0.30445412428221041 0.32558903425911379 0 0.31484893044661 0.32778579360563193 0 0.30654896287530792 0.34033791233229299 0 0.30445412428221041 0.32558903425911379 0 0.31767498628904178 0.33862919533695518 0 0.31315570067328902 0.3464643712977632 0 0.30654896287530792 0.34033791233229299 0 0.30445412428221041 0.32558903425911379 0 0.29660332646403359 0.30785121346786842 0 0.31440941436971798 0.31242774502049953 0 0.29262159606390598 0.32453461147271162 0 0.30445412428221041 0.32558903425911379 0 0.29660332646403359 0.30785121346786842 0 0.31484893044661 0.32778579360563193 0 0.30445412428221041 0.32558903425911379 0 0.31440941436971798 0.31242774502049953 0 0.30822946874662033 0.29998271616579031 0 0.29660332646403359 0.30785121346786842 0 0.31440941436971798 0.31242774502049953 0 0.30822946874662033 0.29998271616579031 0 0.30055108247350393 0.28416894361273021 0 0.29660332646403359 0.30785121346786842 0 0.30822946874662033 0.29998271616579031 0 0.30055108247350393 0.28416894361273021 0 0.32109763140443309 0.29547610107375327 0 0.30055108247350393 0.28416894361273021 0 0.29660332646403359 0.30785121346786842 0 0.27430616976337108 0.29100628718303567 0 0.30055108247350393 0.28416894361273021 0 0.27430616976337108 0.29100628718303567 0 0.28443506245096839 0.27205148705280008 0 0.30055108247350393 0.28416894361273021 0 0.27430616976337108 0.29100628718303567 0 0.28178409254690689 0.31684790712797722 0 0.29660332646403359 0.30785121346786842 0 0.27430616976337108 0.29100628718303567 0 0.28178409254690689 0.31684790712797722 0 0.26836904206483531 0.31075971332937607 0 0.27430616976337108 0.29100628718303567 0 0.28178409254690689 0.31684790712797722 0 0.27430616976337108 0.29100628718303567 0 0.27430616976337108 0.29100628718303567 0 0.25121587924780342 0.29702178630611242 0 0.27430616976337108 0.29100628718303567 0 0.25953152444998728 0.28294166139542631 0 0.25121587924780342 0.29702178630611242 0 0.26836904206483531 0.31075971332937607 0 0.27430616976337108 0.29100628718303567 0 0.25121587924780342 0.29702178630611242 0 0.26836904206483531 0.31075971332937607 0 0.25121587924780342 0.29702178630611242 0 0.2484846271056145 0.31037308609574782 0 0.26836904206483531 0.31075971332937607 0 0.25121587924780342 0.29702178630611242 0 0.25102838231212438 0.26850893423506528 0 0.26790857605335527 0.26889798384773289 0 0.26221447651104962 0.2479993693513689 0 0.26790857605335527 0.26889798384773289 0 0.26221447651104962 0.2479993693513689 0 0.25953152444998728 0.28294166139542631 0 0.25102838231212438 0.26850893423506528 0 0.26790857605335527 0.26889798384773289 0 0.27430616976337108 0.29100628718303567 0 0.26790857605335527 0.26889798384773289 0 0.28443506245096839 0.27205148705280008 0 0.27430616976337108 0.29100628718303567 0 0.25953152444998728 0.28294166139542631 0 0.26790857605335527 0.26889798384773289 0 0.27430616976337108 0.29100628718303567 0 0.26790857605335527 0.26889798384773289 0 0.26790857605335527 0.26889798384773289 0 0.28119448123381058 0.25405304303149878 0 0.26221447651104962 0.2479993693513689 0 0.26790857605335527 0.26889798384773289 0 0.28119448123381058 0.25405304303149878 0 0.28443506245096839 0.27205148705280008 0 0.28119448123381058 0.25405304303149878 0 0.28443506245096839 0.27205148705280008 0 0.2982150027308012 0.26213117758900317 0 0.28119448123381058 0.25405304303149878 0 0.2982150027308012 0.26213117758900317 0 0.30328699804120918 0.24394477185791469 0 0.30055108247350393 0.28416894361273021 0 0.28443506245096839 0.27205148705280008 0 0.2982150027308012 0.26213117758900317 0 0.30055108247350393 0.28416894361273021 0 0.2982150027308012 0.26213117758900317 0 0.31879452400631653 0.25919465198291952 0 0.2982150027308012 0.26213117758900317 0 0.31879452400631653 0.25919465198291952 0 0.30328699804120918 0.24394477185791469 0 0.31879452400631653 0.25919465198291952 0 0.33092809789354199 0.24744869965648561 0 0.31845456220733243 0.24449663650262579 0 0.31879452400631653 0.25919465198291952 0 0.33565265393095528 0.25675142138279861 0 0.33982225619875311 0.26765994074234428 0 0.31879452400631653 0.25919465198291952 0 0.33982225619875311 0.26765994074234428 0 0.31879452400631653 0.25919465198291952 0 0.33565265393095528 0.25675142138279861 0 0.33092809789354199 0.24744869965648561 0 0.33565265393095528 0.25675142138279861 0 0.33982225619875311 0.26765994074234428 0 0.34536281311255052 0.25941060478944128 0 0.33565265393095528 0.25675142138279861 0 0.3433555784436142 0.25004320974280247 0 0.33092809789354199 0.24744869965648561 0 0.33565265393095528 0.25675142138279861 0 0.3433555784436142 0.25004320974280247 0 0.34536281311255052 0.25941060478944128 0 0.31879452400631653 0.25919465198291952 0 0.33982225619875311 0.26765994074234428 0 0.32679599518363661 0.27733160004242491 0 0.33982225619875311 0.26765994074234428 0 0.32679599518363661 0.27733160004242491 0 0.34056182851336592 0.28206143899133118 0 0.30055108247350393 0.28416894361273021 0 0.32679599518363661 0.27733160004242491 0 0.30055108247350393 0.28416894361273021 0 0.31879452400631653 0.25919465198291952 0 0.32679599518363661 0.27733160004242491 0 0.32679599518363661 0.27733160004242491 0 0.32109763140443309 0.29547610107375327 0 0.33248404658197278 0.28876668272462419 0 0.30055108247350393 0.28416894361273021 0 0.32679599518363661 0.27733160004242491 0 0.32109763140443309 0.29547610107375327 0 0.32109763140443309 0.29547610107375327 0 0.31440941436971798 0.31242774502049953 0 0.32867162081685902 0.31028670060733149 0 0.30822946874662033 0.29998271616579031 0 0.32109763140443309 0.29547610107375327 0 0.31440941436971798 0.31242774502049953 0 0.32867162081685902 0.31028670060733149 0 0.33472549883669622 0.29791121211074773 0 0.34192449374142192 0.30753297203612773 0 0.32109763140443309 0.29547610107375327 0 0.32867162081685902 0.31028670060733149 0 0.33472549883669622 0.29791121211074773 0 0.33472549883669622 0.29791121211074773 0 0.34281583705185747 0.29966479619329672 0 0.34192449374142192 0.30753297203612773 0 0.33769186663180051 0.31814262317354819 0 0.32867162081685902 0.31028670060733149 0 0.34192449374142192 0.30753297203612773 0 0.32679599518363661 0.27733160004242491 0 0.33248404658197278 0.28876668272462419 0 0.34056182851336592 0.28206143899133118 0 0.32109763140443309 0.29547610107375327 0 0.33472549883669622 0.29791121211074773 0 0.33248404658197278 0.28876668272462419 0 0.33472549883669622 0.29791121211074773 0 0.33248404658197278 0.28876668272462419 0 0.34417327957572558 0.29277050597204329 0 0.33472549883669622 0.29791121211074773 0 0.34281583705185747 0.29966479619329672 0 0.34417327957572558 0.29277050597204329 0 0.33248404658197278 0.28876668272462419 0 0.34056182851336592 0.28206143899133118 0 0.34417327957572558 0.29277050597204329 0 0.34056182851336592 0.28206143899133118 0 0.34979868535227071 0.28728326233729501 0 0.34417327957572558 0.29277050597204329 0 0.34056182851336592 0.28206143899133118 0 0.34979868535227071 0.28728326233729501 0 0.35183199075491411 0.27966461044832719 0 0.34417327957572558 0.29277050597204329 0 0.35334053836337709 0.29410458558147129 0 0.34972900846361488 0.30172704795696642 0 0.34979868535227071 0.28728326233729501 0 0.34417327957572558 0.29277050597204329 0 0.35334053836337709 0.29410458558147129 0 0.34979868535227071 0.28728326233729501 0 0.35334053836337709 0.29410458558147129 0 0.35722235408413222 0.28831366276426512 0 0.35334053836337709 0.29410458558147129 0 0.35826071325737319 0.3003277240158499 0 0.36091512844171192 0.29433704443458902 0 0.35334053836337709 0.29410458558147129 0 0.35722235408413222 0.28831366276426512 0 0.36091512844171192 0.29433704443458902 0 0.34979868535227071 0.28728326233729501 0 0.35722235408413222 0.28831366276426512 0 0.35183199075491411 0.27966461044832719 0 0.35722235408413222 0.28831366276426512 0 0.36152496379752869 0.28359539021876212 0 0.35183199075491411 0.27966461044832719 0 0.34480088275632298 0.31606258733578418 0 0.34192449374142192 0.30753297203612773 0 0.35090510471213721 0.31152713165908658 0 0.34192449374142192 0.30753297203612773 0 0.35090510471213721 0.31152713165908658 0 0.34972900846361488 0.30172704795696642 0 0.34281583705185747 0.29966479619329672 0 0.34417327957572558 0.29277050597204329 0 0.34972900846361488 0.30172704795696642 0 0.34281583705185747 0.29966479619329672 0 0.34192449374142192 0.30753297203612773 0 0.34972900846361488 0.30172704795696642 0 0.34972900846361488 0.30172704795696642 0 0.35826071325737319 0.3003277240158499 0 0.35721607615581658 0.30656573559573969 0 0.35334053836337709 0.29410458558147129 0 0.34972900846361488 0.30172704795696642 0 0.35826071325737319 0.3003277240158499 0 0.35090510471213721 0.31152713165908658 0 0.34972900846361488 0.30172704795696642 0 0.35721607615581658 0.30656573559573969 0 0.35878641637012221 0.31305233625990619 0 0.35090510471213721 0.31152713165908658 0 0.35721607615581658 0.30656573559573969 0 0.37014896644917339 0.316543878568457 0 0.37763341047385651 0.29079382019339128 0 0.37014896644917339 0.316543878568457 0 0.37108481648816682 0.30013899891886681 0 0.36845835323010317 0.30596496181531441 0 0.37014896644917339 0.316543878568457 0 0.37763341047385651 0.29079382019339128 0 0.37695808612291098 0.31120865645681561 0 0.37014896644917339 0.316543878568457 0 0.37108481648816682 0.30013899891886681 0 0.37763341047385651 0.29079382019339128 0 0.36630954626425261 0.31087512405144152 0 0.36228941999803421 0.30896529616435242 0 0.36543096483439103 0.3064802843427199 0 0.36331333565659901 0.31283202127524651 0 0.36630954626425261 0.31087512405144152 0 0.36228941999803421 0.30896529616435242 0 0.36331333565659901 0.31283202127524651 0 0.35878641637012221 0.31305233625990619 0 0.36228941999803421 0.30896529616435242 0 0.35878641637012221 0.31305233625990619 0 0.35721607615581658 0.30656573559573969 0 0.36228941999803421 0.30896529616435242 0 0.35721607615581658 0.30656573559573969 0 0.36228941999803421 0.30896529616435242 0 0.36268018070702418 0.30398627546106088 0 0.36630954626425261 0.31087512405144152 0 0.36543096483439103 0.3064802843427199 0 0.36845835323010317 0.30596496181531441 0 0.36228941999803421 0.30896529616435242 0 0.36543096483439103 0.3064802843427199 0 0.36268018070702418 0.30398627546106088 0 0.36543096483439103 0.3064802843427199 0 0.36607900901995372 0.30349396637540749 0 0.36845835323010317 0.30596496181531441 0 0.36607900901995372 0.30349396637540749 0 0.36268018070702418 0.30398627546106088 0 0.36558719123160882 0.29969948119116269 0 0.36607900901995372 0.30349396637540749 0 0.36558719123160882 0.29969948119116269 0 0.36823835509664099 0.30133882906677939 0 0.36543096483439103 0.3064802843427199 0 0.36607900901995372 0.30349396637540749 0 0.36268018070702418 0.30398627546106088 0 0.35826071325737319 0.3003277240158499 0 0.35721607615581658 0.30656573559573969 0 0.36268018070702418 0.30398627546106088 0 0.35826071325737319 0.3003277240158499 0 0.36268018070702418 0.30398627546106088 0 0.36558719123160882 0.29969948119116269 0 0.35826071325737319 0.3003277240158499 0 0.36558719123160882 0.29969948119116269 0 0.36091512844171192 0.29433704443458902 0 0.36871223371641282 0.29817542324200702 0 0.37108481648816682 0.30013899891886681 0 0.37014933742706652 0.29575476169949788 0 0.36558719123160882 0.29969948119116269 0 0.36871223371641282 0.29817542324200702 0 0.36734652779664789 0.29411680932906442 0 0.36558719123160882 0.29969948119116269 0 0.36871223371641282 0.29817542324200702 0 0.36823835509664099 0.30133882906677939 0 0.36871223371641282 0.29817542324200702 0 0.37108481648816682 0.30013899891886681 0 0.36823835509664099 0.30133882906677939 0 0.37108481648816682 0.30013899891886681 0 0.36823835509664099 0.30133882906677939 0 0.36845835323010317 0.30596496181531441 0 0.36607900901995372 0.30349396637540749 0 0.36823835509664099 0.30133882906677939 0 0.36845835323010317 0.30596496181531441 0 0.37014896644917339 0.316543878568457 0 0.36630954626425261 0.31087512405144152 0 0.36845835323010317 0.30596496181531441 0 0.36812955944888692 0.28419813691800921 0 0.36084998839118931 0.2761252295017701 0 0.37969218042614078 0.28371066929036243 0 0.36152496379752869 0.28359539021876212 0 0.36812955944888692 0.28419813691800921 0 0.36084998839118931 0.2761252295017701 0 0.36414496955441777 0.28941104037434479 0 0.36911771796651938 0.28986917351547109 0 0.36812955944888692 0.28419813691800921 0 0.36152496379752869 0.28359539021876212 0 0.36414496955441777 0.28941104037434479 0 0.36812955944888692 0.28419813691800921 0 0.35722235408413222 0.28831366276426512 0 0.36152496379752869 0.28359539021876212 0 0.36414496955441777 0.28941104037434479 0 0.35722235408413222 0.28831366276426512 0 0.36091512844171192 0.29433704443458902 0 0.36414496955441777 0.28941104037434479 0 0.36558719123160882 0.29969948119116269 0 0.36091512844171192 0.29433704443458902 0 0.36734652779664789 0.29411680932906442 0 0.36091512844171192 0.29433704443458902 0 0.36414496955441777 0.28941104037434479 0 0.36734652779664789 0.29411680932906442 0 0.36414496955441777 0.28941104037434479 0 0.36911771796651938 0.28986917351547109 0 0.36734652779664789 0.29411680932906442 0 0.36911771796651938 0.28986917351547109 0 0.37026464520563152 0.29279186409727531 0 0.36734652779664789 0.29411680932906442 0 0.37108481648816682 0.30013899891886681 0 0.37306860395079622 0.29341917559567809 0 0.37763341047385651 0.29079382019339128 0 0.36911771796651938 0.28986917351547109 0 0.37026464520563152 0.29279186409727531 0 0.37237913536365119 0.29056320862162688 0 0.36871223371641282 0.29817542324200702 0 0.36734652779664789 0.29411680932906442 0 0.37014933742706652 0.29575476169949788 0 0.37026464520563152 0.29279186409727531 0 0.36734652779664789 0.29411680932906442 0 0.37014933742706652 0.29575476169949788 0 0.37108481648816682 0.30013899891886681 0 0.37014933742706652 0.29575476169949788 0 0.37306860395079622 0.29341917559567809 0 0.37026464520563152 0.29279186409727531 0 0.37014933742706652 0.29575476169949788 0 0.37306860395079622 0.29341917559567809 0 0.36911771796651938 0.28986917351547109 0 0.37237913536365119 0.29056320862162688 0 0.37333201972158658 0.2878654242033048 0 0.37306860395079622 0.29341917559567809 0 0.37237913536365119 0.29056320862162688 0 0.37763341047385651 0.29079382019339128 0 0.37237913536365119 0.29056320862162688 0 0.37333201972158658 0.2878654242033048 0 0.37763341047385651 0.29079382019339128 0 0.37026464520563152 0.29279186409727531 0 0.37306860395079622 0.29341917559567809 0 0.37237913536365119 0.29056320862162688 0 0.37333201972158658 0.2878654242033048 0 0.36812955944888692 0.28419813691800921 0 0.37969218042614078 0.28371066929036243 0 0.36911771796651938 0.28986917351547109 0 0.37333201972158658 0.2878654242033048 0 0.36812955944888692 0.28419813691800921 0 0.36084998839118931 0.2761252295017701 0 0.37969218042614078 0.28371066929036243 0 0.36084998839118931 0.2761252295017701 0 0.37017340450925651 0.266060206293324 0 0.3539366042426153 0.26554047293381039 0 0.36084998839118931 0.2761252295017701 0 0.38460708535355081 0.26680105137204091 0 0.36084998839118931 0.2761252295017701 0 0.37017340450925651 0.266060206293324 0 0.38460708535355081 0.26680105137204091 0 0.3539366042426153 0.26554047293381039 0 0.38129994004966872 0.25577407136566988 0 0.37169426656027921 0.24972740256563611 0 0.37017340450925651 0.266060206293324 0 0.3539366042426153 0.26554047293381039 0 0.38129994004966872 0.25577407136566988 0 0.3539366042426153 0.26554047293381039 0 0.37169426656027921 0.24972740256563611 0 0.36205361842742478 0.24882498742118489 0 0.3539366042426153 0.26554047293381039 0 0.38129994004966872 0.25577407136566988 0 0.3539366042426153 0.26554047293381039 0 0.35175757775775729 0.2532797976346674 0 0.36205361842742478 0.24882498742118489 0 0.3433555784436142 0.25004320974280247 0 0.35175757775775729 0.2532797976346674 0 0.34536281311255052 0.25941060478944128 0 0.33982225619875311 0.26765994074234428 0 0.3539366042426153 0.26554047293381039 0 0.34536281311255052 0.25941060478944128 0 0.3539366042426153 0.26554047293381039 0 0.35175757775775729 0.2532797976346674 0 0.34536281311255052 0.25941060478944128 0 0.33982225619875311 0.26765994074234428 0 0.36084998839118931 0.2761252295017701 0 0.33982225619875311 0.26765994074234428 0 0.36084998839118931 0.2761252295017701 0 0.3539366042426153 0.26554047293381039 0 0.33982225619875311 0.26765994074234428 0 0.36084998839118931 0.2761252295017701 0 0.35183199075491411 0.27966461044832719 0 0.33982225619875311 0.26765994074234428 0 0.34056182851336592 0.28206143899133118 0 0.35183199075491411 0.27966461044832719 0 0.36152496379752869 0.28359539021876212 0 0.36084998839118931 0.2761252295017701 0 0.35183199075491411 0.27966461044832719 0 0.36084998839118931 0.2761252295017701 0 0.35183199075491411 0.27966461044832719 0 0.39945440726228237 0.27350419034528239 0 0.38460708535355081 0.26680105137204091 0 0.40768566828284042 0.25774317622192677 0 0.39945440726228237 0.27350419034528239 0 0.4092682188351508 0.26816031590002881 0 0.40768566828284042 0.25774317622192677 0 0.39945440726228237 0.27350419034528239 0 0.38460708535355081 0.26680105137204091 0 0.3904751567012596 0.27530993325585928 0 0.39945440726228237 0.27350419034528239 0 0.3904751567012596 0.27530993325585928 0 0.39488150240831521 0.28173053148540511 0 0.39945440726228237 0.27350419034528239 0 0.40366985246608472 0.28285995447659418 0 0.40929088926209078 0.279020096056181 0 0.39945440726228237 0.27350419034528239 0 0.4092682188351508 0.26816031590002881 0 0.40929088926209078 0.279020096056181 0 0.39945440726228237 0.27350419034528239 0 0.39488150240831521 0.28173053148540511 0 0.40366985246608472 0.28285995447659418 0 0.38783836144724232 0.2556839199238965 0 0.38129994004966872 0.25577407136566988 0 0.40866327585672191 0.24600766979752939 0 0.38460708535355081 0.26680105137204091 0 0.40768566828284042 0.25774317622192677 0 0.38783836144724232 0.2556839199238965 0 0.40768566828284042 0.25774317622192677 0 0.40866327585672191 0.24600766979752939 0 0.38783836144724232 0.2556839199238965 0 0.38460708535355081 0.26680105137204091 0 0.40768566828284042 0.25774317622192677 0 0.38129994004966872 0.25577407136566988 0 0.40866327585672191 0.24600766979752939 0 0.38783836144724232 0.2556839199238965 0 0.38129994004966872 0.25577407136566988 0 0.38460708535355081 0.26680105137204091 0 0.38783836144724232 0.2556839199238965 0 0.38460708535355081 0.26680105137204091 0 0.38129994004966872 0.25577407136566988 0 0.37169426656027921 0.24972740256563611 0 0.38106847269238292 0.24536179082341181 0 0.37017340450925651 0.266060206293324 0 0.38129994004966872 0.25577407136566988 0 0.38460708535355081 0.26680105137204091 0 0.36084998839118931 0.2761252295017701 0 0.38460708535355081 0.26680105137204091 0 0.37969218042614078 0.28371066929036243 0 0.38460708535355081 0.26680105137204091 0 0.3904751567012596 0.27530993325585928 0 0.37969218042614078 0.28371066929036243 0 0.38460708535355081 0.26680105137204091 0 0.37969218042614078 0.28371066929036243 0 0.3904751567012596 0.27530993325585928 0 0.37969218042614078 0.28371066929036243 0 0.39488150240831521 0.28173053148540511 0 0.37969218042614078 0.28371066929036243 0 0.37763341047385651 0.29079382019339128 0 0.40259214502479168 0.29292967641552992 0 0.37763341047385651 0.29079382019339128 0 0.4027243230010164 0.30147339632314252 0 0.37969218042614078 0.28371066929036243 0 0.37763341047385651 0.29079382019339128 0 0.37333201972158658 0.2878654242033048 0 0.37969218042614078 0.28371066929036243 0 0.37763341047385651 0.29079382019339128 0 0.37763341047385651 0.29079382019339128 0 0.37695808612291098 0.31120865645681561 0 0.38599374742651271 0.30414296713942529 0 0.37763341047385651 0.29079382019339128 0 0.38599374742651271 0.30414296713942529 0 0.4027243230010164 0.30147339632314252 0 0.37695808612291098 0.31120865645681561 0 0.38599374742651271 0.30414296713942529 0 0.38754735899376969 0.31282171123814728 0 0.38599374742651271 0.30414296713942529 0 0.4027243230010164 0.30147339632314252 0 0.38754735899376969 0.31282171123814728 0 0.4027243230010164 0.30147339632314252 0 0.3956366020903157 0.32248231082130752 0 0.38754735899376969 0.31282171123814728 0 0.37969218042614078 0.28371066929036243 0 0.40259214502479168 0.29292967641552992 0 0.37969218042614078 0.28371066929036243 0 0.39488150240831521 0.28173053148540511 0 0.40259214502479168 0.29292967641552992 0 0.37763341047385651 0.29079382019339128 0 0.4027243230010164 0.30147339632314252 0 0.40259214502479168 0.29292967641552992 0 0.4027243230010164 0.30147339632314252 0 0.40259214502479168 0.29292967641552992 0 0.41139710839419091 0.29189735433941028 0 0.40259214502479168 0.29292967641552992 0 0.40366985246608472 0.28285995447659418 0 0.41139710839419091 0.29189735433941028 0 0.39488150240831521 0.28173053148540511 0 0.40259214502479168 0.29292967641552992 0 0.40366985246608472 0.28285995447659418 0 0.40366985246608472 0.28285995447659418 0 0.41139710839419091 0.29189735433941028 0 0.40929088926209078 0.279020096056181 0 0.41139710839419091 0.29189735433941028 0 0.42781523552817591 0.31215297245289481 0 0.42226183937510081 0.28327127115801121 0 0.41139710839419091 0.29189735433941028 0 0.42226183937510081 0.28327127115801121 0 0.40929088926209078 0.279020096056181 0 0.4027243230010164 0.30147339632314252 0 0.41139710839419091 0.29189735433941028 0 0.42781523552817591 0.31215297245289481 0 0.4027243230010164 0.30147339632314252 0 0.42781523552817591 0.31215297245289481 0 0.41357021602424721 0.32279281759874212 0 0.4027243230010164 0.30147339632314252 0 0.42781523552817591 0.31215297245289481 0 0.42781523552817591 0.31215297245289481 0 0.42226183937510081 0.28327127115801121 0 0.42781523552817591 0.31215297245289481 0 0.42226183937510081 0.28327127115801121 0 0.44120727567718632 0.28746005308771089 0 0.42226183937510081 0.28327127115801121 0 0.43023391716603732 0.27040224467912161 0 0.44120727567718632 0.28746005308771089 0 0.42226183937510081 0.28327127115801121 0 0.43023391716603732 0.27040224467912161 0 0.41664462513020523 0.25422696758609492 0 0.43023391716603732 0.27040224467912161 0 0.43692075095235122 0.26433370861442979 0 0.44373838257505849 0.27050131303512348 0 0.42226183937510081 0.28327127115801121 0 0.4092682188351508 0.26816031590002881 0 0.41664462513020523 0.25422696758609492 0 0.42226183937510081 0.28327127115801121 0 0.41664462513020523 0.25422696758609492 0 0.42226183937510081 0.28327127115801121 0 0.4092682188351508 0.26816031590002881 0 0.40929088926209078 0.279020096056181 0 0.40768566828284042 0.25774317622192677 0 0.41664462513020523 0.25422696758609492 0 0.40866327585672191 0.24600766979752939 0 0.40768566828284042 0.25774317622192677 0 0.41664462513020523 0.25422696758609492 0 0.4092682188351508 0.26816031590002881 0 0.40768566828284042 0.25774317622192677 0 0.41664462513020523 0.25422696758609492 0 0.42749544465446981 0.25699566217507153 0 0.45166362976964691 0.25106894999712381 0 0.43076425121212841 0.2486853010718087 0 0.41664462513020523 0.25422696758609492 0 0.42749544465446981 0.25699566217507153 0 0.43076425121212841 0.2486853010718087 0 0.43023391716603732 0.27040224467912161 0 0.41664462513020523 0.25422696758609492 0 0.42749544465446981 0.25699566217507153 0 0.41664462513020523 0.25422696758609492 0 0.43076425121212841 0.2486853010718087 0 0.42749544465446981 0.25699566217507153 0 0.43692075095235122 0.26433370861442979 0 0.44456450099631911 0.26043047377218492 0 0.43023391716603732 0.27040224467912161 0 0.42749544465446981 0.25699566217507153 0 0.43692075095235122 0.26433370861442979 0 0.42749544465446981 0.25699566217507153 0 0.45166362976964691 0.25106894999712381 0 0.42749544465446981 0.25699566217507153 0 0.44456450099631911 0.26043047377218492 0 0.45166362976964691 0.25106894999712381 0 0.43692075095235122 0.26433370861442979 0 0.44456450099631911 0.26043047377218492 0 0.44373838257505849 0.27050131303512348 0 0.44456450099631911 0.26043047377218492 0 0.44373838257505849 0.27050131303512348 0 0.45508065662597141 0.26402805921732958 0 0.44456450099631911 0.26043047377218492 0 0.45166362976964691 0.25106894999712381 0 0.45508065662597141 0.26402805921732958 0 0.44373838257505849 0.27050131303512348 0 0.45472874274978531 0.27586911806656422 0 0.44120727567718632 0.28746005308771089 0 0.43023391716603732 0.27040224467912161 0 0.44373838257505849 0.27050131303512348 0 0.44120727567718632 0.28746005308771089 0 0.44373838257505849 0.27050131303512348 0 0.45472874274978531 0.27586911806656422 0 0.45508065662597141 0.26402805921732958 0 0.45472874274978531 0.27586911806656422 0 0.46665275363318931 0.27127710252775639 0 0.46192346945889701 0.28817835066990299 0 0.45472874274978531 0.27586911806656422 0 0.46665275363318931 0.27127710252775639 0 0.45508065662597141 0.26402805921732958 0 0.45166362976964691 0.25106894999712381 0 0.46652816171208539 0.25830808769848879 0 0.47583181488482379 0.2451422378191761 0 0.45166362976964691 0.25106894999712381 0 0.45508065662597141 0.26402805921732958 0 0.46652816171208539 0.25830808769848879 0 0.46665275363318931 0.27127710252775639 0 0.45508065662597141 0.26402805921732958 0 0.46652816171208539 0.25830808769848879 0 0.46665275363318931 0.27127710252775639 0 0.46652816171208539 0.25830808769848879 0 0.48341195364679568 0.26002408893105827 0 0.46652816171208539 0.25830808769848879 0 0.48341195364679568 0.26002408893105827 0 0.47583181488482379 0.2451422378191761 0 0.46665275363318931 0.27127710252775639 0 0.48341195364679568 0.26002408893105827 0 0.48138518434246891 0.28130646820503019 0 0.46665275363318931 0.27127710252775639 0 0.48138518434246891 0.28130646820503019 0 0.46192346945889701 0.28817835066990299 0 0.5 0.26671351767664991 0 0.5 0.29421150971207138 0 0.48138518434246891 0.28130646820503019 0 0.48341195364679568 0.26002408893105827 0 0.5 0.26671351767664991 0 0.48138518434246891 0.28130646820503019 0 0.48341195364679568 0.26002408893105827 0 0.5 0.26671351767664991 0 0.50000000000000067 0.2392155256412283 0 0.5 0.29421150971207138 0 0.47556093647901088 0.30733800586058863 0 0.5 0.32170950174749302 0 0.5 0.29421150971207138 0 0.48138518434246891 0.28130646820503019 0 0.47556093647901088 0.30733800586058863 0 0.48138518434246891 0.28130646820503019 0 0.47556093647901088 0.30733800586058863 0 0.46192346945889701 0.28817835066990299 0 0.47556093647901088 0.30733800586058863 0 0.45214514511688908 0.30370412902975941 0 0.45421880844117613 0.32339126307769928 0 0.47556093647901088 0.30733800586058863 0 0.46192346945889701 0.28817835066990299 0 0.45214514511688908 0.30370412902975941 0 0.46192346945889701 0.28817835066990299 0 0.44120727567718632 0.28746005308771089 0 0.45214514511688908 0.30370412902975941 0 0.45472874274978531 0.27586911806656422 0 0.46192346945889701 0.28817835066990299 0 0.44120727567718632 0.28746005308771089 0 0.42781523552817591 0.31215297245289481 0 0.44120727567718632 0.28746005308771089 0 0.45214514511688908 0.30370412902975941 0 0.42781523552817591 0.31215297245289481 0 0.45421880844117613 0.32339126307769928 0 0.43298436918619881 0.33903622913929549 0 0.42781523552817591 0.31215297245289481 0 0.45214514511688908 0.30370412902975941 0 0.45421880844117613 0.32339126307769928 0 0.42781523552817591 0.31215297245289481 0 0.45421880844117613 0.32339126307769928 0 0.45421880844117613 0.32339126307769928 0 0.45970761232660212 0.34692044601787542 0 0.43298436918619881 0.33903622913929549 0 0.45421880844117613 0.32339126307769928 0 0.48062238135417568 0.33462955370250519 0 0.45421880844117613 0.32339126307769928 0 0.48062238135417568 0.33462955370250519 0 0.45970761232660212 0.34692044601787542 0 0.47556093647901088 0.30733800586058863 0 0.45421880844117613 0.32339126307769928 0 0.48062238135417568 0.33462955370250519 0 0.48062238135417568 0.33462955370250519 0 0.5 0.32170950174749302 0 0.5 0.34920749378291471 0 0.47556093647901088 0.30733800586058863 0 0.48062238135417568 0.33462955370250519 0 0.5 0.32170950174749302 0 0.5 0.34920749378291471 0 0.48254603458521478 0.3522402998402685 0 0.5 0.37670548581833618 0 0.48062238135417568 0.33462955370250519 0 0.5 0.34920749378291471 0 0.48254603458521478 0.3522402998402685 0 0.48254603458521478 0.3522402998402685 0 0.46972057754862501 0.36630584452178799 0 0.45970761232660212 0.34692044601787542 0 0.48062238135417568 0.33462955370250519 0 0.48254603458521478 0.3522402998402685 0 0.45970761232660212 0.34692044601787542 0 0.48254603458521478 0.3522402998402685 0 0.46972057754862501 0.36630584452178799 0 0.5 0.37670548581833618 0 0.46972057754862501 0.36630584452178799 0 0.43815350284422228 0.36591948582569622 0 0.45848938469160699 0.38276388730883248 0 0.46972057754862501 0.36630584452178799 0 0.45970761232660212 0.34692044601787542 0 0.43815350284422228 0.36591948582569622 0 0.45970761232660212 0.34692044601787542 0 0.43815350284422228 0.36591948582569622 0 0.43298436918619881 0.33903622913929549 0 0.43815350284422228 0.36591948582569622 0 0.4167242930516859 0.35972934744593471 0 0.42344095457037051 0.38268701701273461 0 0.4167242930516859 0.35972934744593471 0 0.40101385701800268 0.38518895784325291 0 0.4167242930516859 0.35972934744593471 0 0.40181680918128981 0.35947395412181382 0 0.40101385701800268 0.38518895784325291 0 0.4167242930516859 0.35972934744593471 0 0.40869055031553031 0.33881917925707022 0 0.40181680918128981 0.35947395412181382 0 0.4167242930516859 0.35972934744593471 0 0.43298436918619881 0.33903622913929549 0 0.40869055031553031 0.33881917925707022 0 0.43815350284422228 0.36591948582569622 0 0.4167242930516859 0.35972934744593471 0 0.43298436918619881 0.33903622913929549 0 0.43815350284422228 0.36591948582569622 0 0.43298436918619881 0.33903622913929549 0 0.42781523552817591 0.31215297245289481 0 0.43298436918619881 0.33903622913929549 0 0.42781523552817591 0.31215297245289481 0 0.43298436918619881 0.33903622913929549 0 0.41357021602424721 0.32279281759874212 0 0.43298436918619881 0.33903622913929549 0 0.41357021602424721 0.32279281759874212 0 0.40869055031553031 0.33881917925707022 0 0.40869055031553031 0.33881917925707022 0 0.39369601167170543 0.33564153172070438 0 0.39209274976778918 0.34814598654190299 0 0.40869055031553031 0.33881917925707022 0 0.39369601167170543 0.33564153172070438 0 0.3956366020903157 0.32248231082130752 0 0.39369601167170543 0.33564153172070438 0 0.3956366020903157 0.32248231082130752 0 0.38362385659697051 0.32926172455430031 0 0.39369601167170543 0.33564153172070438 0 0.38635485741833753 0.33883185827426582 0 0.39209274976778918 0.34814598654190299 0 0.41357021602424721 0.32279281759874212 0 0.40869055031553031 0.33881917925707022 0 0.3956366020903157 0.32248231082130752 0 0.4027243230010164 0.30147339632314252 0 0.41357021602424721 0.32279281759874212 0 0.3956366020903157 0.32248231082130752 0 0.3956366020903157 0.32248231082130752 0 0.38754735899376969 0.31282171123814728 0 0.38479800915553353 0.32074741934569512 0 0.38754735899376969 0.31282171123814728 0 0.38479800915553353 0.32074741934569512 0 0.37917338616632867 0.3168755173424983 0 0.3956366020903157 0.32248231082130752 0 0.38479800915553353 0.32074741934569512 0 0.38362385659697051 0.32926172455430031 0 0.38479800915553353 0.32074741934569512 0 0.37832625022041982 0.32264150287239662 0 0.38362385659697051 0.32926172455430031 0 0.37577016905582622 0.32787937856968757 0 0.37832625022041982 0.32264150287239662 0 0.38362385659697051 0.32926172455430031 0 0.37577016905582622 0.32787937856968757 0 0.37506056064123422 0.32471797871916308 0 0.37832625022041982 0.32264150287239662 0 0.37368960646642962 0.31911015363466272 0 0.37506056064123422 0.32471797871916308 0 0.37832625022041982 0.32264150287239662 0 0.37695808612291098 0.31120865645681561 0 0.38754735899376969 0.31282171123814728 0 0.37917338616632867 0.3168755173424983 0 0.38479800915553353 0.32074741934569512 0 0.37832625022041982 0.32264150287239662 0 0.37917338616632867 0.3168755173424983 0 0.37368960646642962 0.31911015363466272 0 0.37832625022041982 0.32264150287239662 0 0.37917338616632867 0.3168755173424983 0 0.37499251130121058 0.31593455150060828 0 0.37368960646642962 0.31911015363466272 0 0.37917338616632867 0.3168755173424983 0 0.37499251130121058 0.31593455150060828 0 0.37695808612291098 0.31120865645681561 0 0.37917338616632867 0.3168755173424983 0 0.38635485741833753 0.33883185827426582 0 0.3795813787571668 0.3363772241379393 0 0.38278029029805521 0.34473282441648212 0 0.39369601167170543 0.33564153172070438 0 0.38635485741833753 0.33883185827426582 0 0.38362385659697051 0.32926172455430031 0 0.38635485741833753 0.33883185827426582 0 0.38362385659697051 0.32926172455430031 0 0.3795813787571668 0.3363772241379393 0 0.37577016905582622 0.32787937856968757 0 0.38362385659697051 0.32926172455430031 0 0.37868435463470768 0.3315773541462857 0 0.38362385659697051 0.32926172455430031 0 0.37868435463470768 0.3315773541462857 0 0.3795813787571668 0.3363772241379393 0 0.37577016905582622 0.32787937856968757 0 0.37868435463470768 0.3315773541462857 0 0.375263113682131 0.33313320718557798 0 0.37868435463470768 0.3315773541462857 0 0.375263113682131 0.33313320718557798 0 0.3795813787571668 0.3363772241379393 0 0.37369311900952262 0.33836265764115908 0 0.3795813787571668 0.3363772241379393 0 0.37670219357667811 0.34177383067972761 0 0.3795813787571668 0.3363772241379393 0 0.37670219357667811 0.34177383067972761 0 0.38278029029805521 0.34473282441648212 0 0.37369311900952262 0.33836265764115908 0 0.375263113682131 0.33313320718557798 0 0.3795813787571668 0.3363772241379393 0 0.3809821990389497 0.35490418517770578 0 0.39056259575344082 0.36548629952090861 0 0.39209274976778918 0.34814598654190299 0 0.37486749369974542 0.34694596905823039 0 0.37670219357667811 0.34177383067972761 0 0.38278029029805521 0.34473282441648212 0 0.37486749369974542 0.34694596905823039 0 0.38278029029805521 0.34473282441648212 0 0.3809821990389497 0.35490418517770578 0 0.38278029029805521 0.34473282441648212 0 0.3809821990389497 0.35490418517770578 0 0.39209274976778918 0.34814598654190299 0 0.38635485741833753 0.33883185827426582 0 0.38278029029805521 0.34473282441648212 0 0.39209274976778918 0.34814598654190299 0 0.37228166628853332 0.35471301169251829 0 0.37486749369974542 0.34694596905823039 0 0.3809821990389497 0.35490418517770578 0 0.37414389550204002 0.36898578533419818 0 0.3809821990389497 0.35490418517770578 0 0.39056259575344082 0.36548629952090861 0 0.37414389550204002 0.36898578533419818 0 0.39056259575344082 0.36548629952090861 0 0.40101385701800268 0.38518895784325291 0 0.37414389550204002 0.36898578533419818 0 0.37228166628853332 0.35471301169251829 0 0.3809821990389497 0.35490418517770578 0 0.39056259575344082 0.36548629952090861 0 0.40181680918128981 0.35947395412181382 0 0.40101385701800268 0.38518895784325291 0 0.39056259575344082 0.36548629952090861 0 0.40181680918128981 0.35947395412181382 0 0.39209274976778918 0.34814598654190299 0 0.40869055031553031 0.33881917925707022 0 0.40181680918128981 0.35947395412181382 0 0.39209274976778918 0.34814598654190299 0 0.40101385701800268 0.38518895784325291 0 0.38530342098431941 0.41064856824057122 0 0.40101385701800268 0.38518895784325291 0 0.38530342098431941 0.41064856824057122 0 0.41521715527738928 0.40390661881175682 0 0.3736470799201031 0.39378130610698531 0 0.37414389550204002 0.36898578533419818 0 0.40101385701800268 0.38518895784325291 0 0.3736470799201031 0.39378130610698531 0 0.40101385701800268 0.38518895784325291 0 0.38530342098431941 0.41064856824057122 0 0.36959298495063608 0.43610817863788948 0 0.38530342098431941 0.41064856824057122 0 0.36959298495063608 0.43610817863788948 0 0.38530342098431941 0.41064856824057122 0 0.3889231515195431 0.43141286456833011 0 0.3889231515195431 0.43141286456833011 0 0.40362265567455102 0.42304679086704539 0 0.39942544658573009 0.43872588670818857 0 0.40362265567455102 0.42304679086704539 0 0.41248490446316177 0.43293377153942381 0 0.39942544658573009 0.43872588670818857 0 0.38530342098431941 0.41064856824057122 0 0.3889231515195431 0.43141286456833011 0 0.40362265567455102 0.42304679086704539 0 0.38530342098431941 0.41064856824057122 0 0.40362265567455102 0.42304679086704539 0 0.41521715527738928 0.40390661881175682 0 0.40362265567455102 0.42304679086704539 0 0.42233359500988371 0.42307221464191669 0 0.41521715527738928 0.40390661881175682 0 0.40362265567455102 0.42304679086704539 0 0.41248490446316177 0.43293377153942381 0 0.42233359500988371 0.42307221464191669 0 0.41248490446316177 0.43293377153942381 0 0.42233359500988371 0.42307221464191669 0 0.42326813014219627 0.43909650749986368 0 0.42233359500988371 0.42307221464191669 0 0.43681876433844857 0.43497208046478802 0 0.42326813014219627 0.43909650749986368 0 0.42233359500988371 0.42307221464191669 0 0.43681876433844857 0.43497208046478802 0 0.43655617137350622 0.42038510460191503 0 0.42233359500988371 0.42307221464191669 0 0.42830887421762198 0.41018013153495869 0 0.41521715527738928 0.40390661881175682 0 0.42233359500988371 0.42307221464191669 0 0.42830887421762198 0.41018013153495869 0 0.43655617137350622 0.42038510460191503 0 0.42830887421762198 0.41018013153495869 0 0.43655617137350622 0.42038510460191503 0 0.439625884597032 0.40642404903869822 0 0.42978568865087441 0.39901034440009059 0 0.42344095457037051 0.38268701701273461 0 0.4433226365022459 0.39280274251209668 0 0.42978568865087441 0.39901034440009059 0 0.41521715527738928 0.40390661881175682 0 0.42344095457037051 0.38268701701273461 0 0.42830887421762198 0.41018013153495869 0 0.42978568865087441 0.39901034440009059 0 0.439625884597032 0.40642404903869822 0 0.42830887421762198 0.41018013153495869 0 0.42978568865087441 0.39901034440009059 0 0.41521715527738928 0.40390661881175682 0 0.4167242930516859 0.35972934744593471 0 0.40101385701800268 0.38518895784325291 0 0.42344095457037051 0.38268701701273461 0 0.40101385701800268 0.38518895784325291 0 0.41521715527738928 0.40390661881175682 0 0.42344095457037051 0.38268701701273461 0 0.43815350284422228 0.36591948582569622 0 0.42344095457037051 0.38268701701273461 0 0.4433226365022459 0.39280274251209668 0 0.43815350284422228 0.36591948582569622 0 0.4433226365022459 0.39280274251209668 0 0.43815350284422228 0.36591948582569622 0 0.4433226365022459 0.39280274251209668 0 0.45848938469160699 0.38276388730883248 0 0.4433226365022459 0.39280274251209668 0 0.4587292321942566 0.40377894109977869 0 0.44849177016026981 0.41968599919849731 0 0.4433226365022459 0.39280274251209668 0 0.44849177016026981 0.41968599919849731 0 0.42978568865087441 0.39901034440009059 0 0.4433226365022459 0.39280274251209668 0 0.439625884597032 0.40642404903869822 0 0.4433226365022459 0.39280274251209668 0 0.4587292321942566 0.40377894109977869 0 0.45848938469160699 0.38276388730883248 0 0.4587292321942566 0.40377894109977869 0 0.45848938469160699 0.38276388730883248 0 0.47720201034463561 0.39055994944820821 0 0.46972057754862501 0.36630584452178799 0 0.45848938469160699 0.38276388730883248 0 0.47720201034463561 0.39055994944820821 0 0.46972057754862501 0.36630584452178799 0 0.47720201034463561 0.39055994944820821 0 0.5 0.37670548581833618 0 0.47720201034463561 0.39055994944820821 0 0.5 0.40420347785375749 0 0.47329291580914951 0.41490179660840648 0 0.4587292321942566 0.40377894109977869 0 0.47720201034463561 0.39055994944820821 0 0.47329291580914951 0.41490179660840648 0 0.47720201034463561 0.39055994944820821 0 0.5 0.40420347785375749 0 0.5 0.37670548581833618 0 0.48546521128148462 0.42572005307568972 0 0.49999999999999828 0.43170146988917901 0 0.48502495584706629 0.44181750450007778 0 0.49999999999999828 0.43170146988917901 0 0.48502495584706629 0.44181750450007778 0 0.5 0.40420347785375749 0 0.48546521128148462 0.42572005307568972 0 0.47329291580914951 0.41490179660840648 0 0.5 0.40420347785375749 0 0.48546521128148462 0.42572005307568972 0 0.49999999999999828 0.43170146988917901 0 0.48546521128148462 0.42572005307568972 0 0.47462076711180717 0.43403653248997731 0 0.48502495584706629 0.44181750450007778 0 0.47329291580914951 0.41490179660840648 0 0.47462076711180717 0.43403653248997731 0 0.45927084092720188 0.43580976915473651 0 0.48546521128148462 0.42572005307568972 0 0.47329291580914951 0.41490179660840648 0 0.47462076711180717 0.43403653248997731 0 0.45927084092720188 0.43580976915473651 0 0.44849177016026981 0.41968599919849731 0 0.47329291580914951 0.41490179660840648 0 0.45927084092720188 0.43580976915473651 0 0.44849177016026981 0.41968599919849731 0 0.45927084092720188 0.43580976915473651 0 0.44849177016026981 0.41968599919849731 0 0.45165089640657707 0.43611575462809582 0 0.4587292321942566 0.40377894109977869 0 0.47329291580914951 0.41490179660840648 0 0.44849177016026981 0.41968599919849731 0 0.4433226365022459 0.39280274251209668 0 0.44849177016026981 0.41968599919849731 0 0.439625884597032 0.40642404903869822 0 0.43655617137350622 0.42038510460191503 0 0.44849177016026981 0.41968599919849731 0 0.439625884597032 0.40642404903869822 0 0.44849177016026981 0.41968599919849731 0 0.439625884597032 0.40642404903869822 0 0.44849177016026981 0.41968599919849731 0 0.45165089640657707 0.43611575462809582 0 0.44386952542921521 0.4295111469185629 0 0.44849177016026981 0.41968599919849731 0 0.45165089640657707 0.43611575462809582 0 0.45165089640657707 0.43611575462809582 0 0.44386952542921521 0.4295111469185629 0 0.44519082659473158 0.43782150968735878 0 0.43655617137350622 0.42038510460191503 0 0.44849177016026981 0.41968599919849731 0 0.44386952542921521 0.4295111469185629 0 0.43681876433844857 0.43497208046478802 0 0.43655617137350622 0.42038510460191503 0 0.44386952542921521 0.4295111469185629 0 0.43681876433844857 0.43497208046478802 0 0.44386952542921521 0.4295111469185629 0 0.44519082659473158 0.43782150968735878 0 0.43681876433844857 0.43497208046478802 0 0.44519082659473158 0.43782150968735878 0 0.44362096681603608 0.44566090358066651 0 0.43681876433844857 0.43497208046478802 0 0.44362096681603608 0.44566090358066651 0 0.43343701099378978 0.44857281610427868 0 0.44362096681603608 0.44566090358066651 0 0.44110505044236059 0.45564825146568327 0 0.43343701099378978 0.44857281610427868 0 0.44362096681603608 0.44566090358066651 0 0.45255374853073171 0.45216262504332899 0 0.45221828903371142 0.44335246171580328 0 0.44362096681603608 0.44566090358066651 0 0.45255374853073171 0.45216262504332899 0 0.44110505044236059 0.45564825146568327 0 0.44519082659473158 0.43782150968735878 0 0.44362096681603608 0.44566090358066651 0 0.45221828903371142 0.44335246171580328 0 0.45165089640657707 0.43611575462809582 0 0.44519082659473158 0.43782150968735878 0 0.45221828903371142 0.44335246171580328 0 0.45255374853073171 0.45216262504332899 0 0.44518446721829791 0.46873079822848901 0 0.44110505044236059 0.45564825146568327 0 0.44518446721829791 0.46873079822848901 0 0.44110505044236059 0.45564825146568327 0 0.43072905865294731 0.46311411437165317 0 0.47284597636140308 0.45611600571247141 0 0.46302896313844299 0.47272331085799019 0 0.45255374853073171 0.45216262504332899 0 0.44518446721829791 0.46873079822848901 0 0.47004991169413368 0.45193353911097589 0 0.47004991169413368 0.45193353911097589 0 0.47284597636140308 0.45611600571247141 0 0.46302896313844299 0.47272331085799019 0 0.44518446721829791 0.46873079822848901 0 0.47004991169413368 0.45193353911097589 0 0.46302896313844299 0.47272331085799019 0 0.44518446721829791 0.46873079822848901 0 0.47004991169413368 0.45193353911097589 0 0.45927084092720188 0.43580976915473651 0 0.47004991169413368 0.45193353911097589 0 0.45927084092720188 0.43580976915473651 0 0.45930684530103161 0.44617181272829648 0 0.47004991169413368 0.45193353911097589 0 0.47462076711180717 0.43403653248997731 0 0.45927084092720188 0.43580976915473651 0 0.47004991169413368 0.45193353911097589 0 0.45255374853073171 0.45216262504332899 0 0.45930684530103161 0.44617181272829648 0 0.47004991169413368 0.45193353911097589 0 0.45927084092720188 0.43580976915473651 0 0.45221828903371142 0.44335246171580328 0 0.45930684530103161 0.44617181272829648 0 0.45927084092720188 0.43580976915473651 0 0.45165089640657707 0.43611575462809582 0 0.45221828903371142 0.44335246171580328 0 0.45255374853073171 0.45216262504332899 0 0.45221828903371142 0.44335246171580328 0 0.45930684530103161 0.44617181272829648 0 0.47462076711180717 0.43403653248997731 0 0.47004991169413368 0.45193353911097589 0 0.48502495584706629 0.44181750450007778 0 0.48189680466807888 0.45106209462173341 0 0.47450081081676521 0.45331654521044668 0 0.48502495584706629 0.44181750450007778 0 0.47004991169413368 0.45193353911097589 0 0.48502495584706629 0.44181750450007778 0 0.47004991169413368 0.45193353911097589 0 0.47450081081676521 0.45331654521044668 0 0.48502495584706629 0.44181750450007778 0 0.47284597636140308 0.45611600571247141 0 0.48050552008400071 0.46757346096286262 0 0.46302896313844299 0.47272331085799019 0 0.47004991169413368 0.45193353911097589 0 0.47284597636140308 0.45611600571247141 0 0.47004991169413368 0.45193353911097589 0 0.47450081081676521 0.45331654521044668 0 0.47284597636140308 0.45611600571247141 0 0.47450081081676521 0.45331654521044668 0 0.47284597636140308 0.45611600571247141 0 0.47951191807974908 0.45654698881850991 0 0.47450081081676521 0.45331654521044668 0 0.47284597636140308 0.45611600571247141 0 0.47284597636140308 0.45611600571247141 0 0.48050552008400071 0.46757346096286262 0 0.47284597636140308 0.45611600571247141 0 0.48050552008400071 0.46757346096286262 0 0.47951191807974908 0.45654698881850991 0 0.48189680466807888 0.45106209462173341 0 0.47951191807974908 0.45654698881850991 0 0.4878104784684959 0.4546668375850359 0 0.48050552008400071 0.46757346096286262 0 0.47951191807974908 0.45654698881850991 0 0.4878104784684959 0.4546668375850359 0 0.48189680466807888 0.45106209462173341 0 0.47450081081676521 0.45331654521044668 0 0.47951191807974908 0.45654698881850991 0 0.48050552008400071 0.46757346096286262 0 0.4878104784684959 0.4546668375850359 0 0.49999999999999928 0.46182898591187349 0 0.48050552008400071 0.46757346096286262 0 0.49999999999999928 0.46182898591187349 0 0.49999999999999828 0.43170146988917901 0 0.4878104784684959 0.4546668375850359 0 0.49999999999999928 0.46182898591187349 0 0.49999999999999828 0.43170146988917901 0 0.4878104784684959 0.4546668375850359 0 0.48502495584706629 0.44181750450007778 0 0.48189680466807888 0.45106209462173341 0 0.4878104784684959 0.4546668375850359 0 0.48502495584706629 0.44181750450007778 0 0.49999999999999928 0.46182898591187349 0 0.5 0.5 0 0.49753071700976492 0.4930404390193398 0 0.5 0.5 0 0.47501141284236448 0.48698608464618232 0 0.44690499747156931 0.4999999999999995 0 0.5 0.5 0 0.49753071700976492 0.4930404390193398 0 0.47501141284236448 0.48698608464618232 0 0.49753071700976492 0.4930404390193398 0 0.48901811854688337 0.4803069499911008 0 0.47501141284236448 0.48698608464618232 0 0.49753071700976492 0.4930404390193398 0 0.48901811854688337 0.4803069499911008 0 0.48050552008400071 0.46757346096286262 0 0.49999999999999928 0.46182898591187349 0 0.48901811854688337 0.4803069499911008 0 0.49999999999999928 0.46182898591187349 0 0.49753071700976492 0.4930404390193398 0 0.48901811854688337 0.4803069499911008 0 0.48050552008400071 0.46757346096286262 0 0.48901811854688337 0.4803069499911008 0 0.48050552008400071 0.46757346096286262 0 0.46302896313844299 0.47272331085799019 0 0.48901811854688337 0.4803069499911008 0 0.47689100365292297 0.47689745161453417 0 0.47501141284236448 0.48698608464618232 0 0.48050552008400071 0.46757346096286262 0 0.47689100365292297 0.47689745161453417 0 0.46302896313844299 0.47272331085799019 0 0.48050552008400071 0.46757346096286262 0 0.48901811854688337 0.4803069499911008 0 0.47689100365292297 0.47689745161453417 0 0.47689100365292297 0.47689745161453417 0 0.47501141284236448 0.48698608464618232 0 0.46302896313844299 0.47272331085799019 0 0.47501141284236448 0.48698608464618232 0 0.45496698030500621 0.48636165542899479 0 0.44690499747156931 0.4999999999999995 0 0.47501141284236448 0.48698608464618232 0 0.45496698030500621 0.48636165542899479 0 0.46302896313844299 0.47272331085799019 0 0.45496698030500621 0.48636165542899479 0 0.46302896313844299 0.47272331085799019 0 0.46302896313844299 0.47272331085799019 0 0.43620850627812668 0.48062654530969717 0 0.44518446721829791 0.46873079822848901 0 0.46302896313844299 0.47272331085799019 0 0.43620850627812668 0.48062654530969717 0 0.45496698030500621 0.48636165542899479 0 0.46302896313844299 0.47272331085799019 0 0.43620850627812668 0.48062654530969717 0 0.45496698030500621 0.48636165542899479 0 0.44690499747156931 0.4999999999999995 0 0.43620850627812668 0.48062654530969717 0 0.45496698030500621 0.48636165542899479 0 0.44690499747156931 0.4999999999999995 0 0.42031902274246069 0.48552805734600057 0 0.41743852268843429 0.5 0 0.43620850627812668 0.48062654530969717 0 0.44690499747156931 0.4999999999999995 0 0.41743852268843429 0.5 0 0.43620850627812668 0.48062654530969717 0 0.42031902274246069 0.48552805734600057 0 0.41743852268843429 0.5 0 0.40134209412993838 0.48520307466421098 0 0.42031902274246069 0.48552805734600057 0 0.40973563488985532 0.47579104778557152 0 0.40134209412993838 0.48520307466421098 0 0.42031902274246069 0.48552805734600057 0 0.40973563488985532 0.47579104778557152 0 0.41789473538963601 0.46705380048502582 0 0.44518446721829791 0.46873079822848901 0 0.42031902274246069 0.48552805734600057 0 0.43072905865294731 0.46311411437165317 0 0.44518446721829791 0.46873079822848901 0 0.42031902274246069 0.48552805734600057 0 0.43620850627812668 0.48062654530969717 0 0.44518446721829791 0.46873079822848901 0 0.42031902274246069 0.48552805734600057 0 0.42031902274246069 0.48552805734600057 0 0.43072905865294731 0.46311411437165317 0 0.41789473538963601 0.46705380048502582 0 0.44110505044236059 0.45564825146568327 0 0.43072905865294731 0.46311411437165317 0 0.43343701099378978 0.44857281610427868 0 0.43072905865294731 0.46311411437165317 0 0.43343701099378978 0.44857281610427868 0 0.42053980660522761 0.45341513910658388 0 0.43072905865294731 0.46311411437165317 0 0.41789473538963601 0.46705380048502582 0 0.42053980660522761 0.45341513910658388 0 0.43681876433844857 0.43497208046478802 0 0.43343701099378978 0.44857281610427868 0 0.42326813014219627 0.43909650749986368 0 0.43343701099378978 0.44857281610427868 0 0.42326813014219627 0.43909650749986368 0 0.42053980660522761 0.45341513910658388 0 0.41248490446316177 0.43293377153942381 0 0.42326813014219627 0.43909650749986368 0 0.41215324011006321 0.44426916471351768 0 0.42326813014219627 0.43909650749986368 0 0.41215324011006321 0.44426916471351768 0 0.42053980660522761 0.45341513910658388 0 0.41215324011006321 0.44426916471351768 0 0.42053980660522761 0.45341513910658388 0 0.40575666434273311 0.45838443146516472 0 0.41248490446316177 0.43293377153942381 0 0.41215324011006321 0.44426916471351768 0 0.39942544658573009 0.43872588670818857 0 0.40973563488985532 0.47579104778557152 0 0.41789473538963601 0.46705380048502582 0 0.40575666434273311 0.45838443146516472 0 0.41789473538963601 0.46705380048502582 0 0.42053980660522761 0.45341513910658388 0 0.40575666434273311 0.45838443146516472 0 0.40973563488985532 0.47579104778557152 0 0.40575666434273311 0.45838443146516472 0 0.39457326129307041 0.46924519202038539 0 0.40575666434273311 0.45838443146516472 0 0.38748492612950952 0.44892285829301931 0 0.39457326129307041 0.46924519202038539 0 0.40575666434273311 0.45838443146516472 0 0.39942544658573009 0.43872588670818857 0 0.38748492612950952 0.44892285829301931 0 0.3889231515195431 0.43141286456833011 0 0.39942544658573009 0.43872588670818857 0 0.38748492612950952 0.44892285829301931 0 0.41215324011006321 0.44426916471351768 0 0.40575666434273311 0.45838443146516472 0 0.39942544658573009 0.43872588670818857 0 0.36980735363827261 0.46050290225189661 0 0.36959298495063608 0.43610817863788948 0 0.38748492612950952 0.44892285829301931 0 0.36959298495063608 0.43610817863788948 0 0.3889231515195431 0.43141286456833011 0 0.38748492612950952 0.44892285829301931 0 0.36980735363827261 0.46050290225189661 0 0.38748492612950952 0.44892285829301931 0 0.39457326129307041 0.46924519202038539 0 0.36980735363827261 0.46050290225189661 0 0.37801407526051067 0.48065415083330842 0 0.39457326129307041 0.46924519202038539 0 0.37801407526051067 0.48065415083330842 0 0.38797204790529932 0.5 0 0.40134209412993838 0.48520307466421098 0 0.41743852268843429 0.5 0 0.38797204790529932 0.5 0 0.40134209412993838 0.48520307466421098 0 0.40973563488985532 0.47579104778557152 0 0.40134209412993838 0.48520307466421098 0 0.39457326129307041 0.46924519202038539 0 0.37801407526051067 0.48065415083330842 0 0.40134209412993838 0.48520307466421098 0 0.39457326129307041 0.46924519202038539 0 0.33471388977496319 0.083869725553476451 0 0.32003772732572838 0.080925826065863432 0 0.34163206045391592 0.099703108374672819 0 0.32003772732572838 0.080925826065863432 0 0.34163206045391592 0.099703108374672819 0 0.33471388977496319 0.083869725553476451 0 0.34163206045391592 0.099703108374672819 0 0.35085433501378249 0.086695181415402722 0 0.33471388977496319 0.083869725553476451 0 0.34209731100959018 0.06531632876058778 0 0.3490795063897344 0.076610282135673974 0 0.33471388977496319 0.083869725553476451 0 0.34209731100959018 0.06531632876058778 0 0.32721969837032222 0.069259436753723466 0 0.33471388977496319 0.083869725553476451 0 0.32721969837032222 0.069259436753723466 0 0.32003772732572838 0.080925826065863432 0 0.31518448171420999 0.065085558788002928 0 0.32721969837032222 0.069259436753723466 0 0.32003772732572838 0.080925826065863432 0 0.32003772732572838 0.080925826065863432 0 0.31657863646219547 0.093324099257994786 0 0.34163206045391592 0.099703108374672819 0 0.32003772732572838 0.080925826065863432 0 0.31657863646219547 0.093324099257994786 0 0.30227411453462139 0.089652133027170247 0 0.33471388977496319 0.083869725553476451 0 0.32003772732572838 0.080925826065863432 0 0.31657863646219547 0.093324099257994786 0 0.32025759602694659 0.1047776340902011 0 0.34163206045391592 0.099703108374672819 0 0.31657863646219547 0.093324099257994786 0 0.32025759602694659 0.1047776340902011 0 0.30640852481201453 0.1024735992044304 0 0.32025759602694659 0.1047776340902011 0 0.31114536757858358 0.11742006929579971 0 0.30640852481201453 0.1024735992044304 0 0.32606950933900308 0.1158177097477945 0 0.31114536757858358 0.11742006929579971 0 0.3195478300457561 0.1332621056988223 0 0.32025759602694659 0.1047776340902011 0 0.32606950933900308 0.1158177097477945 0 0.31114536757858358 0.11742006929579971 0 0.33761965874988609 0.1186889285033586 0 0.34163206045391592 0.099703108374672819 0 0.34956654336434939 0.1234914401014125 0 0.32606950933900308 0.1158177097477945 0 0.33761965874988609 0.1186889285033586 0 0.34163206045391592 0.099703108374672819 0 0.32606950933900308 0.1158177097477945 0 0.33761965874988609 0.1186889285033586 0 0.33436770153514289 0.13112975471366969 0 0.33761965874988609 0.1186889285033586 0 0.34956654336434939 0.1234914401014125 0 0.33436770153514289 0.13112975471366969 0 0.32025759602694659 0.1047776340902011 0 0.32606950933900308 0.1158177097477945 0 0.34163206045391592 0.099703108374672819 0 0.34163206045391592 0.099703108374672819 0 0.35755874922647762 0.098360434014750309 0 0.36322639358210312 0.11848039068348271 0 0.34163206045391592 0.099703108374672819 0 0.36322639358210312 0.11848039068348271 0 0.34163206045391592 0.099703108374672819 0 0.35755874922647762 0.098360434014750309 0 0.35085433501378249 0.086695181415402722 0 0.34163206045391592 0.099703108374672819 0 0.34956654336434939 0.1234914401014125 0 0.36322639358210312 0.11848039068348271 0 0.36322639358210312 0.11848039068348271 0 0.37045299287494049 0.09679375479102828 0 0.38005682511468147 0.12140739343396729 0 0.35755874922647762 0.098360434014750309 0 0.36322639358210312 0.11848039068348271 0 0.37045299287494049 0.09679375479102828 0 0.35755874922647762 0.098360434014750309 0 0.37045299287494049 0.09679375479102828 0 0.35979627253246887 0.087956112087811941 0 0.37045299287494049 0.09679375479102828 0 0.36986657419494789 0.075759843690150083 0 0.37682589963749002 0.081332762740894418 0 0.37045299287494049 0.09679375479102828 0 0.35979627253246887 0.087956112087811941 0 0.36084916063519962 0.072180116148089279 0 0.37045299287494049 0.09679375479102828 0 0.36084916063519962 0.072180116148089279 0 0.36986657419494789 0.075759843690150083 0 0.37045299287494049 0.09679375479102828 0 0.36084916063519962 0.072180116148089279 0 0.35755874922647762 0.098360434014750309 0 0.35979627253246887 0.087956112087811941 0 0.35085433501378249 0.086695181415402722 0 0.35979627253246887 0.087956112087811941 0 0.35560274156159061 0.081403828627082772 0 0.36084916063519962 0.072180116148089279 0 0.33471388977496319 0.083869725553476451 0 0.35085433501378249 0.086695181415402722 0 0.3490795063897344 0.076610282135673974 0 0.35979627253246887 0.087956112087811941 0 0.35560274156159061 0.081403828627082772 0 0.35085433501378249 0.086695181415402722 0 0.35560274156159061 0.081403828627082772 0 0.35085433501378249 0.086695181415402722 0 0.3490795063897344 0.076610282135673974 0 0.34209731100959018 0.06531632876058778 0 0.3490795063897344 0.076610282135673974 0 0.36084916063519962 0.072180116148089279 0 0.36448270712015302 0.068442951443566186 0 0.36084916063519962 0.072180116148089279 0 0.35124532839545858 0.047566477505150237 0 0.35560274156159061 0.081403828627082772 0 0.3490795063897344 0.076610282135673974 0 0.36084916063519962 0.072180116148089279 0 0.36448270712015302 0.068442951443566186 0 0.36084916063519962 0.072180116148089279 0 0.36986657419494789 0.075759843690150083 0 0.36986657419494789 0.075759843690150083 0 0.37596532967213542 0.069868995675824025 0 0.37682589963749002 0.081332762740894418 0 0.36448270712015302 0.068442951443566186 0 0.36986657419494789 0.075759843690150083 0 0.37084641292541748 0.06878424193773866 0 0.36986657419494789 0.075759843690150083 0 0.37084641292541748 0.06878424193773866 0 0.37596532967213542 0.069868995675824025 0 0.36448270712015302 0.068442951443566186 0 0.37084641292541748 0.06878424193773866 0 0.37307104071443398 0.061065176941414383 0 0.37084641292541748 0.06878424193773866 0 0.37307104071443398 0.061065176941414383 0 0.37596532967213542 0.069868995675824025 0 0.36448270712015302 0.068442951443566186 0 0.37307104071443398 0.061065176941414383 0 0.37146335928247548 0.04052602251159599 0 0.36448270712015302 0.068442951443566186 0 0.37146335928247548 0.04052602251159599 0 0.35124532839545858 0.047566477505150237 0 0.36448270712015302 0.068442951443566186 0 0.37146335928247548 0.04052602251159599 0 0.37146335928247548 0.04052602251159599 0 0.35572529983931911 0.032753521421585163 0 0.36312657459820519 0.022962182453169309 0 0.37146335928247548 0.04052602251159599 0 0.35572529983931911 0.032753521421585163 0 0.35124532839545858 0.047566477505150237 0 0.35572529983931911 0.032753521421585163 0 0.35124532839545858 0.047566477505150237 0 0.3321968515854315 0.028027004478648001 0 0.36084916063519962 0.072180116148089279 0 0.35124532839545858 0.047566477505150237 0 0.34209731100959018 0.06531632876058778 0 0.36084916063519962 0.072180116148089279 0 0.35124532839545858 0.047566477505150237 0 0.36312657459820519 0.022962182453169309 0 0.35936362748920009 0.0091271431172253586 0 0.37844401144479839 0.012609093579625891 0 0.35936362748920009 0.0091271431172253586 0 0.37844401144479839 0.012609093579625891 0 0.36665723294200347 -0.001883505129568449 0 0.35936362748920009 0.0091271431172253586 0 0.36665723294200347 -0.001883505129568449 0 0.35531676971978082 -0.0033532784323768001 0 0.37146335928247548 0.04052602251159599 0 0.36312657459820519 0.022962182453169309 0 0.37844401144479839 0.012609093579625891 0 0.37146335928247548 0.04052602251159599 0 0.37844401144479839 0.012609093579625891 0 0.35572529983931911 0.032753521421585163 0 0.35063657493523293 0.0197951316358141 0 0.3321968515854315 0.028027004478648001 0 0.35572529983931911 0.032753521421585163 0 0.36312657459820519 0.022962182453169309 0 0.35063657493523293 0.0197951316358141 0 0.36312657459820519 0.022962182453169309 0 0.35063657493523293 0.0197951316358141 0 0.35936362748920009 0.0091271431172253586 0 0.35936362748920009 0.0091271431172253586 0 0.33689267375143878 0.0039255003288513873 0 0.35531676971978082 -0.0033532784323768001 0 0.35063657493523293 0.0197951316358141 0 0.35936362748920009 0.0091271431172253586 0 0.33689267375143878 0.0039255003288513873 0 0.33689267375143878 0.0039255003288513873 0 0.3321968515854315 0.028027004478648001 0 0.30352242257352219 0.0039185454548519476 0 0.35063657493523293 0.0197951316358141 0 0.33689267375143878 0.0039255003288513873 0 0.3321968515854315 0.028027004478648001 0 0.3321968515854315 0.028027004478648001 0 0.32406508202711942 0.05109974460068676 0 0.30086563814790429 0.035038583275740692 0 0.34209731100959018 0.06531632876058778 0 0.32721969837032222 0.069259436753723466 0 0.32406508202711942 0.05109974460068676 0 0.34209731100959018 0.06531632876058778 0 0.35124532839545858 0.047566477505150237 0 0.32406508202711942 0.05109974460068676 0 0.35124532839545858 0.047566477505150237 0 0.3321968515854315 0.028027004478648001 0 0.32406508202711942 0.05109974460068676 0 0.31518448171420999 0.065085558788002928 0 0.32721969837032222 0.069259436753723466 0 0.32406508202711942 0.05109974460068676 0 0.31518448171420999 0.065085558788002928 0 0.32406508202711942 0.05109974460068676 0 0.29882370077581188 0.062479238108283437 0 0.32406508202711942 0.05109974460068676 0 0.29882370077581188 0.062479238108283437 0 0.30086563814790429 0.035038583275740692 0 0.32406508202711942 0.05109974460068676 0 0.30086563814790429 0.035038583275740692 0 0.30086563814790429 0.035038583275740692 0 0.28350496565293731 0.043820562147367653 0 0.27766619426868899 0.018977421950794569 0 0.29882370077581188 0.062479238108283437 0 0.30086563814790429 0.035038583275740692 0 0.28350496565293731 0.043820562147367653 0 0.29882370077581188 0.062479238108283437 0 0.28350496565293731 0.043820562147367653 0 0.28339325744793759 0.061338593161917712 0 0.3321968515854315 0.028027004478648001 0 0.30086563814790429 0.035038583275740692 0 0.30352242257352219 0.0039185454548519476 0 0.30086563814790429 0.035038583275740692 0 0.27766619426868899 0.018977421950794569 0 0.30086563814790429 0.035038583275740692 0 0.30352242257352219 0.0039185454548519476 0 0.27766619426868899 0.018977421950794569 0 0.30352242257352219 0.0039185454548519476 0 0.27766619426868899 0.018977421950794569 0 0.27708695819087842 -0.0025378708656911609 0 0.27766619426868899 0.018977421950794569 0 0.25446675038947358 0.0029162606258486688 0 0.27766619426868899 0.018977421950794569 0 0.26047117107291767 -0.0019720443344692288 0 0.27708695819087842 -0.0025378708656911609 0 0.27766619426868899 0.018977421950794569 0 0.2600935707136679 0.019574361616358959 0 0.26464981823601458 0.038183209123269009 0 0.2600935707136679 0.019574361616358959 0 0.26464981823601458 0.038183209123269009 0 0.25044211127373811 0.032849993626191502 0 0.27766619426868899 0.018977421950794569 0 0.2600935707136679 0.019574361616358959 0 0.25446675038947358 0.0029162606258486688 0 0.27766619426868899 0.018977421950794569 0 0.25446675038947358 0.0029162606258486688 0 0.26047117107291767 -0.0019720443344692288 0 0.25446675038947358 0.0029162606258486688 0 0.26047117107291767 -0.0019720443344692288 0 0.28339325744793759 0.061338593161917712 0 0.2699795556074106 0.054659435659755229 0 0.26514968559830832 0.069915803624621298 0 0.28350496565293731 0.043820562147367653 0 0.28339325744793759 0.061338593161917712 0 0.2699795556074106 0.054659435659755229 0 0.28350496565293731 0.043820562147367653 0 0.27766619426868899 0.018977421950794569 0 0.26464981823601458 0.038183209123269009 0 0.28350496565293731 0.043820562147367653 0 0.2699795556074106 0.054659435659755229 0 0.26464981823601458 0.038183209123269009 0 0.26464981823601458 0.038183209123269009 0 0.25174039047255609 0.044464402284776217 0 0.2585751734657834 0.052327775232976027 0 0.26464981823601458 0.038183209123269009 0 0.25044211127373811 0.032849993626191502 0 0.25174039047255609 0.044464402284776217 0 0.25174039047255609 0.044464402284776217 0 0.25102243244437311 0.053297338652025752 0 0.2585751734657834 0.052327775232976027 0 0.2699795556074106 0.054659435659755229 0 0.26464981823601458 0.038183209123269009 0 0.2585751734657834 0.052327775232976027 0 0.2699795556074106 0.054659435659755229 0 0.2585751734657834 0.052327775232976027 0 0.26000268679747079 0.061003988239662958 0 0.2699795556074106 0.054659435659755229 0 0.26000268679747079 0.061003988239662958 0 0.26514968559830832 0.069915803624621298 0 0.2585751734657834 0.052327775232976027 0 0.26000268679747079 0.061003988239662958 0 0.2530174900015254 0.0600809219264858 0 0.25102243244437311 0.053297338652025752 0 0.2585751734657834 0.052327775232976027 0 0.2530174900015254 0.0600809219264858 0 0.24751669685985911 0.059618880130872708 0 0.25102243244437311 0.053297338652025752 0 0.2530174900015254 0.0600809219264858 0 0.24853219730195361 0.063845178725116872 0 0.2530174900015254 0.0600809219264858 0 0.25274476311700622 0.067427493409812952 0 0.2530174900015254 0.0600809219264858 0 0.25274476311700622 0.067427493409812952 0 0.26000268679747079 0.061003988239662958 0 0.2530174900015254 0.0600809219264858 0 0.25274476311700622 0.067427493409812952 0 0.25274476311700622 0.067427493409812952 0 0.25243039498113262 0.075895774732197205 0 0.24842415088314279 0.069033451464499671 0 0.25274476311700622 0.067427493409812952 0 0.25243039498113262 0.075895774732197205 0 0.25274476311700622 0.067427493409812952 0 0.25243039498113262 0.075895774732197205 0 0.26514968559830832 0.069915803624621298 0 0.25243039498113262 0.075895774732197205 0 0.26514968559830832 0.069915803624621298 0 0.26417250328098718 0.085299079350852347 0 0.25243039498113262 0.075895774732197205 0 0.26514968559830832 0.069915803624621298 0 0.26000268679747079 0.061003988239662958 0 0.25274476311700622 0.067427493409812952 0 0.26514968559830832 0.069915803624621298 0 0.25274476311700622 0.067427493409812952 0 0.26514968559830832 0.069915803624621298 0 0.25243039498113262 0.075895774732197205 0 0.26417250328098718 0.085299079350852347 0 0.25158482098595109 0.098673396421397969 0 0.25243039498113262 0.075895774732197205 0 0.25158482098595109 0.098673396421397969 0 0.26417250328098718 0.085299079350852347 0 0.27563544099652842 0.091217529053328833 0 0.26597619666038957 0.098681263799979324 0 0.26417250328098718 0.085299079350852347 0 0.27658940398852799 0.081360569412953818 0 0.27563544099652842 0.091217529053328833 0 0.26514968559830832 0.069915803624621298 0 0.26417250328098718 0.085299079350852347 0 0.27658940398852799 0.081360569412953818 0 0.27658940398852799 0.081360569412953818 0 0.27563544099652842 0.091217529053328833 0 0.28742128170162778 0.087331448045782731 0 0.28339325744793759 0.061338593161917712 0 0.26514968559830832 0.069915803624621298 0 0.29259370646201821 0.075420814845242989 0 0.26514968559830832 0.069915803624621298 0 0.27658940398852799 0.081360569412953818 0 0.29259370646201821 0.075420814845242989 0 0.28339325744793759 0.061338593161917712 0 0.26514968559830832 0.069915803624621298 0 0.26514968559830832 0.069915803624621298 0 0.29259370646201821 0.075420814845242989 0 0.29882370077581188 0.062479238108283437 0 0.28339325744793759 0.061338593161917712 0 0.29259370646201821 0.075420814845242989 0 0.27658940398852799 0.081360569412953818 0 0.29259370646201821 0.075420814845242989 0 0.28742128170162778 0.087331448045782731 0 0.27563544099652842 0.091217529053328833 0 0.28742128170162778 0.087331448045782731 0 0.29001374252644291 0.099006193890217781 0 0.28742128170162778 0.087331448045782731 0 0.30227411453462139 0.089652133027170247 0 0.29001374252644291 0.099006193890217781 0 0.29259370646201821 0.075420814845242989 0 0.28742128170162778 0.087331448045782731 0 0.30227411453462139 0.089652133027170247 0 0.32003772732572838 0.080925826065863432 0 0.29259370646201821 0.075420814845242989 0 0.30227411453462139 0.089652133027170247 0 0.32003772732572838 0.080925826065863432 0 0.29259370646201821 0.075420814845242989 0 0.32003772732572838 0.080925826065863432 0 0.29882370077581188 0.062479238108283437 0 0.29259370646201821 0.075420814845242989 0 0.32003772732572838 0.080925826065863432 0 0.29882370077581188 0.062479238108283437 0 0.31518448171420999 0.065085558788002928 0 0.32003772732572838 0.080925826065863432 0 0.29882370077581188 0.062479238108283437 0 0.29818169174329712 0.11066146566519899 0 0.31114536757858358 0.11742006929579971 0 0.294250496481684 0.12267566802032639 0 0.31114536757858358 0.11742006929579971 0 0.294250496481684 0.12267566802032639 0 0.30313841955192899 0.13260249050964579 0 0.29818169174329712 0.11066146566519899 0 0.31114536757858358 0.11742006929579971 0 0.30640852481201453 0.1024735992044304 0 0.30227411453462139 0.089652133027170247 0 0.30640852481201453 0.1024735992044304 0 0.29001374252644291 0.099006193890217781 0 0.29818169174329712 0.11066146566519899 0 0.30640852481201453 0.1024735992044304 0 0.29001374252644291 0.099006193890217781 0 0.31657863646219547 0.093324099257994786 0 0.30227411453462139 0.089652133027170247 0 0.30640852481201453 0.1024735992044304 0 0.29818169174329712 0.11066146566519899 0 0.29001374252644291 0.099006193890217781 0 0.28729541733308872 0.1128284558108848 0 0.29001374252644291 0.099006193890217781 0 0.28729541733308872 0.1128284558108848 0 0.27577858748266387 0.1072301355245756 0 0.29818169174329712 0.11066146566519899 0 0.28729541733308872 0.1128284558108848 0 0.294250496481684 0.12267566802032639 0 0.28729541733308872 0.1128284558108848 0 0.294250496481684 0.12267566802032639 0 0.28067449336876182 0.1220521091494646 0 0.28067449336876182 0.1220521091494646 0 0.26956705708048567 0.1198361090660386 0 0.27577858748266387 0.1072301355245756 0 0.28729541733308872 0.1128284558108848 0 0.28067449336876182 0.1220521091494646 0 0.27577858748266387 0.1072301355245756 0 0.26956705708048567 0.1198361090660386 0 0.27577858748266387 0.1072301355245756 0 0.26270963055581759 0.11098617864974181 0 0.27563544099652842 0.091217529053328833 0 0.27577858748266387 0.1072301355245756 0 0.26597619666038957 0.098681263799979324 0 0.27563544099652842 0.091217529053328833 0 0.29001374252644291 0.099006193890217781 0 0.27577858748266387 0.1072301355245756 0 0.27577858748266387 0.1072301355245756 0 0.26597619666038957 0.098681263799979324 0 0.26270963055581759 0.11098617864974181 0 0.25158482098595109 0.098673396421397969 0 0.25094552198087999 0.11589449234768209 0 0.25158482098595109 0.098673396421397969 0 0.26270963055581759 0.11098617864974181 0 0.25094552198087999 0.11589449234768209 0 0.26417250328098718 0.085299079350852347 0 0.26597619666038957 0.098681263799979324 0 0.25158482098595109 0.098673396421397969 0 0.26597619666038957 0.098681263799979324 0 0.25158482098595109 0.098673396421397969 0 0.26270963055581759 0.11098617864974181 0 0.25158482098595109 0.098673396421397969 0 0.26270963055581759 0.11098617864974181 0 0.25094552198087999 0.11589449234768209 0 0.25030622297580962 0.13311558827396619 0 0.26022612795132161 0.12333036834530881 0 0.25094552198087999 0.11589449234768209 0 0.25030622297580962 0.13311558827396619 0 0.26956705708048567 0.1198361090660386 0 0.26022612795132161 0.12333036834530881 0 0.26270963055581759 0.11098617864974181 0 0.26022612795132161 0.12333036834530881 0 0.26270963055581759 0.11098617864974181 0 0.25094552198087999 0.11589449234768209 0 0.26956705708048567 0.1198361090660386 0 0.26022612795132161 0.12333036834530881 0 0.26675796828336718 0.1380571931171293 0 0.26022612795132161 0.12333036834530881 0 0.25030622297580962 0.13311558827396619 0 0.26675796828336718 0.1380571931171293 0 0.25030622297580962 0.13311558827396619 0 0.26675796828336718 0.1380571931171293 0 0.25030622297580962 0.13311558827396619 0 0.26675796828336718 0.1380571931171293 0 0.25638724149227848 0.14295410589973731 0 0.25004344172447263 0.14019424959050239 0 0.25030622297580962 0.13311558827396619 0 0.25638724149227848 0.14295410589973731 0 0.25004344172447263 0.14019424959050239 0 0.25030622297580962 0.13311558827396619 0 0.26675796828336718 0.1380571931171293 0 0.28320971359092417 0.1429987979602943 0 0.26675796828336718 0.1380571931171293 0 0.28666270206708028 0.1324408374186071 0 0.28320971359092417 0.1429987979602943 0 0.28067449336876182 0.1220521091494646 0 0.26956705708048567 0.1198361090660386 0 0.26675796828336718 0.1380571931171293 0 0.28067449336876182 0.1220521091494646 0 0.26675796828336718 0.1380571931171293 0 0.28666270206708028 0.1324408374186071 0 0.26675796828336718 0.1380571931171293 0 0.27436529468354132 0.15433220537778311 0 0.26010861073109098 0.15248373785575309 0 0.26675796828336718 0.1380571931171293 0 0.27436529468354132 0.15433220537778311 0 0.28320971359092417 0.1429987979602943 0 0.26675796828336718 0.1380571931171293 0 0.26010861073109098 0.15248373785575309 0 0.25638724149227848 0.14295410589973731 0 0.2496536413094039 0.15044712256699261 0 0.25004344172447263 0.14019424959050239 0 0.25638724149227848 0.14295410589973731 0 0.24653130607993951 0.16237692388552691 0 0.2496536413094039 0.15044712256699261 0 0.26010861073109098 0.15248373785575309 0 0.2496536413094039 0.15044712256699261 0 0.26010861073109098 0.15248373785575309 0 0.25638724149227848 0.14295410589973731 0 0.24653130607993951 0.16237692388552691 0 0.25292738168467233 0.17649485219682931 0 0.26638423851283249 0.16867758561061549 0 0.24653130607993951 0.16237692388552691 0 0.26010861073109098 0.15248373785575309 0 0.26638423851283249 0.16867758561061549 0 0.24528107816237801 0.1907036486386274 0 0.25292738168467233 0.17649485219682931 0 0.26633433714882182 0.18577592949096661 0 0.25292738168467233 0.17649485219682931 0 0.26633433714882182 0.18577592949096661 0 0.26638423851283249 0.16867758561061549 0 0.27723266788850742 0.181048228772968 0 0.26638423851283249 0.16867758561061549 0 0.28391425324491287 0.17071999404263091 0 0.26633433714882182 0.18577592949096661 0 0.27723266788850742 0.181048228772968 0 0.26638423851283249 0.16867758561061549 0 0.27436529468354132 0.15433220537778311 0 0.26010861073109098 0.15248373785575309 0 0.26638423851283249 0.16867758561061549 0 0.27436529468354132 0.15433220537778311 0 0.26638423851283249 0.16867758561061549 0 0.28391425324491287 0.17071999404263091 0 0.27436529468354132 0.15433220537778311 0 0.28391425324491287 0.17071999404263091 0 0.29097703849613438 0.15773848939083679 0 0.28391425324491287 0.17071999404263091 0 0.2931647794093819 0.16879209887591959 0 0.29097703849613438 0.15773848939083679 0 0.2931647794093819 0.16879209887591959 0 0.29097703849613438 0.15773848939083679 0 0.30040947706207388 0.16512632217721829 0 0.28391425324491287 0.17071999404263091 0 0.28743664533084129 0.187357279865842 0 0.29743995151898561 0.17866098634217961 0 0.27723266788850742 0.181048228772968 0 0.28391425324491287 0.17071999404263091 0 0.28743664533084129 0.187357279865842 0 0.28391425324491287 0.17071999404263091 0 0.2931647794093819 0.16879209887591959 0 0.29743995151898561 0.17866098634217961 0 0.28743664533084129 0.187357279865842 0 0.29743995151898561 0.17866098634217961 0 0.29971043857951379 0.19298806906372529 0 0.29743995151898561 0.17866098634217961 0 0.30929675685570829 0.1858318568065235 0 0.29971043857951379 0.19298806906372529 0 0.29743995151898561 0.17866098634217961 0 0.3101655001798202 0.17563615506282959 0 0.30040947706207388 0.16512632217721829 0 0.29743995151898561 0.17866098634217961 0 0.3101655001798202 0.17563615506282959 0 0.30929675685570829 0.1858318568065235 0 0.30040947706207388 0.16512632217721829 0 0.30453528129870422 0.15487579661148021 0 0.32848741365188411 0.1727716232507491 0 0.29097703849613438 0.15773848939083679 0 0.30040947706207388 0.16512632217721829 0 0.30453528129870422 0.15487579661148021 0 0.2931647794093819 0.16879209887591959 0 0.29743995151898561 0.17866098634217961 0 0.30040947706207388 0.16512632217721829 0 0.29097703849613438 0.15773848939083679 0 0.30453528129870422 0.15487579661148021 0 0.29618567382365713 0.14404403195872001 0 0.30453528129870422 0.15487579661148021 0 0.30873747279203018 0.14281046260302349 0 0.29618567382365713 0.14404403195872001 0 0.30453528129870422 0.15487579661148021 0 0.30873747279203018 0.14281046260302349 0 0.32007589174333823 0.14676000458717811 0 0.30873747279203018 0.14281046260302349 0 0.30313841955192899 0.13260249050964579 0 0.3195478300457561 0.1332621056988223 0 0.31114536757858358 0.11742006929579971 0 0.30313841955192899 0.13260249050964579 0 0.3195478300457561 0.1332621056988223 0 0.30873747279203018 0.14281046260302349 0 0.30313841955192899 0.13260249050964579 0 0.29618567382365713 0.14404403195872001 0 0.294250496481684 0.12267566802032639 0 0.30313841955192899 0.13260249050964579 0 0.28666270206708028 0.1324408374186071 0 0.30313841955192899 0.13260249050964579 0 0.28666270206708028 0.1324408374186071 0 0.29618567382365713 0.14404403195872001 0 0.294250496481684 0.12267566802032639 0 0.28067449336876182 0.1220521091494646 0 0.28666270206708028 0.1324408374186071 0 0.28666270206708028 0.1324408374186071 0 0.28320971359092417 0.1429987979602943 0 0.29618567382365713 0.14404403195872001 0 0.27436529468354132 0.15433220537778311 0 0.29097703849613438 0.15773848939083679 0 0.28320971359092417 0.1429987979602943 0 0.29097703849613438 0.15773848939083679 0 0.28320971359092417 0.1429987979602943 0 0.29618567382365713 0.14404403195872001 0 0.28119448123381058 0.25405304303149878 0 0.26221447651104962 0.2479993693513689 0 0.28440499104296979 0.23439140090611099 0 0.26221447651104962 0.2479993693513689 0 0.26853130556434218 0.23400660741274959 0 0.28440499104296979 0.23439140090611099 0 0.26221447651104962 0.2479993693513689 0 0.28440499104296979 0.23439140090611099 0 0.2457442494512444 0.24022391879071339 0 0.26221447651104962 0.2479993693513689 0 0.25511338863332461 0.22468137717712711 0 0.26221447651104962 0.2479993693513689 0 0.25511338863332461 0.22468137717712711 0 0.26853130556434218 0.23400660741274959 0 0.26221447651104962 0.2479993693513689 0 0.25511338863332461 0.22468137717712711 0 0.25511338863332461 0.22468137717712711 0 0.25242827713160498 0.21540237912569379 0 0.25511338863332461 0.22468137717712711 0 0.2794126892910288 0.21617120911671081 0 0.25511338863332461 0.22468137717712711 0 0.26853130556434218 0.23400660741274959 0 0.2794126892910288 0.21617120911671081 0 0.26853130556434218 0.23400660741274959 0 0.2794126892910288 0.21617120911671081 0 0.28440499104296979 0.23439140090611099 0 0.25511338863332461 0.22468137717712711 0 0.2794126892910288 0.21617120911671081 0 0.26644318031571418 0.20408753099865831 0 0.2794126892910288 0.21617120911671081 0 0.26644318031571418 0.20408753099865831 0 0.27722953884408802 0.19656269719262509 0 0.24528107816237801 0.1907036486386274 0 0.26644318031571418 0.20408753099865831 0 0.25242827713160498 0.21540237912569379 0 0.25511338863332461 0.22468137717712711 0 0.26644318031571418 0.20408753099865831 0 0.25242827713160498 0.21540237912569379 0 0.26644318031571418 0.20408753099865831 0 0.25242827713160498 0.21540237912569379 0 0.24528107816237801 0.1907036486386274 0 0.26633433714882182 0.18577592949096661 0 0.26644318031571418 0.20408753099865831 0 0.26633433714882182 0.18577592949096661 0 0.26644318031571418 0.20408753099865831 0 0.27722953884408802 0.19656269719262509 0 0.27723266788850742 0.181048228772968 0 0.28743664533084129 0.187357279865842 0 0.27722953884408802 0.19656269719262509 0 0.26633433714882182 0.18577592949096661 0 0.27723266788850742 0.181048228772968 0 0.27722953884408802 0.19656269719262509 0 0.28743664533084129 0.187357279865842 0 0.27722953884408802 0.19656269719262509 0 0.28939512316467059 0.2005252056429343 0 0.28743664533084129 0.187357279865842 0 0.28939512316467059 0.2005252056429343 0 0.29971043857951379 0.19298806906372529 0 0.30929675685570829 0.1858318568065235 0 0.29971043857951379 0.19298806906372529 0 0.31162694501442678 0.19735313208654229 0 0.29971043857951379 0.19298806906372529 0 0.31162694501442678 0.19735313208654229 0 0.30371198994873311 0.20766104105629449 0 0.28939512316467059 0.2005252056429343 0 0.29971043857951379 0.19298806906372529 0 0.30371198994873311 0.20766104105629449 0 0.2794126892910288 0.21617120911671081 0 0.30371198994873311 0.20766104105629449 0 0.2794126892910288 0.21617120911671081 0 0.30371198994873311 0.20766104105629449 0 0.30659550557489001 0.220783432460853 0 0.2794126892910288 0.21617120911671081 0 0.27722953884408802 0.19656269719262509 0 0.28939512316467059 0.2005252056429343 0 0.2794126892910288 0.21617120911671081 0 0.28939512316467059 0.2005252056429343 0 0.30371198994873311 0.20766104105629449 0 0.30659550557489001 0.220783432460853 0 0.28440499104296979 0.23439140090611099 0 0.2794126892910288 0.21617120911671081 0 0.30659550557489001 0.220783432460853 0 0.28440499104296979 0.23439140090611099 0 0.30659550557489001 0.220783432460853 0 0.30328699804120918 0.24394477185791469 0 0.28440499104296979 0.23439140090611099 0 0.30659550557489001 0.220783432460853 0 0.30328699804120918 0.24394477185791469 0 0.31607427666693672 0.2331905299380852 0 0.28119448123381058 0.25405304303149878 0 0.30328699804120918 0.24394477185791469 0 0.28440499104296979 0.23439140090611099 0 0.3433555784436142 0.25004320974280247 0 0.34183468199228573 0.23727684870966961 0 0.33092809789354199 0.24744869965648561 0 0.34183468199228573 0.23727684870966961 0 0.3288410404878227 0.2348757256337824 0 0.33092809789354199 0.24744869965648561 0 0.3288410404878227 0.2348757256337824 0 0.33092809789354199 0.24744869965648561 0 0.31845456220733243 0.24449663650262579 0 0.31879452400631653 0.25919465198291952 0 0.30328699804120918 0.24394477185791469 0 0.31845456220733243 0.24449663650262579 0 0.30328699804120918 0.24394477185791469 0 0.31845456220733243 0.24449663650262579 0 0.31607427666693672 0.2331905299380852 0 0.3288410404878227 0.2348757256337824 0 0.31845456220733243 0.24449663650262579 0 0.31607427666693672 0.2331905299380852 0 0.3288410404878227 0.2348757256337824 0 0.31607427666693672 0.2331905299380852 0 0.32372534117020862 0.22390137225637691 0 0.30659550557489001 0.220783432460853 0 0.31607427666693672 0.2331905299380852 0 0.32372534117020862 0.22390137225637691 0 0.3288410404878227 0.2348757256337824 0 0.32372534117020862 0.22390137225637691 0 0.33832986301458301 0.22348170923356889 0 0.34183468199228573 0.23727684870966961 0 0.3288410404878227 0.2348757256337824 0 0.33832986301458301 0.22348170923356889 0 0.32372534117020862 0.22390137225637691 0 0.33832986301458301 0.22348170923356889 0 0.32878602010681029 0.20717546401559489 0 0.33832986301458301 0.22348170923356889 0 0.32878602010681029 0.20717546401559489 0 0.35089693608391498 0.21212819010674691 0 0.32878602010681029 0.20717546401559489 0 0.35097653463873058 0.19356749557033681 0 0.35089693608391498 0.21212819010674691 0 0.30659550557489001 0.220783432460853 0 0.32372534117020862 0.22390137225637691 0 0.32878602010681029 0.20717546401559489 0 0.31162694501442678 0.19735313208654229 0 0.30371198994873311 0.20766104105629449 0 0.32878602010681029 0.20717546401559489 0 0.30371198994873311 0.20766104105629449 0 0.30659550557489001 0.220783432460853 0 0.32878602010681029 0.20717546401559489 0 0.30659550557489001 0.220783432460853 0 0.32878602010681029 0.20717546401559489 0 0.32878602010681029 0.20717546401559489 0 0.31972446529152482 0.19052244909679969 0 0.3336272658304279 0.18895925974375941 0 0.31162694501442678 0.19735313208654229 0 0.32878602010681029 0.20717546401559489 0 0.31972446529152482 0.19052244909679969 0 0.30929675685570829 0.1858318568065235 0 0.31162694501442678 0.19735313208654229 0 0.31972446529152482 0.19052244909679969 0 0.32878602010681029 0.20717546401559489 0 0.3336272658304279 0.18895925974375941 0 0.35097653463873058 0.19356749557033681 0 0.32878602010681029 0.20717546401559489 0 0.35097653463873058 0.19356749557033681 0 0.3336272658304279 0.18895925974375941 0 0.35097653463873058 0.19356749557033681 0 0.35656535024169428 0.1804169243242798 0 0.35097653463873058 0.19356749557033681 0 0.35896651107905142 0.20360726904620211 0 0.35089693608391498 0.21212819010674691 0 0.35097653463873058 0.19356749557033681 0 0.36405518175537521 0.19484170215684679 0 0.35896651107905142 0.20360726904620211 0 0.35097653463873058 0.19356749557033681 0 0.36405518175537521 0.19484170215684679 0 0.35656535024169428 0.1804169243242798 0 0.36405518175537521 0.19484170215684679 0 0.35656535024169428 0.1804169243242798 0 0.38464328683150451 0.18806222539781059 0 0.36405518175537521 0.19484170215684679 0 0.36923798170140371 0.20928007436804161 0 0.38464328683150451 0.18806222539781059 0 0.36405518175537521 0.19484170215684679 0 0.36923798170140371 0.20928007436804161 0 0.35896651107905142 0.20360726904620211 0 0.36923798170140371 0.20928007436804161 0 0.36132702422268731 0.21787493872225441 0 0.35896651107905142 0.20360726904620211 0 0.36923798170140371 0.20928007436804161 0 0.36132702422268731 0.21787493872225441 0 0.37292139258550783 0.22672254500020811 0 0.36132702422268731 0.21787493872225441 0 0.35896651107905142 0.20360726904620211 0 0.35089693608391498 0.21212819010674691 0 0.34183468199228573 0.23727684870966961 0 0.33832986301458301 0.22348170923356889 0 0.35524969613090918 0.22837961108452459 0 0.36132702422268731 0.21787493872225441 0 0.35089693608391498 0.21212819010674691 0 0.35524969613090918 0.22837961108452459 0 0.33832986301458301 0.22348170923356889 0 0.35089693608391498 0.21212819010674691 0 0.35524969613090918 0.22837961108452459 0 0.36132702422268731 0.21787493872225441 0 0.35524969613090918 0.22837961108452459 0 0.37292139258550783 0.22672254500020811 0 0.35524969613090918 0.22837961108452459 0 0.37292139258550783 0.22672254500020811 0 0.36587213359177301 0.2378375665458646 0 0.37292139258550783 0.22672254500020811 0 0.36587213359177301 0.2378375665458646 0 0.3757768555661396 0.240133652284411 0 0.36587213359177301 0.2378375665458646 0 0.37169426656027921 0.24972740256563611 0 0.3757768555661396 0.240133652284411 0 0.36587213359177301 0.2378375665458646 0 0.37169426656027921 0.24972740256563611 0 0.36205361842742478 0.24882498742118489 0 0.36587213359177301 0.2378375665458646 0 0.36205361842742478 0.24882498742118489 0 0.35356337405553911 0.24205426642971811 0 0.35175757775775729 0.2532797976346674 0 0.36205361842742478 0.24882498742118489 0 0.35356337405553911 0.24205426642971811 0 0.35524969613090918 0.22837961108452459 0 0.36587213359177301 0.2378375665458646 0 0.35356337405553911 0.24205426642971811 0 0.34183468199228573 0.23727684870966961 0 0.35524969613090918 0.22837961108452459 0 0.35356337405553911 0.24205426642971811 0 0.3433555784436142 0.25004320974280247 0 0.34183468199228573 0.23727684870966961 0 0.35356337405553911 0.24205426642971811 0 0.3433555784436142 0.25004320974280247 0 0.35175757775775729 0.2532797976346674 0 0.35356337405553911 0.24205426642971811 0 0.33379856680907583 0.1437068241164389 0 0.32007589174333823 0.14676000458717811 0 0.33365817402274128 0.15789089208148979 0 0.33379856680907583 0.1437068241164389 0 0.33365817402274128 0.15789089208148979 0 0.34780073530519279 0.14835628742565241 0 0.33379856680907583 0.1437068241164389 0 0.34780073530519279 0.14835628742565241 0 0.34586764947947463 0.1362539899128139 0 0.33379856680907583 0.1437068241164389 0 0.33436770153514289 0.13112975471366969 0 0.34586764947947463 0.1362539899128139 0 0.34956654336434939 0.1234914401014125 0 0.33436770153514289 0.13112975471366969 0 0.34586764947947463 0.1362539899128139 0 0.33379856680907583 0.1437068241164389 0 0.33436770153514289 0.13112975471366969 0 0.3195478300457561 0.1332621056988223 0 0.32606950933900308 0.1158177097477945 0 0.33436770153514289 0.13112975471366969 0 0.3195478300457561 0.1332621056988223 0 0.30873747279203018 0.14281046260302349 0 0.3195478300457561 0.1332621056988223 0 0.32007589174333823 0.14676000458717811 0 0.30453528129870422 0.15487579661148021 0 0.32007589174333823 0.14676000458717811 0 0.33365817402274128 0.15789089208148979 0 0.33379856680907583 0.1437068241164389 0 0.3195478300457561 0.1332621056988223 0 0.32007589174333823 0.14676000458717811 0 0.30453528129870422 0.15487579661148021 0 0.33365817402274128 0.15789089208148979 0 0.30453528129870422 0.15487579661148021 0 0.32848741365188411 0.1727716232507491 0 0.33365817402274128 0.15789089208148979 0 0.30040947706207388 0.16512632217721829 0 0.32848741365188411 0.1727716232507491 0 0.3101655001798202 0.17563615506282959 0 0.30040947706207388 0.16512632217721829 0 0.32848741365188411 0.1727716232507491 0 0.3101655001798202 0.17563615506282959 0 0.31983557186529732 0.18171103000860481 0 0.32848741365188411 0.1727716232507491 0 0.3336272658304279 0.18895925974375941 0 0.31983557186529732 0.18171103000860481 0 0.32848741365188411 0.1727716232507491 0 0.3101655001798202 0.17563615506282959 0 0.30929675685570829 0.1858318568065235 0 0.31983557186529732 0.18171103000860481 0 0.30929675685570829 0.1858318568065235 0 0.31972446529152482 0.19052244909679969 0 0.31983557186529732 0.18171103000860481 0 0.31972446529152482 0.19052244909679969 0 0.3336272658304279 0.18895925974375941 0 0.31983557186529732 0.18171103000860481 0 0.32848741365188411 0.1727716232507491 0 0.34507730906385942 0.16855187839241309 0 0.35656535024169428 0.1804169243242798 0 0.3336272658304279 0.18895925974375941 0 0.32848741365188411 0.1727716232507491 0 0.35656535024169428 0.1804169243242798 0 0.32848741365188411 0.1727716232507491 0 0.35656535024169428 0.1804169243242798 0 0.32848741365188411 0.1727716232507491 0 0.33365817402274128 0.15789089208148979 0 0.34507730906385942 0.16855187839241309 0 0.33365817402274128 0.15789089208148979 0 0.34507730906385942 0.16855187839241309 0 0.36278106674677829 0.1609059875514994 0 0.34507730906385942 0.16855187839241309 0 0.35656535024169428 0.1804169243242798 0 0.36278106674677829 0.1609059875514994 0 0.33365817402274128 0.15789089208148979 0 0.36278106674677829 0.1609059875514994 0 0.35656535024169428 0.1804169243242798 0 0.37356219856206202 0.1741215612114578 0 0.38464328683150451 0.18806222539781059 0 0.35656535024169428 0.1804169243242798 0 0.38464328683150451 0.18806222539781059 0 0.35656535024169428 0.1804169243242798 0 0.37356219856206202 0.1741215612114578 0 0.36278106674677829 0.1609059875514994 0 0.36278106674677829 0.1609059875514994 0 0.36531512046589693 0.1378839500987098 0 0.37680076681991098 0.15092733218095339 0 0.36278106674677829 0.1609059875514994 0 0.34780073530519279 0.14835628742565241 0 0.36531512046589693 0.1378839500987098 0 0.34780073530519279 0.14835628742565241 0 0.34586764947947463 0.1362539899128139 0 0.36531512046589693 0.1378839500987098 0 0.33365817402274128 0.15789089208148979 0 0.36278106674677829 0.1609059875514994 0 0.34780073530519279 0.14835628742565241 0 0.34956654336434939 0.1234914401014125 0 0.34586764947947463 0.1362539899128139 0 0.36531512046589693 0.1378839500987098 0 0.34956654336434939 0.1234914401014125 0 0.36322639358210312 0.11848039068348271 0 0.36531512046589693 0.1378839500987098 0 0.36322639358210312 0.11848039068348271 0 0.36531512046589693 0.1378839500987098 0 0.38482072671029011 0.13725767299229241 0 0.36322639358210312 0.11848039068348271 0 0.38482072671029011 0.13725767299229241 0 0.36322639358210312 0.11848039068348271 0 0.38482072671029011 0.13725767299229241 0 0.38005682511468147 0.12140739343396729 0 0.38482072671029011 0.13725767299229241 0 0.39398634319161102 0.12556361147638159 0 0.38005682511468147 0.12140739343396729 0 0.38482072671029011 0.13725767299229241 0 0.39398634319161102 0.12556361147638159 0 0.40386822996399702 0.1370092008917044 0 0.39398634319161102 0.12556361147638159 0 0.40386822996399702 0.1370092008917044 0 0.40630256149234217 0.12337914253670321 0 0.38482072671029011 0.13725767299229241 0 0.40641505983847698 0.15603495530110209 0 0.38482072671029011 0.13725767299229241 0 0.40386822996399702 0.1370092008917044 0 0.40641505983847698 0.15603495530110209 0 0.38482072671029011 0.13725767299229241 0 0.39190395947081519 0.16392108302150901 0 0.40641505983847698 0.15603495530110209 0 0.36531512046589693 0.1378839500987098 0 0.38482072671029011 0.13725767299229241 0 0.37680076681991098 0.15092733218095339 0 0.38482072671029011 0.13725767299229241 0 0.37680076681991098 0.15092733218095339 0 0.39190395947081519 0.16392108302150901 0 0.36278106674677829 0.1609059875514994 0 0.39190395947081519 0.16392108302150901 0 0.36278106674677829 0.1609059875514994 0 0.37680076681991098 0.15092733218095339 0 0.39190395947081519 0.16392108302150901 0 0.37356219856206202 0.1741215612114578 0 0.36278106674677829 0.1609059875514994 0 0.39190395947081519 0.16392108302150901 0 0.37356219856206202 0.1741215612114578 0 0.39190395947081519 0.16392108302150901 0 0.38464328683150451 0.18806222539781059 0 0.4059128807594603 0.17981630131623391 0 0.39190395947081519 0.16392108302150901 0 0.38464328683150451 0.18806222539781059 0 0.39190395947081519 0.16392108302150901 0 0.42102685219485209 0.16693617849151851 0 0.40641505983847698 0.15603495530110209 0 0.4059128807594603 0.17981630131623391 0 0.39190395947081519 0.16392108302150901 0 0.42102685219485209 0.16693617849151851 0 0.42102685219485209 0.16693617849151851 0 0.40641505983847698 0.15603495530110209 0 0.41490094777653419 0.14712571815411829 0 0.39190395947081519 0.16392108302150901 0 0.42102685219485209 0.16693617849151851 0 0.4059128807594603 0.17981630131623391 0 0.42102685219485209 0.16693617849151851 0 0.42759287120751482 0.1799189573059411 0 0.4059128807594603 0.17981630131623391 0 0.42759287120751482 0.1799189573059411 0 0.42045703890892938 0.19185412915784311 0 0.42102685219485209 0.16693617849151851 0 0.42759287120751482 0.1799189573059411 0 0.45014974491888898 0.16995127396152809 0 0.42759287120751482 0.1799189573059411 0 0.42045703890892938 0.19185412915784311 0 0.43799329450951457 0.1898848624547933 0 0.42102685219485209 0.16693617849151851 0 0.45014974491888898 0.16995127396152809 0 0.42102685219485209 0.16693617849151851 0 0.43641214087317609 0.15776157540708571 0 0.42820809332857229 0.14540676379554701 0 0.42102685219485209 0.16693617849151851 0 0.43641214087317609 0.15776157540708571 0 0.45014974491888898 0.16995127396152809 0 0.43641214087317609 0.15776157540708571 0 0.42820809332857229 0.14540676379554701 0 0.44305345270963392 0.14224085277467549 0 0.42820809332857229 0.14540676379554701 0 0.43267139290449452 0.12562392175117529 0 0.41815906511665779 0.13368892679480551 0 0.42820809332857229 0.14540676379554701 0 0.43267139290449452 0.12562392175117529 0 0.44305345270963392 0.14224085277467549 0 0.43267139290449452 0.12562392175117529 0 0.41815906511665779 0.13368892679480551 0 0.41840244549433692 0.1204435227777134 0 0.41815906511665779 0.13368892679480551 0 0.41840244549433692 0.1204435227777134 0 0.40630256149234217 0.12337914253670321 0 0.40386822996399702 0.1370092008917044 0 0.41815906511665779 0.13368892679480551 0 0.40630256149234217 0.12337914253670321 0 0.40386822996399702 0.1370092008917044 0 0.41815906511665779 0.13368892679480551 0 0.41490094777653419 0.14712571815411829 0 0.42102685219485209 0.16693617849151851 0 0.42820809332857229 0.14540676379554701 0 0.41490094777653419 0.14712571815411829 0 0.40386822996399702 0.1370092008917044 0 0.40641505983847698 0.15603495530110209 0 0.41490094777653419 0.14712571815411829 0 0.42820809332857229 0.14540676379554701 0 0.41815906511665779 0.13368892679480551 0 0.41490094777653419 0.14712571815411829 0 0.39196586341458151 0.242441409442547 0 0.40329821407583749 0.23025496453590971 0 0.40866327585672191 0.24600766979752939 0 0.38129994004966872 0.25577407136566988 0 0.39196586341458151 0.242441409442547 0 0.40866327585672191 0.24600766979752939 0 0.38129994004966872 0.25577407136566988 0 0.39196586341458151 0.242441409442547 0 0.38106847269238292 0.24536179082341181 0 0.37169426656027921 0.24972740256563611 0 0.38106847269238292 0.24536179082341181 0 0.3757768555661396 0.240133652284411 0 0.37292139258550783 0.22672254500020811 0 0.3757768555661396 0.240133652284411 0 0.38460543787124563 0.238732418458795 0 0.38106847269238292 0.24536179082341181 0 0.3757768555661396 0.240133652284411 0 0.38460543787124563 0.238732418458795 0 0.39196586341458151 0.242441409442547 0 0.38106847269238292 0.24536179082341181 0 0.38460543787124563 0.238732418458795 0 0.39196586341458151 0.242441409442547 0 0.38460543787124563 0.238732418458795 0 0.38844350160088592 0.2284985707660753 0 0.37292139258550783 0.22672254500020811 0 0.38460543787124563 0.238732418458795 0 0.38844350160088592 0.2284985707660753 0 0.37292139258550783 0.22672254500020811 0 0.38844350160088592 0.2284985707660753 0 0.38369130631537601 0.21297307403445409 0 0.38844350160088592 0.2284985707660753 0 0.39679964264504158 0.21937630878092959 0 0.38369130631537601 0.21297307403445409 0 0.38844350160088592 0.2284985707660753 0 0.39679964264504158 0.21937630878092959 0 0.40329821407583749 0.23025496453590971 0 0.39196586341458151 0.242441409442547 0 0.38844350160088592 0.2284985707660753 0 0.40329821407583749 0.23025496453590971 0 0.39679964264504158 0.21937630878092959 0 0.40329821407583749 0.23025496453590971 0 0.41066806580544729 0.2160617609406458 0 0.39598296716959969 0.20626700748070109 0 0.40513352984814438 0.19492560706685999 0 0.41066806580544729 0.2160617609406458 0 0.39679964264504158 0.21937630878092959 0 0.39598296716959969 0.20626700748070109 0 0.41066806580544729 0.2160617609406458 0 0.39679964264504158 0.21937630878092959 0 0.39598296716959969 0.20626700748070109 0 0.38369130631537601 0.21297307403445409 0 0.36923798170140371 0.20928007436804161 0 0.37292139258550783 0.22672254500020811 0 0.38369130631537601 0.21297307403445409 0 0.36923798170140371 0.20928007436804161 0 0.38369130631537601 0.21297307403445409 0 0.38464328683150451 0.18806222539781059 0 0.39598296716959969 0.20626700748070109 0 0.38369130631537601 0.21297307403445409 0 0.38464328683150451 0.18806222539781059 0 0.39598296716959969 0.20626700748070109 0 0.38464328683150451 0.18806222539781059 0 0.40513352984814438 0.19492560706685999 0 0.4059128807594603 0.17981630131623391 0 0.38464328683150451 0.18806222539781059 0 0.40513352984814438 0.19492560706685999 0 0.40513352984814438 0.19492560706685999 0 0.42045703890892938 0.19185412915784311 0 0.42444067869502011 0.20693424997503959 0 0.4059128807594603 0.17981630131623391 0 0.40513352984814438 0.19492560706685999 0 0.42045703890892938 0.19185412915784311 0 0.42045703890892938 0.19185412915784311 0 0.42444067869502011 0.20693424997503959 0 0.43799329450951457 0.1898848624547933 0 0.42444067869502011 0.20693424997503959 0 0.44184419378540352 0.2076794424592901 0 0.43799329450951457 0.1898848624547933 0 0.42444067869502011 0.20693424997503959 0 0.4302098735549707 0.2206458244329694 0 0.44184419378540352 0.2076794424592901 0 0.42444067869502011 0.20693424997503959 0 0.41066806580544729 0.2160617609406458 0 0.4302098735549707 0.2206458244329694 0 0.40513352984814438 0.19492560706685999 0 0.42444067869502011 0.20693424997503959 0 0.41066806580544729 0.2160617609406458 0 0.41066806580544729 0.2160617609406458 0 0.41777320819135039 0.22984229758728861 0 0.4302098735549707 0.2206458244329694 0 0.40329821407583749 0.23025496453590971 0 0.41066806580544729 0.2160617609406458 0 0.41777320819135039 0.22984229758728861 0 0.4302098735549707 0.2206458244329694 0 0.43602661166377499 0.2362412682293889 0 0.44584438813649652 0.2203436080528294 0 0.41777320819135039 0.22984229758728861 0 0.4302098735549707 0.2206458244329694 0 0.43602661166377499 0.2362412682293889 0 0.43602661166377499 0.2362412682293889 0 0.43076425121212841 0.2486853010718087 0 0.40866327585672191 0.24600766979752939 0 0.43602661166377499 0.2362412682293889 0 0.40866327585672191 0.24600766979752939 0 0.41777320819135039 0.22984229758728861 0 0.43602661166377499 0.2362412682293889 0 0.40866327585672191 0.24600766979752939 0 0.41664462513020523 0.25422696758609492 0 0.43076425121212841 0.2486853010718087 0 0.40866327585672191 0.24600766979752939 0 0.40329821407583749 0.23025496453590971 0 0.41777320819135039 0.22984229758728861 0 0.40866327585672191 0.24600766979752939 0 0.45166362976964691 0.25106894999712381 0 0.45384283414141641 0.23962742592169059 0 0.47583181488482379 0.2451422378191761 0 0.45166362976964691 0.25106894999712381 0 0.47583181488482379 0.2451422378191761 0 0.45384283414141641 0.23962742592169059 0 0.47692141707070451 0.23056955077157251 0 0.45166362976964691 0.25106894999712381 0 0.43076425121212841 0.2486853010718087 0 0.45384283414141641 0.23962742592169059 0 0.43602661166377499 0.2362412682293889 0 0.43076425121212841 0.2486853010718087 0 0.45384283414141641 0.23962742592169059 0 0.43076425121212841 0.2486853010718087 0 0.45384283414141641 0.23962742592169059 0 0.43602661166377499 0.2362412682293889 0 0.46338994747082818 0.22647486666124839 0 0.43602661166377499 0.2362412682293889 0 0.44584438813649652 0.2203436080528294 0 0.46338994747082818 0.22647486666124839 0 0.43602661166377499 0.2362412682293889 0 0.45384283414141641 0.23962742592169059 0 0.46338994747082818 0.22647486666124839 0 0.44584438813649652 0.2203436080528294 0 0.46338994747082818 0.22647486666124839 0 0.4574246187180494 0.20998202225832771 0 0.45384283414141641 0.23962742592169059 0 0.46338994747082818 0.22647486666124839 0 0.47692141707070451 0.23056955077157251 0 0.46338994747082818 0.22647486666124839 0 0.4574246187180494 0.20998202225832771 0 0.47311107537994651 0.21060674662752529 0 0.4574246187180494 0.20998202225832771 0 0.46861366351278472 0.19789432193598561 0 0.47311107537994651 0.21060674662752529 0 0.44584438813649652 0.2203436080528294 0 0.4574246187180494 0.20998202225832771 0 0.44184419378540352 0.2076794424592901 0 0.4302098735549707 0.2206458244329694 0 0.44584438813649652 0.2203436080528294 0 0.44184419378540352 0.2076794424592901 0 0.4574246187180494 0.20998202225832771 0 0.44184419378540352 0.2076794424592901 0 0.45120510308892831 0.19507838461398491 0 0.44184419378540352 0.2076794424592901 0 0.43799329450951457 0.1898848624547933 0 0.45120510308892831 0.19507838461398491 0 0.4574246187180494 0.20998202225832771 0 0.45120510308892831 0.19507838461398491 0 0.46861366351278472 0.19789432193598561 0 0.45120510308892831 0.19507838461398491 0 0.46861366351278472 0.19789432193598561 0 0.45014974491888898 0.16995127396152809 0 0.46861366351278472 0.19789432193598561 0 0.48377650321145821 0.20030440734603891 0 0.47890777313388699 0.17818810929941131 0 0.46861366351278472 0.19789432193598561 0 0.48377650321145821 0.20030440734603891 0 0.47311107537994651 0.21060674662752529 0 0.48377650321145821 0.20030440734603891 0 0.5 0.19442179120654851 0 0.47890777313388699 0.17818810929941131 0 0.48377650321145821 0.20030440734603891 0 0.5 0.19442179120654851 0 0.49075328327788142 0.2167084650931079 0 0.5 0.19442179120654851 0 0.49075328327788142 0.2167084650931079 0 0.49999999999999339 0.2215116756214566 0 0.48377650321145821 0.20030440734603891 0 0.49075328327788142 0.2167084650931079 0 0.47311107537994651 0.21060674662752529 0 0.46338994747082818 0.22647486666124839 0 0.49075328327788142 0.2167084650931079 0 0.47311107537994651 0.21060674662752529 0 0.46338994747082818 0.22647486666124839 0 0.49075328327788142 0.2167084650931079 0 0.46338994747082818 0.22647486666124839 0 0.49075328327788142 0.2167084650931079 0 0.47692141707070451 0.23056955077157251 0 0.47692141707070451 0.23056955077157251 0 0.49999999999999339 0.2215116756214566 0 0.50000000000000067 0.2392155256412283 0 0.49075328327788142 0.2167084650931079 0 0.47692141707070451 0.23056955077157251 0 0.49999999999999339 0.2215116756214566 0 0.47692141707070451 0.23056955077157251 0 0.49999999999999339 0.2215116756214566 0 0.50000000000000067 0.2392155256412283 0 0.47583181488482379 0.2451422378191761 0 0.48341195364679568 0.26002408893105827 0 0.50000000000000067 0.2392155256412283 0 0.47583181488482379 0.2451422378191761 0 0.47692141707070451 0.23056955077157251 0 0.50000000000000067 0.2392155256412283 0 0.47583181488482379 0.2451422378191761 0 0.45384283414141641 0.23962742592169059 0 0.47692141707070451 0.23056955077157251 0 0.47583181488482379 0.2451422378191761 0 0.46053260521531592 0.14091734283165991 0 0.45014974491888898 0.16995127396152809 0 0.47759274938693741 0.15337993901402261 0 0.46053260521531592 0.14091734283165991 0 0.47596637305353268 0.1236489788231635 0 0.45094723062946279 0.12208098845927939 0 0.46053260521531592 0.14091734283165991 0 0.44305345270963392 0.14224085277467549 0 0.45094723062946279 0.12208098845927939 0 0.43267139290449452 0.12562392175117529 0 0.44305345270963392 0.14224085277467549 0 0.45094723062946279 0.12208098845927939 0 0.46053260521531592 0.14091734283165991 0 0.44305345270963392 0.14224085277467549 0 0.45014974491888898 0.16995127396152809 0 0.43641214087317609 0.15776157540708571 0 0.44305345270963392 0.14224085277467549 0 0.45014974491888898 0.16995127396152809 0 0.42759287120751482 0.1799189573059411 0 0.43799329450951457 0.1898848624547933 0 0.45014974491888898 0.16995127396152809 0 0.43799329450951457 0.1898848624547933 0 0.45120510308892831 0.19507838461398491 0 0.45014974491888898 0.16995127396152809 0 0.46861366351278472 0.19789432193598561 0 0.45014974491888898 0.16995127396152809 0 0.47890777313388699 0.17818810929941131 0 0.45014974491888898 0.16995127396152809 0 0.47890777313388699 0.17818810929941131 0 0.47759274938693741 0.15337993901402261 0 0.5 0.19442179120654851 0 0.47890777313388699 0.17818810929941131 0 0.5 0.16733190679164031 0 0.47890777313388699 0.17818810929941131 0 0.5 0.16733190679164031 0 0.47759274938693741 0.15337993901402261 0 0.5 0.16733190679164031 0 0.47759274938693741 0.15337993901402261 0 0.5 0.14024202237673219 0 0.46053260521531592 0.14091734283165991 0 0.47759274938693741 0.15337993901402261 0 0.47596637305353268 0.1236489788231635 0 0.5 0.14024202237673219 0 0.5 0.11315213796182411 0 0.47596637305353268 0.1236489788231635 0 0.47759274938693741 0.15337993901402261 0 0.5 0.14024202237673219 0 0.47596637305353268 0.1236489788231635 0 0.5 0.11315213796182411 0 0.48146508414057748 0.097867616362435003 0 0.47596637305353268 0.1236489788231635 0 0.5 0.11315213796182411 0 0.48146508414057748 0.097867616362435003 0 0.5 0.08606225354691599 0 0.48146508414057748 0.097867616362435003 0 0.46684480345772023 0.083704774648097419 0 0.46085076100455152 0.1051260388446932 0 0.48146508414057748 0.097867616362435003 0 0.47596637305353268 0.1236489788231635 0 0.46085076100455152 0.1051260388446932 0 0.5 0.08606225354691599 0 0.48297411160829701 0.071419164250366693 0 0.5 0.058972369132007867 0 0.48146508414057748 0.097867616362435003 0 0.5 0.08606225354691599 0 0.48297411160829701 0.071419164250366693 0 0.48146508414057748 0.097867616362435003 0 0.48297411160829701 0.071419164250366693 0 0.46684480345772023 0.083704774648097419 0 0.48297411160829701 0.071419164250366693 0 0.46368779630991369 0.062884433647911922 0 0.46684480345772023 0.083704774648097419 0 0.46368779630991369 0.062884433647911922 0 0.4455316944648699 0.078385408113317706 0 0.46368779630991369 0.062884433647911922 0 0.46684480345772023 0.083704774648097419 0 0.4455316944648699 0.078385408113317706 0 0.46684480345772023 0.083704774648097419 0 0.4455316944648699 0.078385408113317706 0 0.46085076100455152 0.1051260388446932 0 0.4455316944648699 0.078385408113317706 0 0.46085076100455152 0.1051260388446932 0 0.43655847815144871 0.087567909291679069 0 0.4455316944648699 0.078385408113317706 0 0.43655847815144871 0.087567909291679069 0 0.43300293116684879 0.070359854062556224 0 0.4455316944648699 0.078385408113317706 0 0.43300293116684879 0.070359854062556224 0 0.44432728466234178 0.059795406129610977 0 0.46368779630991369 0.062884433647911922 0 0.4455316944648699 0.078385408113317706 0 0.44432728466234178 0.059795406129610977 0 0.47596637305353268 0.1236489788231635 0 0.46085076100455152 0.1051260388446932 0 0.45094723062946279 0.12208098845927939 0 0.46085076100455152 0.1051260388446932 0 0.43655847815144871 0.087567909291679069 0 0.46085076100455152 0.1051260388446932 0 0.43845481143497073 0.110031162788742 0 0.43302597451412722 0.09911942802672713 0 0.46085076100455152 0.1051260388446932 0 0.43302597451412722 0.09911942802672713 0 0.43655847815144871 0.087567909291679069 0 0.43267139290449452 0.12562392175117529 0 0.45094723062946279 0.12208098845927939 0 0.43845481143497073 0.110031162788742 0 0.46085076100455152 0.1051260388446932 0 0.45094723062946279 0.12208098845927939 0 0.43845481143497073 0.110031162788742 0 0.43267139290449452 0.12562392175117529 0 0.43845481143497073 0.110031162788742 0 0.42512360996164289 0.1101942667169049 0 0.43267139290449452 0.12562392175117529 0 0.42512360996164289 0.1101942667169049 0 0.41840244549433692 0.1204435227777134 0 0.42512360996164289 0.1101942667169049 0 0.41840244549433692 0.1204435227777134 0 0.41145911669595331 0.1096997076075869 0 0.41840244549433692 0.1204435227777134 0 0.41145911669595331 0.1096997076075869 0 0.40630256149234217 0.12337914253670321 0 0.41145911669595331 0.1096997076075869 0 0.41782870111656589 0.098086010242617663 0 0.40188519574572068 0.098349840232826835 0 0.41782870111656589 0.098086010242617663 0 0.41132824907511162 0.087668761689670915 0 0.40188519574572068 0.098349840232826835 0 0.42512360996164289 0.1101942667169049 0 0.41145911669595331 0.1096997076075869 0 0.41782870111656589 0.098086010242617663 0 0.41782870111656589 0.098086010242617663 0 0.43302597451412722 0.09911942802672713 0 0.42198136315300161 0.08812274721924529 0 0.42512360996164289 0.1101942667169049 0 0.41782870111656589 0.098086010242617663 0 0.43302597451412722 0.09911942802672713 0 0.43845481143497073 0.110031162788742 0 0.42512360996164289 0.1101942667169049 0 0.43302597451412722 0.09911942802672713 0 0.43655847815144871 0.087567909291679069 0 0.42198136315300161 0.08812274721924529 0 0.41226619529834591 0.070009779738664735 0 0.43655847815144871 0.087567909291679069 0 0.41226619529834591 0.070009779738664735 0 0.43302597451412722 0.09911942802672713 0 0.43655847815144871 0.087567909291679069 0 0.42198136315300161 0.08812274721924529 0 0.43300293116684879 0.070359854062556224 0 0.41226619529834591 0.070009779738664735 0 0.42739758089851382 0.054541393999090262 0 0.43655847815144871 0.087567909291679069 0 0.43300293116684879 0.070359854062556224 0 0.41226619529834591 0.070009779738664735 0 0.42198136315300161 0.08812274721924529 0 0.41226619529834591 0.070009779738664735 0 0.41132824907511162 0.087668761689670915 0 0.41226619529834591 0.070009779738664735 0 0.41132824907511162 0.087668761689670915 0 0.39992923875424519 0.082621500021195282 0 0.41782870111656589 0.098086010242617663 0 0.42198136315300161 0.08812274721924529 0 0.41132824907511162 0.087668761689670915 0 0.41132824907511162 0.087668761689670915 0 0.39992923875424519 0.082621500021195282 0 0.40188519574572068 0.098349840232826835 0 0.39992923875424519 0.082621500021195282 0 0.38759228221014619 0.095233220303727467 0 0.40188519574572068 0.098349840232826835 0 0.39992923875424519 0.082621500021195282 0 0.38759228221014619 0.095233220303727467 0 0.41226619529834591 0.070009779738664735 0 0.39707386889515511 0.070908779594843374 0 0.39683376059791597 0.058855427163935138 0 0.41226619529834591 0.070009779738664735 0 0.39683376059791597 0.058855427163935138 0 0.41226619529834591 0.070009779738664735 0 0.39992923875424519 0.082621500021195282 0 0.41226619529834591 0.070009779738664735 0 0.39992923875424519 0.082621500021195282 0 0.39707386889515511 0.070908779594843374 0 0.39992923875424519 0.082621500021195282 0 0.39707386889515511 0.070908779594843374 0 0.38583977896057609 0.075316135258006081 0 0.39707386889515511 0.070908779594843374 0 0.38282045226763678 0.060547433734587333 0 0.39683376059791597 0.058855427163935138 0 0.39707386889515511 0.070908779594843374 0 0.38583977896057609 0.075316135258006081 0 0.38282045226763678 0.060547433734587333 0 0.38583977896057609 0.075316135258006081 0 0.37596532967213542 0.069868995675824025 0 0.37682589963749002 0.081332762740894418 0 0.37307104071443398 0.061065176941414383 0 0.37596532967213542 0.069868995675824025 0 0.38282045226763678 0.060547433734587333 0 0.38583977896057609 0.075316135258006081 0 0.37596532967213542 0.069868995675824025 0 0.38282045226763678 0.060547433734587333 0 0.39992923875424519 0.082621500021195282 0 0.38412803848747967 0.086259474622970303 0 0.38759228221014619 0.095233220303727467 0 0.39992923875424519 0.082621500021195282 0 0.38583977896057609 0.075316135258006081 0 0.38412803848747967 0.086259474622970303 0 0.37045299287494049 0.09679375479102828 0 0.38412803848747967 0.086259474622970303 0 0.38759228221014619 0.095233220303727467 0 0.38583977896057609 0.075316135258006081 0 0.38412803848747967 0.086259474622970303 0 0.37682589963749002 0.081332762740894418 0 0.37045299287494049 0.09679375479102828 0 0.38412803848747967 0.086259474622970303 0 0.37682589963749002 0.081332762740894418 0 0.37045299287494049 0.09679375479102828 0 0.38005682511468147 0.12140739343396729 0 0.37045299287494049 0.09679375479102828 0 0.38759228221014619 0.095233220303727467 0 0.38890959528695412 0.1083938038889192 0 0.37045299287494049 0.09679375479102828 0 0.38890959528695412 0.1083938038889192 0 0.38005682511468147 0.12140739343396729 0 0.39398634319161102 0.12556361147638159 0 0.38890959528695412 0.1083938038889192 0 0.38005682511468147 0.12140739343396729 0 0.39398634319161102 0.12556361147638159 0 0.38890959528695412 0.1083938038889192 0 0.39948393258462489 0.11301500309558379 0 0.39398634319161102 0.12556361147638159 0 0.40630256149234217 0.12337914253670321 0 0.39948393258462489 0.11301500309558379 0 0.41145911669595331 0.1096997076075869 0 0.40630256149234217 0.12337914253670321 0 0.39948393258462489 0.11301500309558379 0 0.41145911669595331 0.1096997076075869 0 0.39948393258462489 0.11301500309558379 0 0.40188519574572068 0.098349840232826835 0 0.38759228221014619 0.095233220303727467 0 0.38890959528695412 0.1083938038889192 0 0.40188519574572068 0.098349840232826835 0 0.38890959528695412 0.1083938038889192 0 0.39948393258462489 0.11301500309558379 0 0.40188519574572068 0.098349840232826835 0 0.3912475249538237 0.025882868266216091 0 0.40325323122183843 0.024352223252143548 0 0.39536881189699241 0.01378873843063998 0 0.3912475249538237 0.025882868266216091 0 0.40325323122183843 0.024352223252143548 0 0.39805180056669343 0.032772735105760037 0 0.40325323122183843 0.024352223252143548 0 0.39805180056669343 0.032772735105760037 0 0.40655765028286611 0.035582104639029083 0 0.40325323122183843 0.024352223252143548 0 0.39536881189699241 0.01378873843063998 0 0.40720094273855439 0.01372602960598159 0 0.40060323373222451 0.0042547197705496897 0 0.39536881189699241 0.01378873843063998 0 0.40720094273855439 0.01372602960598159 0 0.40060323373222451 0.0042547197705496897 0 0.41081432206005303 0.0037114498956348132 0 0.4046584776842293 -0.0050702490882302163 0 0.40060323373222451 0.0042547197705496897 0 0.41081432206005303 0.0037114498956348132 0 0.40720094273855439 0.01372602960598159 0 0.40060323373222451 0.0042547197705496897 0 0.39025836247721268 0.0036292771787240202 0 0.39531848553630572 -0.0042569273994520467 0 0.40060323373222451 0.0042547197705496897 0 0.39536881189699241 0.01378873843063998 0 0.39025836247721268 0.0036292771787240202 0 0.37844401144479839 0.012609093579625891 0 0.38356146703633898 -0.0078565650350033434 0 0.37844401144479839 0.012609093579625891 0 0.39025836247721268 0.0036292771787240202 0 0.38356146703633898 -0.0078565650350033434 0 0.39536881189699241 0.01378873843063998 0 0.37844401144479839 0.012609093579625891 0 0.39025836247721268 0.0036292771787240202 0 0.3912475249538237 0.025882868266216091 0 0.37844401144479839 0.012609093579625891 0 0.38063223185621792 0.036578263657106522 0 0.37844401144479839 0.012609093579625891 0 0.38063223185621792 0.036578263657106522 0 0.37146335928247548 0.04052602251159599 0 0.37844401144479839 0.012609093579625891 0 0.38063223185621792 0.036578263657106522 0 0.3912475249538237 0.025882868266216091 0 0.39536881189699241 0.01378873843063998 0 0.37844401144479839 0.012609093579625891 0 0.37146335928247548 0.04052602251159599 0 0.38063223185621792 0.036578263657106522 0 0.38282045226763678 0.060547433734587333 0 0.3912475249538237 0.025882868266216091 0 0.38063223185621792 0.036578263657106522 0 0.3908528121234538 0.035995570554822158 0 0.38063223185621792 0.036578263657106522 0 0.38791705742610771 0.044539104287684539 0 0.3908528121234538 0.035995570554822158 0 0.38791705742610771 0.044539104287684539 0 0.38282045226763678 0.060547433734587333 0 0.39079668350586277 0.051215399393808793 0 0.37307104071443398 0.061065176941414383 0 0.37146335928247548 0.04052602251159599 0 0.38282045226763678 0.060547433734587333 0 0.38063223185621792 0.036578263657106522 0 0.38791705742610771 0.044539104287684539 0 0.38282045226763678 0.060547433734587333 0 0.38063223185621792 0.036578263657106522 0 0.38282045226763678 0.060547433734587333 0 0.38282045226763678 0.060547433734587333 0 0.39683376059791597 0.058855427163935138 0 0.39079668350586277 0.051215399393808793 0 0.41226619529834591 0.070009779738664735 0 0.39683376059791597 0.058855427163935138 0 0.40948896714378957 0.05055434744181983 0 0.39683376059791597 0.058855427163935138 0 0.39079668350586277 0.051215399393808793 0 0.39674782008621368 0.04348041067995833 0 0.39683376059791597 0.058855427163935138 0 0.39674782008621368 0.04348041067995833 0 0.40948896714378957 0.05055434744181983 0 0.3908528121234538 0.035995570554822158 0 0.39805180056669343 0.032772735105760037 0 0.39674782008621368 0.04348041067995833 0 0.3912475249538237 0.025882868266216091 0 0.3908528121234538 0.035995570554822158 0 0.39805180056669343 0.032772735105760037 0 0.38791705742610771 0.044539104287684539 0 0.3908528121234538 0.035995570554822158 0 0.39674782008621368 0.04348041067995833 0 0.38791705742610771 0.044539104287684539 0 0.39079668350586277 0.051215399393808793 0 0.39674782008621368 0.04348041067995833 0 0.39674782008621368 0.04348041067995833 0 0.40655765028286611 0.035582104639029083 0 0.40948896714378957 0.05055434744181983 0 0.39805180056669343 0.032772735105760037 0 0.39674782008621368 0.04348041067995833 0 0.40655765028286611 0.035582104639029083 0 0.40655765028286611 0.035582104639029083 0 0.41713079569888262 0.040856968430241461 0 0.41557099838193923 0.024039796491718179 0 0.41713079569888262 0.040856968430241461 0 0.42755741698364552 0.032815777208855347 0 0.41557099838193923 0.024039796491718179 0 0.40655765028286611 0.035582104639029083 0 0.41713079569888262 0.040856968430241461 0 0.40948896714378957 0.05055434744181983 0 0.41226619529834591 0.070009779738664735 0 0.40948896714378957 0.05055434744181983 0 0.42739758089851382 0.054541393999090262 0 0.41713079569888262 0.040856968430241461 0 0.40948896714378957 0.05055434744181983 0 0.42739758089851382 0.054541393999090262 0 0.41226619529834591 0.070009779738664735 0 0.42739758089851382 0.054541393999090262 0 0.43300293116684879 0.070359854062556224 0 0.42739758089851382 0.054541393999090262 0 0.44432728466234178 0.059795406129610977 0 0.41713079569888262 0.040856968430241461 0 0.42739758089851382 0.054541393999090262 0 0.42755741698364552 0.032815777208855347 0 0.42739758089851382 0.054541393999090262 0 0.42755741698364552 0.032815777208855347 0 0.44252896649868317 0.039073008259517338 0 0.42739758089851382 0.054541393999090262 0 0.44252896649868317 0.039073008259517338 0 0.42755741698364552 0.032815777208855347 0 0.4358194844604939 0.024219735287320941 0 0.44252896649868317 0.039073008259517338 0 0.42755741698364552 0.032815777208855347 0 0.41557099838193923 0.024039796491718179 0 0.4265644217351573 0.014684511896395219 0 0.4358194844604939 0.024219735287320941 0 0.4265644217351573 0.014684511896395219 0 0.44548351627008242 0.01642882659412407 0 0.42755741698364552 0.032815777208855347 0 0.4358194844604939 0.024219735287320941 0 0.4265644217351573 0.014684511896395219 0 0.41557099838193923 0.024039796491718179 0 0.4165272652869268 0.01155925859927168 0 0.4265644217351573 0.014684511896395219 0 0.41557099838193923 0.024039796491718179 0 0.40720094273855439 0.01372602960598159 0 0.4165272652869268 0.01155925859927168 0 0.40325323122183843 0.024352223252143548 0 0.41557099838193923 0.024039796491718179 0 0.40720094273855439 0.01372602960598159 0 0.40325323122183843 0.024352223252143548 0 0.40655765028286611 0.035582104639029083 0 0.41557099838193923 0.024039796491718179 0 0.41081432206005303 0.0037114498956348132 0 0.40720094273855439 0.01372602960598159 0 0.4165272652869268 0.01155925859927168 0 0.4165272652869268 0.01155925859927168 0 0.42248564151892998 0.0016345051066286029 0 0.4265644217351573 0.014684511896395219 0 0.41081432206005303 0.0037114498956348132 0 0.4165272652869268 0.01155925859927168 0 0.42248564151892998 0.0016345051066286029 0 0.42248564151892998 0.0016345051066286029 0 0.4265644217351573 0.014684511896395219 0 0.4382820622288856 -0.0014159552958160841 0 0.4265644217351573 0.014684511896395219 0 0.44548351627008242 0.01642882659412407 0 0.4382820622288856 -0.0014159552958160841 0 0.45100246047295739 0.0046664116742636159 0 0.44548351627008242 0.01642882659412407 0 0.4382820622288856 -0.0014159552958160841 0 0.45100246047295739 0.0046664116742636159 0 0.44548351627008242 0.01642882659412407 0 0.4580470330794123 0.0188547641718908 0 0.4358194844604939 0.024219735287320941 0 0.4514029071021442 0.02821869916314456 0 0.44548351627008242 0.01642882659412407 0 0.4358194844604939 0.024219735287320941 0 0.4514029071021442 0.02821869916314456 0 0.44252896649868317 0.039073008259517338 0 0.4514029071021442 0.02821869916314456 0 0.44548351627008242 0.01642882659412407 0 0.4580470330794123 0.0188547641718908 0 0.4514029071021442 0.02821869916314456 0 0.4580470330794123 0.0188547641718908 0 0.46553563141862692 0.027383902935855992 0 0.4580470330794123 0.0188547641718908 0 0.46553563141862692 0.027383902935855992 0 0.471035018561343 0.01684384088441979 0 0.4580470330794123 0.0188547641718908 0 0.4620271672997433 0.0081957990277541914 0 0.471035018561343 0.01684384088441979 0 0.4620271672997433 0.0081957990277541914 0 0.47207727543944228 0.0077163925679632076 0 0.45540766643685782 -0.0078732224449345398 0 0.4620271672997433 0.0081957990277541914 0 0.47207727543944228 0.0077163925679632076 0 0.471035018561343 0.01684384088441979 0 0.45100246047295739 0.0046664116742636159 0 0.4620271672997433 0.0081957990277541914 0 0.45540766643685782 -0.0078732224449345398 0 0.45100246047295739 0.0046664116742636159 0 0.4580470330794123 0.0188547641718908 0 0.4620271672997433 0.0081957990277541914 0 0.42739758089851382 0.054541393999090262 0 0.44432728466234178 0.059795406129610977 0 0.44252896649868317 0.039073008259517338 0 0.44432728466234178 0.059795406129610977 0 0.44252896649868317 0.039073008259517338 0 0.46100281088556699 0.043351957730158222 0 0.4514029071021442 0.02821869916314456 0 0.44252896649868317 0.039073008259517338 0 0.46100281088556699 0.043351957730158222 0 0.4514029071021442 0.02821869916314456 0 0.46553563141862692 0.027383902935855992 0 0.46100281088556699 0.043351957730158222 0 0.46553563141862692 0.027383902935855992 0 0.46100281088556699 0.043351957730158222 0 0.4764725540003833 0.035303178421407518 0 0.46368779630991369 0.062884433647911922 0 0.44432728466234178 0.059795406129610977 0 0.46100281088556699 0.043351957730158222 0 0.48297411160829701 0.071419164250366693 0 0.46368779630991369 0.062884433647911922 0 0.48184389815495748 0.047383459182506117 0 0.46368779630991369 0.062884433647911922 0 0.46100281088556699 0.043351957730158222 0 0.48184389815495748 0.047383459182506117 0 0.46368779630991369 0.062884433647911922 0 0.48184389815495748 0.047383459182506117 0 0.46100281088556699 0.043351957730158222 0 0.48184389815495748 0.047383459182506117 0 0.4764725540003833 0.035303178421407518 0 0.48184389815495748 0.047383459182506117 0 0.50000000000000089 0.031882484717099757 0 0.48184389815495748 0.047383459182506117 0 0.50000000000000089 0.031882484717099757 0 0.5 0.058972369132007867 0 0.48184389815495748 0.047383459182506117 0 0.4764725540003833 0.035303178421407518 0 0.50000000000000089 0.031882484717099757 0 0.48297411160829701 0.071419164250366693 0 0.48184389815495748 0.047383459182506117 0 0.5 0.058972369132007867 0 0.48173822001607031 0.002441982684480838 0 0.47207727543944228 0.0077163925679632076 0 0.45540766643685782 -0.0078732224449345398 0 0.48073089036299149 0.01447516008145705 0 0.48088876464914698 0.0066420825236524483 0 0.47207727543944228 0.0077163925679632076 0 0.48088876464914698 0.0066420825236524483 0 0.48173822001607031 0.002441982684480838 0 0.48944624590280772 0.014576472087587141 0 0.48073089036299149 0.01447516008145705 0 0.48088876464914698 0.0066420825236524483 0 0.48944624590280772 0.014576472087587141 0 0.48088876464914698 0.0066420825236524483 0 0.48173822001607031 0.002441982684480838 0 0.47207727543944228 0.0077163925679632076 0 0.48088876464914698 0.0066420825236524483 0 0.48173822001607031 0.002441982684480838 0 0.48073089036299149 0.01447516008145705 0 0.47207727543944228 0.0077163925679632076 0 0.471035018561343 0.01684384088441979 0 0.46553563141862692 0.027383902935855992 0 0.471035018561343 0.01684384088441979 0 0.48098968552297122 0.023479159592672289 0 0.46553563141862692 0.027383902935855992 0 0.4764725540003833 0.035303178421407518 0 0.48098968552297122 0.023479159592672289 0 0.48073089036299149 0.01447516008145705 0 0.471035018561343 0.01684384088441979 0 0.48098968552297122 0.023479159592672289 0 0.48073089036299149 0.01447516008145705 0 0.48098968552297122 0.023479159592672289 0 0.48944624590280772 0.014576472087587141 0 0.50000000000000089 0.031882484717099757 0 0.50000000000000044 0.0095961811708810997 0 0.48944624590280772 0.014576472087587141 0 0.4764725540003833 0.035303178421407518 0 0.50000000000000089 0.031882484717099757 0 0.48098968552297122 0.023479159592672289 0 0.50000000000000089 0.031882484717099757 0 0.48098968552297122 0.023479159592672289 0 0.48944624590280772 0.014576472087587141 0 0.48173822001607031 0.002441982684480838 0 0.50000000000000044 0.0095961811708810997 0 0.48944624590280772 0.014576472087587141 0 0.48173822001607031 0.002441982684480838 0 0.50000000000000044 0.0095961811708810997 0 0.48173822001607031 0.002441982684480838 0 0.50000000000000044 0.0095961811708810997 0 0.5 -0.01553848795347695 0 0.48173822001607031 0.002441982684480838 0 0.5 -0.01553848795347695 0 0.48723509010938909 -0.024737082977995831 0 0.48173822001607031 0.002441982684480838 0 0.48723509010938909 -0.024737082977995831 0 0.48173822001607031 0.002441982684480838 0 0.46944239540012012 -0.021901386132034111 0 0.45540766643685782 -0.0078732224449345398 0 0.48173822001607031 0.002441982684480838 0 0.46944239540012012 -0.021901386132034111 0 0.48723509010938909 -0.024737082977995831 0 0.46944239540012012 -0.021901386132034111 0 0.48723509010938909 -0.024737082977995831 0 0.47311684284700922 -0.039980301183512167 0 0.5 -0.01553848795347695 0 0.48723509010938909 -0.024737082977995831 0 0.5 -0.040673157077835087 0 0.48723509010938909 -0.024737082977995831 0 0.49273196020270971 -0.051916148640471983 0 0.48034048547664182 -0.050194577481915269 0 0.48723509010938909 -0.024737082977995831 0 0.49273196020270971 -0.051916148640471983 0 0.48723509010938909 -0.024737082977995831 0 0.5 -0.040673157077835087 0 0.49273196020270971 -0.051916148640471983 0 0.5 -0.040673157077835087 0 0.49273196020270971 -0.051916148640471983 0 0.5 -0.065807826202193331 0 0.49273196020270971 -0.051916148640471983 0 0.48384360039889979 -0.062204599920787272 0 0.48034048547664182 -0.050194577481915269 0 0.48034048547664182 -0.050194577481915269 0 0.47035120232490191 -0.060528185902064997 0 0.47311684284700922 -0.039980301183512167 0 0.47035120232490191 -0.060528185902064997 0 0.47311684284700922 -0.039980301183512167 0 0.48384360039889979 -0.062204599920787272 0 0.48034048547664182 -0.050194577481915269 0 0.47035120232490191 -0.060528185902064997 0 0.48723509010938909 -0.024737082977995831 0 0.48034048547664182 -0.050194577481915269 0 0.47311684284700922 -0.039980301183512167 0 0.46944239540012012 -0.021901386132034111 0 0.47311684284700922 -0.039980301183512167 0 0.44971415759127392 -0.039358306738208573 0 0.47035120232490191 -0.060528185902064997 0 0.47311684284700922 -0.039980301183512167 0 0.44971415759127392 -0.039358306738208573 0 0.47035120232490191 -0.060528185902064997 0 0.44971415759127392 -0.039358306738208573 0 0.47035120232490191 -0.060528185902064997 0 0.43963483674523918 -0.055334607978488382 0 0.44971415759127392 -0.039358306738208573 0 0.43963483674523918 -0.055334607978488382 0 0.44971415759127392 -0.039358306738208573 0 0.42419530264354072 -0.042652000491910397 0 0.46944239540012012 -0.021901386132034111 0 0.44971415759127392 -0.039358306738208573 0 0.45540766643685782 -0.0078732224449345398 0 0.44971415759127392 -0.039358306738208573 0 0.42907711285764621 -0.01818842757435184 0 0.44971415759127392 -0.039358306738208573 0 0.45540766643685782 -0.0078732224449345398 0 0.42907711285764621 -0.01818842757435184 0 0.45540766643685782 -0.0078732224449345398 0 0.42907711285764621 -0.01818842757435184 0 0.45100246047295739 0.0046664116742636159 0 0.4382820622288856 -0.0014159552958160841 0 0.45540766643685782 -0.0078732224449345398 0 0.4382820622288856 -0.0014159552958160841 0 0.45540766643685782 -0.0078732224449345398 0 0.42907711285764621 -0.01818842757435184 0 0.48173822001607031 0.002441982684480838 0 0.45540766643685782 -0.0078732224449345398 0 0.47129126618897188 -0.1223351355815797 0 0.47148248434309947 -0.114916285604633 0 0.48087269318342413 -0.1216818802472065 0 0.47148248434309947 -0.114916285604633 0 0.48087269318342413 -0.1216818802472065 0 0.47838814501791832 -0.1066654575105275 0 0.48087269318342413 -0.1216818802472065 0 0.48924328608656842 -0.1141618265083332 0 0.47838814501791832 -0.1066654575105275 0 0.5 -0.1122204549214597 0 0.48924328608656842 -0.1141618265083332 0 0.5 -0.13349841451636779 0 0.48087269318342413 -0.1216818802472065 0 0.48924328608656842 -0.1141618265083332 0 0.5 -0.13349841451636779 0 0.5 -0.1122204549214597 0 0.48924328608656842 -0.1141618265083332 0 0.48827073793524339 -0.097774102912636218 0 0.48924328608656842 -0.1141618265083332 0 0.48827073793524339 -0.097774102912636218 0 0.47838814501791832 -0.1066654575105275 0 0.5 -0.1122204549214597 0 0.48827073793524339 -0.097774102912636218 0 0.50000000000000266 -0.090942495326551576 0 0.47652975213937199 -0.091635549067057065 0 0.46683976751390588 -0.086617099886465918 0 0.46456669494636288 -0.10350535152343909 0 0.48827073793524339 -0.097774102912636218 0 0.47838814501791832 -0.1066654575105275 0 0.47652975213937199 -0.091635549067057065 0 0.47148248434309947 -0.114916285604633 0 0.47838814501791832 -0.1066654575105275 0 0.46456669494636288 -0.10350535152343909 0 0.47838814501791832 -0.1066654575105275 0 0.47652975213937199 -0.091635549067057065 0 0.46456669494636288 -0.10350535152343909 0 0.48827073793524339 -0.097774102912636218 0 0.47652975213937199 -0.091635549067057065 0 0.48517560116245317 -0.075735340614307423 0 0.47652975213937199 -0.091635549067057065 0 0.48517560116245317 -0.075735340614307423 0 0.46683976751390588 -0.086617099886465918 0 0.47652975213937199 -0.091635549067057065 0 0.46683976751390588 -0.086617099886465918 0 0.50000000000000266 -0.090942495326551576 0 0.49822883029603021 -0.079095214302948247 0 0.5 -0.065807826202193331 0 0.48827073793524339 -0.097774102912636218 0 0.50000000000000266 -0.090942495326551576 0 0.48517560116245317 -0.075735340614307423 0 0.50000000000000266 -0.090942495326551576 0 0.48517560116245317 -0.075735340614307423 0 0.50000000000000266 -0.090942495326551576 0 0.49822883029603021 -0.079095214302948247 0 0.48517560116245317 -0.075735340614307423 0 0.49273196020270971 -0.051916148640471983 0 0.49822883029603021 -0.079095214302948247 0 0.48384360039889979 -0.062204599920787272 0 0.49822883029603021 -0.079095214302948247 0 0.48517560116245317 -0.075735340614307423 0 0.49273196020270971 -0.051916148640471983 0 0.48384360039889979 -0.062204599920787272 0 0.49822883029603021 -0.079095214302948247 0 0.49273196020270971 -0.051916148640471983 0 0.49822883029603021 -0.079095214302948247 0 0.5 -0.065807826202193331 0 0.47035120232490191 -0.060528185902064997 0 0.48517560116245317 -0.075735340614307423 0 0.47035120232490191 -0.060528185902064997 0 0.48517560116245317 -0.075735340614307423 0 0.46683976751390588 -0.086617099886465918 0 0.48384360039889979 -0.062204599920787272 0 0.47035120232490191 -0.060528185902064997 0 0.48517560116245317 -0.075735340614307423 0 0.47035120232490191 -0.060528185902064997 0 0.46683976751390588 -0.086617099886465918 0 0.47035120232490191 -0.060528185902064997 0 0.44249197108241189 -0.074007360679063244 0 0.46683976751390588 -0.086617099886465918 0 0.47035120232490191 -0.060528185902064997 0 0.43963483674523918 -0.055334607978488382 0 0.44249197108241189 -0.074007360679063244 0 0.44249197108241189 -0.074007360679063244 0 0.46683976751390588 -0.086617099886465918 0 0.4490662803509099 -0.094083529251462475 0 0.44249197108241189 -0.074007360679063244 0 0.4490662803509099 -0.094083529251462475 0 0.42834270349958448 -0.099226311759436261 0 0.44249197108241189 -0.074007360679063244 0 0.46683976751390588 -0.086617099886465918 0 0.46683976751390588 -0.086617099886465918 0 0.46456669494636288 -0.10350535152343909 0 0.4490662803509099 -0.094083529251462475 0 0.46683976751390588 -0.086617099886465918 0 0.46456669494636288 -0.10350535152343909 0 0.46456669494636288 -0.10350535152343909 0 0.4490662803509099 -0.094083529251462475 0 0.44386094964032902 -0.11054798122052439 0 0.4490662803509099 -0.094083529251462475 0 0.44386094964032902 -0.11054798122052439 0 0.42834270349958448 -0.099226311759436261 0 0.44386094964032902 -0.11054798122052439 0 0.46257396642688631 -0.12529077885077469 0 0.45239247298790419 -0.125419693033265 0 0.44386094964032902 -0.11054798122052439 0 0.42916935431308728 -0.1205456085246996 0 0.4435038969132965 -0.12540022695152131 0 0.44386094964032902 -0.11054798122052439 0 0.45239247298790419 -0.125419693033265 0 0.4435038969132965 -0.12540022695152131 0 0.44386094964032902 -0.11054798122052439 0 0.46229362237882032 -0.1203936031604123 0 0.46257396642688631 -0.12529077885077469 0 0.46456669494636288 -0.10350535152343909 0 0.46229362237882032 -0.1203936031604123 0 0.46456669494636288 -0.10350535152343909 0 0.44386094964032902 -0.11054798122052439 0 0.46229362237882032 -0.1203936031604123 0 0.44386094964032902 -0.11054798122052439 0 0.46257396642688631 -0.12529077885077469 0 0.47148248434309947 -0.114916285604633 0 0.46456669494636288 -0.10350535152343909 0 0.46229362237882032 -0.1203936031604123 0 0.47129126618897188 -0.1223351355815797 0 0.46229362237882032 -0.1203936031604123 0 0.46257396642688631 -0.12529077885077469 0 0.47129126618897188 -0.1223351355815797 0 0.47148248434309947 -0.114916285604633 0 0.46229362237882032 -0.1203936031604123 0 0.44386094964032902 -0.11054798122052439 0 0.42916935431308728 -0.1205456085246996 0 0.42834270349958448 -0.099226311759436261 0 0.41143930547928681 -0.11934523636421419 0 0.42916935431308728 -0.1205456085246996 0 0.42834270349958448 -0.099226311759436261 0 0.41143930547928681 -0.11934523636421419 0 0.40555832972599831 -0.095826118330896617 0 0.41143930547928681 -0.11934523636421419 0 0.42834270349958448 -0.099226311759436261 0 0.40555832972599831 -0.095826118330896617 0 0.42834270349958448 -0.099226311759436261 0 0.41884290658632428 -0.080552882507727325 0 0.40555832972599831 -0.095826118330896617 0 0.41884290658632428 -0.080552882507727325 0 0.39967735397270959 -0.072307000297579083 0 0.40555832972599831 -0.095826118330896617 0 0.44249197108241189 -0.074007360679063244 0 0.42834270349958448 -0.099226311759436261 0 0.41884290658632428 -0.080552882507727325 0 0.44249197108241189 -0.074007360679063244 0 0.41814417465091752 -0.061397621471661459 0 0.43963483674523918 -0.055334607978488382 0 0.44249197108241189 -0.074007360679063244 0 0.41814417465091752 -0.061397621471661459 0 0.44249197108241189 -0.074007360679063244 0 0.41884290658632428 -0.080552882507727325 0 0.41814417465091752 -0.061397621471661459 0 0.41884290658632428 -0.080552882507727325 0 0.39967735397270959 -0.072307000297579083 0 0.41814417465091752 -0.061397621471661459 0 0.39967735397270959 -0.072307000297579083 0 0.38669795957132042 -0.057310603286660967 0 0.37240766699872252 -0.068318548019290964 0 0.39967735397270959 -0.072307000297579083 0 0.37781097748786241 -0.089314889372882261 0 0.37240766699872252 -0.068318548019290964 0 0.39967735397270959 -0.072307000297579083 0 0.37781097748786241 -0.089314889372882261 0 0.40555832972599831 -0.095826118330896617 0 0.39967735397270959 -0.072307000297579083 0 0.40555832972599831 -0.095826118330896617 0 0.40555832972599831 -0.095826118330896617 0 0.38953803654933628 -0.10754997095337659 0 0.39823574772599779 -0.11763079726210079 0 0.37781097748786241 -0.089314889372882261 0 0.40555832972599831 -0.095826118330896617 0 0.38953803654933628 -0.10754997095337659 0 0.37781097748786241 -0.089314889372882261 0 0.38953803654933628 -0.10754997095337659 0 0.37644505785585192 -0.1058120404938334 0 0.38953803654933628 -0.10754997095337659 0 0.37644505785585192 -0.1058120404938334 0 0.37720890243704291 -0.12310924361699779 0 0.38953803654933628 -0.10754997095337659 0 0.37720890243704291 -0.12310924361699779 0 0.38918813321375051 -0.12739880168557821 0 0.38953803654933628 -0.10754997095337659 0 0.39823574772599779 -0.11763079726210079 0 0.38918813321375051 -0.12739880168557821 0 0.41143930547928681 -0.11934523636421419 0 0.39823574772599779 -0.11763079726210079 0 0.40257569972698831 -0.13396225485532559 0 0.41143930547928681 -0.11934523636421419 0 0.40555832972599831 -0.095826118330896617 0 0.39823574772599779 -0.11763079726210079 0 0.42011428296152808 -0.02169968792975261 0 0.41401194260749391 -0.028450411104576211 0 0.41343304557213612 -0.018371446868227208 0 0.42011428296152808 -0.02169968792975261 0 0.41343304557213612 -0.018371446868227208 0 0.41928481904255338 -0.01548900553927589 0 0.42011428296152808 -0.02169968792975261 0 0.41928481904255338 -0.01548900553927589 0 0.42542521438275183 -0.0144422395697206 0 0.42011428296152808 -0.02169968792975261 0 0.41401194260749391 -0.028450411104576211 0 0.42742255973229643 -0.030069766767760062 0 0.41401194260749391 -0.028450411104576211 0 0.40522076275047969 -0.019933987949522329 0 0.40044964155059998 -0.029094842751199331 0 0.41401194260749391 -0.028450411104576211 0 0.41343304557213612 -0.018371446868227208 0 0.40522076275047969 -0.019933987949522329 0 0.41343304557213612 -0.018371446868227208 0 0.40806592415966281 -0.01253819616599721 0 0.40522076275047969 -0.019933987949522329 0 0.40806592415966281 -0.01253819616599721 0 0.4135204533098043 -0.0054466611181140526 0 0.41498054603746559 -0.011947546426581419 0 0.41343304557213612 -0.018371446868227208 0 0.40806592415966281 -0.01253819616599721 0 0.41498054603746559 -0.011947546426581419 0 0.41081432206005303 0.0037114498956348132 0 0.4135204533098043 -0.0054466611181140526 0 0.4046584776842293 -0.0050702490882302163 0 0.40806592415966281 -0.01253819616599721 0 0.4135204533098043 -0.0054466611181140526 0 0.4046584776842293 -0.0050702490882302163 0 0.41081432206005303 0.0037114498956348132 0 0.42248564151892998 0.0016345051066286029 0 0.4135204533098043 -0.0054466611181140526 0 0.42248564151892998 0.0016345051066286029 0 0.4135204533098043 -0.0054466611181140526 0 0.42119781252485211 -0.0083000839364812864 0 0.41343304557213612 -0.018371446868227208 0 0.41498054603746559 -0.011947546426581419 0 0.41928481904255338 -0.01548900553927589 0 0.4135204533098043 -0.0054466611181140526 0 0.41498054603746559 -0.011947546426581419 0 0.42119781252485211 -0.0083000839364812864 0 0.41498054603746559 -0.011947546426581419 0 0.42119781252485211 -0.0083000839364812864 0 0.41928481904255338 -0.01548900553927589 0 0.42542521438275183 -0.0144422395697206 0 0.42820760236351979 -0.0076976995852137747 0 0.42907711285764621 -0.01818842757435184 0 0.4382820622288856 -0.0014159552958160841 0 0.42820760236351979 -0.0076976995852137747 0 0.42907711285764621 -0.01818842757435184 0 0.42119781252485211 -0.0083000839364812864 0 0.41928481904255338 -0.01548900553927589 0 0.42542521438275183 -0.0144422395697206 0 0.42248564151892998 0.0016345051066286029 0 0.4382820622288856 -0.0014159552958160841 0 0.42820760236351979 -0.0076976995852137747 0 0.42119781252485211 -0.0083000839364812864 0 0.42542521438275183 -0.0144422395697206 0 0.42820760236351979 -0.0076976995852137747 0 0.42248564151892998 0.0016345051066286029 0 0.42119781252485211 -0.0083000839364812864 0 0.42820760236351979 -0.0076976995852137747 0 0.44971415759127392 -0.039358306738208573 0 0.42907711285764621 -0.01818842757435184 0 0.42742255973229643 -0.030069766767760062 0 0.42011428296152808 -0.02169968792975261 0 0.42907711285764621 -0.01818842757435184 0 0.42742255973229643 -0.030069766767760062 0 0.42011428296152808 -0.02169968792975261 0 0.42542521438275183 -0.0144422395697206 0 0.42907711285764621 -0.01818842757435184 0 0.42011428296152808 -0.02169968792975261 0 0.42907711285764621 -0.01818842757435184 0 0.42542521438275183 -0.0144422395697206 0 0.42907711285764621 -0.01818842757435184 0 0.44971415759127392 -0.039358306738208573 0 0.42742255973229643 -0.030069766767760062 0 0.42419530264354072 -0.042652000491910397 0 0.41401194260749391 -0.028450411104576211 0 0.42742255973229643 -0.030069766767760062 0 0.42419530264354072 -0.042652000491910397 0 0.43963483674523918 -0.055334607978488382 0 0.42419530264354072 -0.042652000491910397 0 0.41814417465091752 -0.061397621471661459 0 0.41814417465091752 -0.061397621471661459 0 0.41107184061272262 -0.047596707948501772 0 0.39379637821942232 -0.04878788226426127 0 0.42419530264354072 -0.042652000491910397 0 0.41814417465091752 -0.061397621471661459 0 0.41107184061272262 -0.047596707948501772 0 0.41401194260749391 -0.028450411104576211 0 0.42419530264354072 -0.042652000491910397 0 0.40815150693701141 -0.037549327566173699 0 0.42419530264354072 -0.042652000491910397 0 0.41107184061272262 -0.047596707948501772 0 0.40815150693701141 -0.037549327566173699 0 0.41401194260749391 -0.028450411104576211 0 0.40815150693701141 -0.037549327566173699 0 0.40044964155059998 -0.029094842751199331 0 0.41107184061272262 -0.047596707948501772 0 0.40815150693701141 -0.037549327566173699 0 0.39379637821942232 -0.04878788226426127 0 0.40815150693701141 -0.037549327566173699 0 0.39379637821942232 -0.04878788226426127 0 0.40044964155059998 -0.029094842751199331 0 0.39379637821942232 -0.04878788226426127 0 0.38867892262788012 -0.028322223649632432 0 0.39379637821942232 -0.04878788226426127 0 0.38867892262788012 -0.028322223649632432 0 0.40044964155059998 -0.029094842751199331 0 0.39967735397270959 -0.072307000297579083 0 0.39379637821942232 -0.04878788226426127 0 0.38669795957132042 -0.057310603286660967 0 0.41814417465091752 -0.061397621471661459 0 0.39379637821942232 -0.04878788226426127 0 0.39967735397270959 -0.072307000297579083 0 0.39379637821942232 -0.04878788226426127 0 0.39967735397270959 -0.072307000297579083 0 0.41814417465091752 -0.061397621471661459 0 0.39379637821942232 -0.04878788226426127 0 0.39379637821942232 -0.04878788226426127 0 0.38896036142985008 -0.046283306103098283 0 0.38669795957132042 -0.057310603286660967 0 0.37839056082150663 -0.050608978831784571 0 0.37240766699872252 -0.068318548019290964 0 0.38669795957132042 -0.057310603286660967 0 0.37839056082150663 -0.050608978831784571 0 0.38896036142985008 -0.046283306103098283 0 0.39379637821942232 -0.04878788226426127 0 0.38669795957132042 -0.057310603286660967 0 0.38896036142985008 -0.046283306103098283 0 0.39379637821942232 -0.04878788226426127 0 0.38896036142985008 -0.046283306103098283 0 0.38867892262788012 -0.028322223649632432 0 0.3834615598562825 -0.037386722635115492 0 0.38896036142985008 -0.046283306103098283 0 0.38867892262788012 -0.028322223649632432 0 0.37839056082150663 -0.050608978831784571 0 0.3834615598562825 -0.037386722635115492 0 0.38896036142985008 -0.046283306103098283 0 0.37839056082150663 -0.050608978831784571 0 0.3834615598562825 -0.037386722635115492 0 0.37356965880113402 -0.040783236975350308 0 0.38867892262788012 -0.028322223649632432 0 0.38356146703633898 -0.0078565650350033434 0 0.3834615598562825 -0.037386722635115492 0 0.37600683512296651 -0.014087071697862221 0 0.37356965880113402 -0.040783236975350308 0 0.3834615598562825 -0.037386722635115492 0 0.38867892262788012 -0.028322223649632432 0 0.37600683512296651 -0.014087071697862221 0 0.38867892262788012 -0.028322223649632432 0 0.37600683512296651 -0.014087071697862221 0 0.38356146703633898 -0.0078565650350033434 0 0.38867892262788012 -0.028322223649632432 0 0.39658225960386179 -0.014459285545308009 0 0.38356146703633898 -0.0078565650350033434 0 0.38867892262788012 -0.028322223649632432 0 0.40044964155059998 -0.029094842751199331 0 0.39658225960386179 -0.014459285545308009 0 0.40522076275047969 -0.019933987949522329 0 0.40044964155059998 -0.029094842751199331 0 0.39658225960386179 -0.014459285545308009 0 0.40806592415966281 -0.01253819616599721 0 0.40522076275047969 -0.019933987949522329 0 0.39658225960386179 -0.014459285545308009 0 0.40060323373222451 0.0042547197705496897 0 0.4046584776842293 -0.0050702490882302163 0 0.39531848553630572 -0.0042569273994520467 0 0.40806592415966281 -0.01253819616599721 0 0.4046584776842293 -0.0050702490882302163 0 0.39658225960386179 -0.014459285545308009 0 0.4046584776842293 -0.0050702490882302163 0 0.39658225960386179 -0.014459285545308009 0 0.39531848553630572 -0.0042569273994520467 0 0.39658225960386179 -0.014459285545308009 0 0.39531848553630572 -0.0042569273994520467 0 0.38356146703633898 -0.0078565650350033434 0 0.39025836247721268 0.0036292771787240202 0 0.39531848553630572 -0.0042569273994520467 0 0.38356146703633898 -0.0078565650350033434 0 0.37844401144479839 0.012609093579625891 0 0.37600683512296651 -0.014087071697862221 0 0.37844401144479839 0.012609093579625891 0 0.37600683512296651 -0.014087071697862221 0 0.38356146703633898 -0.0078565650350033434 0 0.37600683512296651 -0.014087071697862221 0 0.36665723294200347 -0.001883505129568449 0 0.35850646790810559 -0.01395473468271459 0 0.37844401144479839 0.012609093579625891 0 0.37600683512296651 -0.014087071697862221 0 0.36665723294200347 -0.001883505129568449 0 0.36665723294200347 -0.001883505129568449 0 0.35531676971978082 -0.0033532784323768001 0 0.35850646790810559 -0.01395473468271459 0 0.37600683512296651 -0.014087071697862221 0 0.37356965880113402 -0.040783236975350308 0 0.37600683512296651 -0.014087071697862221 0 0.36404947753274258 -0.026706798856440471 0 0.35850646790810559 -0.01395473468271459 0 0.37600683512296651 -0.014087071697862221 0 0.36404947753274258 -0.026706798856440471 0 0.37356965880113402 -0.040783236975350308 0 0.34748556133762742 -0.02738266599094942 0 0.35850646790810559 -0.01395473468271459 0 0.34370628527030811 -0.0115647124322744 0 0.36404947753274258 -0.026706798856440471 0 0.34748556133762742 -0.02738266599094942 0 0.35850646790810559 -0.01395473468271459 0 0.36404947753274258 -0.026706798856440471 0 0.34748556133762742 -0.02738266599094942 0 0.36012817770438982 -0.039413746555128387 0 0.33689267375143878 0.0039255003288513873 0 0.35531676971978082 -0.0033532784323768001 0 0.34370628527030811 -0.0115647124322744 0 0.35531676971978082 -0.0033532784323768001 0 0.35850646790810559 -0.01395473468271459 0 0.34370628527030811 -0.0115647124322744 0 0.33689267375143878 0.0039255003288513873 0 0.34370628527030811 -0.0115647124322744 0 0.32469666258817742 -0.019557632270551 0 0.33689267375143878 0.0039255003288513873 0 0.30352242257352219 0.0039185454548519476 0 0.32469666258817742 -0.019557632270551 0 0.34748556133762742 -0.02738266599094942 0 0.34370628527030811 -0.0115647124322744 0 0.32469666258817742 -0.019557632270551 0 0.34748556133762742 -0.02738266599094942 0 0.32469666258817742 -0.019557632270551 0 0.33457477032001748 -0.043965109755099818 0 0.31326255248553708 -0.043768501277314603 0 0.32924913997341337 -0.063603686862235317 0 0.31014365419524398 -0.06072536978512106 0 0.31326255248553708 -0.043768501277314603 0 0.32924913997341337 -0.063603686862235317 0 0.31326255248553708 -0.043768501277314603 0 0.33457477032001748 -0.043965109755099818 0 0.32924913997341337 -0.063603686862235317 0 0.32469666258817742 -0.019557632270551 0 0.31326255248553708 -0.043768501277314603 0 0.33457477032001748 -0.043965109755099818 0 0.33457477032001748 -0.043965109755099818 0 0.34313363496153881 -0.061193084728204693 0 0.35029003257871461 -0.048624574981710279 0 0.33457477032001748 -0.043965109755099818 0 0.34313363496153881 -0.061193084728204693 0 0.32924913997341337 -0.063603686862235317 0 0.35029003257871461 -0.048624574981710279 0 0.36524615827173029 -0.053571455971191423 0 0.35631850447425872 -0.066333179594821989 0 0.34313363496153881 -0.061193084728204693 0 0.35029003257871461 -0.048624574981710279 0 0.35631850447425872 -0.066333179594821989 0 0.35029003257871461 -0.048624574981710279 0 0.36012817770438982 -0.039413746555128387 0 0.36524615827173029 -0.053571455971191423 0 0.34748556133762742 -0.02738266599094942 0 0.33457477032001748 -0.043965109755099818 0 0.35029003257871461 -0.048624574981710279 0 0.34748556133762742 -0.02738266599094942 0 0.35029003257871461 -0.048624574981710279 0 0.36012817770438982 -0.039413746555128387 0 0.36404947753274258 -0.026706798856440471 0 0.36012817770438982 -0.039413746555128387 0 0.37356965880113402 -0.040783236975350308 0 0.36012817770438982 -0.039413746555128387 0 0.37356965880113402 -0.040783236975350308 0 0.36524615827173029 -0.053571455971191423 0 0.37839056082150663 -0.050608978831784571 0 0.36524615827173029 -0.053571455971191423 0 0.37240766699872252 -0.068318548019290964 0 0.37839056082150663 -0.050608978831784571 0 0.37356965880113402 -0.040783236975350308 0 0.36524615827173029 -0.053571455971191423 0 0.36524615827173029 -0.053571455971191423 0 0.37240766699872252 -0.068318548019290964 0 0.35631850447425872 -0.066333179594821989 0 0.37240766699872252 -0.068318548019290964 0 0.36259903827425999 -0.08213590949324566 0 0.35631850447425872 -0.066333179594821989 0 0.37781097748786241 -0.089314889372882261 0 0.37240766699872252 -0.068318548019290964 0 0.36259903827425999 -0.08213590949324566 0 0.37781097748786241 -0.089314889372882261 0 0.36259903827425999 -0.08213590949324566 0 0.3612223149491664 -0.1032740580320769 0 0.34523572746128989 -0.083438872447156087 0 0.3612223149491664 -0.1032740580320769 0 0.36259903827425999 -0.08213590949324566 0 0.34523572746128989 -0.083438872447156087 0 0.3612223149491664 -0.1032740580320769 0 0.34313363496153881 -0.061193084728204693 0 0.34523572746128989 -0.083438872447156087 0 0.35631850447425872 -0.066333179594821989 0 0.36259903827425999 -0.08213590949324566 0 0.34523572746128989 -0.083438872447156087 0 0.35631850447425872 -0.066333179594821989 0 0.37720890243704291 -0.12310924361699779 0 0.36253108037134668 -0.1248744885805331 0 0.3612223149491664 -0.1032740580320769 0 0.37644505785585192 -0.1058120404938334 0 0.37720890243704291 -0.12310924361699779 0 0.3612223149491664 -0.1032740580320769 0 0.37720890243704291 -0.12310924361699779 0 0.3612223149491664 -0.1032740580320769 0 0.37781097748786241 -0.089314889372882261 0 0.37644505785585192 -0.1058120404938334 0 0.3612223149491664 -0.1032740580320769 0 0.34523572746128989 -0.083438872447156087 0 0.3612223149491664 -0.1032740580320769 0 0.33932087337301742 -0.1007066993955318 0 0.3612223149491664 -0.1032740580320769 0 0.34941185211170689 -0.1127717253903176 0 0.33932087337301742 -0.1007066993955318 0 0.36253108037134668 -0.1248744885805331 0 0.33587402752894302 -0.122350175475488 0 0.36253108037134668 -0.1248744885805331 0 0.34941185211170689 -0.1127717253903176 0 0.33587402752894302 -0.122350175475488 0 0.36253108037134668 -0.1248744885805331 0 0.3612223149491664 -0.1032740580320769 0 0.34941185211170689 -0.1127717253903176 0 0.34941185211170689 -0.1127717253903176 0 0.33587402752894302 -0.122350175475488 0 0.33932087337301742 -0.1007066993955318 0 0.33587402752894302 -0.122350175475488 0 0.33932087337301742 -0.1007066993955318 0 0.31943204723016899 -0.10139701157958859 0 0.33932087337301742 -0.1007066993955318 0 0.31943204723016899 -0.10139701157958859 0 0.32474927095682959 -0.081008353448563344 0 0.33587402752894302 -0.122350175475488 0 0.31943204723016899 -0.10139701157958859 0 0.3092169746865393 -0.1198258623704429 0 0.33587402752894302 -0.122350175475488 0 0.3092169746865393 -0.1198258623704429 0 0.34523572746128989 -0.083438872447156087 0 0.32924913997341337 -0.063603686862235317 0 0.32474927095682959 -0.081008353448563344 0 0.34523572746128989 -0.083438872447156087 0 0.32924913997341337 -0.063603686862235317 0 0.34313363496153881 -0.061193084728204693 0 0.34523572746128989 -0.083438872447156087 0 0.32924913997341337 -0.063603686862235317 0 0.34523572746128989 -0.083438872447156087 0 0.33932087337301742 -0.1007066993955318 0 0.32474927095682959 -0.081008353448563344 0 0.31943204723016899 -0.10139701157958859 0 0.32474927095682959 -0.081008353448563344 0 0.31117343018006932 -0.08835554327446378 0 0.32474927095682959 -0.081008353448563344 0 0.30201438303726968 -0.075929904193525521 0 0.32474927095682959 -0.081008353448563344 0 0.30201438303726968 -0.075929904193525521 0 0.31117343018006932 -0.08835554327446378 0 0.32924913997341337 -0.063603686862235317 0 0.32474927095682959 -0.081008353448563344 0 0.31014365419524398 -0.06072536978512106 0 0.32474927095682959 -0.081008353448563344 0 0.30201438303726968 -0.075929904193525521 0 0.31014365419524398 -0.06072536978512106 0 0.30201438303726968 -0.075929904193525521 0 0.31014365419524398 -0.06072536978512106 0 0.29222542489931519 -0.060978945333093171 0 0.31117343018006932 -0.08835554327446378 0 0.29442961060618023 -0.089764156713605506 0 0.30306705175182019 -0.101009202806625 0 0.30201438303726968 -0.075929904193525521 0 0.31117343018006932 -0.08835554327446378 0 0.29442961060618023 -0.089764156713605506 0 0.29442961060618023 -0.089764156713605506 0 0.28691460331806928 -0.079185378374353493 0 0.27734124638624891 -0.089737863242296378 0 0.30201438303726968 -0.075929904193525521 0 0.29442961060618023 -0.089764156713605506 0 0.28691460331806928 -0.079185378374353493 0 0.30201438303726968 -0.075929904193525521 0 0.27927949511770961 -0.070851454938488739 0 0.29222542489931519 -0.060978945333093171 0 0.30201438303726968 -0.075929904193525521 0 0.27927949511770961 -0.070851454938488739 0 0.30201438303726968 -0.075929904193525521 0 0.28691460331806928 -0.079185378374353493 0 0.27927949511770961 -0.070851454938488739 0 0.28691460331806928 -0.079185378374353493 0 0.27927949511770961 -0.070851454938488739 0 0.27809334201771629 -0.079209584513290715 0 0.28691460331806928 -0.079185378374353493 0 0.27927949511770961 -0.070851454938488739 0 0.27927949511770961 -0.070851454938488739 0 0.27868582307562201 -0.055886184139343542 0 0.29222542489931519 -0.060978945333093171 0 0.31943204723016899 -0.10139701157958859 0 0.3092169746865393 -0.1198258623704429 0 0.30306705175182019 -0.101009202806625 0 0.3092169746865393 -0.1198258623704429 0 0.30306705175182019 -0.101009202806625 0 0.28879183359809052 -0.10393054527906551 0 0.31943204723016899 -0.10139701157958859 0 0.31117343018006932 -0.08835554327446378 0 0.30306705175182019 -0.101009202806625 0 0.28879183359809052 -0.10393054527906551 0 0.28255992184413548 -0.11730154926539781 0 0.27267591943638608 -0.1048970298088977 0 0.29442961060618023 -0.089764156713605506 0 0.28879183359809052 -0.10393054527906551 0 0.27734124638624891 -0.089737863242296378 0 0.29442961060618023 -0.089764156713605506 0 0.30306705175182019 -0.101009202806625 0 0.28879183359809052 -0.10393054527906551 0 0.3092169746865393 -0.1198258623704429 0 0.28255992184413548 -0.11730154926539781 0 0.3092169746865393 -0.1198258623704429 0 0.28879183359809052 -0.10393054527906551 0 0.28255992184413548 -0.11730154926539781 0 0.3092169746865393 -0.1198258623704429 0 0.28255992184413548 -0.11730154926539781 0 0.28721398294742878 -0.13035474923543569 0 0.28255992184413548 -0.11730154926539781 0 0.26776517015272971 -0.1222840496799191 0 0.28721398294742878 -0.13035474923543569 0 0.28255992184413548 -0.11730154926539781 0 0.26776517015272971 -0.1222840496799191 0 0.27267591943638608 -0.1048970298088977 0 0.26776517015272971 -0.1222840496799191 0 0.27267591943638608 -0.1048970298088977 0 0.26047800574605201 -0.11084537767631369 0 0.28879183359809052 -0.10393054527906551 0 0.27267591943638608 -0.1048970298088977 0 0.27734124638624891 -0.089737863242296378 0 0.27267591943638608 -0.1048970298088977 0 0.27734124638624891 -0.089737863242296378 0 0.26256105175446781 -0.092679464148907056 0 0.25771864553297669 -0.099620140202181948 0 0.26047800574605201 -0.11084537767631369 0 0.24375228786211539 -0.116580291014256 0 0.27267591943638608 -0.1048970298088977 0 0.25771864553297669 -0.099620140202181948 0 0.26256105175446781 -0.092679464148907056 0 0.25771864553297669 -0.099620140202181948 0 0.25304747237378489 -0.090741332181114118 0 0.24292322406264641 -0.096552741650977186 0 0.25771864553297669 -0.099620140202181948 0 0.26256105175446781 -0.092679464148907056 0 0.25304747237378489 -0.090741332181114118 0 0.27267591943638608 -0.1048970298088977 0 0.25771864553297669 -0.099620140202181948 0 0.26047800574605201 -0.11084537767631369 0 0.26776517015272971 -0.1222840496799191 0 0.26153006621115998 -0.13421007507225571 0 0.24375228786211539 -0.116580291014256 0 0.26776517015272971 -0.1222840496799191 0 0.24375228786211539 -0.116580291014256 0 0.26776517015272971 -0.1222840496799191 0 0.26047800574605201 -0.11084537767631369 0 0.24375228786211539 -0.116580291014256 0 0.27927949511770961 -0.070851454938488739 0 0.25811154610651499 -0.066123023671663908 0 0.26329678137076351 -0.053405898285071182 0 0.27927949511770961 -0.070851454938488739 0 0.25811154610651499 -0.066123023671663908 0 0.26883802324883782 -0.077063641498024305 0 0.27927949511770961 -0.070851454938488739 0 0.25811154610651499 -0.066123023671663908 0 0.26883802324883782 -0.077063641498024305 0 0.27927949511770961 -0.070851454938488739 0 0.27809334201771629 -0.079209584513290715 0 0.26883802324883782 -0.077063641498024305 0 0.27809334201771629 -0.079209584513290715 0 0.27734124638624891 -0.089737863242296378 0 0.26883802324883782 -0.077063641498024305 0 0.27734124638624891 -0.089737863242296378 0 0.25202197504294188 -0.078400955310045109 0 0.28691460331806928 -0.079185378374353493 0 0.27809334201771629 -0.079209584513290715 0 0.27734124638624891 -0.089737863242296378 0 0.27734124638624891 -0.089737863242296378 0 0.26256105175446781 -0.092679464148907056 0 0.25202197504294188 -0.078400955310045109 0 0.27734124638624891 -0.089737863242296378 0 0.25202197504294188 -0.078400955310045109 0 0.26256105175446781 -0.092679464148907056 0 0.25304747237378489 -0.090741332181114118 0 0.25202197504294188 -0.078400955310045109 0 0.25304747237378489 -0.090741332181114118 0 0.25202197504294188 -0.078400955310045109 0 0.24624903761231479 -0.086847438891893419 0 0.26883802324883782 -0.077063641498024305 0 0.25202197504294188 -0.078400955310045109 0 0.25811154610651499 -0.066123023671663908 0 0.25811154610651499 -0.066123023671663908 0 0.26329678137076351 -0.053405898285071182 0 0.24870160087168189 -0.052882304334001928 0 0.26329678137076351 -0.053405898285071182 0 0.24870160087168189 -0.052882304334001928 0 0.24731406762381819 -0.035960341631652723 0 0.27927949511770961 -0.070851454938488739 0 0.26329678137076351 -0.053405898285071182 0 0.27868582307562201 -0.055886184139343542 0 0.27927949511770961 -0.070851454938488739 0 0.26329678137076351 -0.053405898285071182 0 0.26329678137076351 -0.053405898285071182 0 0.27868582307562201 -0.055886184139343542 0 0.27337213238318842 -0.044040078526876879 0 0.27868582307562201 -0.055886184139343542 0 0.27337213238318842 -0.044040078526876879 0 0.28525528160713332 -0.050154543613187753 0 0.26329678137076351 -0.053405898285071182 0 0.27337213238318842 -0.044040078526876879 0 0.26311483972878968 -0.036713614733010089 0 0.27337213238318842 -0.044040078526876879 0 0.27217486102646721 -0.027861542379398439 0 0.28494473946257981 -0.034556038004921102 0 0.27337213238318842 -0.044040078526876879 0 0.26311483972878968 -0.036713614733010089 0 0.27217486102646721 -0.027861542379398439 0 0.27337213238318842 -0.044040078526876879 0 0.28525528160713332 -0.050154543613187753 0 0.28494473946257981 -0.034556038004921102 0 0.26311483972878968 -0.036713614733010089 0 0.25941635623971138 -0.02230021284205122 0 0.24731406762381819 -0.035960341631652723 0 0.26329678137076351 -0.053405898285071182 0 0.24731406762381819 -0.035960341631652723 0 0.26329678137076351 -0.053405898285071182 0 0.26311483972878968 -0.036713614733010089 0 0.24731406762381819 -0.035960341631652723 0 0.25941635623971138 -0.02230021284205122 0 0.24731406762381819 -0.035960341631652723 0 0.2482857443068576 -0.021714794414400052 0 0.25941635623971138 -0.02230021284205122 0 0.25508119948702751 -0.010083838205662381 0 0.2482857443068576 -0.021714794414400052 0 0.26311483972878968 -0.036713614733010089 0 0.25941635623971138 -0.02230021284205122 0 0.27217486102646721 -0.027861542379398439 0 0.2541426920980116 -0.0036136263454906951 0 0.25508119948702751 -0.010083838205662381 0 0.24138147174972829 -0.0061427828714447699 0 0.2541426920980116 -0.0036136263454906951 0 0.25508119948702751 -0.010083838205662381 0 0.26047117107291767 -0.0019720443344692288 0 0.25446675038947358 0.0029162606258486688 0 0.2541426920980116 -0.0036136263454906951 0 0.26047117107291767 -0.0019720443344692288 0 0.25941635623971138 -0.02230021284205122 0 0.25508119948702751 -0.010083838205662381 0 0.26474460583379889 -0.01023883548432745 0 0.25941635623971138 -0.02230021284205122 0 0.26474460583379889 -0.01023883548432745 0 0.27166734417845928 -0.01430021117376327 0 0.25508119948702751 -0.010083838205662381 0 0.26474460583379889 -0.01023883548432745 0 0.26047117107291767 -0.0019720443344692288 0 0.26474460583379889 -0.01023883548432745 0 0.26047117107291767 -0.0019720443344692288 0 0.27708695819087842 -0.0025378708656911609 0 0.26474460583379889 -0.01023883548432745 0 0.27166734417845928 -0.01430021117376327 0 0.27708695819087842 -0.0025378708656911609 0 0.27166734417845928 -0.01430021117376327 0 0.27708695819087842 -0.0025378708656911609 0 0.28469269166600031 -0.01545933141113482 0 0.27217486102646721 -0.027861542379398439 0 0.28469269166600031 -0.01545933141113482 0 0.28494473946257981 -0.034556038004921102 0 0.25941635623971138 -0.02230021284205122 0 0.27166734417845928 -0.01430021117376327 0 0.27217486102646721 -0.027861542379398439 0 0.27166734417845928 -0.01430021117376327 0 0.27217486102646721 -0.027861542379398439 0 0.28469269166600031 -0.01545933141113482 0 0.28469269166600031 -0.01545933141113482 0 0.29727596499766062 -0.023933315692393788 0 0.28494473946257981 -0.034556038004921102 0 0.30352242257352219 0.0039185454548519476 0 0.28469269166600031 -0.01545933141113482 0 0.29727596499766062 -0.023933315692393788 0 0.30352242257352219 0.0039185454548519476 0 0.27708695819087842 -0.0025378708656911609 0 0.28469269166600031 -0.01545933141113482 0 0.30352242257352219 0.0039185454548519476 0 0.32469666258817742 -0.019557632270551 0 0.29727596499766062 -0.023933315692393788 0 0.32469666258817742 -0.019557632270551 0 0.31326255248553708 -0.043768501277314603 0 0.29727596499766062 -0.023933315692393788 0 0.31326255248553708 -0.043768501277314603 0 0.29727596499766062 -0.023933315692393788 0 0.2968975050950291 -0.045887416406534938 0 0.31326255248553708 -0.043768501277314603 0 0.29727596499766062 -0.023933315692393788 0 0.31326255248553708 -0.043768501277314603 0 0.2968975050950291 -0.045887416406534938 0 0.31014365419524398 -0.06072536978512106 0 0.2968975050950291 -0.045887416406534938 0 0.31014365419524398 -0.06072536978512106 0 0.29222542489931519 -0.060978945333093171 0 0.2968975050950291 -0.045887416406534938 0 0.29222542489931519 -0.060978945333093171 0 0.28525528160713332 -0.050154543613187753 0 0.27868582307562201 -0.055886184139343542 0 0.29222542489931519 -0.060978945333093171 0 0.28525528160713332 -0.050154543613187753 0 0.2968975050950291 -0.045887416406534938 0 0.28525528160713332 -0.050154543613187753 0 0.28494473946257981 -0.034556038004921102 0 0.29727596499766062 -0.023933315692393788 0 0.2968975050950291 -0.045887416406534938 0 0.28494473946257981 -0.034556038004921102 0 0.29579617193404978 -0.19432558104056491 0 0.30588539897632072 -0.22256652654210629 0 0.2776594049058328 -0.2175861504380624 0 0.29579617193404978 -0.19432558104056491 0 0.2776594049058328 -0.2175861504380624 0 0.2764107852420567 -0.19644220614923899 0 0.29579617193404978 -0.19432558104056491 0 0.2764107852420567 -0.19644220614923899 0 0.2792899687438003 -0.18116405860585089 0 0.29579617193404978 -0.19432558104056491 0 0.31045946319455608 -0.20263901644370941 0 0.31057073564158039 -0.17760626025882659 0 0.29579617193404978 -0.19432558104056491 0 0.30588539897632072 -0.22256652654210629 0 0.31045946319455608 -0.20263901644370941 0 0.30588539897632072 -0.22256652654210629 0 0.32020032842118662 -0.2136972324735969 0 0.29579617193404978 -0.19432558104056491 0 0.31045946319455608 -0.20263901644370941 0 0.30588539897632072 -0.22256652654210629 0 0.29681701546221179 -0.23419681124085551 0 0.31597462601859122 -0.25080747204364812 0 0.30111904597271899 -0.2536098058489899 0 0.30588539897632072 -0.22256652654210629 0 0.29681701546221179 -0.23419681124085551 0 0.31597462601859122 -0.25080747204364812 0 0.30588539897632072 -0.22256652654210629 0 0.31597462601859122 -0.25080747204364812 0 0.29681701546221179 -0.23419681124085551 0 0.31597462601859122 -0.25080747204364812 0 0.29681701546221179 -0.23419681124085551 0 0.30111904597271899 -0.2536098058489899 0 0.28456511698073272 -0.25518130134833977 0 0.29681701546221179 -0.23419681124085551 0 0.27830026498091959 -0.23745462562099759 0 0.28456511698073272 -0.25518130134833977 0 0.30588539897632072 -0.22256652654210629 0 0.29681701546221179 -0.23419681124085551 0 0.2776594049058328 -0.2175861504380624 0 0.29681701546221179 -0.23419681124085551 0 0.27830026498091959 -0.23745462562099759 0 0.2776594049058328 -0.2175861504380624 0 0.29681701546221179 -0.23419681124085551 0 0.2776594049058328 -0.2175861504380624 0 0.26584409390649738 -0.23415831621220631 0 0.27830026498091959 -0.23745462562099759 0 0.2776594049058328 -0.2175861504380624 0 0.26584409390649738 -0.23415831621220631 0 0.25658827463044448 -0.2222138965281123 0 0.2776594049058328 -0.2175861504380624 0 0.27830026498091959 -0.23745462562099759 0 0.28456511698073272 -0.25518130134833977 0 0.26629969424128969 -0.25192769388052821 0 0.26584409390649738 -0.23415831621220631 0 0.27830026498091959 -0.23745462562099759 0 0.26629969424128969 -0.25192769388052821 0 0.26584409390649738 -0.23415831621220631 0 0.25037283077400019 -0.2416092145933311 0 0.26629969424128969 -0.25192769388052821 0 0.25037283077400019 -0.2416092145933311 0 0.25658827463044448 -0.2222138965281123 0 0.2446094219978813 -0.2276121794933563 0 0.26584409390649738 -0.23415831621220631 0 0.25037283077400019 -0.2416092145933311 0 0.25658827463044448 -0.2222138965281123 0 0.25658827463044448 -0.2222138965281123 0 0.2776594049058328 -0.2175861504380624 0 0.25850179434945381 -0.20097548963526929 0 0.25658827463044448 -0.2222138965281123 0 0.25850179434945381 -0.20097548963526929 0 0.23907695871134879 -0.21289681242661959 0 0.2776594049058328 -0.2175861504380624 0 0.25850179434945381 -0.20097548963526929 0 0.2776594049058328 -0.2175861504380624 0 0.2764107852420567 -0.19644220614923899 0 0.25850179434945381 -0.20097548963526929 0 0.2764107852420567 -0.19644220614923899 0 0.25850179434945381 -0.20097548963526929 0 0.26539786460737957 -0.18100391429238191 0 0.25850179434945381 -0.20097548963526929 0 0.26539786460737957 -0.18100391429238191 0 0.23934418379307471 -0.18436482883247621 0 0.26539786460737957 -0.18100391429238191 0 0.25449645062408999 -0.16331052089379791 0 0.23934418379307471 -0.18436482883247621 0 0.26539786460737957 -0.18100391429238191 0 0.25449645062408999 -0.16331052089379791 0 0.27043371620885309 -0.16438603764101259 0 0.25449645062408999 -0.16331052089379791 0 0.27043371620885309 -0.16438603764101259 0 0.2633734196266177 -0.15149826902969399 0 0.27043371620885309 -0.16438603764101259 0 0.2792899687438003 -0.18116405860585089 0 0.28570694489177878 -0.1660846355390232 0 0.27043371620885309 -0.16438603764101259 0 0.27930784456020519 -0.15183985913025491 0 0.28570694489177878 -0.1660846355390232 0 0.26539786460737957 -0.18100391429238191 0 0.27043371620885309 -0.16438603764101259 0 0.2792899687438003 -0.18116405860585089 0 0.2764107852420567 -0.19644220614923899 0 0.26539786460737957 -0.18100391429238191 0 0.2792899687438003 -0.18116405860585089 0 0.26153006621115998 -0.13421007507225571 0 0.24375228786211539 -0.116580291014256 0 0.24955680073527009 -0.143898101237383 0 0.26153006621115998 -0.13421007507225571 0 0.24375228786211539 -0.116580291014256 0 0.25449645062408999 -0.16331052089379791 0 0.2633734196266177 -0.15149826902969399 0 0.24955680073527009 -0.143898101237383 0 0.26153006621115998 -0.13421007507225571 0 0.2633734196266177 -0.15149826902969399 0 0.24955680073527009 -0.143898101237383 0 0.27043371620885309 -0.16438603764101259 0 0.2633734196266177 -0.15149826902969399 0 0.27930784456020519 -0.15183985913025491 0 0.27561771784950778 -0.13784369003748159 0 0.28570694489177878 -0.1660846355390232 0 0.26153006621115998 -0.13421007507225571 0 0.27930784456020519 -0.15183985913025491 0 0.27561771784950778 -0.13784369003748159 0 0.27930784456020519 -0.15183985913025491 0 0.27561771784950778 -0.13784369003748159 0 0.28570694489177878 -0.1660846355390232 0 0.26153006621115998 -0.13421007507225571 0 0.2633734196266177 -0.15149826902969399 0 0.27930784456020519 -0.15183985913025491 0 0.26153006621115998 -0.13421007507225571 0 0.27930784456020519 -0.15183985913025491 0 0.26776517015272971 -0.1222840496799191 0 0.27561771784950778 -0.13784369003748159 0 0.28721398294742878 -0.13035474923543569 0 0.26776517015272971 -0.1222840496799191 0 0.26153006621115998 -0.13421007507225571 0 0.27561771784950778 -0.13784369003748159 0 0.27561771784950778 -0.13784369003748159 0 0.28721398294742878 -0.13035474923543569 0 0.28891568690104508 -0.14625428249578579 0 0.28721398294742878 -0.13035474923543569 0 0.28891568690104508 -0.14625428249578579 0 0.29920842625061578 -0.1386190615635868 0 0.28891568690104508 -0.14625428249578579 0 0.29920842625061578 -0.1386190615635868 0 0.29789574789403661 -0.15876522012859751 0 0.27561771784950778 -0.13784369003748159 0 0.28891568690104508 -0.14625428249578579 0 0.28570694489177878 -0.1660846355390232 0 0.30985117626407932 -0.1486491484402036 0 0.29920842625061578 -0.1386190615635868 0 0.29789574789403661 -0.15876522012859751 0 0.30985117626407932 -0.1486491484402036 0 0.29789574789403661 -0.15876522012859751 0 0.3134799250960158 -0.16133035304856411 0 0.30985117626407932 -0.1486491484402036 0 0.29920842625061578 -0.1386190615635868 0 0.31980994510895661 -0.13408045692276491 0 0.3092169746865393 -0.1198258623704429 0 0.28721398294742878 -0.13035474923543569 0 0.29920842625061578 -0.1386190615635868 0 0.3092169746865393 -0.1198258623704429 0 0.29920842625061578 -0.1386190615635868 0 0.31980994510895661 -0.13408045692276491 0 0.29579617193404978 -0.19432558104056491 0 0.2792899687438003 -0.18116405860585089 0 0.28570694489177878 -0.1660846355390232 0 0.29579617193404978 -0.19432558104056491 0 0.28570694489177878 -0.1660846355390232 0 0.29579617193404978 -0.19432558104056491 0 0.28570694489177878 -0.1660846355390232 0 0.29784246694311001 -0.17248502473641619 0 0.28891568690104508 -0.14625428249578579 0 0.28570694489177878 -0.1660846355390232 0 0.29789574789403661 -0.15876522012859751 0 0.28570694489177878 -0.1660846355390232 0 0.29789574789403661 -0.15876522012859751 0 0.29784246694311001 -0.17248502473641619 0 0.29789574789403661 -0.15876522012859751 0 0.31057073564158039 -0.17760626025882659 0 0.3134799250960158 -0.16133035304856411 0 0.29789574789403661 -0.15876522012859751 0 0.31057073564158039 -0.17760626025882659 0 0.29784246694311001 -0.17248502473641619 0 0.29789574789403661 -0.15876522012859751 0 0.31057073564158039 -0.17760626025882659 0 0.29579617193404978 -0.19432558104056491 0 0.31057073564158039 -0.17760626025882659 0 0.29784246694311001 -0.17248502473641619 0 0.31057073564158039 -0.17760626025882659 0 0.33117051957001492 -0.16690810347740409 0 0.33960500058918919 -0.18923554211963439 0 0.31057073564158039 -0.17760626025882659 0 0.32324572338912438 -0.19644730038905581 0 0.3134799250960158 -0.16133035304856411 0 0.33117051957001492 -0.16690810347740409 0 0.32297156368297691 -0.15191279281852399 0 0.31057073564158039 -0.17760626025882659 0 0.3134799250960158 -0.16133035304856411 0 0.33117051957001492 -0.16690810347740409 0 0.33117051957001492 -0.16690810347740409 0 0.34312821131240068 -0.1490342399984359 0 0.35150112372442083 -0.17432517416681301 0 0.33117051957001492 -0.16690810347740409 0 0.35150112372442083 -0.17432517416681301 0 0.33960500058918919 -0.18923554211963439 0 0.33587402752894302 -0.122350175475488 0 0.3092169746865393 -0.1198258623704429 0 0.31980994510895661 -0.13408045692276491 0 0.30985117626407932 -0.1486491484402036 0 0.31980994510895661 -0.13408045692276491 0 0.32297156368297691 -0.15191279281852399 0 0.30985117626407932 -0.1486491484402036 0 0.3134799250960158 -0.16133035304856411 0 0.32297156368297691 -0.15191279281852399 0 0.33117051957001492 -0.16690810347740409 0 0.32297156368297691 -0.15191279281852399 0 0.34312821131240068 -0.1490342399984359 0 0.31980994510895661 -0.13408045692276491 0 0.32297156368297691 -0.15191279281852399 0 0.34312821131240068 -0.1490342399984359 0 0.33587402752894302 -0.122350175475488 0 0.31980994510895661 -0.13408045692276491 0 0.34312821131240068 -0.1490342399984359 0 0.36253108037134668 -0.1248744885805331 0 0.33587402752894302 -0.122350175475488 0 0.3555623608711499 -0.1359942506039106 0 0.33587402752894302 -0.122350175475488 0 0.34312821131240068 -0.1490342399984359 0 0.3555623608711499 -0.1359942506039106 0 0.34312821131240068 -0.1490342399984359 0 0.3555623608711499 -0.1359942506039106 0 0.36858459771950869 -0.15733985743645959 0 0.3555623608711499 -0.1359942506039106 0 0.36652086356581781 -0.12946943863695781 0 0.36858459771950869 -0.15733985743645959 0 0.36652086356581781 -0.12946943863695781 0 0.36858459771950869 -0.15733985743645959 0 0.36652086356581781 -0.12946943863695781 0 0.36858459771950869 -0.15733985743645959 0 0.3787995421462832 -0.1425544525875144 0 0.36652086356581781 -0.12946943863695781 0 0.37808333446084269 -0.1309391893982525 0 0.3787995421462832 -0.1425544525875144 0 0.36253108037134668 -0.1248744885805331 0 0.36652086356581781 -0.12946943863695781 0 0.37808333446084269 -0.1309391893982525 0 0.36253108037134668 -0.1248744885805331 0 0.3555623608711499 -0.1359942506039106 0 0.36652086356581781 -0.12946943863695781 0 0.35150112372442083 -0.17432517416681301 0 0.37064833187319962 -0.1852102762359614 0 0.35587008128221181 -0.19822302573298239 0 0.35150112372442083 -0.17432517416681301 0 0.35587008128221181 -0.19822302573298239 0 0.33960500058918919 -0.18923554211963439 0 0.34312821131240068 -0.1490342399984359 0 0.35150112372442083 -0.17432517416681301 0 0.36858459771950869 -0.15733985743645959 0 0.36858459771950869 -0.15733985743645959 0 0.37064833187319962 -0.1852102762359614 0 0.35150112372442083 -0.17432517416681301 0 0.36858459771950869 -0.15733985743645959 0 0.37064833187319962 -0.1852102762359614 0 0.36858459771950869 -0.15733985743645959 0 0.37064833187319962 -0.1852102762359614 0 0.3834788620725188 -0.17954848884060079 0 0.37064833187319962 -0.1852102762359614 0 0.37271206602689039 -0.21308069503546309 0 0.38139900114097952 -0.20469292352659629 0 0.37064833187319962 -0.1852102762359614 0 0.37271206602689039 -0.21308069503546309 0 0.37064833187319962 -0.1852102762359614 0 0.37271206602689039 -0.21308069503546309 0 0.35587008128221181 -0.19822302573298239 0 0.37271206602689039 -0.21308069503546309 0 0.35603419272415182 -0.2169366224123114 0 0.35587008128221181 -0.19822302573298239 0 0.35603419272415182 -0.2169366224123114 0 0.35587008128221181 -0.19822302573298239 0 0.33592071113666833 -0.21528834051928489 0 0.35587008128221181 -0.19822302573298239 0 0.33960500058918919 -0.18923554211963439 0 0.33592071113666833 -0.21528834051928489 0 0.33960500058918919 -0.18923554211963439 0 0.33592071113666833 -0.21528834051928489 0 0.32324572338912438 -0.19644730038905581 0 0.33592071113666833 -0.21528834051928489 0 0.32324572338912438 -0.19644730038905581 0 0.33592071113666833 -0.21528834051928489 0 0.32020032842118662 -0.2136972324735969 0 0.32324572338912438 -0.19644730038905581 0 0.31045946319455608 -0.20263901644370941 0 0.32020032842118662 -0.2136972324735969 0 0.32324572338912438 -0.19644730038905581 0 0.31057073564158039 -0.17760626025882659 0 0.33960500058918919 -0.18923554211963439 0 0.32324572338912438 -0.19644730038905581 0 0.31045946319455608 -0.20263901644370941 0 0.31057073564158039 -0.17760626025882659 0 0.32324572338912438 -0.19644730038905581 0 0.32549034540926353 -0.23154497847382799 0 0.33517615116993849 -0.24743488902137309 0 0.31597462601859122 -0.25080747204364812 0 0.30588539897632072 -0.22256652654210629 0 0.32549034540926353 -0.23154497847382799 0 0.31597462601859122 -0.25080747204364812 0 0.30588539897632072 -0.22256652654210629 0 0.32020032842118662 -0.2136972324735969 0 0.32549034540926353 -0.23154497847382799 0 0.33592071113666833 -0.21528834051928489 0 0.32020032842118662 -0.2136972324735969 0 0.32549034540926353 -0.23154497847382799 0 0.33592071113666833 -0.21528834051928489 0 0.32549034540926353 -0.23154497847382799 0 0.34859569888421221 -0.23412938064951411 0 0.33592071113666833 -0.21528834051928489 0 0.34859569888421221 -0.23412938064951411 0 0.32549034540926353 -0.23154497847382799 0 0.33517615116993849 -0.24743488902137309 0 0.34859569888421221 -0.23412938064951411 0 0.33517615116993849 -0.24743488902137309 0 0.34859569888421221 -0.23412938064951411 0 0.35185333732921159 -0.25428502110151557 0 0.34859569888421221 -0.23412938064951411 0 0.36075586336603621 -0.2426037127049111 0 0.35185333732921159 -0.25428502110151557 0 0.34859569888421221 -0.23412938064951411 0 0.36291464790978972 -0.22902601310760301 0 0.36075586336603621 -0.2426037127049111 0 0.35603419272415182 -0.2169366224123114 0 0.34859569888421221 -0.23412938064951411 0 0.36291464790978972 -0.22902601310760301 0 0.35603419272415182 -0.2169366224123114 0 0.33592071113666833 -0.21528834051928489 0 0.34859569888421221 -0.23412938064951411 0 0.37271206602689039 -0.21308069503546309 0 0.35603419272415182 -0.2169366224123114 0 0.36291464790978972 -0.22902601310760301 0 0.37271206602689039 -0.21308069503546309 0 0.37477580018058132 -0.24095111383496479 0 0.37555308153547928 -0.22286467051027881 0 0.37271206602689039 -0.21308069503546309 0 0.37477580018058132 -0.24095111383496479 0 0.37271206602689039 -0.21308069503546309 0 0.36291464790978972 -0.22902601310760301 0 0.37477580018058132 -0.24095111383496479 0 0.36075586336603621 -0.2426037127049111 0 0.37477580018058132 -0.24095111383496479 0 0.36563983252638571 -0.25462703483095822 0 0.36291464790978972 -0.22902601310760301 0 0.36075586336603621 -0.2426037127049111 0 0.37477580018058132 -0.24095111383496479 0 0.37477580018058132 -0.24095111383496479 0 0.39321551516580561 -0.23618023300957031 0 0.38725375881062551 -0.25185160038302579 0 0.39321551516580561 -0.23618023300957031 0 0.41087794879613182 -0.2494957955088617 0 0.40741230325918792 -0.23450562481703699 0 0.39321551516580561 -0.23618023300957031 0 0.41087794879613182 -0.2494957955088617 0 0.39321551516580561 -0.23618023300957031 0 0.38725375881062551 -0.25185160038302579 0 0.39640803358832022 -0.25154779433757402 0 0.39321551516580561 -0.23618023300957031 0 0.41087794879613182 -0.2494957955088617 0 0.39640803358832022 -0.25154779433757402 0 0.4055308246994358 -0.22407667781788709 0 0.39424069285124719 -0.22310079746779379 0 0.40434357831770951 -0.21487406561090469 0 0.4055308246994358 -0.22407667781788709 0 0.39424069285124719 -0.22310079746779379 0 0.40741230325918792 -0.23450562481703699 0 0.39321551516580561 -0.23618023300957031 0 0.39424069285124719 -0.22310079746779379 0 0.40741230325918792 -0.23450562481703699 0 0.37477580018058132 -0.24095111383496479 0 0.39321551516580561 -0.23618023300957031 0 0.37555308153547928 -0.22286467051027881 0 0.39424069285124719 -0.22310079746779379 0 0.37555308153547928 -0.22286467051027881 0 0.38300691860546521 -0.21527996176244341 0 0.39321551516580561 -0.23618023300957031 0 0.37555308153547928 -0.22286467051027881 0 0.39321551516580561 -0.23618023300957031 0 0.39424069285124719 -0.22310079746779379 0 0.37555308153547928 -0.22286467051027881 0 0.37271206602689039 -0.21308069503546309 0 0.37555308153547928 -0.22286467051027881 0 0.38300691860546521 -0.21527996176244341 0 0.37271206602689039 -0.21308069503546309 0 0.38139900114097952 -0.20469292352659629 0 0.38300691860546521 -0.21527996176244341 0 0.38139900114097952 -0.20469292352659629 0 0.39078770323730427 -0.19674260859680251 0 0.39112975147272949 -0.2126607222720846 0 0.38139900114097952 -0.20469292352659629 0 0.38300691860546521 -0.21527996176244341 0 0.39112975147272949 -0.2126607222720846 0 0.39424069285124719 -0.22310079746779379 0 0.38300691860546521 -0.21527996176244341 0 0.39112975147272949 -0.2126607222720846 0 0.37064833187319962 -0.1852102762359614 0 0.38139900114097952 -0.20469292352659629 0 0.39078770323730427 -0.19674260859680251 0 0.39078770323730427 -0.19674260859680251 0 0.40475141021500721 -0.1910589369573561 0 0.39510197637232292 -0.1839605883432579 0 0.39078770323730427 -0.19674260859680251 0 0.40426546228868082 -0.20108352786525729 0 0.397631623829106 -0.20634023108626229 0 0.39078770323730427 -0.19674260859680251 0 0.40426546228868082 -0.20108352786525729 0 0.40475141021500721 -0.1910589369573561 0 0.39078770323730427 -0.19674260859680251 0 0.39112975147272949 -0.2126607222720846 0 0.397631623829106 -0.20634023108626229 0 0.39112975147272949 -0.2126607222720846 0 0.397631623829106 -0.20634023108626229 0 0.40434357831770951 -0.21487406561090469 0 0.39424069285124719 -0.22310079746779379 0 0.39112975147272949 -0.2126607222720846 0 0.40434357831770951 -0.21487406561090469 0 0.40426546228868082 -0.20108352786525729 0 0.397631623829106 -0.20634023108626229 0 0.40434357831770951 -0.21487406561090469 0 0.40434357831770951 -0.21487406561090469 0 0.41713092845542321 -0.20900944133272009 0 0.41612672436959858 -0.22382622337581301 0 0.40426546228868082 -0.20108352786525729 0 0.40434357831770951 -0.21487406561090469 0 0.41713092845542321 -0.20900944133272009 0 0.41713092845542321 -0.20900944133272009 0 0.42330136258736267 -0.2174116668913772 0 0.41612672436959858 -0.22382622337581301 0 0.40475141021500721 -0.1910589369573561 0 0.41487892771890261 -0.19826025474908979 0 0.4146572714410397 -0.186958864794112 0 0.40426546228868082 -0.20108352786525729 0 0.41713092845542321 -0.20900944133272009 0 0.41487892771890261 -0.19826025474908979 0 0.40426546228868082 -0.20108352786525729 0 0.40475141021500721 -0.1910589369573561 0 0.41487892771890261 -0.19826025474908979 0 0.41713092845542321 -0.20900944133272009 0 0.41487892771890261 -0.19826025474908979 0 0.42701217502226602 -0.19751647228806199 0 0.41487892771890261 -0.19826025474908979 0 0.42053294087941678 -0.1923617771039739 0 0.42701217502226602 -0.19751647228806199 0 0.42053294087941678 -0.1923617771039739 0 0.4146572714410397 -0.186958864794112 0 0.42558338933545942 -0.1867115165846317 0 0.41487892771890261 -0.19826025474908979 0 0.42053294087941678 -0.1923617771039739 0 0.4146572714410397 -0.186958864794112 0 0.42701217502226602 -0.19751647228806199 0 0.43844209377108118 -0.18689286854296691 0 0.44355474576021348 -0.2050869029196882 0 0.42053294087941678 -0.1923617771039739 0 0.42701217502226602 -0.19751647228806199 0 0.42558338933545942 -0.1867115165846317 0 0.42701217502226602 -0.19751647228806199 0 0.42558338933545942 -0.1867115165846317 0 0.43844209377108118 -0.18689286854296691 0 0.42701217502226602 -0.19751647228806199 0 0.43006687167525981 -0.21185300334864521 0 0.44355474576021348 -0.2050869029196882 0 0.41713092845542321 -0.20900944133272009 0 0.42330136258736267 -0.2174116668913772 0 0.43006687167525981 -0.21185300334864521 0 0.42330136258736267 -0.2174116668913772 0 0.43006687167525981 -0.21185300334864521 0 0.42988092584916948 -0.2249579995083304 0 0.41713092845542321 -0.20900944133272009 0 0.42701217502226602 -0.19751647228806199 0 0.43006687167525981 -0.21185300334864521 0 0.43006687167525981 -0.21185300334864521 0 0.42988092584916948 -0.2249579995083304 0 0.44009267276725389 -0.2176624614444449 0 0.42330136258736267 -0.2174116668913772 0 0.42988092584916948 -0.2249579995083304 0 0.41612672436959858 -0.22382622337581301 0 0.42988092584916948 -0.2249579995083304 0 0.43458399188612801 -0.2397076170126072 0 0.42159465327244361 -0.23640953485310751 0 0.42988092584916948 -0.2249579995083304 0 0.42159465327244361 -0.23640953485310751 0 0.41612672436959858 -0.22382622337581301 0 0.42988092584916948 -0.2249579995083304 0 0.43458399188612801 -0.2397076170126072 0 0.44416109061426973 -0.22983272991065171 0 0.43458399188612801 -0.2397076170126072 0 0.42656562700980838 -0.24831468624349931 0 0.4372088962240912 -0.25169219704383999 0 0.43458399188612801 -0.2397076170126072 0 0.42656562700980838 -0.24831468624349931 0 0.42159465327244361 -0.23640953485310751 0 0.42656562700980838 -0.24831468624349931 0 0.42159465327244361 -0.23640953485310751 0 0.41087794879613182 -0.2494957955088617 0 0.42159465327244361 -0.23640953485310751 0 0.41087794879613182 -0.2494957955088617 0 0.40741230325918792 -0.23450562481703699 0 0.4055308246994358 -0.22407667781788709 0 0.40741230325918792 -0.23450562481703699 0 0.41612672436959858 -0.22382622337581301 0 0.4055308246994358 -0.22407667781788709 0 0.40434357831770951 -0.21487406561090469 0 0.41612672436959858 -0.22382622337581301 0 0.42159465327244361 -0.23640953485310751 0 0.40741230325918792 -0.23450562481703699 0 0.41612672436959858 -0.22382622337581301 0 0.39823574772599779 -0.11763079726210079 0 0.40257569972698831 -0.13396225485532559 0 0.38918813321375051 -0.12739880168557821 0 0.40257569972698831 -0.13396225485532559 0 0.38918813321375051 -0.12739880168557821 0 0.39017348084279901 -0.13955387731924049 0 0.38918813321375051 -0.12739880168557821 0 0.37808333446084269 -0.1309391893982525 0 0.39017348084279901 -0.13955387731924049 0 0.37720890243704291 -0.12310924361699779 0 0.36253108037134668 -0.1248744885805331 0 0.38918813321375051 -0.12739880168557821 0 0.36253108037134668 -0.1248744885805331 0 0.38918813321375051 -0.12739880168557821 0 0.37808333446084269 -0.1309391893982525 0 0.36253108037134668 -0.1248744885805331 0 0.38918813321375051 -0.12739880168557821 0 0.37808333446084269 -0.1309391893982525 0 0.39017348084279901 -0.13955387731924049 0 0.3787995421462832 -0.1425544525875144 0 0.36858459771950869 -0.15733985743645959 0 0.3787995421462832 -0.1425544525875144 0 0.38535727780346091 -0.1527557998392445 0 0.39017348084279901 -0.13955387731924049 0 0.3787995421462832 -0.1425544525875144 0 0.38535727780346091 -0.1527557998392445 0 0.40257569972698831 -0.13396225485532559 0 0.39822107621443897 -0.1501202070538992 0 0.41732028123257531 -0.14286435439753159 0 0.40257569972698831 -0.13396225485532559 0 0.39017348084279901 -0.13955387731924049 0 0.39822107621443897 -0.1501202070538992 0 0.39017348084279901 -0.13955387731924049 0 0.38535727780346091 -0.1527557998392445 0 0.39822107621443897 -0.1501202070538992 0 0.39822107621443897 -0.1501202070538992 0 0.39107178753907162 -0.16851380255406381 0 0.40713652226246821 -0.16744863749245631 0 0.39107178753907162 -0.16851380255406381 0 0.40713652226246821 -0.16744863749245631 0 0.38535727780346091 -0.1527557998392445 0 0.39822107621443897 -0.1501202070538992 0 0.39107178753907162 -0.16851380255406381 0 0.39107178753907162 -0.16851380255406381 0 0.40460499843718001 -0.17902112385493851 0 0.40713652226246821 -0.16744863749245631 0 0.36858459771950869 -0.15733985743645959 0 0.38535727780346091 -0.1527557998392445 0 0.39107178753907162 -0.16851380255406381 0 0.36858459771950869 -0.15733985743645959 0 0.39107178753907162 -0.16851380255406381 0 0.3834788620725188 -0.17954848884060079 0 0.39107178753907162 -0.16851380255406381 0 0.3834788620725188 -0.17954848884060079 0 0.39510197637232292 -0.1839605883432579 0 0.39078770323730427 -0.19674260859680251 0 0.3834788620725188 -0.17954848884060079 0 0.39510197637232292 -0.1839605883432579 0 0.37064833187319962 -0.1852102762359614 0 0.39078770323730427 -0.19674260859680251 0 0.3834788620725188 -0.17954848884060079 0 0.39107178753907162 -0.16851380255406381 0 0.39510197637232292 -0.1839605883432579 0 0.40460499843718001 -0.17902112385493851 0 0.40475141021500721 -0.1910589369573561 0 0.39510197637232292 -0.1839605883432579 0 0.40460499843718001 -0.17902112385493851 0 0.40475141021500721 -0.1910589369573561 0 0.40460499843718001 -0.17902112385493851 0 0.4146572714410397 -0.186958864794112 0 0.40460499843718001 -0.17902112385493851 0 0.41491102279317088 -0.17618591298838529 0 0.4146572714410397 -0.186958864794112 0 0.40460499843718001 -0.17902112385493851 0 0.41491102279317088 -0.17618591298838529 0 0.40713652226246821 -0.16744863749245631 0 0.41491102279317088 -0.17618591298838529 0 0.42527009306055918 -0.1746571334479238 0 0.4232012569858648 -0.16638347243084889 0 0.41491102279317088 -0.17618591298838529 0 0.42095079563492938 -0.18072636251124541 0 0.42527009306055918 -0.1746571334479238 0 0.41491102279317088 -0.17618591298838529 0 0.42095079563492938 -0.18072636251124541 0 0.4146572714410397 -0.186958864794112 0 0.42095079563492938 -0.18072636251124541 0 0.4146572714410397 -0.186958864794112 0 0.42558338933545942 -0.1867115165846317 0 0.43180268423531071 -0.1802632517690351 0 0.42527009306055918 -0.1746571334479238 0 0.44880083799057491 -0.164686103644653 0 0.42095079563492938 -0.18072636251124541 0 0.42558338933545942 -0.1867115165846317 0 0.43180268423531071 -0.1802632517690351 0 0.42558338933545942 -0.1867115165846317 0 0.43180268423531071 -0.1802632517690351 0 0.43844209377108118 -0.18689286854296691 0 0.42095079563492938 -0.18072636251124541 0 0.43180268423531071 -0.1802632517690351 0 0.42527009306055918 -0.1746571334479238 0 0.42527009306055918 -0.1746571334479238 0 0.4232012569858648 -0.16638347243084889 0 0.44880083799057491 -0.164686103644653 0 0.4232012569858648 -0.16638347243084889 0 0.43334283997313311 -0.15135273030925811 0 0.44880083799057491 -0.164686103644653 0 0.4232012569858648 -0.16638347243084889 0 0.44880083799057491 -0.164686103644653 0 0.42527009306055918 -0.1746571334479238 0 0.4232012569858648 -0.16638347243084889 0 0.4232012569858648 -0.16638347243084889 0 0.40713652226246821 -0.16744863749245631 0 0.41732028123257531 -0.14286435439753159 0 0.41491102279317088 -0.17618591298838529 0 0.4232012569858648 -0.16638347243084889 0 0.40713652226246821 -0.16744863749245631 0 0.4232012569858648 -0.16638347243084889 0 0.40713652226246821 -0.16744863749245631 0 0.4232012569858648 -0.16638347243084889 0 0.41732028123257531 -0.14286435439753159 0 0.39822107621443897 -0.1501202070538992 0 0.40713652226246821 -0.16744863749245631 0 0.41732028123257531 -0.14286435439753159 0 0.41732028123257531 -0.14286435439753159 0 0.43334283997313311 -0.15135273030925811 0 0.43763345530417341 -0.13584027725706749 0 0.4232012569858648 -0.16638347243084889 0 0.41732028123257531 -0.14286435439753159 0 0.43334283997313311 -0.15135273030925811 0 0.42916935431308728 -0.1205456085246996 0 0.41732028123257531 -0.14286435439753159 0 0.43763345530417341 -0.13584027725706749 0 0.42916935431308728 -0.1205456085246996 0 0.4435038969132965 -0.12540022695152131 0 0.43763345530417341 -0.13584027725706749 0 0.41143930547928681 -0.11934523636421419 0 0.42916935431308728 -0.1205456085246996 0 0.41732028123257531 -0.14286435439753159 0 0.41143930547928681 -0.11934523636421419 0 0.40257569972698831 -0.13396225485532559 0 0.41732028123257531 -0.14286435439753159 0 0.41143930547928681 -0.11934523636421419 0 0.41732028123257531 -0.14286435439753159 0 0.46257396642688631 -0.12529077885077469 0 0.46381730130484328 -0.1363472541609663 0 0.4585659370706795 -0.1308283620105129 0 0.46381730130484328 -0.1363472541609663 0 0.4585659370706795 -0.1308283620105129 0 0.45274550479158487 -0.1345999168850856 0 0.46381730130484328 -0.1363472541609663 0 0.45274550479158487 -0.1345999168850856 0 0.46138481906560302 -0.14686228775601681 0 0.46257396642688631 -0.12529077885077469 0 0.4585659370706795 -0.1308283620105129 0 0.45239247298790419 -0.125419693033265 0 0.4585659370706795 -0.1308283620105129 0 0.45239247298790419 -0.125419693033265 0 0.45274550479158487 -0.1345999168850856 0 0.45239247298790419 -0.125419693033265 0 0.4435038969132965 -0.12540022695152131 0 0.45274550479158487 -0.1345999168850856 0 0.4435038969132965 -0.12540022695152131 0 0.43763345530417341 -0.13584027725706749 0 0.45274550479158487 -0.1345999168850856 0 0.43763345530417341 -0.13584027725706749 0 0.45274550479158487 -0.1345999168850856 0 0.44678149142501389 -0.1466682631704162 0 0.43334283997313311 -0.15135273030925811 0 0.44678149142501389 -0.1466682631704162 0 0.44880083799057491 -0.164686103644653 0 0.44678149142501389 -0.1466682631704162 0 0.46138481906560302 -0.14686228775601681 0 0.44880083799057491 -0.164686103644653 0 0.43334283997313311 -0.15135273030925811 0 0.43763345530417341 -0.13584027725706749 0 0.44678149142501389 -0.1466682631704162 0 0.45274550479158487 -0.1345999168850856 0 0.44678149142501389 -0.1466682631704162 0 0.46138481906560302 -0.14686228775601681 0 0.46138481906560302 -0.14686228775601681 0 0.44880083799057491 -0.164686103644653 0 0.47440041899528501 -0.16298873485845719 0 0.44880083799057491 -0.164686103644653 0 0.46834799031954211 -0.17915452781490099 0 0.47440041899528501 -0.16298873485845719 0 0.44880083799057491 -0.164686103644653 0 0.47440041899528501 -0.16298873485845719 0 0.43180268423531071 -0.1802632517690351 0 0.44880083799057491 -0.164686103644653 0 0.43844209377108118 -0.18689286854296691 0 0.44880083799057491 -0.164686103644653 0 0.43844209377108118 -0.18689286854296691 0 0.45508032593701309 -0.1914137801830845 0 0.44880083799057491 -0.164686103644653 0 0.46834799031954211 -0.17915452781490099 0 0.45508032593701309 -0.1914137801830845 0 0.46834799031954211 -0.17915452781490099 0 0.48419704391512092 -0.17843144908975531 0 0.47440041899528501 -0.16298873485845719 0 0.46834799031954211 -0.17915452781490099 0 0.48419704391512092 -0.17843144908975531 0 0.47823681026078202 -0.19812675643970101 0 0.48419704391512092 -0.17843144908975531 0 0.49999999999999523 -0.16129136607226169 0 0.5 -0.1905958602634561 0 0.49999999999999523 -0.16129136607226169 0 0.47440041899528501 -0.16298873485845719 0 0.50000000000000067 -0.1547763741112759 0 0.48419704391512092 -0.17843144908975531 0 0.49999999999999523 -0.16129136607226169 0 0.47440041899528501 -0.16298873485845719 0 0.49999999999999523 -0.16129136607226169 0 0.47440041899528501 -0.16298873485845719 0 0.46138481906560302 -0.14686228775601681 0 0.47440041899528501 -0.16298873485845719 0 0.48128698321344371 -0.14003357648102521 0 0.46381730130484328 -0.1363472541609663 0 0.46138481906560302 -0.14686228775601681 0 0.48128698321344371 -0.14003357648102521 0 0.50000000000000067 -0.1547763741112759 0 0.48128698321344371 -0.14003357648102521 0 0.50000000000000067 -0.1547763741112759 0 0.5 -0.13349841451636779 0 0.48128698321344371 -0.14003357648102521 0 0.47440041899528501 -0.16298873485845719 0 0.50000000000000067 -0.1547763741112759 0 0.48128698321344371 -0.14003357648102521 0 0.48087269318342413 -0.1216818802472065 0 0.5 -0.13349841451636779 0 0.48128698321344371 -0.14003357648102521 0 0.46257396642688631 -0.12529077885077469 0 0.48128698321344371 -0.14003357648102521 0 0.46257396642688631 -0.12529077885077469 0 0.46381730130484328 -0.1363472541609663 0 0.48128698321344371 -0.14003357648102521 0 0.47129126618897188 -0.1223351355815797 0 0.48087269318342413 -0.1216818802472065 0 0.48128698321344371 -0.14003357648102521 0 0.47129126618897188 -0.1223351355815797 0 0.46257396642688631 -0.12529077885077469 0 0.48128698321344371 -0.14003357648102521 0 0.46029750420545162 -0.23134667767863379 0 0.45079963313025367 -0.219495204315066 0 0.46126535540865482 -0.21094244298034759 0 0.46029750420545162 -0.23134667767863379 0 0.46126535540865482 -0.21094244298034759 0 0.47937109712497578 -0.22608105856418539 0 0.46029750420545162 -0.23134667767863379 0 0.44856132313442931 -0.24393079079591279 0 0.47387431588802909 -0.25499376211151131 0 0.46029750420545162 -0.23134667767863379 0 0.44856132313442931 -0.24393079079591279 0 0.44416109061426973 -0.22983272991065171 0 0.43458399188612801 -0.2397076170126072 0 0.44856132313442931 -0.24393079079591279 0 0.4372088962240912 -0.25169219704383999 0 0.43458399188612801 -0.2397076170126072 0 0.44856132313442931 -0.24393079079591279 0 0.44416109061426973 -0.22983272991065171 0 0.46029750420545162 -0.23134667767863379 0 0.44416109061426973 -0.22983272991065171 0 0.45079963313025367 -0.219495204315066 0 0.44416109061426973 -0.22983272991065171 0 0.45079963313025367 -0.219495204315066 0 0.44009267276725389 -0.2176624614444449 0 0.42988092584916948 -0.2249579995083304 0 0.44416109061426973 -0.22983272991065171 0 0.44009267276725389 -0.2176624614444449 0 0.45079963313025367 -0.219495204315066 0 0.44355474576021348 -0.2050869029196882 0 0.46126535540865482 -0.21094244298034759 0 0.43006687167525981 -0.21185300334864521 0 0.44009267276725389 -0.2176624614444449 0 0.44355474576021348 -0.2050869029196882 0 0.45079963313025367 -0.219495204315066 0 0.44009267276725389 -0.2176624614444449 0 0.44355474576021348 -0.2050869029196882 0 0.43844209377108118 -0.18689286854296691 0 0.44355474576021348 -0.2050869029196882 0 0.45508032593701309 -0.1914137801830845 0 0.46834799031954211 -0.17915452781490099 0 0.45508032593701309 -0.1914137801830845 0 0.47823681026078202 -0.19812675643970101 0 0.44355474576021348 -0.2050869029196882 0 0.45508032593701309 -0.1914137801830845 0 0.46126535540865482 -0.21094244298034759 0 0.45508032593701309 -0.1914137801830845 0 0.46126535540865482 -0.21094244298034759 0 0.47823681026078202 -0.19812675643970101 0 0.46126535540865482 -0.21094244298034759 0 0.47823681026078202 -0.19812675643970101 0 0.47937109712497578 -0.22608105856418539 0 0.48419704391512092 -0.17843144908975531 0 0.47823681026078202 -0.19812675643970101 0 0.5 -0.1905958602634561 0 0.47823681026078202 -0.19812675643970101 0 0.5 -0.1905958602634561 0 0.5 -0.21990035445465039 0 0.47823681026078202 -0.19812675643970101 0 0.5 -0.21990035445465039 0 0.47937109712497578 -0.22608105856418539 0 0.5 -0.21990035445465039 0 0.47937109712497578 -0.22608105856418539 0 0.50000000000000444 -0.24920484864584491 0 0.46029750420545162 -0.23134667767863379 0 0.47937109712497578 -0.22608105856418539 0 0.47387431588802909 -0.25499376211151131 0 0.47937109712497578 -0.22608105856418539 0 0.50000000000000444 -0.24920484864584491 0 0.47387431588802909 -0.25499376211151131 0 0.50000000000000444 -0.24920484864584491 0 0.4915669900217115 -0.25615479242606781 0 0.5 -0.27170772691138367 0 0.50000000000000444 -0.24920484864584491 0 0.4915669900217115 -0.25615479242606781 0 0.47387431588802909 -0.25499376211151131 0 0.50000000000000444 -0.24920484864584491 0 0.47387431588802909 -0.25499376211151131 0 0.4915669900217115 -0.25615479242606781 0 0.48280749151585822 -0.27129304150170008 0 0.47954864786353962 -0.26301133191085868 0 0.4915669900217115 -0.25615479242606781 0 0.5 -0.27170772691138367 0 0.48280749151585822 -0.27129304150170008 0 0.5 -0.27170772691138367 0 0.48280749151585822 -0.27129304150170008 0 0.48951500520952212 -0.28458010338455908 0 0.48280749151585822 -0.27129304150170008 0 0.47474596181800061 -0.28621450290334632 0 0.48951500520952212 -0.28458010338455908 0 0.48280749151585822 -0.27129304150170008 0 0.47416229901770612 -0.26612875971404459 0 0.47954864786353962 -0.26301133191085868 0 0.48280749151585822 -0.27129304150170008 0 0.47416229901770612 -0.26612875971404459 0 0.47052118473631321 -0.27447720361836658 0 0.47416229901770612 -0.26612875971404459 0 0.47052118473631321 -0.27447720361836658 0 0.46319689217890331 -0.26835660325056299 0 0.48280749151585822 -0.27129304150170008 0 0.47052118473631321 -0.27447720361836658 0 0.47474596181800061 -0.28621450290334632 0 0.4915669900217115 -0.25615479242606781 0 0.46965781089888248 -0.25846873400162218 0 0.4915669900217115 -0.25615479242606781 0 0.47387431588802909 -0.25499376211151131 0 0.46965781089888248 -0.25846873400162218 0 0.4915669900217115 -0.25615479242606781 0 0.47954864786353962 -0.26301133191085868 0 0.46965781089888248 -0.25846873400162218 0 0.47416229901770612 -0.26612875971404459 0 0.47954864786353962 -0.26301133191085868 0 0.46965781089888248 -0.25846873400162218 0 0.47416229901770612 -0.26612875971404459 0 0.46965781089888248 -0.25846873400162218 0 0.46319689217890331 -0.26835660325056299 0 0.46965781089888248 -0.25846873400162218 0 0.46319689217890331 -0.26835660325056299 0 0.4477486317760534 -0.26078267557717671 0 0.44856132313442931 -0.24393079079591279 0 0.47387431588802909 -0.25499376211151131 0 0.4477486317760534 -0.26078267557717671 0 0.47387431588802909 -0.25499376211151131 0 0.4477486317760534 -0.26078267557717671 0 0.46965781089888248 -0.25846873400162218 0 0.4477486317760534 -0.26078267557717671 0 0.47387431588802909 -0.25499376211151131 0 0.46965781089888248 -0.25846873400162218 0 0.4477486317760534 -0.26078267557717671 0 0.47052118473631321 -0.27447720361836658 0 0.45389453446556111 -0.28192564334160541 0 0.47474596181800061 -0.28621450290334632 0 0.47052118473631321 -0.27447720361836658 0 0.46319689217890331 -0.26835660325056299 0 0.45389453446556111 -0.28192564334160541 0 0.46319689217890331 -0.26835660325056299 0 0.4477486317760534 -0.26078267557717671 0 0.45389453446556111 -0.28192564334160541 0 0.45389453446556111 -0.28192564334160541 0 0.430823863629894 -0.26453285558412298 0 0.45389453446556111 -0.28192564334160541 0 0.430823863629894 -0.26453285558412298 0 0.43570592202634773 -0.28205449164250063 0 0.4477486317760534 -0.26078267557717671 0 0.45389453446556111 -0.28192564334160541 0 0.430823863629894 -0.26453285558412298 0 0.4477486317760534 -0.26078267557717671 0 0.42854038242645709 -0.26281135800815408 0 0.44856132313442931 -0.24393079079591279 0 0.4477486317760534 -0.26078267557717671 0 0.4372088962240912 -0.25169219704383999 0 0.4477486317760534 -0.26078267557717671 0 0.42854038242645709 -0.26281135800815408 0 0.4372088962240912 -0.25169219704383999 0 0.4477486317760534 -0.26078267557717671 0 0.430823863629894 -0.26453285558412298 0 0.44815314542162782 -0.30273998798419938 0 0.44271266904340639 -0.31513600928105973 0 0.43092107089682352 -0.30573631325696571 0 0.44815314542162782 -0.30273998798419938 0 0.43874415768382158 -0.29310671547163403 0 0.43092107089682352 -0.30573631325696571 0 0.43874415768382158 -0.29310671547163403 0 0.45389453446556111 -0.28192564334160541 0 0.43570592202634773 -0.28205449164250063 0 0.44815314542162782 -0.30273998798419938 0 0.43874415768382158 -0.29310671547163403 0 0.45389453446556111 -0.28192564334160541 0 0.45389453446556111 -0.28192564334160541 0 0.46668010371271101 -0.29937682325086112 0 0.47474596181800061 -0.28621450290334632 0 0.44815314542162782 -0.30273998798419938 0 0.45389453446556111 -0.28192564334160541 0 0.46668010371271101 -0.29937682325086112 0 0.46668010371271101 -0.29937682325086112 0 0.45907432653114449 -0.32014896664993769 0 0.44815314542162782 -0.30273998798419938 0 0.46668010371271101 -0.29937682325086112 0 0.45907432653114449 -0.32014896664993769 0 0.46668010371271101 -0.29937682325086112 0 0.48375110351916628 -0.30725513966339157 0 0.45907432653114449 -0.32014896664993769 0 0.46668010371271101 -0.29937682325086112 0 0.48375110351916628 -0.30725513966339157 0 0.47474596181800061 -0.28621450290334632 0 0.48375110351916628 -0.30725513966339157 0 0.47474596181800061 -0.28621450290334632 0 0.48951500520952212 -0.28458010338455908 0 0.48375110351916628 -0.30725513966339157 0 0.5 -0.29421060517692271 0 0.48951500520952212 -0.28458010338455908 0 0.5 -0.27170772691138367 0 0.5 -0.29421060517692271 0 0.48951500520952212 -0.28458010338455908 0 0.48375110351916628 -0.30725513966339157 0 0.5 -0.29421060517692271 0 0.49999999999999972 -0.31671348344246159 0 0.48375110351916628 -0.30725513966339157 0 0.49999999999999972 -0.31671348344246159 0 0.48658745812515303 -0.32591538654610069 0 0.49999999999999972 -0.31671348344246159 0 0.49107839048707969 -0.33844651150006611 0 0.49999999999999972 -0.31671348344246159 0 0.48658745812515303 -0.32591538654610069 0 0.49107839048707969 -0.33844651150006611 0 0.49999999999999972 -0.31671348344246159 0 0.5 -0.34354646621870782 0 0.49107839048707969 -0.33844651150006611 0 0.48658745812515303 -0.32591538654610069 0 0.49107839048707969 -0.33844651150006611 0 0.48013111160135669 -0.33592777501669763 0 0.48658745812515303 -0.32591538654610069 0 0.48013111160135669 -0.33592777501669763 0 0.47588582758327369 -0.32632043512378739 0 0.48013111160135669 -0.33592777501669763 0 0.46883970942210401 -0.33989811375075968 0 0.47588582758327369 -0.32632043512378739 0 0.48375110351916628 -0.30725513966339157 0 0.48658745812515303 -0.32591538654610069 0 0.47588582758327369 -0.32632043512378739 0 0.48375110351916628 -0.30725513966339157 0 0.47588582758327369 -0.32632043512378739 0 0.45907432653114449 -0.32014896664993769 0 0.5 -0.37037944899495368 0 0.48466784746851571 -0.3739080713738358 0 0.48215678097416009 -0.36017953955767068 0 0.5 -0.34354646621870782 0 0.49107839048707969 -0.33844651150006611 0 0.48215678097416009 -0.36017953955767068 0 0.49107839048707969 -0.33844651150006611 0 0.48013111160135669 -0.33592777501669763 0 0.48215678097416009 -0.36017953955767068 0 0.5 -0.34354646621870782 0 0.5 -0.37037944899495368 0 0.48215678097416009 -0.36017953955767068 0 0.49107839048707969 -0.33844651150006611 0 0.48215678097416009 -0.36017953955767068 0 0.48013111160135669 -0.33592777501669763 0 0.46883970942210401 -0.33989811375075968 0 0.48215678097416009 -0.36017953955767068 0 0.46883970942210401 -0.33989811375075968 0 0.48215678097416009 -0.36017953955767068 0 0.46166172922915721 -0.35810144835948332 0 0.48215678097416009 -0.36017953955767068 0 0.47323517146124039 -0.38191256761527542 0 0.48215678097416009 -0.36017953955767068 0 0.4671179630262795 -0.37324494563770522 0 0.47323517146124039 -0.38191256761527542 0 0.48466784746851571 -0.3739080713738358 0 0.48215678097416009 -0.36017953955767068 0 0.47323517146124039 -0.38191256761527542 0 0.48215678097416009 -0.36017953955767068 0 0.4671179630262795 -0.37324494563770522 0 0.46166172922915721 -0.35810144835948332 0 0.45652460043480969 -0.37267172771365881 0 0.46166172922915721 -0.35810144835948332 0 0.44386277216801179 -0.36169325344809122 0 0.45652460043480969 -0.37267172771365881 0 0.4671179630262795 -0.37324494563770522 0 0.46166172922915721 -0.35810144835948332 0 0.46883970942210401 -0.33989811375075968 0 0.46166172922915721 -0.35810144835948332 0 0.45146854934957792 -0.34092111004901438 0 0.43963091224731599 -0.34751792105314822 0 0.44386277216801179 -0.36169325344809122 0 0.45146854934957792 -0.34092111004901438 0 0.44386277216801179 -0.36169325344809122 0 0.45146854934957792 -0.34092111004901438 0 0.46166172922915721 -0.35810144835948332 0 0.44386277216801179 -0.36169325344809122 0 0.45146854934957792 -0.34092111004901438 0 0.44386277216801179 -0.36169325344809122 0 0.43376943787959182 -0.36708850497004442 0 0.43808065797110041 -0.37748478958974491 0 0.45652460043480969 -0.37267172771365881 0 0.44386277216801179 -0.36169325344809122 0 0.44783900322824399 -0.38008781189722518 0 0.44386277216801179 -0.36169325344809122 0 0.43808065797110041 -0.37748478958974491 0 0.44386277216801179 -0.36169325344809122 0 0.43808065797110041 -0.37748478958974491 0 0.44783900322824399 -0.38008781189722518 0 0.45652460043480969 -0.37267172771365881 0 0.44386277216801179 -0.36169325344809122 0 0.46883970942210401 -0.33989811375075968 0 0.45907432653114449 -0.32014896664993769 0 0.45146854934957792 -0.34092111004901438 0 0.45907432653114449 -0.32014896664993769 0 0.45146854934957792 -0.34092111004901438 0 0.46883970942210401 -0.33989811375075968 0 0.47588582758327369 -0.32632043512378739 0 0.45907432653114449 -0.32014896664993769 0 0.43963091224731599 -0.34751792105314822 0 0.45146854934957792 -0.34092111004901438 0 0.43565299676263758 -0.3352386806192425 0 0.45146854934957792 -0.34092111004901438 0 0.44493724809618768 -0.32603283426431229 0 0.43565299676263758 -0.3352386806192425 0 0.45907432653114449 -0.32014896664993769 0 0.45146854934957792 -0.34092111004901438 0 0.44493724809618768 -0.32603283426431229 0 0.45907432653114449 -0.32014896664993769 0 0.44493724809618768 -0.32603283426431229 0 0.44271266904340639 -0.31513600928105973 0 0.44493724809618768 -0.32603283426431229 0 0.44271266904340639 -0.31513600928105973 0 0.43047755427124879 -0.32102194424988317 0 0.44815314542162782 -0.30273998798419938 0 0.45907432653114449 -0.32014896664993769 0 0.44271266904340639 -0.31513600928105973 0 0.44271266904340639 -0.31513600928105973 0 0.43047755427124879 -0.32102194424988317 0 0.43092107089682352 -0.30573631325696571 0 0.43047755427124879 -0.32102194424988317 0 0.41919911313656122 -0.31385112706466711 0 0.41739686236043672 -0.32199345155319897 0 0.43047755427124879 -0.32102194424988317 0 0.41919911313656122 -0.31385112706466711 0 0.43092107089682352 -0.30573631325696571 0 0.43047755427124879 -0.32102194424988317 0 0.42053718701310799 -0.32957674384091618 0 0.41739686236043672 -0.32199345155319897 0 0.44493724809618768 -0.32603283426431229 0 0.43047755427124879 -0.32102194424988317 0 0.43565299676263758 -0.3352386806192425 0 0.43565299676263758 -0.3352386806192425 0 0.42053718701310799 -0.32957674384091618 0 0.4250793590774925 -0.34540704162396091 0 0.43963091224731599 -0.34751792105314822 0 0.43565299676263758 -0.3352386806192425 0 0.4250793590774925 -0.34540704162396091 0 0.43047755427124879 -0.32102194424988317 0 0.43565299676263758 -0.3352386806192425 0 0.42053718701310799 -0.32957674384091618 0 0.4062959459869725 -0.32912082979983148 0 0.4250793590774925 -0.34540704162396091 0 0.41055923831377589 -0.34398547157316572 0 0.42053718701310799 -0.32957674384091618 0 0.4062959459869725 -0.32912082979983148 0 0.4250793590774925 -0.34540704162396091 0 0.4062959459869725 -0.32912082979983148 0 0.4250793590774925 -0.34540704162396091 0 0.42053718701310799 -0.32957674384091618 0 0.4062959459869725 -0.32912082979983148 0 0.40802480504278882 -0.32457497099322458 0 0.4062959459869725 -0.32912082979983148 0 0.40802480504278882 -0.32457497099322458 0 0.4062959459869725 -0.32912082979983148 0 0.40802480504278882 -0.32457497099322458 0 0.40572459905769331 -0.31910551143285631 0 0.40802480504278882 -0.32457497099322458 0 0.4119015194344513 -0.31818912214386269 0 0.41739686236043672 -0.32199345155319897 0 0.40802480504278882 -0.32457497099322458 0 0.4119015194344513 -0.31818912214386269 0 0.40572459905769331 -0.31910551143285631 0 0.4119015194344513 -0.31818912214386269 0 0.41919911313656122 -0.31385112706466711 0 0.40916221757477672 -0.31142054967536659 0 0.4119015194344513 -0.31818912214386269 0 0.40572459905769331 -0.31910551143285631 0 0.40916221757477672 -0.31142054967536659 0 0.4119015194344513 -0.31818912214386269 0 0.41919911313656122 -0.31385112706466711 0 0.41739686236043672 -0.32199345155319897 0 0.42053718701310799 -0.32957674384091618 0 0.40802480504278882 -0.32457497099322458 0 0.41739686236043672 -0.32199345155319897 0 0.44386277216801179 -0.36169325344809122 0 0.43376943787959182 -0.36708850497004442 0 0.42728564025893462 -0.35958684797927032 0 0.42489657602010461 -0.37065940299189432 0 0.43376943787959182 -0.36708850497004442 0 0.43808065797110041 -0.37748478958974491 0 0.42489657602010461 -0.37065940299189432 0 0.43376943787959182 -0.36708850497004442 0 0.42728564025893462 -0.35958684797927032 0 0.44386277216801179 -0.36169325344809122 0 0.4250793590774925 -0.34540704162396091 0 0.43963091224731599 -0.34751792105314822 0 0.44386277216801179 -0.36169325344809122 0 0.4250793590774925 -0.34540704162396091 0 0.44386277216801179 -0.36169325344809122 0 0.42728564025893462 -0.35958684797927032 0 0.4250793590774925 -0.34540704162396091 0 0.42728564025893462 -0.35958684797927032 0 0.4250793590774925 -0.34540704162396091 0 0.41069622259092692 -0.35617360609135817 0 0.4250793590774925 -0.34540704162396091 0 0.41055923831377589 -0.34398547157316572 0 0.41069622259092692 -0.35617360609135817 0 0.41055923831377589 -0.34398547157316572 0 0.41069622259092692 -0.35617360609135817 0 0.40016542559971202 -0.34524040877751239 0 0.42489657602010461 -0.37065940299189432 0 0.42728564025893462 -0.35958684797927032 0 0.41069622259092692 -0.35617360609135817 0 0.42489657602010461 -0.37065940299189432 0 0.41069622259092692 -0.35617360609135817 0 0.4070765621089808 -0.37107032214525337 0 0.42489657602010461 -0.37065940299189432 0 0.41069622259092692 -0.35617360609135817 0 0.39585190457779329 -0.37201308858561799 0 0.3940349052124521 -0.36135998775519362 0 0.38601585554704992 -0.38244526212700758 0 0.41069622259092692 -0.35617360609135817 0 0.4070765621089808 -0.37107032214525337 0 0.3940349052124521 -0.36135998775519362 0 0.4070765621089808 -0.37107032214525337 0 0.39585190457779329 -0.37201308858561799 0 0.3940349052124521 -0.36135998775519362 0 0.39585190457779329 -0.37201308858561799 0 0.3940349052124521 -0.36135998775519362 0 0.3940349052124521 -0.36135998775519362 0 0.40016542559971202 -0.34524040877751239 0 0.38974443050024338 -0.33620485529262373 0 0.3940349052124521 -0.36135998775519362 0 0.38974443050024338 -0.33620485529262373 0 0.3940349052124521 -0.36135998775519362 0 0.40016542559971202 -0.34524040877751239 0 0.41069622259092692 -0.35617360609135817 0 0.3940349052124521 -0.36135998775519362 0 0.40016542559971202 -0.34524040877751239 0 0.3940349052124521 -0.36135998775519362 0 0.38974443050024338 -0.33620485529262373 0 0.37368731816096312 -0.34897020548070451 0 0.3940349052124521 -0.36135998775519362 0 0.38601585554704992 -0.38244526212700758 0 0.3940349052124521 -0.36135998775519362 0 0.38601585554704992 -0.38244526212700758 0 0.3689120952668708 -0.37284951495870189 0 0.3940349052124521 -0.36135998775519362 0 0.3689120952668708 -0.37284951495870189 0 0.37368731816096312 -0.34897020548070451 0 0.4062959459869725 -0.32912082979983148 0 0.40572459905769331 -0.31910551143285631 0 0.39816778062817881 -0.31191488097197773 0 0.4062959459869725 -0.32912082979983148 0 0.38974443050024338 -0.33620485529262373 0 0.38545395578803499 -0.31104972283005378 0 0.4062959459869725 -0.32912082979983148 0 0.38545395578803499 -0.31104972283005378 0 0.4062959459869725 -0.32912082979983148 0 0.38545395578803499 -0.31104972283005378 0 0.39816778062817881 -0.31191488097197773 0 0.40572459905769331 -0.31910551143285631 0 0.39816778062817881 -0.31191488097197773 0 0.40916221757477672 -0.31142054967536659 0 0.4062959459869725 -0.32912082979983148 0 0.40016542559971202 -0.34524040877751239 0 0.38974443050024338 -0.33620485529262373 0 0.4062959459869725 -0.32912082979983148 0 0.40016542559971202 -0.34524040877751239 0 0.4062959459869725 -0.32912082979983148 0 0.41055923831377589 -0.34398547157316572 0 0.40016542559971202 -0.34524040877751239 0 0.38974443050024338 -0.33620485529262373 0 0.36945761595668469 -0.32738841673247931 0 0.37368731816096312 -0.34897020548070451 0 0.38974443050024338 -0.33620485529262373 0 0.38545395578803499 -0.31104972283005378 0 0.36945761595668469 -0.32738841673247931 0 0.38974443050024338 -0.33620485529262373 0 0.38545395578803499 -0.31104972283005378 0 0.38545395578803499 -0.31104972283005378 0 0.38245755150739558 -0.29348174920317632 0 0.37101427446782781 -0.29852975601036341 0 0.38545395578803499 -0.31104972283005378 0 0.38245755150739558 -0.29348174920317632 0 0.38545395578803499 -0.31104972283005378 0 0.37101427446782781 -0.29852975601036341 0 0.38545395578803499 -0.31104972283005378 0 0.39567659353887108 -0.29306988619604551 0 0.38245755150739558 -0.29348174920317632 0 0.39816778062817881 -0.31191488097197773 0 0.40563314249086863 -0.30155395497769039 0 0.39567659353887108 -0.29306988619604551 0 0.38545395578803499 -0.31104972283005378 0 0.39816778062817881 -0.31191488097197773 0 0.39567659353887108 -0.29306988619604551 0 0.39816778062817881 -0.31191488097197773 0 0.40563314249086863 -0.30155395497769039 0 0.40916221757477672 -0.31142054967536659 0 0.39567659353887108 -0.29306988619604551 0 0.40514250542832608 -0.27022331558021301 0 0.41160024963212011 -0.28933460066763711 0 0.40563314249086863 -0.30155395497769039 0 0.39567659353887108 -0.29306988619604551 0 0.41160024963212011 -0.28933460066763711 0 0.38245755150739558 -0.29348174920317632 0 0.37946114722675722 -0.27591377557629859 0 0.39567659353887108 -0.29306988619604551 0 0.38245755150739558 -0.29348174920317632 0 0.37946114722675722 -0.27591377557629859 0 0.38245755150739558 -0.29348174920317632 0 0.37795999762798671 -0.28395322059410122 0 0.37946114722675722 -0.27591377557629859 0 0.37519981906117678 -0.29055939022370142 0 0.38245755150739558 -0.29348174920317632 0 0.37101427446782781 -0.29852975601036341 0 0.37519981906117678 -0.29055939022370142 0 0.38245755150739558 -0.29348174920317632 0 0.37795999762798671 -0.28395322059410122 0 0.37795999762798671 -0.28395322059410122 0 0.37946114722675722 -0.27591377557629859 0 0.37739853904771847 -0.27637080706343392 0 0.37739853904771847 -0.27637080706343392 0 0.37683953433427181 -0.26882153263446662 0 0.37273728942595791 -0.27740364396778311 0 0.37795999762798671 -0.28395322059410122 0 0.37739853904771847 -0.27637080706343392 0 0.37273728942595791 -0.27740364396778311 0 0.37946114722675722 -0.27591377557629859 0 0.38774772661347989 -0.26664574742688191 0 0.3964002279028962 -0.26984905957103239 0 0.37946114722675722 -0.27591377557629859 0 0.3964002279028962 -0.26984905957103239 0 0.37795999762798671 -0.28395322059410122 0 0.37739853904771847 -0.27637080706343392 0 0.37739853904771847 -0.27637080706343392 0 0.37273728942595791 -0.27740364396778311 0 0.37946114722675722 -0.27591377557629859 0 0.37739853904771847 -0.27637080706343392 0 0.37683953433427181 -0.26882153263446662 0 0.37946114722675722 -0.27591377557629859 0 0.37739853904771847 -0.27637080706343392 0 0.37946114722675722 -0.27591377557629859 0 0.37843581040967561 -0.26746760801825881 0 0.38284686623937531 -0.26497045393317709 0 0.37946114722675722 -0.27591377557629859 0 0.37683953433427181 -0.26882153263446662 0 0.37843581040967561 -0.26746760801825881 0 0.37739853904771847 -0.27637080706343392 0 0.37683953433427181 -0.26882153263446662 0 0.37683953433427181 -0.26882153263446662 0 0.37843581040967561 -0.26746760801825881 0 0.37946114722675722 -0.27591377557629859 0 0.38774772661347989 -0.26664574742688191 0 0.38284686623937531 -0.26497045393317709 0 0.37477580018058132 -0.24095111383496479 0 0.37683953433427181 -0.26882153263446662 0 0.38107906364546162 -0.25934379353391329 0 0.37477580018058132 -0.24095111383496479 0 0.37683953433427181 -0.26882153263446662 0 0.37477580018058132 -0.24095111383496479 0 0.38107906364546162 -0.25934379353391329 0 0.38725375881062551 -0.25185160038302579 0 0.37843581040967561 -0.26746760801825881 0 0.38107906364546162 -0.25934379353391329 0 0.38284686623937531 -0.26497045393317709 0 0.37683953433427181 -0.26882153263446662 0 0.37843581040967561 -0.26746760801825881 0 0.38107906364546162 -0.25934379353391329 0 0.38107906364546162 -0.25934379353391329 0 0.38632261189823958 -0.26200045239958702 0 0.38284686623937531 -0.26497045393317709 0 0.38774772661347989 -0.26664574742688191 0 0.38632261189823958 -0.26200045239958702 0 0.38284686623937531 -0.26497045393317709 0 0.38774772661347989 -0.26664574742688191 0 0.38955528694719099 -0.2630172622662057 0 0.39295554709344072 -0.26445586107842978 0 0.38774772661347989 -0.26664574742688191 0 0.38632261189823958 -0.26200045239958702 0 0.38955528694719099 -0.2630172622662057 0 0.38632261189823958 -0.26200045239958702 0 0.38955528694719099 -0.2630172622662057 0 0.39119526218360401 -0.25896698815992442 0 0.38632261189823958 -0.26200045239958702 0 0.38725375881062551 -0.25185160038302579 0 0.39119526218360401 -0.25896698815992442 0 0.38107906364546162 -0.25934379353391329 0 0.38632261189823958 -0.26200045239958702 0 0.38725375881062551 -0.25185160038302579 0 0.40314688718896508 -0.2619981766022052 0 0.39707581272688741 -0.26613449373937459 0 0.41345304600685079 -0.26440480953867462 0 0.39707581272688741 -0.26613449373937459 0 0.41345304600685079 -0.26440480953867462 0 0.38725375881062551 -0.25185160038302579 0 0.39640803358832022 -0.25154779433757402 0 0.39119526218360401 -0.25896698815992442 0 0.39640803358832022 -0.25154779433757402 0 0.39702034872720737 -0.26014738253762237 0 0.39119526218360401 -0.25896698815992442 0 0.39702034872720737 -0.26014738253762237 0 0.39119526218360401 -0.25896698815992442 0 0.39295554709344072 -0.26445586107842978 0 0.38955528694719099 -0.2630172622662057 0 0.39119526218360401 -0.25896698815992442 0 0.39295554709344072 -0.26445586107842978 0 0.39702034872720737 -0.26014738253762237 0 0.39295554709344072 -0.26445586107842978 0 0.39707581272688741 -0.26613449373937459 0 0.39702034872720737 -0.26014738253762237 0 0.40314688718896508 -0.2619981766022052 0 0.39707581272688741 -0.26613449373937459 0 0.40314688718896508 -0.2619981766022052 0 0.40257909468765629 -0.25704117102420471 0 0.40998094690083942 -0.2590606397541646 0 0.39702034872720737 -0.26014738253762237 0 0.40314688718896508 -0.2619981766022052 0 0.40257909468765629 -0.25704117102420471 0 0.39640803358832022 -0.25154779433757402 0 0.39702034872720737 -0.26014738253762237 0 0.40257909468765629 -0.25704117102420471 0 0.41087794879613182 -0.2494957955088617 0 0.39640803358832022 -0.25154779433757402 0 0.40257909468765629 -0.25704117102420471 0 0.40514250542832608 -0.27022331558021301 0 0.3964002279028962 -0.26984905957103239 0 0.41345304600685079 -0.26440480953867462 0 0.37946114722675722 -0.27591377557629859 0 0.40514250542832608 -0.27022331558021301 0 0.3964002279028962 -0.26984905957103239 0 0.39707581272688741 -0.26613449373937459 0 0.3964002279028962 -0.26984905957103239 0 0.41345304600685079 -0.26440480953867462 0 0.37946114722675722 -0.27591377557629859 0 0.40514250542832608 -0.27022331558021301 0 0.3964002279028962 -0.26984905957103239 0 0.41345304600685079 -0.26440480953867462 0 0.39567659353887108 -0.29306988619604551 0 0.37946114722675722 -0.27591377557629859 0 0.40514250542832608 -0.27022331558021301 0 0.38774772661347989 -0.26664574742688191 0 0.39295554709344072 -0.26445586107842978 0 0.3964002279028962 -0.26984905957103239 0 0.39295554709344072 -0.26445586107842978 0 0.39707581272688741 -0.26613449373937459 0 0.3964002279028962 -0.26984905957103239 0 0.40514250542832608 -0.27022331558021301 0 0.41345304600685079 -0.26440480953867462 0 0.430823863629894 -0.26453285558412298 0 0.40514250542832608 -0.27022331558021301 0 0.430823863629894 -0.26453285558412298 0 0.40514250542832608 -0.27022331558021301 0 0.42166373126508722 -0.27984448092147479 0 0.41160024963212011 -0.28933460066763711 0 0.40514250542832608 -0.27022331558021301 0 0.42166373126508722 -0.27984448092147479 0 0.430823863629894 -0.26453285558412298 0 0.41087794879613182 -0.2494957955088617 0 0.41984775782459283 -0.2623632460968765 0 0.42854038242645709 -0.26281135800815408 0 0.41087794879613182 -0.2494957955088617 0 0.42854038242645709 -0.26281135800815408 0 0.41087794879613182 -0.2494957955088617 0 0.40257909468765629 -0.25704117102420471 0 0.40998094690083942 -0.2590606397541646 0 0.41087794879613182 -0.2494957955088617 0 0.40998094690083942 -0.2590606397541646 0 0.41984775782459283 -0.2623632460968765 0 0.40314688718896508 -0.2619981766022052 0 0.40998094690083942 -0.2590606397541646 0 0.41345304600685079 -0.26440480953867462 0 0.41345304600685079 -0.26440480953867462 0 0.41984775782459283 -0.2623632460968765 0 0.42854038242645709 -0.26281135800815408 0 0.40998094690083942 -0.2590606397541646 0 0.41345304600685079 -0.26440480953867462 0 0.41984775782459283 -0.2623632460968765 0 0.41345304600685079 -0.26440480953867462 0 0.42854038242645709 -0.26281135800815408 0 0.41345304600685079 -0.26440480953867462 0 0.41984775782459283 -0.2623632460968765 0 0.42656562700980838 -0.24831468624349931 0 0.41087794879613182 -0.2494957955088617 0 0.42854038242645709 -0.26281135800815408 0 0.4477486317760534 -0.26078267557717671 0 0.42854038242645709 -0.26281135800815408 0 0.430823863629894 -0.26453285558412298 0 0.41345304600685079 -0.26440480953867462 0 0.42854038242645709 -0.26281135800815408 0 0.430823863629894 -0.26453285558412298 0 0.42854038242645709 -0.26281135800815408 0 0.430823863629894 -0.26453285558412298 0 0.42656562700980838 -0.24831468624349931 0 0.42854038242645709 -0.26281135800815408 0 0.4372088962240912 -0.25169219704383999 0 0.42166373126508722 -0.27984448092147479 0 0.430823863629894 -0.26453285558412298 0 0.43570592202634773 -0.28205449164250063 0 0.42166373126508722 -0.27984448092147479 0 0.43570592202634773 -0.28205449164250063 0 0.42504611560874761 -0.29307714113289868 0 0.43874415768382158 -0.29310671547163403 0 0.43570592202634773 -0.28205449164250063 0 0.42504611560874761 -0.29307714113289868 0 0.43874415768382158 -0.29310671547163403 0 0.42504611560874761 -0.29307714113289868 0 0.43092107089682352 -0.30573631325696571 0 0.41919911313656122 -0.31385112706466711 0 0.43092107089682352 -0.30573631325696571 0 0.41692698488998292 -0.30249561446253759 0 0.42504611560874761 -0.29307714113289868 0 0.43092107089682352 -0.30573631325696571 0 0.41692698488998292 -0.30249561446253759 0 0.41919911313656122 -0.31385112706466711 0 0.41692698488998292 -0.30249561446253759 0 0.40916221757477672 -0.31142054967536659 0 0.40563314249086863 -0.30155395497769039 0 0.41692698488998292 -0.30249561446253759 0 0.40916221757477672 -0.31142054967536659 0 0.40563314249086863 -0.30155395497769039 0 0.41692698488998292 -0.30249561446253759 0 0.41160024963212011 -0.28933460066763711 0 0.42166373126508722 -0.27984448092147479 0 0.42504611560874761 -0.29307714113289868 0 0.41160024963212011 -0.28933460066763711 0 0.42504611560874761 -0.29307714113289868 0 0.41692698488998292 -0.30249561446253759 0 0.41160024963212011 -0.28933460066763711 0 0.5 -0.5 0 0.47532784176218862 -0.47257481327436679 0 0.43264288253940292 -0.48275234633568048 0 0.5 -0.5 0 0.41749257905485199 -0.50000000000000033 0 0.43264288253940292 -0.48275234633568048 0 0.47532784176218862 -0.47257481327436679 0 0.44779318602395363 -0.46550469267136052 0 0.43264288253940292 -0.48275234633568048 0 0.44779318602395363 -0.46550469267136052 0 0.43264288253940292 -0.48275234633568048 0 0.5 -0.5 0 0.47532784176218862 -0.47257481327436679 0 0.49999999999999828 -0.44642064777577001 0 0.47532784176218862 -0.47257481327436679 0 0.47918453573141367 -0.4495963838019249 0 0.46294348950850428 -0.44825703900704061 0 0.47532784176218862 -0.47257481327436679 0 0.49999999999999828 -0.44642064777577001 0 0.47918453573141367 -0.4495963838019249 0 0.49999999999999828 -0.44642064777577001 0 0.47846681165496419 -0.4311330351505217 0 0.49999999999999828 -0.44642064777577001 0 0.47918453573141367 -0.4495963838019249 0 0.47846681165496419 -0.4311330351505217 0 0.47918453573141367 -0.4495963838019249 0 0.46294348950850428 -0.44825703900704061 0 0.47846681165496419 -0.4311330351505217 0 0.46294348950850428 -0.44825703900704061 0 0.44442683605218691 -0.44583817528272968 0 0.45721208074107311 -0.43281318479414382 0 0.46294348950850428 -0.44825703900704061 0 0.44779318602395363 -0.46550469267136052 0 0.47532784176218862 -0.47257481327436679 0 0.46294348950850428 -0.44825703900704061 0 0.44779318602395363 -0.46550469267136052 0 0.44779318602395363 -0.46550469267136052 0 0.44442683605218691 -0.44583817528272968 0 0.43057418754349119 -0.46211781715143319 0 0.46294348950850428 -0.44825703900704061 0 0.44779318602395363 -0.46550469267136052 0 0.44442683605218691 -0.44583817528272968 0 0.44442683605218691 -0.44583817528272968 0 0.44324354583686831 -0.42153379012121539 0 0.45721208074107311 -0.43281318479414382 0 0.44442683605218691 -0.44583817528272968 0 0.44324354583686831 -0.42153379012121539 0 0.42653452723640378 -0.44279137365393179 0 0.44324354583686831 -0.42153379012121539 0 0.45693362330993059 -0.41584542252527262 0 0.45721208074107311 -0.43281318479414382 0 0.45693362330993059 -0.41584542252527262 0 0.4354004349648965 -0.40055780990002432 0 0.44324354583686831 -0.42153379012121539 0 0.45693362330993059 -0.41584542252527262 0 0.4354004349648965 -0.40055780990002432 0 0.45693362330993059 -0.41584542252527262 0 0.46461049463358839 -0.41117161714406408 0 0.47846681165496419 -0.4311330351505217 0 0.45693362330993059 -0.41584542252527262 0 0.46461049463358839 -0.41117161714406408 0 0.45329728287846061 -0.39963099679296588 0 0.46294348950850428 -0.44825703900704061 0 0.45721208074107311 -0.43281318479414382 0 0.47846681165496419 -0.4311330351505217 0 0.45693362330993059 -0.41584542252527262 0 0.45721208074107311 -0.43281318479414382 0 0.47846681165496419 -0.4311330351505217 0 0.45693362330993059 -0.41584542252527262 0 0.47846681165496419 -0.4311330351505217 0 0.49999999999999828 -0.44642064777577001 0 0.47846681165496419 -0.4311330351505217 0 0.5 -0.42181653977348488 0 0.5 -0.42181653977348488 0 0.48394518954555588 -0.41195106762427058 0 0.49999999999999789 -0.3972124317711998 0 0.47846681165496419 -0.4311330351505217 0 0.5 -0.42181653977348488 0 0.48394518954555588 -0.41195106762427058 0 0.46461049463358839 -0.41117161714406408 0 0.47846681165496419 -0.4311330351505217 0 0.48394518954555588 -0.41195106762427058 0 0.46461049463358839 -0.41117161714406408 0 0.48394518954555588 -0.41195106762427058 0 0.47664864143922919 -0.39842171428208217 0 0.47664864143922919 -0.39842171428208217 0 0.47975395238035062 -0.3854291032725421 0 0.46812846895096999 -0.38912968091376021 0 0.47664864143922919 -0.39842171428208217 0 0.49999999999999789 -0.3972124317711998 0 0.48779058149940679 -0.38751051868815611 0 0.48394518954555588 -0.41195106762427058 0 0.47664864143922919 -0.39842171428208217 0 0.49999999999999789 -0.3972124317711998 0 0.47664864143922919 -0.39842171428208217 0 0.49999999999999789 -0.3972124317711998 0 0.5 -0.37037944899495368 0 0.49999999999999789 -0.3972124317711998 0 0.48779058149940679 -0.38751051868815611 0 0.5 -0.37037944899495368 0 0.48466784746851571 -0.3739080713738358 0 0.48779058149940679 -0.38751051868815611 0 0.48466784746851571 -0.3739080713738358 0 0.47975395238035062 -0.3854291032725421 0 0.47323517146124039 -0.38191256761527542 0 0.48466784746851571 -0.3739080713738358 0 0.48779058149940679 -0.38751051868815611 0 0.47975395238035062 -0.3854291032725421 0 0.47664864143922919 -0.39842171428208217 0 0.48779058149940679 -0.38751051868815611 0 0.47975395238035062 -0.3854291032725421 0 0.47975395238035062 -0.3854291032725421 0 0.47323517146124039 -0.38191256761527542 0 0.46812846895096999 -0.38912968091376021 0 0.46918642870160698 -0.38365020197922722 0 0.47323517146124039 -0.38191256761527542 0 0.46812846895096999 -0.38912968091376021 0 0.4671179630262795 -0.37324494563770522 0 0.46918642870160698 -0.38365020197922722 0 0.47323517146124039 -0.38191256761527542 0 0.45652460043480969 -0.37267172771365881 0 0.4671179630262795 -0.37324494563770522 0 0.46918642870160698 -0.38365020197922722 0 0.45652460043480969 -0.37267172771365881 0 0.46918642870160698 -0.38365020197922722 0 0.45652460043480969 -0.37267172771365881 0 0.45606522570456098 -0.38599652494351028 0 0.44783900322824399 -0.38008781189722518 0 0.45652460043480969 -0.37267172771365881 0 0.46918642870160698 -0.38365020197922722 0 0.45606522570456098 -0.38599652494351028 0 0.46918642870160698 -0.38365020197922722 0 0.45606522570456098 -0.38599652494351028 0 0.46812846895096999 -0.38912968091376021 0 0.46461049463358839 -0.41117161714406408 0 0.47664864143922919 -0.39842171428208217 0 0.45329728287846061 -0.39963099679296588 0 0.47664864143922919 -0.39842171428208217 0 0.45329728287846061 -0.39963099679296588 0 0.47664864143922919 -0.39842171428208217 0 0.46812846895096999 -0.38912968091376021 0 0.45329728287846061 -0.39963099679296588 0 0.46461049463358839 -0.41117161714406408 0 0.45329728287846061 -0.39963099679296588 0 0.45606522570456098 -0.38599652494351028 0 0.46812846895096999 -0.38912968091376021 0 0.45329728287846061 -0.39963099679296588 0 0.45693362330993059 -0.41584542252527262 0 0.45329728287846061 -0.39963099679296588 0 0.4354004349648965 -0.40055780990002432 0 0.45329728287846061 -0.39963099679296588 0 0.4354004349648965 -0.40055780990002432 0 0.45329728287846061 -0.39963099679296588 0 0.4390969294492823 -0.3851451998924304 0 0.4354004349648965 -0.40055780990002432 0 0.45329728287846061 -0.39963099679296588 0 0.4390969294492823 -0.3851451998924304 0 0.45606522570456098 -0.38599652494351028 0 0.4390969294492823 -0.3851451998924304 0 0.44783900322824399 -0.38008781189722518 0 0.45606522570456098 -0.38599652494351028 0 0.45329728287846061 -0.39963099679296588 0 0.4390969294492823 -0.3851451998924304 0 0.4390969294492823 -0.3851451998924304 0 0.43808065797110041 -0.37748478958974491 0 0.44783900322824399 -0.38008781189722518 0 0.42782015831496062 -0.38505662608606978 0 0.4354004349648965 -0.40055780990002432 0 0.41188669282555868 -0.38386409155992901 0 0.42489657602010461 -0.37065940299189432 0 0.4390969294492823 -0.3851451998924304 0 0.42782015831496062 -0.38505662608606978 0 0.42489657602010461 -0.37065940299189432 0 0.4390969294492823 -0.3851451998924304 0 0.43808065797110041 -0.37748478958974491 0 0.42489657602010461 -0.37065940299189432 0 0.4390969294492823 -0.3851451998924304 0 0.4390969294492823 -0.3851451998924304 0 0.42782015831496062 -0.38505662608606978 0 0.4354004349648965 -0.40055780990002432 0 0.4354004349648965 -0.40055780990002432 0 0.41188669282555868 -0.38386409155992901 0 0.4354004349648965 -0.40055780990002432 0 0.40669862042327182 -0.40204417319942209 0 0.4354004349648965 -0.40055780990002432 0 0.40669862042327182 -0.40204417319942209 0 0.41188669282555868 -0.38386409155992901 0 0.42489657602010461 -0.37065940299189432 0 0.42782015831496062 -0.38505662608606978 0 0.41188669282555868 -0.38386409155992901 0 0.42489657602010461 -0.37065940299189432 0 0.4070765621089808 -0.37107032214525337 0 0.41188669282555868 -0.38386409155992901 0 0.4070765621089808 -0.37107032214525337 0 0.39585190457779329 -0.37201308858561799 0 0.39886607975096749 -0.38470810625682389 0 0.40669862042327182 -0.40204417319942209 0 0.41188669282555868 -0.38386409155992901 0 0.39886607975096749 -0.38470810625682389 0 0.4070765621089808 -0.37107032214525337 0 0.41188669282555868 -0.38386409155992901 0 0.39886607975096749 -0.38470810625682389 0 0.39585190457779329 -0.37201308858561799 0 0.39886607975096749 -0.38470810625682389 0 0.38601585554704992 -0.38244526212700758 0 0.39886607975096749 -0.38470810625682389 0 0.38601585554704992 -0.38244526212700758 0 0.37799680588164719 -0.40353053649882148 0 0.38601585554704992 -0.38244526212700758 0 0.37799680588164719 -0.40353053649882148 0 0.38601585554704992 -0.38244526212700758 0 0.37799680588164719 -0.40353053649882148 0 0.36816388811638329 -0.39545065246060412 0 0.37799680588164719 -0.40353053649882148 0 0.37635446215448021 -0.40784891206015261 0 0.37799680588164719 -0.40353053649882148 0 0.37505152225636262 -0.40368306209891941 0 0.37635446215448021 -0.40784891206015261 0 0.37799680588164719 -0.40353053649882148 0 0.37505152225636262 -0.40368306209891941 0 0.40669862042327182 -0.40204417319942209 0 0.39886607975096749 -0.38470810625682389 0 0.37799680588164719 -0.40353053649882148 0 0.40669862042327182 -0.40204417319942209 0 0.37799680588164719 -0.40353053649882148 0 0.40669862042327182 -0.40204417319942209 0 0.38553791301154328 -0.41840677215457472 0 0.40567792500840172 -0.4277251834563135 0 0.40669862042327182 -0.40204417319942209 0 0.37799680588164719 -0.40353053649882148 0 0.38553791301154328 -0.41840677215457472 0 0.38553791301154328 -0.41840677215457472 0 0.36905142820508552 -0.42917232846767789 0 0.37241381966677689 -0.417360225696081 0 0.38553791301154328 -0.41840677215457472 0 0.37635446215448021 -0.40784891206015261 0 0.37241381966677689 -0.417360225696081 0 0.37799680588164719 -0.40353053649882148 0 0.38553791301154328 -0.41840677215457472 0 0.37635446215448021 -0.40784891206015261 0 0.38553791301154328 -0.41840677215457472 0 0.38807715457860831 -0.4388905332329941 0 0.36905142820508552 -0.42917232846767789 0 0.38553791301154328 -0.41840677215457472 0 0.40567792500840172 -0.4277251834563135 0 0.38807715457860831 -0.4388905332329941 0 0.40567792500840172 -0.4277251834563135 0 0.42351101069396863 -0.41893046606618117 0 0.42653452723640378 -0.44279137365393179 0 0.4354004349648965 -0.40055780990002432 0 0.40669862042327182 -0.40204417319942209 0 0.42351101069396863 -0.41893046606618117 0 0.40669862042327182 -0.40204417319942209 0 0.40567792500840172 -0.4277251834563135 0 0.42351101069396863 -0.41893046606618117 0 0.44324354583686831 -0.42153379012121539 0 0.4354004349648965 -0.40055780990002432 0 0.42351101069396863 -0.41893046606618117 0 0.44324354583686831 -0.42153379012121539 0 0.42653452723640378 -0.44279137365393179 0 0.44324354583686831 -0.42153379012121539 0 0.42351101069396863 -0.41893046606618117 0 0.42653452723640378 -0.44279137365393179 0 0.44442683605218691 -0.44583817528272968 0 0.42653452723640378 -0.44279137365393179 0 0.43057418754349119 -0.46211781715143319 0 0.42653452723640378 -0.44279137365393179 0 0.43057418754349119 -0.46211781715143319 0 0.40982550863593931 -0.46404895718664829 0 0.42653452723640378 -0.44279137365393179 0 0.40982550863593931 -0.46404895718664829 0 0.42653452723640378 -0.44279137365393179 0 0.40982550863593931 -0.46404895718664829 0 0.4036378289262339 -0.44671034290208689 0 0.40567792500840172 -0.4277251834563135 0 0.42653452723640378 -0.44279137365393179 0 0.4036378289262339 -0.44671034290208689 0 0.40567792500840172 -0.4277251834563135 0 0.4036378289262339 -0.44671034290208689 0 0.38807715457860831 -0.4388905332329941 0 0.4036378289262339 -0.44671034290208689 0 0.38807715457860831 -0.4388905332329941 0 0.38807402917181633 -0.46009566698054732 0 0.38807715457860831 -0.4388905332329941 0 0.3733961412993268 -0.45022493016754961 0 0.36905142820508552 -0.42917232846767789 0 0.38807715457860831 -0.4388905332329941 0 0.38807402917181633 -0.46009566698054732 0 0.3733961412993268 -0.45022493016754961 0 0.38807402917181633 -0.46009566698054732 0 0.36593927904035028 -0.47432204071884282 0 0.3733961412993268 -0.45022493016754961 0 0.40982550863593931 -0.46404895718664829 0 0.4036378289262339 -0.44671034290208689 0 0.38807402917181633 -0.46009566698054732 0 0.40982550863593931 -0.46404895718664829 0 0.39311649003547477 -0.48530654071936469 0 0.40982550863593931 -0.46404895718664829 0 0.38807402917181633 -0.46009566698054732 0 0.39311649003547477 -0.48530654071936469 0 0.38807402917181633 -0.46009566698054732 0 0.39311649003547477 -0.48530654071936469 0 0.36593927904035028 -0.47432204071884282 0 0.37603974257992701 -0.49999999999999978 0 0.39311649003547477 -0.48530654071936469 0 0.36593927904035028 -0.47432204071884282 0 0.37603974257992701 -0.49999999999999978 0 0.39676616081738958 -0.5 0 0.39311649003547477 -0.48530654071936469 0 0.39676616081738958 -0.5 0 0.39311649003547477 -0.48530654071936469 0 0.41749257905485199 -0.50000000000000033 0 0.40982550863593931 -0.46404895718664829 0 0.41749257905485199 -0.50000000000000033 0 0.43264288253940292 -0.48275234633568048 0 0.40982550863593931 -0.46404895718664829 0 0.39311649003547477 -0.48530654071936469 0 0.41749257905485199 -0.50000000000000033 0 0.43057418754349119 -0.46211781715143319 0 0.40982550863593931 -0.46404895718664829 0 0.43264288253940292 -0.48275234633568048 0 0.44779318602395363 -0.46550469267136052 0 0.43057418754349119 -0.46211781715143319 0 0.43264288253940292 -0.48275234633568048 0 0.41749257905485199 -0.50000000000000033 0 0.43264288253940292 -0.48275234633568048 0 0.32215468257820618 -0.5 0 0.33760568703239408 -0.47417818032706111 0 0.31005432530219129 -0.48106067464861729 0 0.33760568703239408 -0.47417818032706111 0 0.3189449745883719 -0.46117016543644002 0 0.31005432530219129 -0.48106067464861729 0 0.32215468257820618 -0.5 0 0.33760568703239408 -0.47417818032706111 0 0.34909721257906662 -0.5 0 0.37603974257992701 -0.49999999999999978 0 0.34909721257906662 -0.5 0 0.36593927904035028 -0.47432204071884282 0 0.37603974257992701 -0.49999999999999978 0 0.36593927904035028 -0.47432204071884282 0 0.33760568703239408 -0.47417818032706111 0 0.34909721257906662 -0.5 0 0.36593927904035028 -0.47432204071884282 0 0.33760568703239408 -0.47417818032706111 0 0.36593927904035028 -0.47432204071884282 0 0.35583881550077368 -0.44864408143768569 0 0.36593927904035028 -0.47432204071884282 0 0.35583881550077368 -0.44864408143768569 0 0.36593927904035028 -0.47432204071884282 0 0.3733961412993268 -0.45022493016754961 0 0.35583881550077368 -0.44864408143768569 0 0.3733961412993268 -0.45022493016754961 0 0.35583881550077368 -0.44864408143768569 0 0.36905142820508552 -0.42917232846767789 0 0.35583881550077368 -0.44864408143768569 0 0.33540415989768779 -0.44905252560006492 0 0.34573835196119679 -0.42296612215652868 0 0.33760568703239408 -0.47417818032706111 0 0.35583881550077368 -0.44864408143768569 0 0.33540415989768779 -0.44905252560006492 0 0.33760568703239408 -0.47417818032706111 0 0.33540415989768779 -0.44905252560006492 0 0.3189449745883719 -0.46117016543644002 0 0.33540415989768779 -0.44905252560006492 0 0.3189449745883719 -0.46117016543644002 0 0.32126124445813709 -0.43429719032362252 0 0.3189449745883719 -0.46117016543644002 0 0.32126124445813709 -0.43429719032362252 0 0.30480654487456732 -0.44641521679941309 0 0.32126124445813709 -0.43429719032362252 0 0.3193156137706864 -0.40941365839269389 0 0.29937418247959258 -0.41817563384508599 0 0.3193156137706864 -0.40941365839269389 0 0.34573835196119679 -0.42296612215652868 0 0.33563788842162012 -0.39728816287537172 0 0.34573835196119679 -0.42296612215652868 0 0.33563788842162012 -0.39728816287537172 0 0.33540415989768779 -0.44905252560006492 0 0.32126124445813709 -0.43429719032362252 0 0.34573835196119679 -0.42296612215652868 0 0.32126124445813709 -0.43429719032362252 0 0.3193156137706864 -0.40941365839269389 0 0.34573835196119679 -0.42296612215652868 0 0.35583881550077368 -0.44864408143768569 0 0.34573835196119679 -0.42296612215652868 0 0.36905142820508552 -0.42917232846767789 0 0.35583881550077368 -0.44864408143768569 0 0.34573835196119679 -0.42296612215652868 0 0.36905142820508552 -0.42917232846767789 0 0.37241381966677689 -0.417360225696081 0 0.36195200988480669 -0.41065981681110758 0 0.36990343230398692 -0.40830781576793279 0 0.37241381966677689 -0.417360225696081 0 0.36195200988480669 -0.41065981681110758 0 0.37635446215448021 -0.40784891206015261 0 0.36990343230398692 -0.40830781576793279 0 0.37241381966677689 -0.417360225696081 0 0.37505152225636262 -0.40368306209891941 0 0.37635446215448021 -0.40784891206015261 0 0.36990343230398692 -0.40830781576793279 0 0.36990343230398692 -0.40830781576793279 0 0.36195200988480669 -0.41065981681110758 0 0.36876771314038492 -0.40452533678464098 0 0.34573835196119679 -0.42296612215652868 0 0.36195200988480669 -0.41065981681110758 0 0.35211107663302149 -0.40015425695529971 0 0.34573835196119679 -0.42296612215652868 0 0.36905142820508552 -0.42917232846767789 0 0.36195200988480669 -0.41065981681110758 0 0.34573835196119679 -0.42296612215652868 0 0.35211107663302149 -0.40015425695529971 0 0.33563788842162012 -0.39728816287537172 0 0.35211107663302149 -0.40015425695529971 0 0.35352794608594401 -0.38791341326287138 0 0.33563788842162012 -0.39728816287537172 0 0.35211107663302149 -0.40015425695529971 0 0.36816388811638329 -0.39545065246060412 0 0.35352794608594401 -0.38791341326287138 0 0.36195200988480669 -0.41065981681110758 0 0.36816388811638329 -0.39545065246060412 0 0.36876771314038492 -0.40452533678464098 0 0.36195200988480669 -0.41065981681110758 0 0.35211107663302149 -0.40015425695529971 0 0.36816388811638329 -0.39545065246060412 0 0.37505152225636262 -0.40368306209891941 0 0.36816388811638329 -0.39545065246060412 0 0.36876771314038492 -0.40452533678464098 0 0.37799680588164719 -0.40353053649882148 0 0.37505152225636262 -0.40368306209891941 0 0.36816388811638329 -0.39545065246060412 0 0.37505152225636262 -0.40368306209891941 0 0.36990343230398692 -0.40830781576793279 0 0.36876771314038492 -0.40452533678464098 0 0.38601585554704992 -0.38244526212700758 0 0.36816388811638329 -0.39545065246060412 0 0.3689120952668708 -0.37284951495870189 0 0.36816388811638329 -0.39545065246060412 0 0.35352794608594401 -0.38791341326287138 0 0.3689120952668708 -0.37284951495870189 0 0.35352794608594401 -0.38791341326287138 0 0.33563788842162012 -0.39728816287537172 0 0.34467783115022588 -0.37252705130409253 0 0.35352794608594401 -0.38791341326287138 0 0.3689120952668708 -0.37284951495870189 0 0.34467783115022588 -0.37252705130409253 0 0.33563788842162012 -0.39728816287537172 0 0.3255374248820434 -0.37161020359421471 0 0.33563788842162012 -0.39728816287537172 0 0.34467783115022588 -0.37252705130409253 0 0.3255374248820434 -0.37161020359421471 0 0.3193156137706864 -0.40941365839269389 0 0.33563788842162012 -0.39728816287537172 0 0.30534853388527528 -0.38930881101125692 0 0.33563788842162012 -0.39728816287537172 0 0.30534853388527528 -0.38930881101125692 0 0.3255374248820434 -0.37161020359421471 0 0.30534853388527528 -0.38930881101125692 0 0.3255374248820434 -0.37161020359421471 0 0.30525369772634148 -0.37164386163485291 0 0.30534853388527528 -0.38930881101125692 0 0.28783989868818821 -0.37644057584389279 0 0.30525369772634148 -0.37164386163485291 0 0.3193156137706864 -0.40941365839269389 0 0.30534853388527528 -0.38930881101125692 0 0.29937418247959258 -0.41817563384508599 0 0.30534853388527528 -0.38930881101125692 0 0.28922044672054198 -0.39637746652331562 0 0.29937418247959258 -0.41817563384508599 0 0.28922044672054198 -0.39637746652331562 0 0.27510086349567708 -0.39798721671617321 0 0.28320928432356041 -0.41012407252970262 0 0.28922044672054198 -0.39637746652331562 0 0.28783989868818821 -0.37644057584389279 0 0.27924907625512951 -0.38731579260330862 0 0.30534853388527528 -0.38930881101125692 0 0.28922044672054198 -0.39637746652331562 0 0.28783989868818821 -0.37644057584389279 0 0.30534853388527528 -0.38930881101125692 0 0.28783989868818821 -0.37644057584389279 0 0.28783989868818821 -0.37644057584389279 0 0.27447250226623809 -0.37821124143188289 0 0.27924907625512951 -0.38731579260330862 0 0.27447250226623809 -0.37821124143188289 0 0.27924907625512951 -0.38731579260330862 0 0.26961167010500181 -0.38756246250127813 0 0.27447250226623809 -0.37821124143188289 0 0.26961167010500181 -0.38756246250127813 0 0.26423397132697279 -0.37890457124200982 0 0.26961167010500181 -0.38756246250127813 0 0.26423397132697279 -0.37890457124200982 0 0.25687819372407023 -0.38903915957053298 0 0.26423397132697279 -0.37890457124200982 0 0.25687819372407023 -0.38903915957053298 0 0.24987622704845311 -0.37613765202982719 0 0.25108303853213881 -0.40002667887407228 0 0.26390234922262928 -0.39930308446362528 0 0.256136481120742 -0.41447562176841068 0 0.25687819372407023 -0.38903915957053298 0 0.25108303853213881 -0.40002667887407228 0 0.24309899287842279 -0.39271330151873202 0 0.25687819372407023 -0.38903915957053298 0 0.25108303853213881 -0.40002667887407228 0 0.26390234922262928 -0.39930308446362528 0 0.26961167010500181 -0.38756246250127813 0 0.25687819372407023 -0.38903915957053298 0 0.26390234922262928 -0.39930308446362528 0 0.26390234922262928 -0.39930308446362528 0 0.27510086349567708 -0.39798721671617321 0 0.2708804648698091 -0.41009655218672442 0 0.26961167010500181 -0.38756246250127813 0 0.26390234922262928 -0.39930308446362528 0 0.27510086349567708 -0.39798721671617321 0 0.28922044672054198 -0.39637746652331562 0 0.27924907625512951 -0.38731579260330862 0 0.27510086349567708 -0.39798721671617321 0 0.27924907625512951 -0.38731579260330862 0 0.26961167010500181 -0.38756246250127813 0 0.27510086349567708 -0.39798721671617321 0 0.27510086349567708 -0.39798721671617321 0 0.2708804648698091 -0.41009655218672442 0 0.28320928432356041 -0.41012407252970262 0 0.2708804648698091 -0.41009655218672442 0 0.256136481120742 -0.41447562176841068 0 0.27433621812851161 -0.42550461519375637 0 0.2708804648698091 -0.41009655218672442 0 0.27433621812851161 -0.42550461519375637 0 0.28320928432356041 -0.41012407252970262 0 0.26390234922262928 -0.39930308446362528 0 0.2708804648698091 -0.41009655218672442 0 0.256136481120742 -0.41447562176841068 0 0.25108303853213881 -0.40002667887407228 0 0.256136481120742 -0.41447562176841068 0 0.24629253832767661 -0.41022035877505542 0 0.256136481120742 -0.41447562176841068 0 0.25513396950241118 -0.43290986753561628 0 0.2453827316299185 -0.42192330194190181 0 0.256136481120742 -0.41447562176841068 0 0.25513396950241118 -0.43290986753561628 0 0.27433621812851161 -0.42550461519375637 0 0.25513396950241118 -0.43290986753561628 0 0.27433621812851161 -0.42550461519375637 0 0.26752346795397081 -0.44788636482661331 0 0.27433621812851161 -0.42550461519375637 0 0.29937418247959258 -0.41817563384508599 0 0.28546596250580908 -0.44246723239800262 0 0.29937418247959258 -0.41817563384508599 0 0.30480654487456732 -0.44641521679941309 0 0.28546596250580908 -0.44246723239800262 0 0.28922044672054198 -0.39637746652331562 0 0.28320928432356041 -0.41012407252970262 0 0.29937418247959258 -0.41817563384508599 0 0.27433621812851161 -0.42550461519375637 0 0.28320928432356041 -0.41012407252970262 0 0.29937418247959258 -0.41817563384508599 0 0.32126124445813709 -0.43429719032362252 0 0.29937418247959258 -0.41817563384508599 0 0.30480654487456732 -0.44641521679941309 0 0.3189449745883719 -0.46117016543644002 0 0.30480654487456732 -0.44641521679941309 0 0.28880919487484108 -0.4658549053918814 0 0.30480654487456732 -0.44641521679941309 0 0.28880919487484108 -0.4658549053918814 0 0.28546596250580908 -0.44246723239800262 0 0.27433621812851161 -0.42550461519375637 0 0.28546596250580908 -0.44246723239800262 0 0.26752346795397081 -0.44788636482661331 0 0.28880919487484108 -0.4658549053918814 0 0.28546596250580908 -0.44246723239800262 0 0.26752346795397081 -0.44788636482661331 0 0.25513396950241118 -0.43290986753561628 0 0.26752346795397081 -0.44788636482661331 0 0.24480843210435321 -0.45079661158300749 0 0.26752346795397081 -0.44788636482661331 0 0.2588368117714554 -0.46700690363883102 0 0.24480843210435321 -0.45079661158300749 0 0.28880919487484108 -0.4658549053918814 0 0.26752346795397081 -0.44788636482661331 0 0.2588368117714554 -0.46700690363883102 0 0.28880919487484108 -0.4658549053918814 0 0.2588368117714554 -0.46700690363883102 0 0.27227655507569209 -0.48076744006000099 0 0.2588368117714554 -0.46700690363883102 0 0.27227655507569209 -0.48076744006000099 0 0.25270961841775552 -0.48460016746525392 0 0.2588368117714554 -0.46700690363883102 0 0.25270961841775552 -0.48460016746525392 0 0.23949561189523169 -0.47426551941090739 0 0.25270961841775552 -0.48460016746525392 0 0.26826962257648529 -0.5 0 0.2413270925756249 -0.5 0 0.27227655507569209 -0.48076744006000099 0 0.25270961841775552 -0.48460016746525392 0 0.26826962257648529 -0.5 0 0.27227655507569209 -0.48076744006000099 0 0.26826962257648529 -0.5 0 0.29521215257734579 -0.5 0 0.28880919487484108 -0.4658549053918814 0 0.27227655507569209 -0.48076744006000099 0 0.29521215257734579 -0.5 0 0.28880919487484108 -0.4658549053918814 0 0.29521215257734579 -0.5 0 0.31005432530219129 -0.48106067464861729 0 0.3189449745883719 -0.46117016543644002 0 0.28880919487484108 -0.4658549053918814 0 0.31005432530219129 -0.48106067464861729 0 0.32215468257820618 -0.5 0 0.29521215257734579 -0.5 0 0.31005432530219129 -0.48106067464861729 0 0.33463237856908817 -0.28956894479377399 0 0.33485830675890288 -0.30442904333306592 0 0.35657459314761941 -0.2860097891906741 0 0.33463237856908817 -0.28956894479377399 0 0.32894302133540282 -0.28710755170783531 0 0.35195887039823659 -0.28200771363307098 0 0.32894302133540282 -0.28710755170783531 0 0.35195887039823659 -0.28200771363307098 0 0.32894302133540282 -0.28710755170783531 0 0.33255663915089151 -0.29722249741805129 0 0.33463237856908817 -0.28956894479377399 0 0.32894302133540282 -0.28710755170783531 0 0.33255663915089151 -0.29722249741805129 0 0.32894302133540282 -0.28710755170783531 0 0.33255663915089151 -0.29722249741805129 0 0.32301709761150521 -0.2972128627914089 0 0.33485830675890288 -0.30442904333306592 0 0.34824447571033601 -0.30253517369681238 0 0.34533870308018377 -0.31598934501886372 0 0.33485830675890288 -0.30442904333306592 0 0.33255663915089151 -0.29722249741805129 0 0.32434770264142349 -0.30499280498860082 0 0.33463237856908817 -0.28956894479377399 0 0.33485830675890288 -0.30442904333306592 0 0.33255663915089151 -0.29722249741805129 0 0.32301709761150521 -0.2972128627914089 0 0.32434770264142349 -0.30499280498860082 0 0.3171485971304504 -0.30589952111326829 0 0.32434770264142349 -0.30499280498860082 0 0.3171485971304504 -0.30589952111326829 0 0.31314202037018413 -0.32284829747545468 0 0.33485830675890288 -0.30442904333306592 0 0.32434770264142349 -0.30499280498860082 0 0.31314202037018413 -0.32284829747545468 0 0.33255663915089151 -0.29722249741805129 0 0.32301709761150521 -0.2972128627914089 0 0.32434770264142349 -0.30499280498860082 0 0.3171485971304504 -0.30589952111326829 0 0.31208952779935789 -0.2908419387292881 0 0.30833746379913463 -0.30503745501229762 0 0.32301709761150521 -0.2972128627914089 0 0.3171485971304504 -0.30589952111326829 0 0.31208952779935789 -0.2908419387292881 0 0.32894302133540282 -0.28710755170783531 0 0.31611371382327402 -0.28007222207304999 0 0.31208952779935789 -0.2908419387292881 0 0.32894302133540282 -0.28710755170783531 0 0.32301709761150521 -0.2972128627914089 0 0.31208952779935789 -0.2908419387292881 0 0.32894302133540282 -0.28710755170783531 0 0.31208952779935789 -0.2908419387292881 0 0.32894302133540282 -0.28710755170783531 0 0.32245882367699719 -0.26895751187574157 0 0.32894302133540282 -0.28710755170783531 0 0.31611371382327402 -0.28007222207304999 0 0.32245882367699719 -0.26895751187574157 0 0.31611371382327402 -0.28007222207304999 0 0.32245882367699719 -0.26895751187574157 0 0.30706455279928557 -0.27339796693147528 0 0.32245882367699719 -0.26895751187574157 0 0.30981211567343969 -0.26250129009931661 0 0.30706455279928557 -0.27339796693147528 0 0.32245882367699719 -0.26895751187574157 0 0.31597462601859122 -0.25080747204364812 0 0.32245882367699719 -0.26895751187574157 0 0.31597462601859122 -0.25080747204364812 0 0.30981211567343969 -0.26250129009931661 0 0.32245882367699719 -0.26895751187574157 0 0.31597462601859122 -0.25080747204364812 0 0.33396674820841349 -0.26640759283836002 0 0.31597462601859122 -0.25080747204364812 0 0.33396674820841349 -0.26640759283836002 0 0.33517615116993849 -0.24743488902137309 0 0.33396674820841349 -0.26640759283836002 0 0.35185333732921159 -0.25428502110151557 0 0.33517615116993849 -0.24743488902137309 0 0.31597462601859122 -0.25080747204364812 0 0.33396674820841349 -0.26640759283836002 0 0.32894302133540282 -0.28710755170783531 0 0.32245882367699719 -0.26895751187574157 0 0.33396674820841349 -0.26640759283836002 0 0.33396674820841349 -0.26640759283836002 0 0.35195887039823659 -0.28200771363307098 0 0.32894302133540282 -0.28710755170783531 0 0.33396674820841349 -0.26640759283836002 0 0.35195887039823659 -0.28200771363307098 0 0.33396674820841349 -0.26640759283836002 0 0.35159414215374007 -0.26901089914998932 0 0.35195887039823659 -0.28200771363307098 0 0.35159414215374007 -0.26901089914998932 0 0.36459381448795669 -0.2792080702757721 0 0.35195887039823659 -0.28200771363307098 0 0.36459381448795669 -0.2792080702757721 0 0.35195887039823659 -0.28200771363307098 0 0.33396674820841349 -0.26640759283836002 0 0.35159414215374007 -0.26901089914998932 0 0.35185333732921159 -0.25428502110151557 0 0.35159414215374007 -0.26901089914998932 0 0.35185333732921159 -0.25428502110151557 0 0.36435388824524378 -0.26651308148643732 0 0.37477580018058132 -0.24095111383496479 0 0.37683953433427181 -0.26882153263446662 0 0.36563983252638571 -0.25462703483095822 0 0.36075586336603621 -0.2426037127049111 0 0.35185333732921159 -0.25428502110151557 0 0.36563983252638571 -0.25462703483095822 0 0.35185333732921159 -0.25428502110151557 0 0.36563983252638571 -0.25462703483095822 0 0.36435388824524378 -0.26651308148643732 0 0.37683953433427181 -0.26882153263446662 0 0.36563983252638571 -0.25462703483095822 0 0.36435388824524378 -0.26651308148643732 0 0.36459381448795669 -0.2792080702757721 0 0.36308990924476459 -0.28048364807874221 0 0.35195887039823659 -0.28200771363307098 0 0.36459381448795669 -0.2792080702757721 0 0.36308990924476459 -0.28048364807874221 0 0.37273728942595791 -0.27740364396778311 0 0.36459381448795669 -0.2792080702757721 0 0.36308990924476459 -0.28048364807874221 0 0.35159414215374007 -0.26901089914998932 0 0.36459381448795669 -0.2792080702757721 0 0.36435388824524378 -0.26651308148643732 0 0.37683953433427181 -0.26882153263446662 0 0.36459381448795669 -0.2792080702757721 0 0.36435388824524378 -0.26651308148643732 0 0.36459381448795669 -0.2792080702757721 0 0.37273728942595791 -0.27740364396778311 0 0.37683953433427181 -0.26882153263446662 0 0.36459381448795669 -0.2792080702757721 0 0.37273728942595791 -0.27740364396778311 0 0.37683953433427181 -0.26882153263446662 0 0.36459381448795669 -0.2792080702757721 0 0.36308990924476459 -0.28048364807874221 0 0.37273728942595791 -0.27740364396778311 0 0.37795999762798671 -0.28395322059410122 0 0.37273728942595791 -0.27740364396778311 0 0.36936745264149701 -0.28627283508716472 0 0.35657459314761941 -0.2860097891906741 0 0.35620629985463748 -0.30371251724464648 0 0.37101427446782781 -0.29852975601036341 0 0.36308990924476459 -0.28048364807874221 0 0.37273728942595791 -0.27740364396778311 0 0.36936745264149701 -0.28627283508716472 0 0.37519981906117678 -0.29055939022370142 0 0.37795999762798671 -0.28395322059410122 0 0.36936745264149701 -0.28627283508716472 0 0.37519981906117678 -0.29055939022370142 0 0.36936745264149701 -0.28627283508716472 0 0.37101427446782781 -0.29852975601036341 0 0.36936745264149701 -0.28627283508716472 0 0.35657459314761941 -0.2860097891906741 0 0.37101427446782781 -0.29852975601036341 0 0.35657459314761941 -0.2860097891906741 0 0.37101427446782781 -0.29852975601036341 0 0.36308990924476459 -0.28048364807874221 0 0.36936745264149701 -0.28627283508716472 0 0.35657459314761941 -0.2860097891906741 0 0.36308990924476459 -0.28048364807874221 0 0.35657459314761941 -0.2860097891906741 0 0.36308990924476459 -0.28048364807874221 0 0.35366972758071469 -0.28349111722646431 0 0.33463237856908817 -0.28956894479377399 0 0.35366972758071469 -0.28349111722646431 0 0.33463237856908817 -0.28956894479377399 0 0.35366972758071469 -0.28349111722646431 0 0.35195887039823659 -0.28200771363307098 0 0.36308990924476459 -0.28048364807874221 0 0.35366972758071469 -0.28349111722646431 0 0.35195887039823659 -0.28200771363307098 0 0.33485830675890288 -0.30442904333306592 0 0.35657459314761941 -0.2860097891906741 0 0.36308990924476459 -0.28048364807874221 0 0.35366972758071469 -0.28349111722646431 0 0.35657459314761941 -0.2860097891906741 0 0.33463237856908817 -0.28956894479377399 0 0.35366972758071469 -0.28349111722646431 0 0.35657459314761941 -0.2860097891906741 0 0.35366972758071469 -0.28349111722646431 0 0.35657459314761941 -0.2860097891906741 0 0.35366972758071469 -0.28349111722646431 0 0.35195887039823659 -0.28200771363307098 0 0.35620629985463748 -0.30371251724464648 0 0.36380134767337091 -0.31365371592763602 0 0.34533870308018377 -0.31598934501886372 0 0.35657459314761941 -0.2860097891906741 0 0.34824447571033601 -0.30253517369681238 0 0.35620629985463748 -0.30371251724464648 0 0.33485830675890288 -0.30442904333306592 0 0.35657459314761941 -0.2860097891906741 0 0.34824447571033601 -0.30253517369681238 0 0.34824447571033601 -0.30253517369681238 0 0.35620629985463748 -0.30371251724464648 0 0.34533870308018377 -0.31598934501886372 0 0.38545395578803499 -0.31104972283005378 0 0.37101427446782781 -0.29852975601036341 0 0.36380134767337091 -0.31365371592763602 0 0.35620629985463748 -0.30371251724464648 0 0.37101427446782781 -0.29852975601036341 0 0.36380134767337091 -0.31365371592763602 0 0.38545395578803499 -0.31104972283005378 0 0.36380134767337091 -0.31365371592763602 0 0.36945761595668469 -0.32738841673247931 0 0.36380134767337091 -0.31365371592763602 0 0.36945761595668469 -0.32738841673247931 0 0.35533723689285712 -0.32525253772940937 0 0.36945761595668469 -0.32738841673247931 0 0.35618710249729552 -0.34088690244721892 0 0.35533723689285712 -0.32525253772940937 0 0.36945761595668469 -0.32738841673247931 0 0.35618710249729552 -0.34088690244721892 0 0.37368731816096312 -0.34897020548070451 0 0.35618710249729552 -0.34088690244721892 0 0.33810128782584858 -0.35072533414536311 0 0.34064131712366241 -0.33181983138849169 0 0.35618710249729552 -0.34088690244721892 0 0.35533723689285712 -0.32525253772940937 0 0.34064131712366241 -0.33181983138849169 0 0.34533870308018377 -0.31598934501886372 0 0.35533723689285712 -0.32525253772940937 0 0.34064131712366241 -0.33181983138849169 0 0.36380134767337091 -0.31365371592763602 0 0.34533870308018377 -0.31598934501886372 0 0.35533723689285712 -0.32525253772940937 0 0.3689120952668708 -0.37284951495870189 0 0.37368731816096312 -0.34897020548070451 0 0.35738528973841999 -0.35772904562383351 0 0.35618710249729552 -0.34088690244721892 0 0.37368731816096312 -0.34897020548070451 0 0.35738528973841999 -0.35772904562383351 0 0.35618710249729552 -0.34088690244721892 0 0.35738528973841999 -0.35772904562383351 0 0.33810128782584858 -0.35072533414536311 0 0.35738528973841999 -0.35772904562383351 0 0.34467783115022588 -0.37252705130409253 0 0.33810128782584858 -0.35072533414536311 0 0.3689120952668708 -0.37284951495870189 0 0.35738528973841999 -0.35772904562383351 0 0.34467783115022588 -0.37252705130409253 0 0.34467783115022588 -0.37252705130409253 0 0.33810128782584858 -0.35072533414536311 0 0.3255374248820434 -0.37161020359421471 0 0.31543696134246668 -0.34593224431305769 0 0.3255374248820434 -0.37161020359421471 0 0.30900602422585888 -0.35865430802761772 0 0.31543696134246668 -0.34593224431305769 0 0.3255374248820434 -0.37161020359421471 0 0.33810128782584858 -0.35072533414536311 0 0.31543696134246668 -0.34593224431305769 0 0.3255374248820434 -0.37161020359421471 0 0.3255374248820434 -0.37161020359421471 0 0.30525369772634148 -0.37164386163485291 0 0.30900602422585888 -0.35865430802761772 0 0.34533870308018377 -0.31598934501886372 0 0.33130220335757699 -0.32186248444176119 0 0.34064131712366241 -0.33181983138849169 0 0.33485830675890288 -0.30442904333306592 0 0.34533870308018377 -0.31598934501886372 0 0.33130220335757699 -0.32186248444176119 0 0.33810128782584858 -0.35072533414536311 0 0.34064131712366241 -0.33181983138849169 0 0.3268430880468266 -0.33457206034663262 0 0.33130220335757699 -0.32186248444176119 0 0.34064131712366241 -0.33181983138849169 0 0.3268430880468266 -0.33457206034663262 0 0.31543696134246668 -0.34593224431305769 0 0.3268430880468266 -0.33457206034663262 0 0.31314202037018413 -0.32284829747545468 0 0.33810128782584858 -0.35072533414536311 0 0.31543696134246668 -0.34593224431305769 0 0.3268430880468266 -0.33457206034663262 0 0.33130220335757699 -0.32186248444176119 0 0.3268430880468266 -0.33457206034663262 0 0.31314202037018413 -0.32284829747545468 0 0.33485830675890288 -0.30442904333306592 0 0.31314202037018413 -0.32284829747545468 0 0.3171485971304504 -0.30589952111326829 0 0.31314202037018413 -0.32284829747545468 0 0.3109911447756647 -0.31350988965823029 0 0.33485830675890288 -0.30442904333306592 0 0.33130220335757699 -0.32186248444176119 0 0.31314202037018413 -0.32284829747545468 0 0.31314202037018413 -0.32284829747545468 0 0.30533649780288991 -0.32025428503190068 0 0.3109911447756647 -0.31350988965823029 0 0.30533649780288991 -0.32025428503190068 0 0.3109911447756647 -0.31350988965823029 0 0.30833746379913463 -0.30503745501229762 0 0.31543696134246668 -0.34593224431305769 0 0.30533649780288991 -0.32025428503190068 0 0.30314188851555429 -0.3464145030398364 0 0.30533649780288991 -0.32025428503190068 0 0.29792146783109758 -0.32077626486014349 0 0.30314188851555429 -0.3464145030398364 0 0.31543696134246668 -0.34593224431305769 0 0.31314202037018413 -0.32284829747545468 0 0.30533649780288991 -0.32025428503190068 0 0.29792146783109758 -0.32077626486014349 0 0.30314188851555429 -0.3464145030398364 0 0.31543696134246668 -0.34593224431305769 0 0.30533649780288991 -0.32025428503190068 0 0.29792146783109758 -0.32077626486014349 0 0.29422135484035322 -0.33366994296298719 0 0.30314188851555429 -0.3464145030398364 0 0.29422135484035322 -0.33366994296298719 0 0.29546103181119637 -0.34185893253319311 0 0.30314188851555429 -0.3464145030398364 0 0.29422135484035322 -0.33366994296298719 0 0.29546103181119637 -0.34185893253319311 0 0.28827175492889229 -0.34275780055790278 0 0.29546103181119637 -0.34185893253319311 0 0.28827175492889229 -0.34275780055790278 0 0.29811044553331972 -0.34650788457159087 0 0.29422135484035322 -0.33366994296298719 0 0.28827175492889229 -0.34275780055790278 0 0.27955848846152698 -0.33666113426449551 0 0.29422135484035322 -0.33366994296298719 0 0.28744860979629389 -0.32474860906702402 0 0.27955848846152698 -0.33666113426449551 0 0.28744860979629389 -0.32474860906702402 0 0.29019889155513462 -0.31620785207956748 0 0.28097437988070417 -0.31138482246715898 0 0.29792146783109758 -0.32077626486014349 0 0.29019889155513462 -0.31620785207956748 0 0.29244758100571983 -0.32385066724243061 0 0.29422135484035322 -0.33366994296298719 0 0.28744860979629389 -0.32474860906702402 0 0.29244758100571983 -0.32385066724243061 0 0.29792146783109758 -0.32077626486014349 0 0.29422135484035322 -0.33366994296298719 0 0.29244758100571983 -0.32385066724243061 0 0.28744860979629389 -0.32474860906702402 0 0.29019889155513462 -0.31620785207956748 0 0.29244758100571983 -0.32385066724243061 0 0.30525369772634148 -0.37164386163485291 0 0.30031449930387721 -0.36082981960256849 0 0.30900602422585888 -0.35865430802761772 0 0.30525369772634148 -0.37164386163485291 0 0.30031449930387721 -0.36082981960256849 0 0.29483415024835152 -0.36747827247447862 0 0.30080593951138668 -0.35381036279877531 0 0.30900602422585888 -0.35865430802761772 0 0.30314188851555429 -0.3464145030398364 0 0.30080593951138668 -0.35381036279877531 0 0.29811044553331972 -0.34650788457159087 0 0.29345683997832372 -0.35664529875226292 0 0.30031449930387721 -0.36082981960256849 0 0.30080593951138668 -0.35381036279877531 0 0.30900602422585888 -0.35865430802761772 0 0.30031449930387721 -0.36082981960256849 0 0.30080593951138668 -0.35381036279877531 0 0.29345683997832372 -0.35664529875226292 0 0.31543696134246668 -0.34593224431305769 0 0.30900602422585888 -0.35865430802761772 0 0.30314188851555429 -0.3464145030398364 0 0.30080593951138668 -0.35381036279877531 0 0.30314188851555429 -0.3464145030398364 0 0.29811044553331972 -0.34650788457159087 0 0.29546103181119637 -0.34185893253319311 0 0.30314188851555429 -0.3464145030398364 0 0.29811044553331972 -0.34650788457159087 0 0.29811044553331972 -0.34650788457159087 0 0.29345683997832372 -0.35664529875226292 0 0.28122462644821988 -0.35688066365974619 0 0.28827175492889229 -0.34275780055790278 0 0.29811044553331972 -0.34650788457159087 0 0.28122462644821988 -0.35688066365974619 0 0.28827175492889229 -0.34275780055790278 0 0.28122462644821988 -0.35688066365974619 0 0.27955848846152698 -0.33666113426449551 0 0.29811044553331972 -0.34650788457159087 0 0.28122462644821988 -0.35688066365974619 0 0.29345683997832372 -0.35664529875226292 0 0.28676543400443838 -0.36101512068260139 0 0.28122462644821988 -0.35688066365974619 0 0.28676543400443838 -0.36101512068260139 0 0.28122462644821988 -0.35688066365974619 0 0.28783989868818821 -0.37644057584389279 0 0.30525369772634148 -0.37164386163485291 0 0.29483415024835152 -0.36747827247447862 0 0.28783989868818821 -0.37644057584389279 0 0.28676543400443838 -0.36101512068260139 0 0.27033126349110148 -0.36357234067652822 0 0.29357505063040601 -0.36145191270551408 0 0.28676543400443838 -0.36101512068260139 0 0.29483415024835152 -0.36747827247447862 0 0.30031449930387721 -0.36082981960256849 0 0.29357505063040601 -0.36145191270551408 0 0.29483415024835152 -0.36747827247447862 0 0.30031449930387721 -0.36082981960256849 0 0.29345683997832372 -0.35664529875226292 0 0.29357505063040601 -0.36145191270551408 0 0.29345683997832372 -0.35664529875226292 0 0.29357505063040601 -0.36145191270551408 0 0.28676543400443838 -0.36101512068260139 0 0.28783989868818821 -0.37644057584389279 0 0.28676543400443838 -0.36101512068260139 0 0.29483415024835152 -0.36747827247447862 0 0.28783989868818821 -0.37644057584389279 0 0.27033126349110148 -0.36357234067652822 0 0.28783989868818821 -0.37644057584389279 0 0.27447250226623809 -0.37821124143188289 0 0.27033126349110148 -0.36357234067652822 0 0.28676543400443838 -0.36101512068260139 0 0.27033126349110148 -0.36357234067652822 0 0.28122462644821988 -0.35688066365974619 0 0.27447250226623809 -0.37821124143188289 0 0.26423397132697279 -0.37890457124200982 0 0.27033126349110148 -0.36357234067652822 0 0.27033126349110148 -0.36357234067652822 0 0.28122462644821988 -0.35688066365974619 0 0.28122462644821988 -0.35688066365974619 0 0.26082083375001269 -0.34165569813656432 0 0.27033126349110148 -0.36357234067652822 0 0.28122462644821988 -0.35688066365974619 0 0.26082083375001269 -0.34165569813656432 0 0.28122462644821988 -0.35688066365974619 0 0.27955848846152698 -0.33666113426449551 0 0.26082083375001269 -0.34165569813656432 0 0.27033126349110148 -0.36357234067652822 0 0.25099839141978419 -0.34936335514031408 0 0.27033126349110148 -0.36357234067652822 0 0.25099839141978419 -0.34936335514031408 0 0.26082083375001269 -0.34165569813656432 0 0.27033126349110148 -0.36357234067652822 0 0.25099839141978419 -0.34936335514031408 0 0.24534349961555019 -0.36253701182870851 0 0.26423397132697279 -0.37890457124200982 0 0.27033126349110148 -0.36357234067652822 0 0.24987622704845311 -0.37613765202982719 0 0.27033126349110148 -0.36357234067652822 0 0.24534349961555019 -0.36253701182870851 0 0.24987622704845311 -0.37613765202982719 0 0.27033126349110148 -0.36357234067652822 0 0.24987622704845311 -0.37613765202982719 0 0.28744860979629389 -0.32474860906702402 0 0.26598899428458778 -0.32103793389256657 0 0.27955848846152698 -0.33666113426449551 0 0.28744860979629389 -0.32474860906702402 0 0.26598899428458778 -0.32103793389256657 0 0.28097437988070417 -0.31138482246715898 0 0.26598899428458778 -0.32103793389256657 0 0.27955848846152698 -0.33666113426449551 0 0.26082083375001269 -0.34165569813656432 0 0.26082083375001269 -0.34165569813656432 0 0.2404170410518052 -0.32643073261338312 0 0.26598899428458778 -0.32103793389256657 0 0.26082083375001269 -0.34165569813656432 0 0.2404170410518052 -0.32643073261338312 0 0.25099839141978419 -0.34936335514031408 0 0.26082083375001269 -0.34165569813656432 0 0.2404170410518052 -0.32643073261338312 0 0.26598899428458778 -0.32103793389256657 0 0.24423538898563429 -0.30587701823941071 0 0.2404170410518052 -0.32643073261338312 0 0.26846821806613752 -0.30050752245993012 0 0.24423538898563429 -0.30587701823941071 0 0.25301376652256202 -0.2892367573709661 0 0.26846821806613752 -0.30050752245993012 0 0.24423538898563429 -0.30587701823941071 0 0.26598899428458778 -0.32103793389256657 0 0.26846821806613752 -0.30050752245993012 0 0.24423538898563429 -0.30587701823941071 0 0.25301376652256202 -0.2892367573709661 0 0.26500420865911251 -0.28331687632378699 0 0.26846821806613752 -0.30050752245993012 0 0.25301376652256202 -0.2892367573709661 0 0.26500420865911251 -0.28331687632378699 0 0.2507153324002197 -0.27704953531328702 0 0.26500420865911251 -0.28331687632378699 0 0.27805302037335089 -0.28584974436810762 0 0.26846821806613752 -0.30050752245993012 0 0.27805302037335089 -0.28584974436810762 0 0.26846821806613752 -0.30050752245993012 0 0.29270104714664102 -0.29513802668045069 0 0.26500420865911251 -0.28331687632378699 0 0.27805302037335089 -0.28584974436810762 0 0.27342558025451552 -0.27498979272208851 0 0.26598899428458778 -0.32103793389256657 0 0.26846821806613752 -0.30050752245993012 0 0.28097437988070417 -0.31138482246715898 0 0.26846821806613752 -0.30050752245993012 0 0.28097437988070417 -0.31138482246715898 0 0.29270104714664102 -0.29513802668045069 0 0.26846821806613752 -0.30050752245993012 0 0.29270104714664102 -0.29513802668045069 0 0.29792146783109758 -0.32077626486014349 0 0.29270104714664102 -0.29513802668045069 0 0.29019889155513462 -0.31620785207956748 0 0.28097437988070417 -0.31138482246715898 0 0.29270104714664102 -0.29513802668045069 0 0.29792146783109758 -0.32077626486014349 0 0.29019889155513462 -0.31620785207956748 0 0.29270104714664102 -0.29513802668045069 0 0.29792146783109758 -0.32077626486014349 0 0.29270104714664102 -0.29513802668045069 0 0.29523603426331357 -0.29457632575074338 0 0.27805302037335089 -0.28584974436810762 0 0.29026987947112831 -0.28319821192468808 0 0.29270104714664102 -0.29513802668045069 0 0.27805302037335089 -0.28584974436810762 0 0.29026987947112831 -0.28319821192468808 0 0.28863308206368682 -0.27515966401439529 0 0.29026987947112831 -0.28319821192468808 0 0.29523603426331357 -0.29457632575074338 0 0.29026987947112831 -0.28319821192468808 0 0.29523603426331357 -0.29457632575074338 0 0.30320790951940702 -0.28313078900162059 0 0.29026987947112831 -0.28319821192468808 0 0.29270104714664102 -0.29513802668045069 0 0.29523603426331357 -0.29457632575074338 0 0.29026987947112831 -0.28319821192468808 0 0.29270104714664102 -0.29513802668045069 0 0.29270104714664102 -0.29513802668045069 0 0.29523603426331357 -0.29457632575074338 0 0.29523603426331357 -0.29457632575074338 0 0.31208952779935789 -0.2908419387292881 0 0.29523603426331357 -0.29457632575074338 0 0.30320790951940702 -0.28313078900162059 0 0.31208952779935789 -0.2908419387292881 0 0.29523603426331357 -0.29457632575074338 0 0.31208952779935789 -0.2908419387292881 0 0.30833746379913463 -0.30503745501229762 0 0.31611371382327402 -0.28007222207304999 0 0.30320790951940702 -0.28313078900162059 0 0.31208952779935789 -0.2908419387292881 0 0.30533649780288991 -0.32025428503190068 0 0.29523603426331357 -0.29457632575074338 0 0.30833746379913463 -0.30503745501229762 0 0.30533649780288991 -0.32025428503190068 0 0.29792146783109758 -0.32077626486014349 0 0.29523603426331357 -0.29457632575074338 0 0.30533649780288991 -0.32025428503190068 0 0.29523603426331357 -0.29457632575074338 0 0.3171485971304504 -0.30589952111326829 0 0.3109911447756647 -0.31350988965823029 0 0.30833746379913463 -0.30503745501229762 0 0.29812220868357159 -0.26533402464574418 0 0.30111904597271899 -0.2536098058489899 0 0.30981211567343969 -0.26250129009931661 0 0.31597462601859122 -0.25080747204364812 0 0.30111904597271899 -0.2536098058489899 0 0.30981211567343969 -0.26250129009931661 0 0.29812220868357159 -0.26533402464574418 0 0.30981211567343969 -0.26250129009931661 0 0.30706455279928557 -0.27339796693147528 0 0.31611371382327402 -0.28007222207304999 0 0.30320790951940702 -0.28313078900162059 0 0.30706455279928557 -0.27339796693147528 0 0.29026987947112831 -0.28319821192468808 0 0.30320790951940702 -0.28313078900162059 0 0.29755036247591721 -0.27602563541609298 0 0.30320790951940702 -0.28313078900162059 0 0.30706455279928557 -0.27339796693147528 0 0.29755036247591721 -0.27602563541609298 0 0.29812220868357159 -0.26533402464574418 0 0.30706455279928557 -0.27339796693147528 0 0.29755036247591721 -0.27602563541609298 0 0.29812220868357159 -0.26533402464574418 0 0.29755036247591721 -0.27602563541609298 0 0.28863308206368682 -0.27515966401439529 0 0.29026987947112831 -0.28319821192468808 0 0.28863308206368682 -0.27515966401439529 0 0.29026987947112831 -0.28319821192468808 0 0.29755036247591721 -0.27602563541609298 0 0.28863308206368682 -0.27515966401439529 0 0.28863308206368682 -0.27515966401439529 0 0.28456511698073272 -0.25518130134833977 0 0.29812220868357159 -0.26533402464574418 0 0.28863308206368682 -0.27515966401439529 0 0.28456511698073272 -0.25518130134833977 0 0.29812220868357159 -0.26533402464574418 0 0.30111904597271899 -0.2536098058489899 0 0.28456511698073272 -0.25518130134833977 0 0.28863308206368682 -0.27515966401439529 0 0.28456511698073272 -0.25518130134833977 0 0.27223885194073971 -0.26265851400849172 0 0.28456511698073272 -0.25518130134833977 0 0.27223885194073971 -0.26265851400849172 0 0.26629969424128969 -0.25192769388052821 0 0.27223885194073971 -0.26265851400849172 0 0.26629969424128969 -0.25192769388052821 0 0.2629172406837702 -0.26740365320709081 0 0.26500420865911251 -0.28331687632378699 0 0.27342558025451552 -0.27498979272208851 0 0.2629172406837702 -0.26740365320709081 0 0.28863308206368682 -0.27515966401439529 0 0.27223885194073971 -0.26265851400849172 0 0.27342558025451552 -0.27498979272208851 0 0.27805302037335089 -0.28584974436810762 0 0.28863308206368682 -0.27515966401439529 0 0.27342558025451552 -0.27498979272208851 0 0.27223885194073971 -0.26265851400849172 0 0.27342558025451552 -0.27498979272208851 0 0.2629172406837702 -0.26740365320709081 0 0.26500420865911251 -0.28331687632378699 0 0.2629172406837702 -0.26740365320709081 0 0.2507153324002197 -0.27704953531328702 0 0.2629172406837702 -0.26740365320709081 0 0.2507153324002197 -0.27704953531328702 0 0.2466218950091964 -0.26012473444713258 0 0.25037283077400019 -0.2416092145933311 0 0.26629969424128969 -0.25192769388052821 0 0.2466218950091964 -0.26012473444713258 0 0.26629969424128969 -0.25192769388052821 0 0.2629172406837702 -0.26740365320709081 0 0.2466218950091964 -0.26012473444713258 0 0.25037283077400019 -0.2416092145933311 0 0.2466218950091964 -0.26012473444713258 0 0.2339549802858914 -0.24933471903745599 0 0.2466218950091964 -0.26012473444713258 0 0.22717476572977791 -0.26325637954660608 0 0.2339549802858914 -0.24933471903745599 0 0.2466218950091964 -0.26012473444713258 0 0.23628574795648369 -0.27498419313581679 0 0.22717476572977791 -0.26325637954660608 0 0.2507153324002197 -0.27704953531328702 0 0.2466218950091964 -0.26012473444713258 0 0.23628574795648369 -0.27498419313581679 0 0.2507153324002197 -0.27704953531328702 0 0.23628574795648369 -0.27498419313581679 0 0.24044913557019401 -0.28723099739492908 0 0.2247339410531527 -0.27667652802353632 0 0.21554844428562811 -0.26491471108287651 0 0.21653111649902579 -0.28712771180040292 0 0.23628574795648369 -0.27498419313581679 0 0.2247339410531527 -0.27667652802353632 0 0.22717476572977791 -0.26325637954660608 0 0.2247339410531527 -0.27667652802353632 0 0.22717476572977791 -0.26325637954660608 0 0.21554844428562811 -0.26491471108287651 0 0.22717476572977791 -0.26325637954660608 0 0.22331750647786899 -0.25281133177650322 0 0.2339549802858914 -0.24933471903745599 0 0.22717476572977791 -0.26325637954660608 0 0.22331750647786899 -0.25281133177650322 0 0.21554844428562811 -0.26491471108287651 0 0.2084475354763706 -0.25511513831035743 0 0.21554844428562811 -0.26491471108287651 0 0.1982966667633215 -0.26354120971092698 0 0.21554844428562811 -0.26491471108287651 0 0.21456577207223029 -0.24270171036535029 0 0.22331750647786899 -0.25281133177650322 0 0.21554844428562811 -0.26491471108287651 0 0.21456577207223029 -0.24270171036535029 0 0.2084475354763706 -0.25511513831035743 0 0.21554844428562811 -0.26491471108287651 0 0.21336353465090491 -0.24693864317134839 0 0.21554844428562811 -0.26491471108287651 0 0.21336353465090491 -0.24693864317134839 0 0.21456577207223029 -0.24270171036535029 0 0.2084475354763706 -0.25511513831035743 0 0.1982966667633215 -0.26354120971092698 0 0.2080714594183444 -0.2424179483002232 0 0.1982966667633215 -0.26354120971092698 0 0.2080714594183444 -0.2424179483002232 0 0.21554844428562811 -0.26491471108287651 0 0.21653111649902579 -0.28712771180040292 0 0.21554844428562811 -0.26491471108287651 0 0.20859607852913339 -0.28093905456482821 0 0.21653111649902579 -0.28712771180040292 0 0.21554844428562811 -0.26491471108287651 0 0.20859607852913339 -0.28093905456482821 0 0.2011380539128553 -0.27767933622792518 0 0.21554844428562811 -0.26491471108287651 0 0.2011380539128553 -0.27767933622792518 0 0.1982966667633215 -0.26354120971092698 0 0.1982966667633215 -0.26354120971092698 0 0.18852187410829821 -0.28466447112163068 0 0.1982966667633215 -0.26354120971092698 0 0.18852187410829821 -0.28466447112163068 0 0.1845366839674035 -0.26640487959885623 0 0.2011380539128553 -0.27767933622792518 0 0.1982966667633215 -0.26354120971092698 0 0.18852187410829821 -0.28466447112163068 0 0.1982966667633215 -0.26354120971092698 0 0.2080714594183444 -0.2424179483002232 0 0.19254414318066221 -0.24961624770678509 0 0.1982966667633215 -0.26354120971092698 0 0.18706352147094041 -0.25756661524031438 0 0.1845366839674035 -0.26640487959885623 0 0.1982966667633215 -0.26354120971092698 0 0.18706352147094041 -0.25756661524031438 0 0.19254414318066221 -0.24961624770678509 0 0.18706352147094041 -0.25756661524031438 0 0.19254414318066221 -0.24961624770678509 0 0.18399505531774341 -0.24981832115951039 0 0.20249447748908611 -0.29813355613580778 0 0.1976485991634879 -0.30796138879627621 0 0.19462594870140809 -0.30164723750547567 0 0.20249447748908611 -0.29813355613580778 0 0.19462594870140809 -0.30164723750547567 0 0.19392418081794471 -0.29575522021664652 0 0.20249447748908611 -0.29813355613580778 0 0.1976485991634879 -0.30796138879627621 0 0.20782414549410869 -0.30817847155873718 0 0.1976485991634879 -0.30796138879627621 0 0.20782414549410869 -0.30817847155873718 0 0.20282381327660201 -0.31505297042611552 0 0.1976485991634879 -0.30796138879627621 0 0.19009702279388629 -0.3064242775921906 0 0.18802618722583669 -0.31833181955932999 0 0.1976485991634879 -0.30796138879627621 0 0.19009702279388629 -0.3064242775921906 0 0.19462594870140809 -0.30164723750547567 0 0.19009702279388629 -0.3064242775921906 0 0.19462594870140809 -0.30164723750547567 0 0.1880606218677118 -0.30022154946313712 0 0.19462594870140809 -0.30164723750547567 0 0.19110113081553529 -0.29631368747161629 0 0.19392418081794471 -0.29575522021664652 0 0.1880606218677118 -0.30022154946313712 0 0.19110113081553529 -0.29631368747161629 0 0.18734834214976739 -0.29514628785519947 0 0.19462594870140809 -0.30164723750547567 0 0.1880606218677118 -0.30022154946313712 0 0.19110113081553529 -0.29631368747161629 0 0.20249447748908611 -0.29813355613580778 0 0.18747516626574931 -0.28692639975368628 0 0.20249447748908611 -0.29813355613580778 0 0.19392418081794471 -0.29575522021664652 0 0.18747516626574931 -0.28692639975368628 0 0.19110113081553529 -0.29631368747161629 0 0.19392418081794471 -0.29575522021664652 0 0.18747516626574931 -0.28692639975368628 0 0.19110113081553529 -0.29631368747161629 0 0.18747516626574931 -0.28692639975368628 0 0.18734834214976739 -0.29514628785519947 0 0.18852187410829821 -0.28466447112163068 0 0.19787122383615691 -0.29172525818392958 0 0.18852187410829821 -0.28466447112163068 0 0.19731262536099689 -0.28481999283041842 0 0.19787122383615691 -0.29172525818392958 0 0.18852187410829821 -0.28466447112163068 0 0.19787122383615691 -0.29172525818392958 0 0.18747516626574931 -0.28692639975368628 0 0.18852187410829821 -0.28466447112163068 0 0.18747516626574931 -0.28692639975368628 0 0.2011380539128553 -0.27767933622792518 0 0.18852187410829821 -0.28466447112163068 0 0.19731262536099689 -0.28481999283041842 0 0.201719349586677 -0.2852109057881882 0 0.19787122383615691 -0.29172525818392958 0 0.206049533411369 -0.28982701925762389 0 0.19731262536099689 -0.28481999283041842 0 0.201719349586677 -0.2852109057881882 0 0.19787122383615691 -0.29172525818392958 0 0.2011380539128553 -0.27767933622792518 0 0.19731262536099689 -0.28481999283041842 0 0.201719349586677 -0.2852109057881882 0 0.20249447748908611 -0.29813355613580778 0 0.19787122383615691 -0.29172525818392958 0 0.18747516626574931 -0.28692639975368628 0 0.20249447748908611 -0.29813355613580778 0 0.19787122383615691 -0.29172525818392958 0 0.206049533411369 -0.28982701925762389 0 0.20249447748908611 -0.29813355613580778 0 0.206049533411369 -0.28982701925762389 0 0.20903552332543929 -0.29406903275804652 0 0.206049533411369 -0.28982701925762389 0 0.20903552332543929 -0.29406903275804652 0 0.21653111649902579 -0.28712771180040292 0 0.20249447748908611 -0.29813355613580778 0 0.20903552332543929 -0.29406903275804652 0 0.2123558614978226 -0.29827812898856709 0 0.20859607852913339 -0.28093905456482821 0 0.206049533411369 -0.28982701925762389 0 0.21653111649902579 -0.28712771180040292 0 0.20859607852913339 -0.28093905456482821 0 0.201719349586677 -0.2852109057881882 0 0.206049533411369 -0.28982701925762389 0 0.20859607852913339 -0.28093905456482821 0 0.2011380539128553 -0.27767933622792518 0 0.201719349586677 -0.2852109057881882 0 0.20903552332543929 -0.29406903275804652 0 0.21653111649902579 -0.28712771180040292 0 0.2123558614978226 -0.29827812898856709 0 0.21653111649902579 -0.28712771180040292 0 0.2175137887124228 -0.30934071251792922 0 0.21653111649902579 -0.28712771180040292 0 0.2123558614978226 -0.29827812898856709 0 0.2175137887124228 -0.30934071251792922 0 0.20249447748908611 -0.29813355613580778 0 0.2123558614978226 -0.29827812898856709 0 0.2175137887124228 -0.30934071251792922 0 0.20249447748908611 -0.29813355613580778 0 0.2175137887124228 -0.30934071251792922 0 0.20782414549410869 -0.30817847155873718 0 0.2176214393273678 -0.31177412129290383 0 0.20282381327660201 -0.31505297042611552 0 0.20249447748908611 -0.29813355613580778 0 0.20782414549410869 -0.30817847155873718 0 0.2175137887124228 -0.30934071251792922 0 0.20782414549410869 -0.30817847155873718 0 0.2175137887124228 -0.30934071251792922 0 0.2176214393273678 -0.31177412129290383 0 0.2175137887124228 -0.30934071251792922 0 0.2176214393273678 -0.31177412129290383 0 0.2175137887124228 -0.30934071251792922 0 0.2176214393273678 -0.31177412129290383 0 0.21999804566891551 -0.31122614102315033 0 0.21999804566891551 -0.31122614102315033 0 0.24423538898563429 -0.30587701823941071 0 0.2175137887124228 -0.30934071251792922 0 0.21999804566891551 -0.31122614102315033 0 0.22812963079484819 -0.29309964455197901 0 0.21999804566891551 -0.31122614102315033 0 0.22812963079484819 -0.29309964455197901 0 0.21999804566891551 -0.31122614102315033 0 0.22812963079484819 -0.29309964455197901 0 0.24423538898563429 -0.30587701823941071 0 0.2176214393273678 -0.31177412129290383 0 0.21999804566891551 -0.31122614102315033 0 0.2175137887124228 -0.30934071251792922 0 0.21999804566891551 -0.31122614102315033 0 0.23628574795648369 -0.27498419313581679 0 0.22812963079484819 -0.29309964455197901 0 0.2247339410531527 -0.27667652802353632 0 0.21653111649902579 -0.28712771180040292 0 0.22812963079484819 -0.29309964455197901 0 0.23628574795648369 -0.27498419313581679 0 0.2247339410531527 -0.27667652802353632 0 0.22812963079484819 -0.29309964455197901 0 0.21653111649902579 -0.28712771180040292 0 0.2175137887124228 -0.30934071251792922 0 0.22812963079484819 -0.29309964455197901 0 0.23628574795648369 -0.27498419313581679 0 0.22812963079484819 -0.29309964455197901 0 0.24044913557019401 -0.28723099739492908 0 0.25301376652256202 -0.2892367573709661 0 0.24044913557019401 -0.28723099739492908 0 0.24423538898563429 -0.30587701823941071 0 0.22812963079484819 -0.29309964455197901 0 0.24044913557019401 -0.28723099739492908 0 0.24423538898563429 -0.30587701823941071 0 0.25301376652256202 -0.2892367573709661 0 0.2507153324002197 -0.27704953531328702 0 0.24044913557019401 -0.28723099739492908 0 0.21999804566891551 -0.31122614102315033 0 0.24423538898563429 -0.30587701823941071 0 0.2404170410518052 -0.32643073261338312 0 0.25099839141978419 -0.34936335514031408 0 0.2316655193484673 -0.33515436960409939 0 0.25099839141978419 -0.34936335514031408 0 0.2404170410518052 -0.32643073261338312 0 0.2316655193484673 -0.33515436960409939 0 0.2404170410518052 -0.32643073261338312 0 0.2316655193484673 -0.33515436960409939 0 0.2247705650129608 -0.32491873692320528 0 0.2316655193484673 -0.33515436960409939 0 0.22208049410379579 -0.34309390150507102 0 0.22867514261462599 -0.34782526071452929 0 0.2316655193484673 -0.33515436960409939 0 0.22208049410379579 -0.34309390150507102 0 0.220555537226792 -0.33578323097752499 0 0.22208049410379579 -0.34309390150507102 0 0.220555537226792 -0.33578323097752499 0 0.21451162402718699 -0.34512658597487872 0 0.220555537226792 -0.33578323097752499 0 0.2247705650129608 -0.32491873692320528 0 0.21820242441149371 -0.32490710899175251 0 0.2316655193484673 -0.33515436960409939 0 0.220555537226792 -0.33578323097752499 0 0.2247705650129608 -0.32491873692320528 0 0.21999804566891551 -0.31122614102315033 0 0.2404170410518052 -0.32643073261338312 0 0.2247705650129608 -0.32491873692320528 0 0.21999804566891551 -0.31122614102315033 0 0.2404170410518052 -0.32643073261338312 0 0.2247705650129608 -0.32491873692320528 0 0.21780935440599439 -0.31602188338433101 0 0.21820242441149371 -0.32490710899175251 0 0.21999804566891551 -0.31122614102315033 0 0.2247705650129608 -0.32491873692320528 0 0.21780935440599439 -0.31602188338433101 0 0.21999804566891551 -0.31122614102315033 0 0.21780935440599439 -0.31602188338433101 0 0.23679608458568241 -0.3713456781615978 0 0.24534349961555019 -0.36253701182870851 0 0.24987622704845311 -0.37613765202982719 0 0.23679608458568241 -0.3713456781615978 0 0.24534349961555019 -0.36253701182870851 0 0.23133102347449649 -0.35950822589080189 0 0.25099839141978419 -0.34936335514031408 0 0.2316655193484673 -0.33515436960409939 0 0.23760271529458479 -0.35087764463569071 0 0.24534349961555019 -0.36253701182870851 0 0.23760271529458479 -0.35087764463569071 0 0.23133102347449649 -0.35950822589080189 0 0.25099839141978419 -0.34936335514031408 0 0.24534349961555019 -0.36253701182870851 0 0.23760271529458479 -0.35087764463569071 0 0.2316655193484673 -0.33515436960409939 0 0.23760271529458479 -0.35087764463569071 0 0.22867514261462599 -0.34782526071452929 0 0.22208049410379579 -0.34309390150507102 0 0.22076837523631451 -0.35267920974236072 0 0.21451162402718699 -0.34512658597487872 0 0.22208049410379579 -0.34309390150507102 0 0.22867514261462599 -0.34782526071452929 0 0.22076837523631451 -0.35267920974236072 0 0.22076837523631451 -0.35267920974236072 0 0.22341137818785181 -0.36337688942730773 0 0.21609027172906259 -0.36087537471117581 0 0.22076837523631451 -0.35267920974236072 0 0.23133102347449649 -0.35950822589080189 0 0.22341137818785181 -0.36337688942730773 0 0.22867514261462599 -0.34782526071452929 0 0.22076837523631451 -0.35267920974236072 0 0.23133102347449649 -0.35950822589080189 0 0.23760271529458479 -0.35087764463569071 0 0.22867514261462599 -0.34782526071452929 0 0.23133102347449649 -0.35950822589080189 0 0.23133102347449649 -0.35950822589080189 0 0.22341137818785181 -0.36337688942730773 0 0.22699371624108439 -0.37103399677892651 0 0.22341137818785181 -0.36337688942730773 0 0.22699371624108439 -0.37103399677892651 0 0.21663927632257499 -0.37152038636996992 0 0.22699371624108439 -0.37103399677892651 0 0.21663927632257499 -0.37152038636996992 0 0.22189277223980711 -0.38054577212349588 0 0.23679608458568241 -0.3713456781615978 0 0.22699371624108439 -0.37103399677892651 0 0.23010576568282681 -0.37607478874810818 0 0.23679608458568241 -0.3713456781615978 0 0.23133102347449649 -0.35950822589080189 0 0.22699371624108439 -0.37103399677892651 0 0.21663927632257499 -0.37152038636996992 0 0.20683644217058031 -0.36558797855932218 0 0.20576161095015591 -0.37595213443190167 0 0.22341137818785181 -0.36337688942730773 0 0.21663927632257499 -0.37152038636996992 0 0.21609027172906259 -0.36087537471117581 0 0.21609027172906259 -0.36087537471117581 0 0.20683644217058031 -0.36558797855932218 0 0.21089823393406021 -0.35324530101306001 0 0.21663927632257499 -0.37152038636996992 0 0.21609027172906259 -0.36087537471117581 0 0.20683644217058031 -0.36558797855932218 0 0.19940837682496099 -0.35689206815154528 0 0.20777431361625601 -0.33831058893907762 0 0.21089823393406021 -0.35324530101306001 0 0.19940837682496099 -0.35689206815154528 0 0.20777431361625601 -0.33831058893907762 0 0.20683644217058031 -0.36558797855932218 0 0.21089823393406021 -0.35324530101306001 0 0.19940837682496099 -0.35689206815154528 0 0.22076837523631451 -0.35267920974236072 0 0.21609027172906259 -0.36087537471117581 0 0.21089823393406021 -0.35324530101306001 0 0.21089823393406021 -0.35324530101306001 0 0.21451162402718699 -0.34512658597487872 0 0.20777431361625601 -0.33831058893907762 0 0.22076837523631451 -0.35267920974236072 0 0.21089823393406021 -0.35324530101306001 0 0.21451162402718699 -0.34512658597487872 0 0.1971616983813648 -0.34495631128618592 0 0.19940837682496099 -0.35689206815154528 0 0.20777431361625601 -0.33831058893907762 0 0.1971616983813648 -0.34495631128618592 0 0.18787137947787569 -0.35180034780069419 0 0.18864170350563411 -0.33720407153827198 0 0.1971616983813648 -0.34495631128618592 0 0.18787137947787569 -0.35180034780069419 0 0.19940837682496099 -0.35689206815154528 0 0.20683644217058031 -0.36558797855932218 0 0.20576161095015591 -0.37595213443190167 0 0.1910424400336663 -0.37547354736401328 0 0.18787137947787569 -0.35180034780069419 0 0.19940837682496099 -0.35689206815154528 0 0.1910424400336663 -0.37547354736401328 0 0.19940837682496099 -0.35689206815154528 0 0.1910424400336663 -0.37547354736401328 0 0.20683644217058031 -0.36558797855932218 0 0.19940837682496099 -0.35689206815154528 0 0.1910424400336663 -0.37547354736401328 0 0.21780935440599439 -0.31602188338433101 0 0.20777431361625601 -0.33831058893907762 0 0.21780935440599439 -0.31602188338433101 0 0.20777431361625601 -0.33831058893907762 0 0.20282381327660201 -0.31505297042611552 0 0.21780935440599439 -0.31602188338433101 0 0.21820242441149371 -0.32490710899175251 0 0.20777431361625601 -0.33831058893907762 0 0.2176214393273678 -0.31177412129290383 0 0.20282381327660201 -0.31505297042611552 0 0.2176214393273678 -0.31177412129290383 0 0.21780935440599439 -0.31602188338433101 0 0.20282381327660201 -0.31505297042611552 0 0.2176214393273678 -0.31177412129290383 0 0.21780935440599439 -0.31602188338433101 0 0.2176214393273678 -0.31177412129290383 0 0.21999804566891551 -0.31122614102315033 0 0.21780935440599439 -0.31602188338433101 0 0.21780935440599439 -0.31602188338433101 0 0.21820242441149371 -0.32490710899175251 0 0.220555537226792 -0.33578323097752499 0 0.21820242441149371 -0.32490710899175251 0 0.20777431361625601 -0.33831058893907762 0 0.220555537226792 -0.33578323097752499 0 0.21451162402718699 -0.34512658597487872 0 0.20777431361625601 -0.33831058893907762 0 0.21451162402718699 -0.34512658597487872 0 0.20777431361625601 -0.33831058893907762 0 0.1971616983813648 -0.34495631128618592 0 0.20777431361625601 -0.33831058893907762 0 0.18864170350563411 -0.33720407153827198 0 0.20777431361625601 -0.33831058893907762 0 0.18802618722583669 -0.31833181955932999 0 0.20777431361625601 -0.33831058893907762 0 0.18864170350563411 -0.33720407153827198 0 0.18802618722583669 -0.31833181955932999 0 0.20777431361625601 -0.33831058893907762 0 0.20282381327660201 -0.31505297042611552 0 0.18802618722583669 -0.31833181955932999 0 0.20282381327660201 -0.31505297042611552 0 0.18802618722583669 -0.31833181955932999 0 0.1976485991634879 -0.30796138879627621 0 0.20282381327660201 -0.31505297042611552 0 0.18802618722583669 -0.31833181955932999 0 0.18802618722583669 -0.31833181955932999 0 0.1791507244663583 -0.32983729973660558 0 0.16791254130802971 -0.3227885891963716 0 0.18802618722583669 -0.31833181955932999 0 0.17151825735526699 -0.31325416760549368 0 0.16791254130802971 -0.3227885891963716 0 0.18802618722583669 -0.31833181955932999 0 0.16791254130802971 -0.3227885891963716 0 0.18864170350563411 -0.33720407153827198 0 0.18802618722583669 -0.31833181955932999 0 0.1791507244663583 -0.32983729973660558 0 0.17202246582593331 -0.34102471865244838 0 0.1791507244663583 -0.32983729973660558 0 0.16791254130802971 -0.3227885891963716 0 0.18787137947787569 -0.35180034780069419 0 0.18864170350563411 -0.33720407153827198 0 0.17202246582593331 -0.34102471865244838 0 0.18864170350563411 -0.33720407153827198 0 0.17202246582593331 -0.34102471865244838 0 0.1791507244663583 -0.32983729973660558 0 0.17202246582593331 -0.34102471865244838 0 0.1546435437787094 -0.34381338892778002 0 0.1557586906108582 -0.32786840018592928 0 0.17202246582593331 -0.34102471865244838 0 0.16791254130802971 -0.3227885891963716 0 0.1557586906108582 -0.32786840018592928 0 0.16791254130802971 -0.3227885891963716 0 0.1557586906108582 -0.32786840018592928 0 0.1602411687519314 -0.31190927739118429 0 0.17151825735526699 -0.31325416760549368 0 0.16791254130802971 -0.3227885891963716 0 0.1602411687519314 -0.31190927739118429 0 0.18787137947787569 -0.35180034780069419 0 0.17662324672053431 -0.35795823269279659 0 0.1910424400336663 -0.37547354736401328 0 0.17662324672053431 -0.35795823269279659 0 0.17035242753357599 -0.36877211446365682 0 0.1910424400336663 -0.37547354736401328 0 0.17035242753357599 -0.36877211446365682 0 0.1910424400336663 -0.37547354736401328 0 0.1737051017910701 -0.38004230502140057 0 0.18787137947787569 -0.35180034780069419 0 0.17202246582593331 -0.34102471865244838 0 0.17662324672053431 -0.35795823269279659 0 0.17202246582593331 -0.34102471865244838 0 0.17662324672053431 -0.35795823269279659 0 0.16265844046108829 -0.35526087104265458 0 0.17202246582593331 -0.34102471865244838 0 0.16265844046108829 -0.35526087104265458 0 0.1546435437787094 -0.34381338892778002 0 0.17662324672053431 -0.35795823269279659 0 0.16265844046108829 -0.35526087104265458 0 0.17035242753357599 -0.36877211446365682 0 0.16265844046108829 -0.35526087104265458 0 0.1569593121701936 -0.36832063090657668 0 0.17035242753357599 -0.36877211446365682 0 0.1569593121701936 -0.36832063090657668 0 0.17035242753357599 -0.36877211446365682 0 0.16307541855137739 -0.37743582412871929 0 0.14536400873927011 -0.3681220756701501 0 0.1426630499740982 -0.35652090160864008 0 0.13524945632583441 -0.37311377610700652 0 0.16265844046108829 -0.35526087104265458 0 0.1569593121701936 -0.36832063090657668 0 0.1426630499740982 -0.35652090160864008 0 0.14536400873927011 -0.3681220756701501 0 0.13524945632583441 -0.37311377610700652 0 0.14973869037300869 -0.38096853745143089 0 0.1569593121701936 -0.36832063090657668 0 0.14536400873927011 -0.3681220756701501 0 0.14973869037300869 -0.38096853745143089 0 0.1569593121701936 -0.36832063090657668 0 0.14536400873927011 -0.3681220756701501 0 0.1426630499740982 -0.35652090160864008 0 0.1546435437787094 -0.34381338892778002 0 0.1426630499740982 -0.35652090160864008 0 0.1424354920479888 -0.33775294740649747 0 0.16265844046108829 -0.35526087104265458 0 0.1546435437787094 -0.34381338892778002 0 0.1426630499740982 -0.35652090160864008 0 0.13449730155472761 -0.34743155680512378 0 0.12784456261830821 -0.36308533366748658 0 0.123981461538115 -0.35128285539313481 0 0.1426630499740982 -0.35652090160864008 0 0.13449730155472761 -0.34743155680512378 0 0.1424354920479888 -0.33775294740649747 0 0.1426630499740982 -0.35652090160864008 0 0.13449730155472761 -0.34743155680512378 0 0.12784456261830821 -0.36308533366748658 0 0.13449730155472761 -0.34743155680512378 0 0.13051916655351839 -0.33696304048325831 0 0.123981461538115 -0.35128285539313481 0 0.1426630499740982 -0.35652090160864008 0 0.12784456261830821 -0.36308533366748658 0 0.13524945632583441 -0.37311377610700652 0 0.12784456261830821 -0.36308533366748658 0 0.13524945632583441 -0.37311377610700652 0 0.12609635470998201 -0.38402791619100712 0 0.14855409589738661 -0.31441038212804873 0 0.1557586906108582 -0.32786840018592928 0 0.1602411687519314 -0.31190927739118429 0 0.1445015266660287 -0.32337949759917511 0 0.14855409589738661 -0.31441038212804873 0 0.13871327718005111 -0.31332369293528212 0 0.1445015266660287 -0.32337949759917511 0 0.14855409589738661 -0.31441038212804873 0 0.1557586906108582 -0.32786840018592928 0 0.1546435437787094 -0.34381338892778002 0 0.1557586906108582 -0.32786840018592928 0 0.1424354920479888 -0.33775294740649747 0 0.1445015266660287 -0.32337949759917511 0 0.1557586906108582 -0.32786840018592928 0 0.1424354920479888 -0.33775294740649747 0 0.1445015266660287 -0.32337949759917511 0 0.1424354920479888 -0.33775294740649747 0 0.13219802669416811 -0.32498852212276208 0 0.1424354920479888 -0.33775294740649747 0 0.13051916655351839 -0.33696304048325831 0 0.13219802669416811 -0.32498852212276208 0 0.13449730155472761 -0.34743155680512378 0 0.1424354920479888 -0.33775294740649747 0 0.13051916655351839 -0.33696304048325831 0 0.13051916655351839 -0.33696304048325831 0 0.13219802669416811 -0.32498852212276208 0 0.12260601330919629 -0.33072698382653798 0 0.1445015266660287 -0.32337949759917511 0 0.13219802669416811 -0.32498852212276208 0 0.13871327718005111 -0.31332369293528212 0 0.13219802669416811 -0.32498852212276208 0 0.1265219532001009 -0.3124330460259736 0 0.1192961391526948 -0.32261879728377291 0 0.13219802669416811 -0.32498852212276208 0 0.13871327718005111 -0.31332369293528212 0 0.1265219532001009 -0.3124330460259736 0 0.1265219532001009 -0.3124330460259736 0 0.1332586495603032 -0.30031372317270688 0 0.1198701537204314 -0.30089140532399938 0 0.1332586495603032 -0.30031372317270688 0 0.1242383748246253 -0.29131174999725179 0 0.1198701537204314 -0.30089140532399938 0 0.13871327718005111 -0.31332369293528212 0 0.1265219532001009 -0.3124330460259736 0 0.1332586495603032 -0.30031372317270688 0 0.13871327718005111 -0.31332369293528212 0 0.1332586495603032 -0.30031372317270688 0 0.147245411062319 -0.30441698656302629 0 0.14855409589738661 -0.31441038212804873 0 0.13871327718005111 -0.31332369293528212 0 0.147245411062319 -0.30441698656302629 0 0.147245411062319 -0.30441698656302629 0 0.15432967412725099 -0.29846298066074151 0 0.14327492933615671 -0.29425024746867751 0 0.1332586495603032 -0.30031372317270688 0 0.147245411062319 -0.30441698656302629 0 0.14327492933615671 -0.29425024746867751 0 0.147245411062319 -0.30441698656302629 0 0.15432967412725099 -0.29846298066074151 0 0.1602411687519314 -0.31190927739118429 0 0.14855409589738661 -0.31441038212804873 0 0.147245411062319 -0.30441698656302629 0 0.1602411687519314 -0.31190927739118429 0 0.15432967412725099 -0.29846298066074151 0 0.1517600770447052 -0.28164214899084639 0 0.14327492933615671 -0.29425024746867751 0 0.1517600770447052 -0.28164214899084639 0 0.14327492933615671 -0.29425024746867751 0 0.13646338677899769 -0.28546266283427663 0 0.1332586495603032 -0.30031372317270688 0 0.14327492933615671 -0.29425024746867751 0 0.13646338677899769 -0.28546266283427663 0 0.1332586495603032 -0.30031372317270688 0 0.13646338677899769 -0.28546266283427663 0 0.1242383748246253 -0.29131174999725179 0 0.13646338677899769 -0.28546266283427663 0 0.1233023238440631 -0.28097148456094378 0 0.1242383748246253 -0.29131174999725179 0 0.1517600770447052 -0.28164214899084639 0 0.13646338677899769 -0.28546266283427663 0 0.1311170075682456 -0.27142576198599933 0 0.1517600770447052 -0.28164214899084639 0 0.1311170075682456 -0.27142576198599933 0 0.1364827709165429 -0.26618641562940759 0 0.13646338677899769 -0.28546266283427663 0 0.1311170075682456 -0.27142576198599933 0 0.1233023238440631 -0.28097148456094378 0 0.1311170075682456 -0.27142576198599933 0 0.1364827709165429 -0.26618641562940759 0 0.1212054647883809 -0.25073068226796852 0 0.1364827709165429 -0.26618641562940759 0 0.13217397618885759 -0.25462043987800831 0 0.1212054647883809 -0.25073068226796852 0 0.1364827709165429 -0.26618641562940759 0 0.1212054647883809 -0.25073068226796852 0 0.1364827709165429 -0.26618641562940759 0 0.13217397618885759 -0.25462043987800831 0 0.14275904560399111 -0.25945725309375861 0 0.13217397618885759 -0.25462043987800831 0 0.1429630926125974 -0.2502577086919005 0 0.14275904560399111 -0.25945725309375861 0 0.1429630926125974 -0.2502577086919005 0 0.16574248336044761 -0.26746108990676593 0 0.1429630926125974 -0.2502577086919005 0 0.15128247879849499 -0.26292486595599002 0 0.16574248336044761 -0.26746108990676593 0 0.1429630926125974 -0.2502577086919005 0 0.16574248336044761 -0.26746108990676593 0 0.16001236861667459 -0.2513654190734112 0 0.1429630926125974 -0.2502577086919005 0 0.14275904560399111 -0.25945725309375861 0 0.15128247879849499 -0.26292486595599002 0 0.1364827709165429 -0.26618641562940759 0 0.14275904560399111 -0.25945725309375861 0 0.15128247879849499 -0.26292486595599002 0 0.1517600770447052 -0.28164214899084639 0 0.1364827709165429 -0.26618641562940759 0 0.15128247879849499 -0.26292486595599002 0 0.1517600770447052 -0.28164214899084639 0 0.15128247879849499 -0.26292486595599002 0 0.15776774232478771 -0.26956647822523339 0 0.1517600770447052 -0.28164214899084639 0 0.1311170075682456 -0.27142576198599933 0 0.1517600770447052 -0.28164214899084639 0 0.1364827709165429 -0.26618641562940759 0 0.1517600770447052 -0.28164214899084639 0 0.16209364730358741 -0.27452888323759039 0 0.16594555478614451 -0.28284233368471318 0 0.1517600770447052 -0.28164214899084639 0 0.16209364730358741 -0.27452888323759039 0 0.15776774232478771 -0.26956647822523339 0 0.16209364730358741 -0.27452888323759039 0 0.15776774232478771 -0.26956647822523339 0 0.16574248336044761 -0.26746108990676593 0 0.15128247879849499 -0.26292486595599002 0 0.15776774232478771 -0.26956647822523339 0 0.16574248336044761 -0.26746108990676593 0 0.16209364730358741 -0.27452888323759039 0 0.16574248336044761 -0.26746108990676593 0 0.16920230535812411 -0.27329149954452342 0 0.16209364730358741 -0.27452888323759039 0 0.16920230535812411 -0.27329149954452342 0 0.16594555478614451 -0.28284233368471318 0 0.16920230535812411 -0.27329149954452342 0 0.1710222018321049 -0.28124575318360368 0 0.16594555478614451 -0.28284233368471318 0 0.16574248336044761 -0.26746108990676593 0 0.16001236861667459 -0.2513654190734112 0 0.16988601458932601 -0.2589500224365659 0 0.16574248336044761 -0.26746108990676593 0 0.16988601458932601 -0.2589500224365659 0 0.17628584543496439 -0.26683535894776161 0 0.16001236861667459 -0.2513654190734112 0 0.16988601458932601 -0.2589500224365659 0 0.16978669848249819 -0.25098739912941831 0 0.1767458594742066 -0.25730285456071711 0 0.17619278994504239 -0.24587918172992959 0 0.18399505531774341 -0.24981832115951039 0 0.16978669848249819 -0.25098739912941831 0 0.1767458594742066 -0.25730285456071711 0 0.17619278994504239 -0.24587918172992959 0 0.16988601458932601 -0.2589500224365659 0 0.16978669848249819 -0.25098739912941831 0 0.1767458594742066 -0.25730285456071711 0 0.16988601458932601 -0.2589500224365659 0 0.1767458594742066 -0.25730285456071711 0 0.17628584543496439 -0.26683535894776161 0 0.1767458594742066 -0.25730285456071711 0 0.17628584543496439 -0.26683535894776161 0 0.1845366839674035 -0.26640487959885623 0 0.1767458594742066 -0.25730285456071711 0 0.18706352147094041 -0.25756661524031438 0 0.1845366839674035 -0.26640487959885623 0 0.1767458594742066 -0.25730285456071711 0 0.18706352147094041 -0.25756661524031438 0 0.18399505531774341 -0.24981832115951039 0 0.18852187410829821 -0.28466447112163068 0 0.17628584543496439 -0.26683535894776161 0 0.1845366839674035 -0.26640487959885623 0 0.18852187410829821 -0.28466447112163068 0 0.16574248336044761 -0.26746108990676593 0 0.18852187410829821 -0.28466447112163068 0 0.16574248336044761 -0.26746108990676593 0 0.17628584543496439 -0.26683535894776161 0 0.16920230535812411 -0.27329149954452342 0 0.18747516626574931 -0.28692639975368628 0 0.17602993407772211 -0.2832030986568283 0 0.18852187410829821 -0.28466447112163068 0 0.16574248336044761 -0.26746108990676593 0 0.16920230535812411 -0.27329149954452342 0 0.16920230535812411 -0.27329149954452342 0 0.18747516626574931 -0.28692639975368628 0 0.16920230535812411 -0.27329149954452342 0 0.1710222018321049 -0.28124575318360368 0 0.17602993407772211 -0.2832030986568283 0 0.18747516626574931 -0.28692639975368628 0 0.1806905449634813 -0.28832929748571318 0 0.17602993407772211 -0.2832030986568283 0 0.18852187410829821 -0.28466447112163068 0 0.16920230535812411 -0.27329149954452342 0 0.18747516626574931 -0.28692639975368628 0 0.18747516626574931 -0.28692639975368628 0 0.1806905449634813 -0.28832929748571318 0 0.18301660310609241 -0.29114958545392738 0 0.17291101310642881 -0.28564608084835003 0 0.17864991096044419 -0.29495009963706692 0 0.16594555478614451 -0.28284233368471318 0 0.1806905449634813 -0.28832929748571318 0 0.17602993407772211 -0.2832030986568283 0 0.17673138357400531 -0.28840876668861409 0 0.17602993407772211 -0.2832030986568283 0 0.17673138357400531 -0.28840876668861409 0 0.17291101310642881 -0.28564608084835003 0 0.1710222018321049 -0.28124575318360368 0 0.17602993407772211 -0.2832030986568283 0 0.17291101310642881 -0.28564608084835003 0 0.17673138357400531 -0.28840876668861409 0 0.17291101310642881 -0.28564608084835003 0 0.17864991096044419 -0.29495009963706692 0 0.17673138357400531 -0.28840876668861409 0 0.17909088347012619 -0.29088019083727579 0 0.17864991096044419 -0.29495009963706692 0 0.1806905449634813 -0.28832929748571318 0 0.17673138357400531 -0.28840876668861409 0 0.17909088347012619 -0.29088019083727579 0 0.17909088347012619 -0.29088019083727579 0 0.17864991096044419 -0.29495009963706692 0 0.18114425154506539 -0.29221912984395187 0 0.18747516626574931 -0.28692639975368628 0 0.18734834214976739 -0.29514628785519947 0 0.1827564496500734 -0.29712351473235832 0 0.18747516626574931 -0.28692639975368628 0 0.18301660310609241 -0.29114958545392738 0 0.1827564496500734 -0.29712351473235832 0 0.18114425154506539 -0.29221912984395187 0 0.18301660310609241 -0.29114958545392738 0 0.1827564496500734 -0.29712351473235832 0 0.17864991096044419 -0.29495009963706692 0 0.18114425154506539 -0.29221912984395187 0 0.1827564496500734 -0.29712351473235832 0 0.18747516626574931 -0.28692639975368628 0 0.1827564496500734 -0.29712351473235832 0 0.1806905449634813 -0.28832929748571318 0 0.18114425154506539 -0.29221912984395187 0 0.18301660310609241 -0.29114958545392738 0 0.1806905449634813 -0.28832929748571318 0 0.17909088347012619 -0.29088019083727579 0 0.18114425154506539 -0.29221912984395187 0 0.18802618722583669 -0.31833181955932999 0 0.18221347423979239 -0.30458962683289892 0 0.1698931321352706 -0.29998698427508858 0 0.1880606218677118 -0.30022154946313712 0 0.18734834214976739 -0.29514628785519947 0 0.1827564496500734 -0.29712351473235832 0 0.19009702279388629 -0.3064242775921906 0 0.1880606218677118 -0.30022154946313712 0 0.18221347423979239 -0.30458962683289892 0 0.18802618722583669 -0.31833181955932999 0 0.17151825735526699 -0.31325416760549368 0 0.1698931321352706 -0.29998698427508858 0 0.1880606218677118 -0.30022154946313712 0 0.18221347423979239 -0.30458962683289892 0 0.1827564496500734 -0.29712351473235832 0 0.18802618722583669 -0.31833181955932999 0 0.1698931321352706 -0.29998698427508858 0 0.17864991096044419 -0.29495009963706692 0 0.1827564496500734 -0.29712351473235832 0 0.17837824174639511 -0.29916255636935318 0 0.18221347423979239 -0.30458962683289892 0 0.1827564496500734 -0.29712351473235832 0 0.17837824174639511 -0.29916255636935318 0 0.19009702279388629 -0.3064242775921906 0 0.18802618722583669 -0.31833181955932999 0 0.18221347423979239 -0.30458962683289892 0 0.18221347423979239 -0.30458962683289892 0 0.17837824174639511 -0.29916255636935318 0 0.1698931321352706 -0.29998698427508858 0 0.17864991096044419 -0.29495009963706692 0 0.17837824174639511 -0.29916255636935318 0 0.1698931321352706 -0.29998698427508858 0 0.17151825735526699 -0.31325416760549368 0 0.1698931321352706 -0.29998698427508858 0 0.1602411687519314 -0.31190927739118429 0 0.15432967412725099 -0.29846298066074151 0 0.1698931321352706 -0.29998698427508858 0 0.1602411687519314 -0.31190927739118429 0 0.1517600770447052 -0.28164214899084639 0 0.17864991096044419 -0.29495009963706692 0 0.1698931321352706 -0.29998698427508858 0 0.1517600770447052 -0.28164214899084639 0 0.1698931321352706 -0.29998698427508858 0 0.15432967412725099 -0.29846298066074151 0 0.1517600770447052 -0.28164214899084639 0 0.1698931321352706 -0.29998698427508858 0 0.1517600770447052 -0.28164214899084639 0 0.17864991096044419 -0.29495009963706692 0 0.1517600770447052 -0.28164214899084639 0 0.17864991096044419 -0.29495009963706692 0 0.16594555478614451 -0.28284233368471318 0 0.1710222018321049 -0.28124575318360368 0 0.17291101310642881 -0.28564608084835003 0 0.16594555478614451 -0.28284233368471318 0 0.21438456257476449 -0.5 0 0.2048745361024723 -0.48472171768082351 0 0.18744203257390391 -0.5 0 0.19122796324104871 -0.48466606029959602 0 0.2048745361024723 -0.48472171768082351 0 0.18744203257390391 -0.5 0 0.19122796324104871 -0.48466606029959602 0 0.20365346230900849 -0.47086657296764728 0 0.1938641377332887 -0.4633108835168005 0 0.19122796324104871 -0.48466606029959602 0 0.20365346230900849 -0.47086657296764728 0 0.2048745361024723 -0.48472171768082351 0 0.21766866328091511 -0.47157360957620892 0 0.2048745361024723 -0.48472171768082351 0 0.22288060450936709 -0.48400008360299168 0 0.20365346230900849 -0.47086657296764728 0 0.21766866328091511 -0.47157360957620892 0 0.2048745361024723 -0.48472171768082351 0 0.21438456257476449 -0.5 0 0.2048745361024723 -0.48472171768082351 0 0.22288060450936709 -0.48400008360299168 0 0.21438456257476449 -0.5 0 0.23633351028628971 -0.48712361601618398 0 0.2413270925756249 -0.5 0 0.21438456257476449 -0.5 0 0.23633351028628971 -0.48712361601618398 0 0.22288060450936709 -0.48400008360299168 0 0.25270961841775552 -0.48460016746525392 0 0.23633351028628971 -0.48712361601618398 0 0.2413270925756249 -0.5 0 0.25270961841775552 -0.48460016746525392 0 0.23633351028628971 -0.48712361601618398 0 0.23949561189523169 -0.47426551941090739 0 0.23949561189523169 -0.47426551941090739 0 0.22288060450936709 -0.48400008360299168 0 0.22545312399173489 -0.46028769725088831 0 0.21766866328091511 -0.47157360957620892 0 0.22288060450936709 -0.48400008360299168 0 0.22545312399173489 -0.46028769725088831 0 0.23633351028628971 -0.48712361601618398 0 0.23949561189523169 -0.47426551941090739 0 0.22288060450936709 -0.48400008360299168 0 0.22288060450936709 -0.48400008360299168 0 0.22545312399173489 -0.46028769725088831 0 0.21766866328091511 -0.47157360957620892 0 0.22545312399173489 -0.46028769725088831 0 0.2186728293425339 -0.44755637628226819 0 0.2588368117714554 -0.46700690363883102 0 0.23949561189523169 -0.47426551941090739 0 0.2409729068143365 -0.46262444708906358 0 0.22545312399173489 -0.46028769725088831 0 0.2409729068143365 -0.46262444708906358 0 0.24480843210435321 -0.45079661158300749 0 0.2588368117714554 -0.46700690363883102 0 0.2409729068143365 -0.46262444708906358 0 0.24480843210435321 -0.45079661158300749 0 0.23949561189523169 -0.47426551941090739 0 0.22545312399173489 -0.46028769725088831 0 0.2409729068143365 -0.46262444708906358 0 0.24480843210435321 -0.45079661158300749 0 0.22802564347410281 -0.43657531089878487 0 0.2418992233321238 -0.43333026798624508 0 0.25513396950241118 -0.43290986753561628 0 0.24480843210435321 -0.45079661158300749 0 0.2418992233321238 -0.43333026798624508 0 0.22545312399173489 -0.46028769725088831 0 0.22802564347410281 -0.43657531089878487 0 0.2186728293425339 -0.44755637628226819 0 0.21246462128442831 -0.43168381348743168 0 0.22802564347410281 -0.43657531089878487 0 0.22545312399173489 -0.46028769725088831 0 0.2186728293425339 -0.44755637628226819 0 0.22802564347410281 -0.43657531089878487 0 0.22545312399173489 -0.46028769725088831 0 0.24480843210435321 -0.45079661158300749 0 0.22802564347410281 -0.43657531089878487 0 0.20442019459899149 -0.44533796874460208 0 0.2186728293425339 -0.44755637628226819 0 0.21246462128442831 -0.43168381348743168 0 0.21766866328091511 -0.47157360957620892 0 0.20442019459899149 -0.44533796874460208 0 0.21766866328091511 -0.47157360957620892 0 0.20442019459899149 -0.44533796874460208 0 0.2186728293425339 -0.44755637628226819 0 0.20365346230900849 -0.47086657296764728 0 0.21766866328091511 -0.47157360957620892 0 0.20442019459899149 -0.44533796874460208 0 0.20365346230900849 -0.47086657296764728 0 0.20442019459899149 -0.44533796874460208 0 0.1938641377332887 -0.4633108835168005 0 0.20442019459899149 -0.44533796874460208 0 0.18484232774876749 -0.43033534366960768 0 0.18590039067086719 -0.44115637567916172 0 0.20442019459899149 -0.44533796874460208 0 0.18923595964957429 -0.45067509688328122 0 0.18590039067086719 -0.44115637567916172 0 0.20442019459899149 -0.44533796874460208 0 0.1938641377332887 -0.4633108835168005 0 0.18923595964957429 -0.45067509688328122 0 0.20442019459899149 -0.44533796874460208 0 0.1911717259170673 -0.41910232791299562 0 0.20473537155931409 -0.42802668409371708 0 0.20442019459899149 -0.44533796874460208 0 0.1911717259170673 -0.41910232791299562 0 0.20442019459899149 -0.44533796874460208 0 0.1911717259170673 -0.41910232791299562 0 0.18484232774876749 -0.43033534366960768 0 0.1911717259170673 -0.41910232791299562 0 0.21088494443676881 -0.41598262622983972 0 0.20473537155931409 -0.42802668409371708 0 0.18851111772050869 -0.41383358608972459 0 0.208966154163157 -0.40126827473642579 0 0.1911717259170673 -0.41910232791299562 0 0.21088494443676881 -0.41598262622983972 0 0.1911717259170673 -0.41910232791299562 0 0.18851111772050869 -0.41383358608972459 0 0.21088494443676881 -0.41598262622983972 0 0.18851111772050869 -0.41383358608972459 0 0.21088494443676881 -0.41598262622983972 0 0.208966154163157 -0.40126827473642579 0 0.1911717259170673 -0.41910232791299562 0 0.18851111772050869 -0.41383358608972459 0 0.21088494443676881 -0.41598262622983972 0 0.22155668588658281 -0.40529615173032069 0 0.208966154163157 -0.40126827473642579 0 0.21088494443676881 -0.41598262622983972 0 0.20473537155931409 -0.42802668409371708 0 0.21246462128442831 -0.43168381348743168 0 0.21088494443676881 -0.41598262622983972 0 0.21246462128442831 -0.43168381348743168 0 0.21959695705502991 -0.42408781639437282 0 0.20442019459899149 -0.44533796874460208 0 0.20473537155931409 -0.42802668409371708 0 0.21246462128442831 -0.43168381348743168 0 0.21246462128442831 -0.43168381348743168 0 0.21959695705502991 -0.42408781639437282 0 0.22802564347410281 -0.43657531089878487 0 0.22802564347410281 -0.43657531089878487 0 0.23614533994983331 -0.4244462479719151 0 0.23059816295646979 -0.4128629245466815 0 0.22802564347410281 -0.43657531089878487 0 0.23059816295646979 -0.4128629245466815 0 0.21959695705502991 -0.42408781639437282 0 0.22802564347410281 -0.43657531089878487 0 0.23059816295646979 -0.4128629245466815 0 0.22802564347410281 -0.43657531089878487 0 0.2418992233321238 -0.43333026798624508 0 0.23614533994983331 -0.4244462479719151 0 0.2418992233321238 -0.43333026798624508 0 0.23614533994983331 -0.4244462479719151 0 0.2453827316299185 -0.42192330194190181 0 0.25513396950241118 -0.43290986753561628 0 0.2418992233321238 -0.43333026798624508 0 0.2453827316299185 -0.42192330194190181 0 0.256136481120742 -0.41447562176841068 0 0.2453827316299185 -0.42192330194190181 0 0.24629253832767661 -0.41022035877505542 0 0.2453827316299185 -0.42192330194190181 0 0.24629253832767661 -0.41022035877505542 0 0.2366098857920339 -0.41191154353144788 0 0.23614533994983331 -0.4244462479719151 0 0.2366098857920339 -0.41191154353144788 0 0.23059816295646979 -0.4128629245466815 0 0.23614533994983331 -0.4244462479719151 0 0.2453827316299185 -0.42192330194190181 0 0.2366098857920339 -0.41191154353144788 0 0.24629253832767661 -0.41022035877505542 0 0.2366098857920339 -0.41191154353144788 0 0.2422505545635501 -0.40276464775944387 0 0.21088494443676881 -0.41598262622983972 0 0.23059816295646979 -0.4128629245466815 0 0.2366098857920339 -0.41191154353144788 0 0.23059816295646979 -0.4128629245466815 0 0.23156745731421779 -0.4039283829592023 0 0.23059816295646979 -0.4128629245466815 0 0.22155668588658281 -0.40529615173032069 0 0.23156745731421779 -0.4039283829592023 0 0.23059816295646979 -0.4128629245466815 0 0.23156745731421779 -0.4039283829592023 0 0.21088494443676881 -0.41598262622983972 0 0.23059816295646979 -0.4128629245466815 0 0.22155668588658281 -0.40529615173032069 0 0.21088494443676881 -0.41598262622983972 0 0.21959695705502991 -0.42408781639437282 0 0.23059816295646979 -0.4128629245466815 0 0.2366098857920339 -0.41191154353144788 0 0.23059816295646979 -0.4128629245466815 0 0.22155668588658281 -0.40529615173032069 0 0.22942119060580499 -0.38870296338312649 0 0.208966154163157 -0.40126827473642579 0 0.22155668588658281 -0.40529615173032069 0 0.23156745731421779 -0.4039283829592023 0 0.22942119060580499 -0.38870296338312649 0 0.22942119060580499 -0.38870296338312649 0 0.208966154163157 -0.40126827473642579 0 0.23156745731421779 -0.4039283829592023 0 0.24309899287842279 -0.39271330151873202 0 0.2422505545635501 -0.40276464775944387 0 0.2366098857920339 -0.41191154353144788 0 0.23156745731421779 -0.4039283829592023 0 0.2422505545635501 -0.40276464775944387 0 0.23156745731421779 -0.4039283829592023 0 0.24309899287842279 -0.39271330151873202 0 0.22942119060580499 -0.38870296338312649 0 0.25108303853213881 -0.40002667887407228 0 0.24629253832767661 -0.41022035877505542 0 0.2422505545635501 -0.40276464775944387 0 0.25108303853213881 -0.40002667887407228 0 0.24309899287842279 -0.39271330151873202 0 0.2422505545635501 -0.40276464775944387 0 0.24987622704845311 -0.37613765202982719 0 0.22942119060580499 -0.38870296338312649 0 0.24309899287842279 -0.39271330151873202 0 0.24987622704845311 -0.37613765202982719 0 0.22942119060580499 -0.38870296338312649 0 0.24987622704845311 -0.37613765202982719 0 0.23474048966473349 -0.38137370792841258 0 0.22942119060580499 -0.38870296338312649 0 0.25687819372407023 -0.38903915957053298 0 0.24309899287842279 -0.39271330151873202 0 0.24987622704845311 -0.37613765202982719 0 0.23679608458568241 -0.3713456781615978 0 0.24987622704845311 -0.37613765202982719 0 0.23474048966473349 -0.38137370792841258 0 0.23474048966473349 -0.38137370792841258 0 0.23010576568282681 -0.37607478874810818 0 0.22189277223980711 -0.38054577212349588 0 0.23474048966473349 -0.38137370792841258 0 0.22189277223980711 -0.38054577212349588 0 0.20961824525516401 -0.3936281247522696 0 0.23474048966473349 -0.38137370792841258 0 0.22942119060580499 -0.38870296338312649 0 0.20961824525516401 -0.3936281247522696 0 0.23679608458568241 -0.3713456781615978 0 0.23474048966473349 -0.38137370792841258 0 0.23010576568282681 -0.37607478874810818 0 0.23474048966473349 -0.38137370792841258 0 0.20961824525516401 -0.3936281247522696 0 0.22699371624108439 -0.37103399677892651 0 0.23010576568282681 -0.37607478874810818 0 0.22189277223980711 -0.38054577212349588 0 0.21663927632257499 -0.37152038636996992 0 0.22189277223980711 -0.38054577212349588 0 0.21119602619295649 -0.38157571206759561 0 0.21663927632257499 -0.37152038636996992 0 0.21119602619295649 -0.38157571206759561 0 0.20576161095015591 -0.37595213443190167 0 0.21119602619295649 -0.38157571206759561 0 0.20576161095015591 -0.37595213443190167 0 0.20229958674085519 -0.38616776423662919 0 0.21119602619295649 -0.38157571206759561 0 0.20961824525516401 -0.3936281247522696 0 0.20229958674085519 -0.38616776423662919 0 0.22189277223980711 -0.38054577212349588 0 0.21119602619295649 -0.38157571206759561 0 0.20961824525516401 -0.3936281247522696 0 0.22942119060580499 -0.38870296338312649 0 0.208966154163157 -0.40126827473642579 0 0.20961824525516401 -0.3936281247522696 0 0.20961824525516401 -0.3936281247522696 0 0.18449600084559339 -0.40588254157612419 0 0.20961824525516401 -0.3936281247522696 0 0.19262774622386039 -0.39991289132556063 0 0.20229958674085519 -0.38616776423662919 0 0.18851111772050869 -0.41383358608972459 0 0.20961824525516401 -0.3936281247522696 0 0.18449600084559339 -0.40588254157612419 0 0.19262774622386039 -0.39991289132556063 0 0.193172237845981 -0.38760648281860499 0 0.20229958674085519 -0.38616776423662919 0 0.20961824525516401 -0.3936281247522696 0 0.19262774622386039 -0.39991289132556063 0 0.18449600084559339 -0.40588254157612419 0 0.18851111772050869 -0.41383358608972459 0 0.208966154163157 -0.40126827473642579 0 0.20961824525516401 -0.3936281247522696 0 0.19262774622386039 -0.39991289132556063 0 0.18963514604776821 -0.39361523539988952 0 0.193172237845981 -0.38760648281860499 0 0.19262774622386039 -0.39991289132556063 0 0.18963514604776821 -0.39361523539988952 0 0.18221634088723479 -0.40136818287387582 0 0.18963514604776821 -0.39361523539988952 0 0.193172237845981 -0.38760648281860499 0 0.18267650324237161 -0.39405502657648112 0 0.193172237845981 -0.38760648281860499 0 0.1910424400336663 -0.37547354736401328 0 0.18267650324237161 -0.39405502657648112 0 0.20576161095015591 -0.37595213443190167 0 0.1910424400336663 -0.37547354736401328 0 0.20229958674085519 -0.38616776423662919 0 0.193172237845981 -0.38760648281860499 0 0.1910424400336663 -0.37547354736401328 0 0.20229958674085519 -0.38616776423662919 0 0.1910424400336663 -0.37547354736401328 0 0.17822948803450961 -0.38676940160015832 0 0.1737051017910701 -0.38004230502140057 0 0.1910424400336663 -0.37547354736401328 0 0.18267650324237161 -0.39405502657648112 0 0.1910424400336663 -0.37547354736401328 0 0.17822948803450961 -0.38676940160015832 0 0.18267650324237161 -0.39405502657648112 0 0.17822948803450961 -0.38676940160015832 0 0.17910183421640119 -0.39520059623836468 0 0.1646215608890387 -0.38907553280053181 0 0.17822948803450961 -0.38676940160015832 0 0.1737051017910701 -0.38004230502140057 0 0.1646215608890387 -0.38907553280053181 0 0.17822948803450961 -0.38676940160015832 0 0.18267650324237161 -0.39405502657648112 0 0.17910183421640119 -0.39520059623836468 0 0.18221634088723479 -0.40136818287387582 0 0.17910183421640119 -0.39520059623836468 0 0.15805845094365739 -0.40474493864538458 0 0.18963514604776821 -0.39361523539988952 0 0.18267650324237161 -0.39405502657648112 0 0.18221634088723479 -0.40136818287387582 0 0.18267650324237161 -0.39405502657648112 0 0.18221634088723479 -0.40136818287387582 0 0.17910183421640119 -0.39520059623836468 0 0.18221634088723479 -0.40136818287387582 0 0.17910183421640119 -0.39520059623836468 0 0.19262774622386039 -0.39991289132556063 0 0.18221634088723479 -0.40136818287387582 0 0.19262774622386039 -0.39991289132556063 0 0.18449600084559339 -0.40588254157612419 0 0.18221634088723479 -0.40136818287387582 0 0.18449600084559339 -0.40588254157612419 0 0.18221634088723479 -0.40136818287387582 0 0.17910183421640119 -0.39520059623836468 0 0.15805845094365739 -0.40474493864538458 0 0.1646215608890387 -0.38907553280053181 0 0.18221634088723479 -0.40136818287387582 0 0.15805845094365739 -0.40474493864538458 0 0.15805845094365739 -0.40474493864538458 0 0.1646215608890387 -0.38907553280053181 0 0.14706277844018539 -0.39464292458295508 0 0.1737051017910701 -0.38004230502140057 0 0.1646215608890387 -0.38907553280053181 0 0.16307541855137739 -0.37743582412871929 0 0.17035242753357599 -0.36877211446365682 0 0.1737051017910701 -0.38004230502140057 0 0.16307541855137739 -0.37743582412871929 0 0.1569593121701936 -0.36832063090657668 0 0.16307541855137739 -0.37743582412871929 0 0.14973869037300869 -0.38096853745143089 0 0.1646215608890387 -0.38907553280053181 0 0.16307541855137739 -0.37743582412871929 0 0.14973869037300869 -0.38096853745143089 0 0.1646215608890387 -0.38907553280053181 0 0.14973869037300869 -0.38096853745143089 0 0.14706277844018539 -0.39464292458295508 0 0.14973869037300869 -0.38096853745143089 0 0.1375772795987745 -0.38493757303029391 0 0.14706277844018539 -0.39464292458295508 0 0.13524945632583441 -0.37311377610700652 0 0.14973869037300869 -0.38096853745143089 0 0.1375772795987745 -0.38493757303029391 0 0.13524945632583441 -0.37311377610700652 0 0.1375772795987745 -0.38493757303029391 0 0.12609635470998201 -0.38402791619100712 0 0.1375772795987745 -0.38493757303029391 0 0.12609635470998201 -0.38402791619100712 0 0.13569313113510631 -0.39589912548093298 0 0.12645644117523869 -0.39722706905544619 0 0.13569313113510631 -0.39589912548093298 0 0.1339005610000801 -0.40812169441689322 0 0.12645644117523869 -0.39722706905544619 0 0.1339005610000801 -0.40812169441689322 0 0.1250254850364893 -0.40936224001308058 0 0.12609635470998201 -0.38402791619100712 0 0.12645644117523869 -0.39722706905544619 0 0.13569313113510631 -0.39589912548093298 0 0.1375772795987745 -0.38493757303029391 0 0.13569313113510631 -0.39589912548093298 0 0.14706277844018539 -0.39464292458295508 0 0.13569313113510631 -0.39589912548093298 0 0.14706277844018539 -0.39464292458295508 0 0.1339005610000801 -0.40812169441689322 0 0.13569313113510631 -0.39589912548093298 0 0.1339005610000801 -0.40812169441689322 0 0.15805845094365739 -0.40474493864538458 0 0.14706277844018539 -0.39464292458295508 0 0.1339005610000801 -0.40812169441689322 0 0.15805845094365739 -0.40474493864538458 0 0.1339005610000801 -0.40812169441689322 0 0.15805845094365739 -0.40474493864538458 0 0.15398562739609989 -0.414436145328195 0 0.14500783119440661 -0.41410657591589572 0 0.15805845094365739 -0.40474493864538458 0 0.14500783119440661 -0.41410657591589572 0 0.1339005610000801 -0.40812169441689322 0 0.15398562739609989 -0.414436145328195 0 0.15088002640467921 -0.42009116626417142 0 0.14500783119440661 -0.41410657591589572 0 0.15088002640467921 -0.42009116626417142 0 0.15979138776423191 -0.42406840149736191 0 0.15636365466176849 -0.41960526040447821 0 0.15398562739609989 -0.414436145328195 0 0.15088002640467921 -0.42009116626417142 0 0.15636365466176849 -0.41960526040447821 0 0.15088002640467921 -0.42009116626417142 0 0.14500783119440661 -0.41410657591589572 0 0.14354831806896931 -0.42663893719234869 0 0.14500783119440661 -0.41410657591589572 0 0.1339005610000801 -0.40812169441689322 0 0.13212255532719441 -0.42024495614079282 0 0.14500783119440661 -0.41410657591589572 0 0.13212255532719441 -0.42024495614079282 0 0.14354831806896931 -0.42663893719234869 0 0.1339005610000801 -0.40812169441689322 0 0.13212255532719441 -0.42024495614079282 0 0.13212255532719441 -0.42024495614079282 0 0.1250254850364893 -0.40936224001308058 0 0.117866085899093 -0.41583132647739651 0 0.13212255532719441 -0.42024495614079282 0 0.1250254850364893 -0.40936224001308058 0 0.1339005610000801 -0.40812169441689322 0 0.13212255532719441 -0.42024495614079282 0 0.1250254850364893 -0.40936224001308058 0 0.1339005610000801 -0.40812169441689322 0 0.1250254850364893 -0.40936224001308058 0 0.13212255532719441 -0.42024495614079282 0 0.14354831806896931 -0.42663893719234869 0 0.1460535583969573 -0.44160689079445481 0 0.13212255532719441 -0.42024495614079282 0 0.128223579302082 -0.44682997076052833 0 0.13212255532719441 -0.42024495614079282 0 0.128223579302082 -0.44682997076052833 0 0.1159996351348133 -0.43474120747525058 0 0.13212255532719441 -0.42024495614079282 0 0.1460535583969573 -0.44160689079445481 0 0.13212255532719441 -0.42024495614079282 0 0.1460535583969573 -0.44160689079445481 0 0.128223579302082 -0.44682997076052833 0 0.15088002640467921 -0.42009116626417142 0 0.14354831806896931 -0.42663893719234869 0 0.15979138776423191 -0.42406840149736191 0 0.14354831806896931 -0.42663893719234869 0 0.15979138776423191 -0.42406840149736191 0 0.14354831806896931 -0.42663893719234869 0 0.15423293294423909 -0.43386412417913311 0 0.1460535583969573 -0.44160689079445481 0 0.14354831806896931 -0.42663893719234869 0 0.15423293294423909 -0.43386412417913311 0 0.15979138776423191 -0.42406840149736191 0 0.15423293294423909 -0.43386412417913311 0 0.16088991666547389 -0.43196094602310392 0 0.16557730454712019 -0.44172028084172121 0 0.1713980071398 -0.42434598792645378 0 0.15979138776423191 -0.42406840149736191 0 0.1760344574594947 -0.42149786580237669 0 0.15423293294423909 -0.43386412417913311 0 0.16088991666547389 -0.43196094602310392 0 0.15979138776423191 -0.42406840149736191 0 0.15979138776423191 -0.42406840149736191 0 0.1760344574594947 -0.42149786580237669 0 0.16626302434537371 -0.43076979168845952 0 0.17509911994716071 -0.43336510097506958 0 0.16557730454712019 -0.44172028084172121 0 0.16088991666547389 -0.43196094602310392 0 0.16626302434537371 -0.43076979168845952 0 0.16557730454712019 -0.44172028084172121 0 0.16626302434537371 -0.43076979168845952 0 0.1713980071398 -0.42434598792645378 0 0.17509911994716071 -0.43336510097506958 0 0.16626302434537371 -0.43076979168845952 0 0.1713980071398 -0.42434598792645378 0 0.15979138776423191 -0.42406840149736191 0 0.16088991666547389 -0.43196094602310392 0 0.16626302434537371 -0.43076979168845952 0 0.15979138776423191 -0.42406840149736191 0 0.15636365466176849 -0.41960526040447821 0 0.16176651730702801 -0.41283252991975622 0 0.17042982775368151 -0.41274390099030239 0 0.18221634088723479 -0.40136818287387582 0 0.15805845094365739 -0.40474493864538458 0 0.17042982775368151 -0.41274390099030239 0 0.15979138776423191 -0.42406840149736191 0 0.15636365466176849 -0.41960526040447821 0 0.17042982775368151 -0.41274390099030239 0 0.15636365466176849 -0.41960526040447821 0 0.17042982775368151 -0.41274390099030239 0 0.15979138776423191 -0.42406840149736191 0 0.17042982775368151 -0.41274390099030239 0 0.1760344574594947 -0.42149786580237669 0 0.15398562739609989 -0.414436145328195 0 0.15636365466176849 -0.41960526040447821 0 0.16176651730702801 -0.41283252991975622 0 0.15805845094365739 -0.40474493864538458 0 0.15398562739609989 -0.414436145328195 0 0.16176651730702801 -0.41283252991975622 0 0.15805845094365739 -0.40474493864538458 0 0.16176651730702801 -0.41283252991975622 0 0.17042982775368151 -0.41274390099030239 0 0.17042982775368151 -0.41274390099030239 0 0.1760344574594947 -0.42149786580237669 0 0.17986785094481991 -0.4134894736146324 0 0.18449600084559339 -0.40588254157612419 0 0.17042982775368151 -0.41274390099030239 0 0.18449600084559339 -0.40588254157612419 0 0.18221634088723479 -0.40136818287387582 0 0.17042982775368151 -0.41274390099030239 0 0.18449600084559339 -0.40588254157612419 0 0.17042982775368151 -0.41274390099030239 0 0.17986785094481991 -0.4134894736146324 0 0.18851111772050869 -0.41383358608972459 0 0.18449600084559339 -0.40588254157612419 0 0.18851111772050869 -0.41383358608972459 0 0.18449600084559339 -0.40588254157612419 0 0.17986785094481991 -0.4134894736146324 0 0.18851111772050869 -0.41383358608972459 0 0.1760344574594947 -0.42149786580237669 0 0.1911717259170673 -0.41910232791299562 0 0.1760344574594947 -0.42149786580237669 0 0.18851111772050869 -0.41383358608972459 0 0.1760344574594947 -0.42149786580237669 0 0.17986785094481991 -0.4134894736146324 0 0.1911717259170673 -0.41910232791299562 0 0.18851111772050869 -0.41383358608972459 0 0.1760344574594947 -0.42149786580237669 0 0.1911717259170673 -0.41910232791299562 0 0.1760344574594947 -0.42149786580237669 0 0.18484232774876749 -0.43033534366960768 0 0.18484232774876749 -0.43033534366960768 0 0.17509911994716071 -0.43336510097506958 0 0.18590039067086719 -0.44115637567916172 0 0.18484232774876749 -0.43033534366960768 0 0.17509911994716071 -0.43336510097506958 0 0.17653319474121221 -0.42750765242104072 0 0.1713980071398 -0.42434598792645378 0 0.17509911994716071 -0.43336510097506958 0 0.17653319474121221 -0.42750765242104072 0 0.1760344574594947 -0.42149786580237669 0 0.18484232774876749 -0.43033534366960768 0 0.17653319474121221 -0.42750765242104072 0 0.1713980071398 -0.42434598792645378 0 0.1760344574594947 -0.42149786580237669 0 0.17653319474121221 -0.42750765242104072 0 0.1713980071398 -0.42434598792645378 0 0.1760344574594947 -0.42149786580237669 0 0.17791556380287959 -0.4455361086535346 0 0.17376504419967539 -0.46076368888843938 0 0.16557730454712019 -0.44172028084172121 0 0.17509911994716071 -0.43336510097506958 0 0.17791556380287959 -0.4455361086535346 0 0.18590039067086719 -0.44115637567916172 0 0.17509911994716071 -0.43336510097506958 0 0.17791556380287959 -0.4455361086535346 0 0.16557730454712019 -0.44172028084172121 0 0.18923595964957429 -0.45067509688328122 0 0.17791556380287959 -0.4455361086535346 0 0.18590039067086719 -0.44115637567916172 0 0.18923595964957429 -0.45067509688328122 0 0.17791556380287959 -0.4455361086535346 0 0.17376504419967539 -0.46076368888843938 0 0.1938641377332887 -0.4633108835168005 0 0.18923595964957429 -0.45067509688328122 0 0.17376504419967539 -0.46076368888843938 0 0.1938641377332887 -0.4633108835168005 0 0.17376504419967539 -0.46076368888843938 0 0.17718182015316611 -0.48165544175840053 0 0.17376504419967539 -0.46076368888843938 0 0.15550290350416551 -0.45157236434768988 0 0.1539044029471725 -0.46809795184702829 0 0.17376504419967539 -0.46076368888843938 0 0.16557730454712019 -0.44172028084172121 0 0.15550290350416551 -0.45157236434768988 0 0.15423293294423909 -0.43386412417913311 0 0.16557730454712019 -0.44172028084172121 0 0.15550290350416551 -0.45157236434768988 0 0.15423293294423909 -0.43386412417913311 0 0.15550290350416551 -0.45157236434768988 0 0.1460535583969573 -0.44160689079445481 0 0.15550290350416551 -0.45157236434768988 0 0.1460535583969573 -0.44160689079445481 0 0.14153074802588431 -0.45654190970348868 0 0.1460535583969573 -0.44160689079445481 0 0.128223579302082 -0.44682997076052833 0 0.14153074802588431 -0.45654190970348868 0 0.128223579302082 -0.44682997076052833 0 0.12432460327697011 -0.47341498538026422 0 0.128223579302082 -0.44682997076052833 0 0.14153074802588431 -0.45654190970348868 0 0.12432460327697011 -0.47341498538026422 0 0.1539044029471725 -0.46809795184702829 0 0.14153074802588431 -0.45654190970348868 0 0.12432460327697011 -0.47341498538026422 0 0.15550290350416551 -0.45157236434768988 0 0.1539044029471725 -0.46809795184702829 0 0.14153074802588431 -0.45654190970348868 0 0.1539044029471725 -0.46809795184702829 0 0.15048103374274721 -0.48484579871078243 0 0.12432460327697011 -0.47341498538026422 0 0.1404625649124509 -0.5 0 0.15048103374274721 -0.48484579871078243 0 0.12432460327697011 -0.47341498538026422 0 0.1404625649124509 -0.5 0 0.12042562725185831 -0.49999999999999989 0 0.12432460327697011 -0.47341498538026422 0 0.1404625649124509 -0.5 0 0.15048103374274721 -0.48484579871078243 0 0.16049950257304349 -0.50000000000000033 0 0.16049950257304349 -0.50000000000000033 0 0.17718182015316611 -0.48165544175840053 0 0.15048103374274721 -0.48484579871078243 0 0.16049950257304349 -0.50000000000000033 0 0.17718182015316611 -0.48165544175840053 0 0.17376504419967539 -0.46076368888843938 0 0.1539044029471725 -0.46809795184702829 0 0.17718182015316611 -0.48165544175840053 0 0.1539044029471725 -0.46809795184702829 0 0.15048103374274721 -0.48484579871078243 0 0.17718182015316611 -0.48165544175840053 0 0.1938641377332887 -0.4633108835168005 0 0.17718182015316611 -0.48165544175840053 0 0.19122796324104871 -0.48466606029959602 0 0.1938641377332887 -0.4633108835168005 0 0.17718182015316611 -0.48165544175840053 0 0.16049950257304349 -0.50000000000000033 0 0.17718182015316611 -0.48165544175840053 0 0.18744203257390391 -0.5 0 0.19122796324104871 -0.48466606029959602 0 0.17718182015316611 -0.48165544175840053 0 0.18744203257390391 -0.5 0 0.072018957471098571 -0.48629524479662273 0 0.069142552082564368 -0.5 0 0.082735946582200875 -0.4892045976485363 0 0.072018957471098571 -0.48629524479662273 0 0.079568506083734697 -0.4785915255016745 0 0.082735946582200875 -0.4892045976485363 0 0.072018957471098571 -0.48629524479662273 0 0.062670741706174135 -0.48944359682069549 0 0.064881374578912687 -0.4815757870058418 0 0.072018957471098571 -0.48629524479662273 0 0.069142552082564368 -0.5 0 0.062670741706174135 -0.48944359682069549 0 0.073180054077148754 -0.46968413697177741 0 0.079568506083734697 -0.4785915255016745 0 0.081395248040860374 -0.46160025678040811 0 0.067447632246636219 -0.45716428258124142 0 0.05849497948899289 -0.47642287528831911 0 0.061758178687080389 -0.47580514524370598 0 0.072018957471098571 -0.48629524479662273 0 0.064881374578912687 -0.4815757870058418 0 0.070673492561877091 -0.4782128222507579 0 0.064881374578912687 -0.4815757870058418 0 0.066280053791524171 -0.47680462027284459 0 0.061758178687080389 -0.47580514524370598 0 0.064881374578912687 -0.4815757870058418 0 0.066280053791524171 -0.47680462027284459 0 0.070673492561877091 -0.4782128222507579 0 0.066280053791524171 -0.47680462027284459 0 0.067807169338226503 -0.47162472659107291 0 0.061758178687080389 -0.47580514524370598 0 0.066280053791524171 -0.47680462027284459 0 0.067807169338226503 -0.47162472659107291 0 0.070673492561877091 -0.4782128222507579 0 0.067807169338226503 -0.47162472659107291 0 0.073180054077148754 -0.46968413697177741 0 0.070673492561877091 -0.4782128222507579 0 0.073180054077148754 -0.46968413697177741 0 0.070673492561877091 -0.4782128222507579 0 0.079568506083734697 -0.4785915255016745 0 0.072018957471098571 -0.48629524479662273 0 0.070673492561877091 -0.4782128222507579 0 0.079568506083734697 -0.4785915255016745 0 0.096876661376123455 -0.48080012839020431 0 0.081395248040860374 -0.46160025678040811 0 0.096876661376123455 -0.48080012839020431 0 0.095349939854524335 -0.46404107218864848 0 0.081395248040860374 -0.46160025678040811 0 0.079568506083734697 -0.4785915255016745 0 0.082735946582200875 -0.4892045976485363 0 0.096876661376123455 -0.48080012839020431 0 0.079568506083734697 -0.4785915255016745 0 0.096876661376123455 -0.48080012839020431 0 0.081395248040860374 -0.46160025678040811 0 0.090750313396975479 -0.5 0 0.082735946582200875 -0.4892045976485363 0 0.096876661376123455 -0.48080012839020431 0 0.069142552082564368 -0.5 0 0.090750313396975479 -0.5 0 0.082735946582200875 -0.4892045976485363 0 0.1123580747113867 -0.50000000000000033 0 0.1124728586670535 -0.48406595427175642 0 0.096876661376123455 -0.48080012839020431 0 0.090750313396975479 -0.5 0 0.1123580747113867 -0.50000000000000033 0 0.096876661376123455 -0.48080012839020431 0 0.1123580747113867 -0.50000000000000033 0 0.096876661376123455 -0.48080012839020431 0 0.1123580747113867 -0.50000000000000033 0 0.12042562725185831 -0.49999999999999989 0 0.1124728586670535 -0.48406595427175642 0 0.12042562725185831 -0.49999999999999989 0 0.1124728586670535 -0.48406595427175642 0 0.12432460327697011 -0.47341498538026422 0 0.12042562725185831 -0.49999999999999989 0 0.12432460327697011 -0.47341498538026422 0 0.1124728586670535 -0.48406595427175642 0 0.12432460327697011 -0.47341498538026422 0 0.1082250197838846 -0.46311527911574241 0 0.096876661376123455 -0.48080012839020431 0 0.095349939854524335 -0.46404107218864848 0 0.1082250197838846 -0.46311527911574241 0 0.1124728586670535 -0.48406595427175642 0 0.096876661376123455 -0.48080012839020431 0 0.1082250197838846 -0.46311527911574241 0 0.095349939854524335 -0.46404107218864848 0 0.1082250197838846 -0.46311527911574241 0 0.094902830217228867 -0.45064862446823939 0 0.128223579302082 -0.44682997076052833 0 0.12432460327697011 -0.47341498538026422 0 0.1082250197838846 -0.46311527911574241 0 0.128223579302082 -0.44682997076052833 0 0.1069391861142964 -0.44299064961396012 0 0.1159996351348133 -0.43474120747525058 0 0.128223579302082 -0.44682997076052833 0 0.1082250197838846 -0.46311527911574241 0 0.1069391861142964 -0.44299064961396012 0 0.1082250197838846 -0.46311527911574241 0 0.1069391861142964 -0.44299064961396012 0 0.094902830217228867 -0.45064862446823939 0 0.1069391861142964 -0.44299064961396012 0 0.091812697424993442 -0.4386357446441016 0 0.098414951810672224 -0.43233268446502993 0 0.1069391861142964 -0.44299064961396012 0 0.094902830217228867 -0.45064862446823939 0 0.091812697424993442 -0.4386357446441016 0 0.094902830217228867 -0.45064862446823939 0 0.091812697424993442 -0.4386357446441016 0 0.082434724511159588 -0.44537142502386151 0 0.094902830217228867 -0.45064862446823939 0 0.082434724511159588 -0.44537142502386151 0 0.081395248040860374 -0.46160025678040811 0 0.091812697424993442 -0.4386357446441016 0 0.082434724511159588 -0.44537142502386151 0 0.078149012167117934 -0.43357211405594609 0 0.095349939854524335 -0.46404107218864848 0 0.094902830217228867 -0.45064862446823939 0 0.081395248040860374 -0.46160025678040811 0 0.067447632246636219 -0.45716428258124142 0 0.065913834705597293 -0.44240038517061198 0 0.057068655694905858 -0.46015288389510001 0 0.067447632246636219 -0.45716428258124142 0 0.05849497948899289 -0.47642287528831911 0 0.067807169338226503 -0.47162472659107291 0 0.067447632246636219 -0.45716428258124142 0 0.061758178687080389 -0.47580514524370598 0 0.081395248040860374 -0.46160025678040811 0 0.067447632246636219 -0.45716428258124142 0 0.065913834705597293 -0.44240038517061198 0 0.073180054077148754 -0.46968413697177741 0 0.081395248040860374 -0.46160025678040811 0 0.067447632246636219 -0.45716428258124142 0 0.067807169338226503 -0.47162472659107291 0 0.073180054077148754 -0.46968413697177741 0 0.067447632246636219 -0.45716428258124142 0 0.081395248040860374 -0.46160025678040811 0 0.065913834705597293 -0.44240038517061198 0 0.082434724511159588 -0.44537142502386151 0 0.081395248040860374 -0.46160025678040811 0 0.065913834705597293 -0.44240038517061198 0 0.082434724511159588 -0.44537142502386151 0 0.065913834705597293 -0.44240038517061198 0 0.078149012167117934 -0.43357211405594609 0 0.065921365320016911 -0.4273577277455588 0 0.073982485551444349 -0.42005290588181732 0 0.078149012167117934 -0.43357211405594609 0 0.065913834705597293 -0.44240038517061198 0 0.065921365320016911 -0.4273577277455588 0 0.078149012167117934 -0.43357211405594609 0 0.073982485551444349 -0.42005290588181732 0 0.069775570718114244 -0.40426700169235308 0 0.060774245729122177 -0.41691050055794487 0 0.065921365320016911 -0.4273577277455588 0 0.073982485551444349 -0.42005290588181732 0 0.060774245729122177 -0.41691050055794487 0 0.073982485551444349 -0.42005290588181732 0 0.086447448161059384 -0.41120764722282821 0 0.069775570718114244 -0.40426700169235308 0 0.073982485551444349 -0.42005290588181732 0 0.086447448161059384 -0.41120764722282821 0 0.088692331433278357 -0.42535053834926723 0 0.086447448161059384 -0.41120764722282821 0 0.093827427438274241 -0.41775801958915132 0 0.099702730965631758 -0.41290181884877419 0 0.086447448161059384 -0.41120764722282821 0 0.088692331433278357 -0.42535053834926723 0 0.093827427438274241 -0.41775801958915132 0 0.088692331433278357 -0.42535053834926723 0 0.097645949564215143 -0.42435504664253748 0 0.093827427438274241 -0.41775801958915132 0 0.073982485551444349 -0.42005290588181732 0 0.088692331433278357 -0.42535053834926723 0 0.078149012167117934 -0.43357211405594609 0 0.091812697424993442 -0.4386357446441016 0 0.088692331433278357 -0.42535053834926723 0 0.078149012167117934 -0.43357211405594609 0 0.091812697424993442 -0.4386357446441016 0 0.088692331433278357 -0.42535053834926723 0 0.098414951810672224 -0.43233268446502993 0 0.098414951810672224 -0.43233268446502993 0 0.097645949564215143 -0.42435504664253748 0 0.1061961683754654 -0.43004895598907111 0 0.088692331433278357 -0.42535053834926723 0 0.098414951810672224 -0.43233268446502993 0 0.097645949564215143 -0.42435504664253748 0 0.1061961683754654 -0.43004895598907111 0 0.11152958735588871 -0.42539382439527612 0 0.1045809803654715 -0.42051706085107571 0 0.097645949564215143 -0.42435504664253748 0 0.1061961683754654 -0.43004895598907111 0 0.1045809803654715 -0.42051706085107571 0 0.1069391861142964 -0.44299064961396012 0 0.098414951810672224 -0.43233268446502993 0 0.1061961683754654 -0.43004895598907111 0 0.1061961683754654 -0.43004895598907111 0 0.1159996351348133 -0.43474120747525058 0 0.11152958735588871 -0.42539382439527612 0 0.13212255532719441 -0.42024495614079282 0 0.1159996351348133 -0.43474120747525058 0 0.11851153239627241 -0.42275952171654291 0 0.1069391861142964 -0.44299064961396012 0 0.1061961683754654 -0.43004895598907111 0 0.1159996351348133 -0.43474120747525058 0 0.1159996351348133 -0.43474120747525058 0 0.11152958735588871 -0.42539382439527612 0 0.11851153239627241 -0.42275952171654291 0 0.11152958735588871 -0.42539382439527612 0 0.11851153239627241 -0.42275952171654291 0 0.1123596205074209 -0.41890237594444008 0 0.1250254850364893 -0.40936224001308058 0 0.117866085899093 -0.41583132647739651 0 0.1096180349996463 -0.41151587164058129 0 0.1250254850364893 -0.40936224001308058 0 0.1096180349996463 -0.41151587164058129 0 0.13212255532719441 -0.42024495614079282 0 0.11851153239627241 -0.42275952171654291 0 0.117866085899093 -0.41583132647739651 0 0.117866085899093 -0.41583132647739651 0 0.1123596205074209 -0.41890237594444008 0 0.1096180349996463 -0.41151587164058129 0 0.11851153239627241 -0.42275952171654291 0 0.117866085899093 -0.41583132647739651 0 0.1123596205074209 -0.41890237594444008 0 0.11152958735588871 -0.42539382439527612 0 0.1123596205074209 -0.41890237594444008 0 0.1045809803654715 -0.42051706085107571 0 0.1123596205074209 -0.41890237594444008 0 0.1096180349996463 -0.41151587164058129 0 0.1065506547415149 -0.41613106226330793 0 0.1096180349996463 -0.41151587164058129 0 0.1065506547415149 -0.41613106226330793 0 0.099702730965631758 -0.41290181884877419 0 0.1096180349996463 -0.41151587164058129 0 0.099702730965631758 -0.41290181884877419 0 0.1096180349996463 -0.41151587164058129 0 0.099702730965631758 -0.41290181884877419 0 0.1041447551606165 -0.40305668800175581 0 0.1123596205074209 -0.41890237594444008 0 0.1065506547415149 -0.41613106226330793 0 0.1045809803654715 -0.42051706085107571 0 0.1065506547415149 -0.41613106226330793 0 0.1045809803654715 -0.42051706085107571 0 0.099702730965631758 -0.41290181884877419 0 0.1045809803654715 -0.42051706085107571 0 0.093827427438274241 -0.41775801958915132 0 0.099702730965631758 -0.41290181884877419 0 0.097645949564215143 -0.42435504664253748 0 0.1045809803654715 -0.42051706085107571 0 0.093827427438274241 -0.41775801958915132 0 0.086447448161059384 -0.41120764722282821 0 0.099702730965631758 -0.41290181884877419 0 0.095691580682652475 -0.39908469234235189 0 0.095691580682652475 -0.39908469234235189 0 0.1041447551606165 -0.40305668800175581 0 0.1115666739945345 -0.38872436917531578 0 0.099702730965631758 -0.41290181884877419 0 0.095691580682652475 -0.39908469234235189 0 0.1041447551606165 -0.40305668800175581 0 0.1096180349996463 -0.41151587164058129 0 0.1041447551606165 -0.40305668800175581 0 0.1115666739945345 -0.38872436917531578 0 0.1250254850364893 -0.40936224001308058 0 0.1115666739945345 -0.38872436917531578 0 0.1096180349996463 -0.41151587164058129 0 0.1115666739945345 -0.38872436917531578 0 0.1250254850364893 -0.40936224001308058 0 0.1096180349996463 -0.41151587164058129 0 0.1115666739945345 -0.38872436917531578 0 0.12645644117523869 -0.39722706905544619 0 0.1250254850364893 -0.40936224001308058 0 0.1115666739945345 -0.38872436917531578 0 0.12609635470998201 -0.38402791619100712 0 0.1115666739945345 -0.38872436917531578 0 0.113745377556003 -0.36324200547299851 0 0.1115666739945345 -0.38872436917531578 0 0.113745377556003 -0.36324200547299851 0 0.12609635470998201 -0.38402791619100712 0 0.12645644117523869 -0.39722706905544619 0 0.1115666739945345 -0.38872436917531578 0 0.1115666739945345 -0.38872436917531578 0 0.096372132326470572 -0.36542491223168638 0 0.1115666739945345 -0.38872436917531578 0 0.089853218628298884 -0.38394717958202601 0 0.096372132326470572 -0.36542491223168638 0 0.095691580682652475 -0.39908469234235189 0 0.1115666739945345 -0.38872436917531578 0 0.089853218628298884 -0.38394717958202601 0 0.089853218628298884 -0.38394717958202601 0 0.082924844884061683 -0.39714926844771359 0 0.072939106935086151 -0.38728773006234168 0 0.089853218628298884 -0.38394717958202601 0 0.072939106935086151 -0.38728773006234168 0 0.07582030708563034 -0.37256671738353597 0 0.095691580682652475 -0.39908469234235189 0 0.089853218628298884 -0.38394717958202601 0 0.082924844884061683 -0.39714926844771359 0 0.086447448161059384 -0.41120764722282821 0 0.082924844884061683 -0.39714926844771359 0 0.069775570718114244 -0.40426700169235308 0 0.086447448161059384 -0.41120764722282821 0 0.095691580682652475 -0.39908469234235189 0 0.082924844884061683 -0.39714926844771359 0 0.069775570718114244 -0.40426700169235308 0 0.072939106935086151 -0.38728773006234168 0 0.058313699768321348 -0.39007371912844929 0 0.082924844884061683 -0.39714926844771359 0 0.069775570718114244 -0.40426700169235308 0 0.072939106935086151 -0.38728773006234168 0 0.072939106935086151 -0.38728773006234168 0 0.05933500968155693 -0.37671477575793533 0 0.058313699768321348 -0.39007371912844929 0 0.072939106935086151 -0.38728773006234168 0 0.05933500968155693 -0.37671477575793533 0 0.07582030708563034 -0.37256671738353597 0 0.05933500968155693 -0.37671477575793533 0 0.043300396670470892 -0.38581293046691678 0 0.039079294002052851 -0.37065651216905859 0 0.05933500968155693 -0.37671477575793533 0 0.058313699768321348 -0.39007371912844929 0 0.043300396670470892 -0.38581293046691678 0 0.058313699768321348 -0.39007371912844929 0 0.0466875803122518 -0.39705513158652528 0 0.054373060569327003 -0.40663711634463268 0 0.069775570718114244 -0.40426700169235308 0 0.058313699768321348 -0.39007371912844929 0 0.054373060569327003 -0.40663711634463268 0 0.058313699768321348 -0.39007371912844929 0 0.054373060569327003 -0.40663711634463268 0 0.0466875803122518 -0.39705513158652528 0 0.042121557959679479 -0.40689397827368962 0 0.054373060569327003 -0.40663711634463268 0 0.058313699768321348 -0.39007371912844929 0 0.0466875803122518 -0.39705513158652528 0 0.043300396670470892 -0.38581293046691678 0 0.0466875803122518 -0.39705513158652528 0 0.032645317368698572 -0.39721328630736241 0 0.043300396670470892 -0.38581293046691678 0 0.0466875803122518 -0.39705513158652528 0 0.032645317368698572 -0.39721328630736241 0 0.042121557959679479 -0.40689397827368962 0 0.032645317368698572 -0.39721328630736241 0 0.043300396670470892 -0.38581293046691678 0 0.025542853711361019 -0.38384675294920401 0 0.043300396670470892 -0.38581293046691678 0 0.025542853711361019 -0.38384675294920401 0 0.039079294002052851 -0.37065651216905859 0 0.025542853711361019 -0.38384675294920401 0 0.009690974369139977 -0.39295199195252922 0 0.016784443680880379 -0.36713146693108112 0 -0.0064694903547723136 -0.38059021958606692 0 0.009690974369139977 -0.39295199195252922 0 0.016784443680880379 -0.36713146693108112 0 0.032645317368698572 -0.39721328630736241 0 0.009690974369139977 -0.39295199195252922 0 0.030062121183744069 -0.41560348860952728 0 0.032645317368698572 -0.39721328630736241 0 0.025542853711361019 -0.38384675294920401 0 0.009690974369139977 -0.39295199195252922 0 0.009690974369139977 -0.39295199195252922 0 0.030062121183744069 -0.41560348860952728 0 0.01224976062295041 -0.42183763890738629 0 -0.0080625817845775948 -0.40608726553411861 0 0.009690974369139977 -0.39295199195252922 0 0.01224976062295041 -0.42183763890738629 0 0.009690974369139977 -0.39295199195252922 0 0.01224976062295041 -0.42183763890738629 0 0.01224976062295041 -0.42183763890738629 0 0.01480854687676085 -0.45072328586224342 0 0.030062121183744069 -0.41560348860952728 0 0.01224976062295041 -0.42183763890738629 0 0.028535899264767479 -0.43733174884408438 0 0.01224976062295041 -0.42183763890738629 0 0.028535899264767479 -0.43733174884408438 0 0.01480854687676085 -0.45072328586224342 0 0.030062121183744069 -0.41560348860952728 0 0.028535899264767479 -0.43733174884408438 0 0.039909128579099777 -0.42893709763038412 0 0.039909128579099777 -0.42893709763038412 0 0.050432421370333713 -0.42320051356081623 0 0.04400553312424714 -0.45021417746364167 0 0.039909128579099777 -0.42893709763038412 0 0.046509667952406512 -0.41833555967385072 0 0.050432421370333713 -0.42320051356081623 0 0.032645317368698572 -0.39721328630736241 0 0.030062121183744069 -0.41560348860952728 0 0.042121557959679479 -0.40689397827368962 0 0.030062121183744069 -0.41560348860952728 0 0.039909128579099777 -0.42893709763038412 0 0.046509667952406512 -0.41833555967385072 0 0.030062121183744069 -0.41560348860952728 0 0.042121557959679479 -0.40689397827368962 0 0.046509667952406512 -0.41833555967385072 0 0.054373060569327003 -0.40663711634463268 0 0.050432421370333713 -0.42320051356081623 0 0.046509667952406512 -0.41833555967385072 0 0.054373060569327003 -0.40663711634463268 0 0.050432421370333713 -0.42320051356081623 0 0.054373060569327003 -0.40663711634463268 0 0.060774245729122177 -0.41691050055794487 0 0.050432421370333713 -0.42320051356081623 0 0.046509667952406512 -0.41833555967385072 0 0.050432421370333713 -0.42320051356081623 0 0.042121557959679479 -0.40689397827368962 0 0.046509667952406512 -0.41833555967385072 0 0.054373060569327003 -0.40663711634463268 0 0.069775570718114244 -0.40426700169235308 0 0.054373060569327003 -0.40663711634463268 0 0.060774245729122177 -0.41691050055794487 0 0.050432421370333713 -0.42320051356081623 0 0.04400553312424714 -0.45021417746364167 0 0.065913834705597293 -0.44240038517061198 0 0.050432421370333713 -0.42320051356081623 0 0.065913834705597293 -0.44240038517061198 0 0.065921365320016911 -0.4273577277455588 0 0.050432421370333713 -0.42320051356081623 0 0.065921365320016911 -0.4273577277455588 0 0.060774245729122177 -0.41691050055794487 0 0.050432421370333713 -0.42320051356081623 0 0.065913834705597293 -0.44240038517061198 0 0.050432421370333713 -0.42320051356081623 0 0.04400553312424714 -0.45021417746364167 0 0.065913834705597293 -0.44240038517061198 0 0.057068655694905858 -0.46015288389510001 0 0.04400553312424714 -0.45021417746364167 0 0.057068655694905858 -0.46015288389510001 0 0.048043393468649283 -0.46676160836513853 0 0.04400553312424714 -0.45021417746364167 0 0.067447632246636219 -0.45716428258124142 0 0.057068655694905858 -0.46015288389510001 0 0.05849497948899289 -0.47642287528831911 0 0.057068655694905858 -0.46015288389510001 0 0.048043393468649283 -0.46676160836513853 0 0.052635520687858477 -0.47072247146996382 0 0.04400553312424714 -0.45021417746364167 0 0.037578644878161642 -0.47722784136646751 0 0.048043393468649283 -0.46676160836513853 0 0.04400553312424714 -0.45021417746364167 0 0.037578644878161642 -0.47722784136646751 0 0.04400553312424714 -0.45021417746364167 0 0.030366658319331299 -0.45781827645911538 0 0.037578644878161642 -0.47722784136646751 0 0.028535899264767479 -0.43733174884408438 0 0.039909128579099777 -0.42893709763038412 0 0.04400553312424714 -0.45021417746364167 0 0.028535899264767479 -0.43733174884408438 0 0.04400553312424714 -0.45021417746364167 0 0.030366658319331299 -0.45781827645911538 0 0.028535899264767479 -0.43733174884408438 0 0.01480854687676085 -0.45072328586224342 0 0.030366658319331299 -0.45781827645911538 0 -0.008216644178786571 -0.4466179140804285 0 0.01224976062295041 -0.42183763890738629 0 0.01480854687676085 -0.45072328586224342 0 0.01480854687676085 -0.45072328586224342 0 0.017367333130571299 -0.47960893281710049 0 0.0084119176919832291 -0.471974008478943 0 -0.0021957942935651631 -0.46571035637089769 0 0.01480854687676085 -0.45072328586224342 0 0.0084119176919832291 -0.471974008478943 0 -0.008216644178786571 -0.4466179140804285 0 -0.0021957942935651631 -0.46571035637089769 0 0.01480854687676085 -0.45072328586224342 0 0.01480854687676085 -0.45072328586224342 0 0.017367333130571299 -0.47960893281710049 0 0.01480854687676085 -0.45072328586224342 0 0.030366658319331299 -0.45781827645911538 0 0.0269046674527194 -0.47359432875914009 0 0.01480854687676085 -0.45072328586224342 0 0.0269046674527194 -0.47359432875914009 0 0.017367333130571299 -0.47960893281710049 0 0.017367333130571299 -0.47960893281710049 0 0.012735562036971701 -0.48508522326900949 0 0.035615270762982369 -0.48075404927866472 0 0.012735562036971701 -0.48508522326900949 0 0.035615270762982369 -0.48075404927866472 0 0.0269046674527194 -0.47359432875914009 0 0.017367333130571299 -0.47960893281710049 0 0.035615270762982369 -0.48075404927866472 0 0.017367333130571299 -0.47960893281710049 0 0.0084119176919832291 -0.471974008478943 0 0.012735562036971701 -0.48508522326900949 0 -0.00065605929082254884 -0.47874224407546379 0 0.0084119176919832291 -0.471974008478943 0 0.012735562036971701 -0.48508522326900949 0 -0.0021957942935651631 -0.46571035637089769 0 -0.00065605929082254884 -0.47874224407546379 0 0.0084119176919832291 -0.471974008478943 0 -0.010144146689038991 -0.48941639725935437 0 -0.00065605929082254884 -0.47874224407546379 0 0.012735562036971701 -0.48508522326900949 0 -0.010144146689038991 -0.48941639725935437 0 0.012735562036971701 -0.48508522326900949 0 -0.011489863113854141 -0.5 0 0.012735562036971701 -0.48508522326900949 0 0.01802246382714956 -0.5 0 0.01802246382714956 -0.5 0 0.025329369399590369 -0.48901546815995378 0 0.047534790768153173 -0.50000000000000044 0 0.012735562036971701 -0.48508522326900949 0 0.025329369399590369 -0.48901546815995378 0 0.035615270762982369 -0.48075404927866472 0 0.012735562036971701 -0.48508522326900949 0 0.01802246382714956 -0.5 0 0.025329369399590369 -0.48901546815995378 0 0.025329369399590369 -0.48901546815995378 0 0.035615270762982369 -0.48075404927866472 0 0.047534790768153173 -0.50000000000000044 0 0.030366658319331299 -0.45781827645911538 0 0.0269046674527194 -0.47359432875914009 0 0.037578644878161642 -0.47722784136646751 0 0.0269046674527194 -0.47359432875914009 0 0.037578644878161642 -0.47722784136646751 0 0.035615270762982369 -0.48075404927866472 0 0.048043393468649283 -0.46676160836513853 0 0.037578644878161642 -0.47722784136646751 0 0.046296380844488463 -0.47463440362945558 0 0.035615270762982369 -0.48075404927866472 0 0.046296380844488463 -0.47463440362945558 0 0.049693011087844949 -0.4756354888466594 0 0.037578644878161642 -0.47722784136646751 0 0.035615270762982369 -0.48075404927866472 0 0.046296380844488463 -0.47463440362945558 0 0.057068655694905858 -0.46015288389510001 0 0.052635520687858477 -0.47072247146996382 0 0.05849497948899289 -0.47642287528831911 0 0.035615270762982369 -0.48075404927866472 0 0.049693011087844949 -0.4756354888466594 0 0.05849497948899289 -0.47642287528831911 0 0.035615270762982369 -0.48075404927866472 0 0.05849497948899289 -0.47642287528831911 0 0.048043393468649283 -0.46676160836513853 0 0.046296380844488463 -0.47463440362945558 0 0.052635520687858477 -0.47072247146996382 0 0.049693011087844949 -0.4756354888466594 0 0.052635520687858477 -0.47072247146996382 0 0.05849497948899289 -0.47642287528831911 0 0.046296380844488463 -0.47463440362945558 0 0.049693011087844949 -0.4756354888466594 0 0.052635520687858477 -0.47072247146996382 0 0.05849497948899289 -0.47642287528831911 0 0.061758178687080389 -0.47580514524370598 0 0.062670741706174135 -0.48944359682069549 0 0.064881374578912687 -0.4815757870058418 0 0.05849497948899289 -0.47642287528831911 0 0.064881374578912687 -0.4815757870058418 0 0.05849497948899289 -0.47642287528831911 0 0.061758178687080389 -0.47580514524370598 0 0.069142552082564368 -0.5 0 0.062670741706174135 -0.48944359682069549 0 0.047534790768153173 -0.50000000000000044 0 0.05849497948899289 -0.47642287528831911 0 0.047534790768153173 -0.50000000000000044 0 0.035615270762982369 -0.48075404927866472 0 0.05849497948899289 -0.47642287528831911 0 0.047534790768153173 -0.50000000000000044 0 0.062670741706174135 -0.48944359682069549 0 0.05849497948899289 -0.47642287528831911 0 0.047534790768153173 -0.50000000000000044 0 0.089727975817252392 -0.29646224842349211 0 0.069967983226982527 -0.30495776272600778 0 0.075483032258224086 -0.28815868119130272 0 0.089727975817252392 -0.29646224842349211 0 0.088503230311337153 -0.27716835087377989 0 0.101883582619993 -0.28460947857741209 0 0.089727975817252392 -0.29646224842349211 0 0.075483032258224086 -0.28815868119130272 0 0.088503230311337153 -0.27716835087377989 0 0.089727975817252392 -0.29646224842349211 0 0.086214248119208581 -0.31193359067875348 0 0.069967983226982527 -0.30495776272600778 0 0.089727975817252392 -0.29646224842349211 0 0.086214248119208581 -0.31193359067875348 0 0.10049372866807189 -0.31082656242210721 0 0.069967983226982527 -0.30495776272600778 0 0.075483032258224086 -0.28815868119130272 0 0.059449054433483903 -0.28956707473318272 0 0.075483032258224086 -0.28815868119130272 0 0.0646939085167762 -0.2722383315448984 0 0.059449054433483903 -0.28956707473318272 0 0.0646939085167762 -0.2722383315448984 0 0.077350866508299074 -0.27549126298099152 0 0.080723294946858856 -0.26439968831398508 0 0.075483032258224086 -0.28815868119130272 0 0.0646939085167762 -0.2722383315448984 0 0.077350866508299074 -0.27549126298099152 0 0.0646939085167762 -0.2722383315448984 0 0.070005134957367529 -0.25889031236374099 0 0.080723294946858856 -0.26439968831398508 0 0.070005134957367529 -0.25889031236374099 0 0.061490933840310687 -0.25382890142296882 0 0.070069103552599196 -0.24823964670048029 0 0.0646939085167762 -0.2722383315448984 0 0.070005134957367529 -0.25889031236374099 0 0.060614126731859473 -0.2624009925450973 0 0.070005134957367529 -0.25889031236374099 0 0.061490933840310687 -0.25382890142296882 0 0.060614126731859473 -0.2624009925450973 0 0.070005134957367529 -0.25889031236374099 0 0.080071368274292315 -0.25145738896057979 0 0.080723294946858856 -0.26439968831398508 0 0.070005134957367529 -0.25889031236374099 0 0.080071368274292315 -0.25145738896057979 0 0.070069103552599196 -0.24823964670048029 0 0.080071368274292315 -0.25145738896057979 0 0.080723294946858856 -0.26439968831398508 0 0.090706365013478091 -0.25245448435890872 0 0.080723294946858856 -0.26439968831398508 0 0.090706365013478091 -0.25245448435890872 0 0.095060577752172304 -0.26241188567384149 0 0.075483032258224086 -0.28815868119130272 0 0.077350866508299074 -0.27549126298099152 0 0.088503230311337153 -0.27716835087377989 0 0.077350866508299074 -0.27549126298099152 0 0.080723294946858856 -0.26439968831398508 0 0.088503230311337153 -0.27716835087377989 0 0.080723294946858856 -0.26439968831398508 0 0.088503230311337153 -0.27716835087377989 0 0.095060577752172304 -0.26241188567384149 0 0.088503230311337153 -0.27716835087377989 0 0.1016952336099234 -0.27235330725820578 0 0.101883582619993 -0.28460947857741209 0 0.088503230311337153 -0.27716835087377989 0 0.1016952336099234 -0.27235330725820578 0 0.095060577752172304 -0.26241188567384149 0 0.1016952336099234 -0.27235330725820578 0 0.1104739380917857 -0.2612093749811526 0 0.1125548392743288 -0.27636744618484282 0 0.1016952336099234 -0.27235330725820578 0 0.1125548392743288 -0.27636744618484282 0 0.101883582619993 -0.28460947857741209 0 0.090706365013478091 -0.25245448435890872 0 0.099550463170151926 -0.25262580003909579 0 0.095060577752172304 -0.26241188567384149 0 0.1016952336099234 -0.27235330725820578 0 0.095060577752172304 -0.26241188567384149 0 0.1104739380917857 -0.2612093749811526 0 0.099550463170151926 -0.25262580003909579 0 0.095060577752172304 -0.26241188567384149 0 0.1104739380917857 -0.2612093749811526 0 0.099550463170151926 -0.25262580003909579 0 0.1104739380917857 -0.2612093749811526 0 0.1078238037173969 -0.24832262031645649 0 0.1311170075682456 -0.27142576198599933 0 0.1104739380917857 -0.2612093749811526 0 0.1212054647883809 -0.25073068226796852 0 0.1104739380917857 -0.2612093749811526 0 0.1212054647883809 -0.25073068226796852 0 0.1078238037173969 -0.24832262031645649 0 0.1311170075682456 -0.27142576198599933 0 0.1104739380917857 -0.2612093749811526 0 0.1311170075682456 -0.27142576198599933 0 0.1104739380917857 -0.2612093749811526 0 0.1193620271946058 -0.27249351692823448 0 0.1104739380917857 -0.2612093749811526 0 0.1125548392743288 -0.27636744618484282 0 0.1193620271946058 -0.27249351692823448 0 0.1125548392743288 -0.27636744618484282 0 0.1193620271946058 -0.27249351692823448 0 0.1233023238440631 -0.28097148456094378 0 0.1311170075682456 -0.27142576198599933 0 0.1193620271946058 -0.27249351692823448 0 0.1233023238440631 -0.28097148456094378 0 0.1233023238440631 -0.28097148456094378 0 0.1242383748246253 -0.29131174999725179 0 0.1141297936923768 -0.28878453930630188 0 0.1242383748246253 -0.29131174999725179 0 0.1141297936923768 -0.28878453930630188 0 0.1198701537204314 -0.30089140532399938 0 0.1141297936923768 -0.28878453930630188 0 0.10622170970645189 -0.29895353846799488 0 0.1198701537204314 -0.30089140532399938 0 0.1125548392743288 -0.27636744618484282 0 0.1233023238440631 -0.28097148456094378 0 0.1141297936923768 -0.28878453930630188 0 0.1125548392743288 -0.27636744618484282 0 0.1141297936923768 -0.28878453930630188 0 0.101883582619993 -0.28460947857741209 0 0.089727975817252392 -0.29646224842349211 0 0.101883582619993 -0.28460947857741209 0 0.10622170970645189 -0.29895353846799488 0 0.1141297936923768 -0.28878453930630188 0 0.101883582619993 -0.28460947857741209 0 0.10622170970645189 -0.29895353846799488 0 0.089727975817252392 -0.29646224842349211 0 0.10049372866807189 -0.31082656242210721 0 0.10622170970645189 -0.29895353846799488 0 0.10049372866807189 -0.31082656242210721 0 0.10622170970645189 -0.29895353846799488 0 0.1134387524627216 -0.31086840579325631 0 0.10622170970645189 -0.29895353846799488 0 0.1134387524627216 -0.31086840579325631 0 0.1198701537204314 -0.30089140532399938 0 0.1265219532001009 -0.3124330460259736 0 0.1134387524627216 -0.31086840579325631 0 0.1198701537204314 -0.30089140532399938 0 0.1265219532001009 -0.3124330460259736 0 0.1134387524627216 -0.31086840579325631 0 0.1192961391526948 -0.32261879728377291 0 0.1134387524627216 -0.31086840579325631 0 0.1192961391526948 -0.32261879728377291 0 0.1082288303285789 -0.31948708523568958 0 0.1192961391526948 -0.32261879728377291 0 0.1093748658769356 -0.32997486192450581 0 0.1082288303285789 -0.31948708523568958 0 0.1192961391526948 -0.32261879728377291 0 0.1168506625355451 -0.3296807312869221 0 0.1093748658769356 -0.32997486192450581 0 0.1192961391526948 -0.32261879728377291 0 0.12260601330919629 -0.33072698382653798 0 0.1168506625355451 -0.3296807312869221 0 0.13219802669416811 -0.32498852212276208 0 0.1192961391526948 -0.32261879728377291 0 0.12260601330919629 -0.33072698382653798 0 0.13051916655351839 -0.33696304048325831 0 0.12260601330919629 -0.33072698382653798 0 0.1159240811174677 -0.33775964177068091 0 0.12260601330919629 -0.33072698382653798 0 0.1159240811174677 -0.33775964177068091 0 0.1161256318033537 -0.33540228211287182 0 0.12260601330919629 -0.33072698382653798 0 0.1168506625355451 -0.3296807312869221 0 0.1161256318033537 -0.33540228211287182 0 0.13051916655351839 -0.33696304048325831 0 0.1159240811174677 -0.33775964177068091 0 0.13051916655351839 -0.33696304048325831 0 0.1159240811174677 -0.33775964177068091 0 0.123981461538115 -0.35128285539313481 0 0.1159240811174677 -0.33775964177068091 0 0.1161256318033537 -0.33540228211287182 0 0.1168506625355451 -0.3296807312869221 0 0.1161256318033537 -0.33540228211287182 0 0.1093748658769356 -0.32997486192450581 0 0.1159240811174677 -0.33775964177068091 0 0.1161256318033537 -0.33540228211287182 0 0.1093748658769356 -0.32997486192450581 0 0.1159240811174677 -0.33775964177068091 0 0.092335912071574502 -0.33904708650077298 0 0.1159240811174677 -0.33775964177068091 0 0.1093748658769356 -0.32997486192450581 0 0.092335912071574502 -0.33904708650077298 0 0.1093748658769356 -0.32997486192450581 0 0.096347407600029022 -0.32440529872184809 0 0.092335912071574502 -0.33904708650077298 0 0.1159240811174677 -0.33775964177068091 0 0.10211321446004019 -0.35101158716873732 0 0.092335912071574502 -0.33904708650077298 0 0.086214248119208581 -0.31193359067875348 0 0.10049372866807189 -0.31082656242210721 0 0.096347407600029022 -0.32440529872184809 0 0.10049372866807189 -0.31082656242210721 0 0.1134387524627216 -0.31086840579325631 0 0.1082288303285789 -0.31948708523568958 0 0.10049372866807189 -0.31082656242210721 0 0.096347407600029022 -0.32440529872184809 0 0.1082288303285789 -0.31948708523568958 0 0.1093748658769356 -0.32997486192450581 0 0.096347407600029022 -0.32440529872184809 0 0.1082288303285789 -0.31948708523568958 0 0.12784456261830821 -0.36308533366748658 0 0.12609635470998201 -0.38402791619100712 0 0.113745377556003 -0.36324200547299851 0 0.1159240811174677 -0.33775964177068091 0 0.113745377556003 -0.36324200547299851 0 0.123981461538115 -0.35128285539313481 0 0.1159240811174677 -0.33775964177068091 0 0.113745377556003 -0.36324200547299851 0 0.1159240811174677 -0.33775964177068091 0 0.113745377556003 -0.36324200547299851 0 0.10211321446004019 -0.35101158716873732 0 0.12784456261830821 -0.36308533366748658 0 0.113745377556003 -0.36324200547299851 0 0.123981461538115 -0.35128285539313481 0 0.1115666739945345 -0.38872436917531578 0 0.113745377556003 -0.36324200547299851 0 0.096372132326470572 -0.36542491223168638 0 0.113745377556003 -0.36324200547299851 0 0.10211321446004019 -0.35101158716873732 0 0.096372132326470572 -0.36542491223168638 0 0.089853218628298884 -0.38394717958202601 0 0.096372132326470572 -0.36542491223168638 0 0.07582030708563034 -0.37256671738353597 0 0.096372132326470572 -0.36542491223168638 0 0.082110249222110576 -0.35466523699539548 0 0.07582030708563034 -0.37256671738353597 0 0.10211321446004019 -0.35101158716873732 0 0.096372132326470572 -0.36542491223168638 0 0.082110249222110576 -0.35466523699539548 0 0.082110249222110576 -0.35466523699539548 0 0.092335912071574502 -0.33904708650077298 0 0.068747743025681235 -0.34033453123086538 0 0.10211321446004019 -0.35101158716873732 0 0.082110249222110576 -0.35466523699539548 0 0.092335912071574502 -0.33904708650077298 0 0.082110249222110576 -0.35466523699539548 0 0.068747743025681235 -0.34033453123086538 0 0.057272186363266697 -0.35960658745677498 0 0.082110249222110576 -0.35466523699539548 0 0.07582030708563034 -0.37256671738353597 0 0.057272186363266697 -0.35960658745677498 0 0.05933500968155693 -0.37671477575793533 0 0.07582030708563034 -0.37256671738353597 0 0.057272186363266697 -0.35960658745677498 0 0.086214248119208581 -0.31193359067875348 0 0.096347407600029022 -0.32440529872184809 0 0.078030795921920637 -0.32434601069550512 0 0.092335912071574502 -0.33904708650077298 0 0.068747743025681235 -0.34033453123086538 0 0.078030795921920637 -0.32434601069550512 0 0.092335912071574502 -0.33904708650077298 0 0.068747743025681235 -0.34033453123086538 0 0.096347407600029022 -0.32440529872184809 0 0.092335912071574502 -0.33904708650077298 0 0.078030795921920637 -0.32434601069550512 0 0.068747743025681235 -0.34033453123086538 0 0.078030795921920637 -0.32434601069550512 0 0.053863538987460123 -0.3232816795844588 0 0.069967983226982527 -0.30495776272600778 0 0.078030795921920637 -0.32434601069550512 0 0.053863538987460123 -0.3232816795844588 0 0.086214248119208581 -0.31193359067875348 0 0.069967983226982527 -0.30495776272600778 0 0.078030795921920637 -0.32434601069550512 0 0.068747743025681235 -0.34033453123086538 0 0.045159573979787898 -0.34162197596095778 0 0.068747743025681235 -0.34033453123086538 0 0.053863538987460123 -0.3232816795844588 0 0.045159573979787898 -0.34162197596095778 0 0.053863538987460123 -0.3232816795844588 0 0.034832013842728909 -0.33032259781876938 0 0.045159573979787898 -0.34162197596095778 0 0.034832013842728909 -0.33032259781876938 0 0.045159573979787898 -0.34162197596095778 0 0.02157140493389462 -0.34290942069105018 0 0.045159573979787898 -0.34162197596095778 0 0.02157140493389462 -0.34290942069105018 0 0.053863538987460123 -0.3232816795844588 0 0.034832013842728909 -0.33032259781876938 0 0.03621734991660093 -0.31670946998547028 0 0.053863538987460123 -0.3232816795844588 0 0.03621734991660093 -0.31670946998547028 0 0.048768037075517537 -0.30442990221103089 0 0.05933500968155693 -0.37671477575793533 0 0.057272186363266697 -0.35960658745677498 0 0.039079294002052851 -0.37065651216905859 0 0.068747743025681235 -0.34033453123086538 0 0.045159573979787898 -0.34162197596095778 0 0.057272186363266697 -0.35960658745677498 0 0.045159573979787898 -0.34162197596095778 0 0.034512899630155462 -0.3545258348651717 0 0.02157140493389462 -0.34290942069105018 0 0.045159573979787898 -0.34162197596095778 0 0.057272186363266697 -0.35960658745677498 0 0.034512899630155462 -0.3545258348651717 0 0.057272186363266697 -0.35960658745677498 0 0.034512899630155462 -0.3545258348651717 0 0.039079294002052851 -0.37065651216905859 0 0.025542853711361019 -0.38384675294920401 0 0.039079294002052851 -0.37065651216905859 0 0.016784443680880379 -0.36713146693108112 0 0.034512899630155462 -0.3545258348651717 0 0.039079294002052851 -0.37065651216905859 0 0.016784443680880379 -0.36713146693108112 0 0.034512899630155462 -0.3545258348651717 0 0.016784443680880379 -0.36713146693108112 0 0.02157140493389462 -0.34290942069105018 0 -0.0043130761299947744 -0.35643483176966217 0 0.016784443680880379 -0.36713146693108112 0 0.02157140493389462 -0.34290942069105018 0 -0.0038616663111063101 -0.33241552487502413 0 -0.0043130761299947744 -0.35643483176966217 0 0.02157140493389462 -0.34290942069105018 0 -0.0043130761299947744 -0.35643483176966217 0 -0.0064694903547723136 -0.38059021958606692 0 0.016784443680880379 -0.36713146693108112 0 0.03621734991660093 -0.31670946998547028 0 0.020048637459846991 -0.32439583124448262 0 0.029165048793799431 -0.30349547286963757 0 0.034832013842728909 -0.33032259781876938 0 0.03621734991660093 -0.31670946998547028 0 0.020048637459846991 -0.32439583124448262 0 0.020048637459846991 -0.32439583124448262 0 0.0094652366165251054 -0.31053241408104548 0 0.029165048793799431 -0.30349547286963757 0 0.034832013842728909 -0.33032259781876938 0 0.020048637459846991 -0.32439583124448262 0 0.02157140493389462 -0.34290942069105018 0 -0.0038616663111063101 -0.33241552487502413 0 0.020048637459846991 -0.32439583124448262 0 0.02157140493389462 -0.34290942069105018 0 -0.0038616663111063101 -0.33241552487502413 0 0.020048637459846991 -0.32439583124448262 0 0.0094652366165251054 -0.31053241408104548 0 -0.01007927323019326 -0.3103345258507364 0 0.0094652366165251054 -0.31053241408104548 0 0.0017563221397047381 -0.2997067901486577 0 0.0094652366165251054 -0.31053241408104548 0 0.0017563221397047381 -0.2997067901486577 0 0.017453688627786131 -0.29322190620108468 0 0.0017563221397047381 -0.2997067901486577 0 0.0066437179820165657 -0.2861171845936395 0 0.017453688627786131 -0.29322190620108468 0 -0.0080748459131490501 -0.2914060437848453 0 0.0017563221397047381 -0.2997067901486577 0 0.0066437179820165657 -0.2861171845936395 0 0.0066437179820165657 -0.2861171845936395 0 0.017453688627786131 -0.29322190620108468 0 0.01908241754038794 -0.28073467218482329 0 0.017453688627786131 -0.29322190620108468 0 0.029398966714908509 -0.28692964748338379 0 0.029165048793799431 -0.30349547286963757 0 0.017453688627786131 -0.29322190620108468 0 0.029398966714908509 -0.28692964748338379 0 0.01908241754038794 -0.28073467218482329 0 0.0094652366165251054 -0.31053241408104548 0 0.017453688627786131 -0.29322190620108468 0 0.029165048793799431 -0.30349547286963757 0 0.03621734991660093 -0.31670946998547028 0 0.029165048793799431 -0.30349547286963757 0 0.048768037075517537 -0.30442990221103089 0 0.029165048793799431 -0.30349547286963757 0 0.043029943860180789 -0.28970337243015992 0 0.048768037075517537 -0.30442990221103089 0 0.029398966714908509 -0.28692964748338379 0 0.029165048793799431 -0.30349547286963757 0 0.043029943860180789 -0.28970337243015992 0 0.029398966714908509 -0.28692964748338379 0 0.043029943860180789 -0.28970337243015992 0 0.038396769586432553 -0.27977596087564799 0 0.043029943860180789 -0.28970337243015992 0 0.051749435803858171 -0.27840569125857739 0 0.038396769586432553 -0.27977596087564799 0 0.043029943860180789 -0.28970337243015992 0 0.059449054433483903 -0.28956707473318272 0 0.051749435803858171 -0.27840569125857739 0 0.043029943860180789 -0.28970337243015992 0 0.059449054433483903 -0.28956707473318272 0 0.048768037075517537 -0.30442990221103089 0 0.069967983226982527 -0.30495776272600778 0 0.059449054433483903 -0.28956707473318272 0 0.048768037075517537 -0.30442990221103089 0 0.069967983226982527 -0.30495776272600778 0 0.053863538987460123 -0.3232816795844588 0 0.048768037075517537 -0.30442990221103089 0 0.053380735395516472 -0.25867595766617779 0 0.04428054005230446 -0.26275141268032309 0 0.045372505498807933 -0.25408090721008542 0 0.053380735395516472 -0.25867595766617779 0 0.053158010572478251 -0.26777612517812432 0 0.04428054005230446 -0.26275141268032309 0 0.053380735395516472 -0.25867595766617779 0 0.045372505498807933 -0.25408090721008542 0 0.05268811686830014 -0.24901610311096159 0 0.053380735395516472 -0.25867595766617779 0 0.061490933840310687 -0.25382890142296882 0 0.05268811686830014 -0.24901610311096159 0 0.053380735395516472 -0.25867595766617779 0 0.060614126731859473 -0.2624009925450973 0 0.053158010572478251 -0.26777612517812432 0 0.053380735395516472 -0.25867595766617779 0 0.061490933840310687 -0.25382890142296882 0 0.060614126731859473 -0.2624009925450973 0 0.0646939085167762 -0.2722383315448984 0 0.060614126731859473 -0.2624009925450973 0 0.053158010572478251 -0.26777612517812432 0 0.0646939085167762 -0.2722383315448984 0 0.059449054433483903 -0.28956707473318272 0 0.051749435803858171 -0.27840569125857739 0 0.0646939085167762 -0.2722383315448984 0 0.051749435803858171 -0.27840569125857739 0 0.053158010572478251 -0.26777612517812432 0 0.053158010572478251 -0.26777612517812432 0 0.044229316934554799 -0.27218436537367241 0 0.04428054005230446 -0.26275141268032309 0 0.051749435803858171 -0.27840569125857739 0 0.053158010572478251 -0.26777612517812432 0 0.044229316934554799 -0.27218436537367241 0 0.044229316934554799 -0.27218436537367241 0 0.031885251388666561 -0.26470215361104171 0 0.04428054005230446 -0.26275141268032309 0 0.051749435803858171 -0.27840569125857739 0 0.044229316934554799 -0.27218436537367241 0 0.038396769586432553 -0.27977596087564799 0 0.044229316934554799 -0.27218436537367241 0 0.038396769586432553 -0.27977596087564799 0 0.029696712261103771 -0.27487286106778819 0 0.029398966714908509 -0.28692964748338379 0 0.038396769586432553 -0.27977596087564799 0 0.029696712261103771 -0.27487286106778819 0 0.044229316934554799 -0.27218436537367241 0 0.031885251388666561 -0.26470215361104171 0 0.029696712261103771 -0.27487286106778819 0 0.037315510146954597 -0.25849363249326118 0 0.031885251388666561 -0.26470215361104171 0 0.04428054005230446 -0.26275141268032309 0 0.037315510146954597 -0.25849363249326118 0 0.031885251388666561 -0.26470215361104171 0 0.03069464768829987 -0.25176037071845259 0 0.037315510146954597 -0.25849363249326118 0 0.04428054005230446 -0.26275141268032309 0 0.045372505498807933 -0.25408090721008542 0 0.045372505498807933 -0.25408090721008542 0 0.03069464768829987 -0.25176037071845259 0 0.042588116356466379 -0.2448823624008481 0 0.037315510146954597 -0.25849363249326118 0 0.045372505498807933 -0.25408090721008542 0 0.03069464768829987 -0.25176037071845259 0 0.031885251388666561 -0.26470215361104171 0 0.021199614426200629 -0.26114166245967918 0 0.019908913466960752 -0.27058631964059482 0 0.031885251388666561 -0.26470215361104171 0 0.03069464768829987 -0.25176037071845259 0 0.021199614426200629 -0.26114166245967918 0 0.03069464768829987 -0.25176037071845259 0 0.021199614426200629 -0.26114166245967918 0 0.016145176335298529 -0.25210595968411048 0 0.029398966714908509 -0.28692964748338379 0 0.029696712261103771 -0.27487286106778819 0 0.01908241754038794 -0.28073467218482329 0 0.031885251388666561 -0.26470215361104171 0 0.029696712261103771 -0.27487286106778819 0 0.019908913466960752 -0.27058631964059482 0 0.019908913466960752 -0.27058631964059482 0 0.01908241754038794 -0.28073467218482329 0 0.01128192931255503 -0.27464126756021451 0 0.029696712261103771 -0.27487286106778819 0 0.019908913466960752 -0.27058631964059482 0 0.01908241754038794 -0.28073467218482329 0 -0.01145854626600548 -0.26602311564559261 0 0.01128192931255503 -0.27464126756021451 0 0.0057158633005241696 -0.26337829885565528 0 0.0066437179820165657 -0.2861171845936395 0 0.01908241754038794 -0.28073467218482329 0 0.01128192931255503 -0.27464126756021451 0 0.019908913466960752 -0.27058631964059482 0 0.01128192931255503 -0.27464126756021451 0 0.0057158633005241696 -0.26337829885565528 0 -0.002848760243290064 -0.27761611820401882 0 0.0066437179820165657 -0.2861171845936395 0 0.01128192931255503 -0.27464126756021451 0 0.016145176335298529 -0.25210595968411048 0 0.0057158633005241696 -0.26337829885565528 0 0.0054759062840018038 -0.25064707341720888 0 0.021199614426200629 -0.26114166245967918 0 0.019908913466960752 -0.27058631964059482 0 0.0057158633005241696 -0.26337829885565528 0 0.021199614426200629 -0.26114166245967918 0 0.016145176335298529 -0.25210595968411048 0 0.0057158633005241696 -0.26337829885565528 0 -0.0009620894167222515 -0.25496392916579452 0 0.0057158633005241696 -0.26337829885565528 0 0.0054759062840018038 -0.25064707341720888 0 -0.0009620894167222515 -0.25496392916579452 0 -0.0029313858115674811 -0.24854412401401971 0 0.0054759062840018038 -0.25064707341720888 0 0.0054759062840018038 -0.25064707341720888 0 0.0026199421412959989 -0.2430643023623929 0 0.011589873569895199 -0.24127835128668559 0 -0.0029313858115674811 -0.24854412401401971 0 0.0054759062840018038 -0.25064707341720888 0 0.0026199421412959989 -0.2430643023623929 0 0.016145176335298529 -0.25210595968411048 0 0.0054759062840018038 -0.25064707341720888 0 0.011589873569895199 -0.24127835128668559 0 0.011589873569895199 -0.24127835128668559 0 0.010668172172219499 -0.2272828987723072 0 0.020574075722817331 -0.2351284197632682 0 0.0026199421412959989 -0.2430643023623929 0 0.011589873569895199 -0.24127835128668559 0 0.0017465435191736189 -0.23378549097037141 0 -0.00080535468136348092 -0.21995366459000901 0 0.010668172172219499 -0.2272828987723072 0 0.01016515501406726 -0.20926501301563591 0 -0.00080535468136348092 -0.21995366459000901 0 0.0017465435191736189 -0.23378549097037141 0 0.010668172172219499 -0.2272828987723072 0 0.010668172172219499 -0.2272828987723072 0 0.02170661161633574 -0.22145314359659171 0 0.01016515501406726 -0.20926501301563591 0 0.011589873569895199 -0.24127835128668559 0 0.0017465435191736189 -0.23378549097037141 0 0.010668172172219499 -0.2272828987723072 0 0.010668172172219499 -0.2272828987723072 0 0.02170661161633574 -0.22145314359659171 0 0.020574075722817331 -0.2351284197632682 0 0.02170661161633574 -0.22145314359659171 0 0.02866695829179056 -0.22960637228307629 0 0.036392787169896093 -0.22322562645731159 0 0.02170661161633574 -0.22145314359659171 0 0.02866695829179056 -0.22960637228307629 0 0.020574075722817331 -0.2351284197632682 0 0.02866695829179056 -0.22960637228307629 0 0.020574075722817331 -0.2351284197632682 0 0.032071787069821417 -0.24054619649286721 0 0.022195152742869501 -0.2444300013669817 0 0.020574075722817331 -0.2351284197632682 0 0.032071787069821417 -0.24054619649286721 0 0.03069464768829987 -0.25176037071845259 0 0.022195152742869501 -0.2444300013669817 0 0.032071787069821417 -0.24054619649286721 0 0.03069464768829987 -0.25176037071845259 0 0.016145176335298529 -0.25210595968411048 0 0.022195152742869501 -0.2444300013669817 0 0.016145176335298529 -0.25210595968411048 0 0.011589873569895199 -0.24127835128668559 0 0.022195152742869501 -0.2444300013669817 0 0.011589873569895199 -0.24127835128668559 0 0.022195152742869501 -0.2444300013669817 0 0.020574075722817331 -0.2351284197632682 0 -0.003739977245034012 -0.19168309442994089 0 0.010514116253606281 -0.1925853606064957 0 0.01016515501406726 -0.20926501301563591 0 0.010514116253606281 -0.1925853606064957 0 0.01016515501406726 -0.20926501301563591 0 0.018596641755985681 -0.20049862993462389 0 0.02170661161633574 -0.22145314359659171 0 0.01016515501406726 -0.20926501301563591 0 0.028304225500431591 -0.20785134554231141 0 0.01016515501406726 -0.20926501301563591 0 0.028304225500431591 -0.20785134554231141 0 0.018596641755985681 -0.20049862993462389 0 0.02170661161633574 -0.22145314359659171 0 0.028304225500431591 -0.20785134554231141 0 0.036392787169896093 -0.22322562645731159 0 0.028304225500431591 -0.20785134554231141 0 0.018596641755985681 -0.20049862993462389 0 0.02540307025583758 -0.19229280057405279 0 0.010514116253606281 -0.1925853606064957 0 0.018596641755985681 -0.20049862993462389 0 0.02540307025583758 -0.19229280057405279 0 0.010514116253606281 -0.1925853606064957 0 0.02540307025583758 -0.19229280057405279 0 0.015764016274472759 -0.1812646672695073 0 0.02540307025583758 -0.19229280057405279 0 0.041440672425083092 -0.19607701236864419 0 0.030421272951226121 -0.1778391783376792 0 0.028304225500431591 -0.20785134554231141 0 0.02540307025583758 -0.19229280057405279 0 0.041440672425083092 -0.19607701236864419 0 0.041440672425083092 -0.19607701236864419 0 0.042310424588804782 -0.2140630995529598 0 0.055497750511994078 -0.2086068857692274 0 0.028304225500431591 -0.20785134554231141 0 0.041440672425083092 -0.19607701236864419 0 0.042310424588804782 -0.2140630995529598 0 0.028304225500431591 -0.20785134554231141 0 0.042310424588804782 -0.2140630995529598 0 0.036392787169896093 -0.22322562645731159 0 0.042310424588804782 -0.2140630995529598 0 0.055497750511994078 -0.2086068857692274 0 0.052955454276687589 -0.2198291654371925 0 0.062338921595789062 -0.21792006704763969 0 0.055497750511994078 -0.2086068857692274 0 0.052955454276687589 -0.2198291654371925 0 0.062338921595789062 -0.21792006704763969 0 0.055497750511994078 -0.2086068857692274 0 0.067863046951983474 -0.20503048868511209 0 0.055497750511994078 -0.2086068857692274 0 0.056257937900538298 -0.19577788601322099 0 0.067863046951983474 -0.20503048868511209 0 0.041440672425083092 -0.19607701236864419 0 0.056257937900538298 -0.19577788601322099 0 0.051449240160577621 -0.1762857105508405 0 0.041440672425083092 -0.19607701236864419 0 0.055497750511994078 -0.2086068857692274 0 0.056257937900538298 -0.19577788601322099 0 0.040491861427302538 -0.2355872617630255 0 0.042588116356466379 -0.2448823624008481 0 0.052307832003780613 -0.23884346229351339 0 0.040491861427302538 -0.2355872617630255 0 0.045866106706223042 -0.22907627795895011 0 0.052307832003780613 -0.23884346229351339 0 0.03069464768829987 -0.25176037071845259 0 0.042588116356466379 -0.2448823624008481 0 0.032071787069821417 -0.24054619649286721 0 0.040491861427302538 -0.2355872617630255 0 0.042588116356466379 -0.2448823624008481 0 0.032071787069821417 -0.24054619649286721 0 0.02866695829179056 -0.22960637228307629 0 0.040491861427302538 -0.2355872617630255 0 0.032071787069821417 -0.24054619649286721 0 0.02866695829179056 -0.22960637228307629 0 0.040491861427302538 -0.2355872617630255 0 0.036392787169896093 -0.22322562645731159 0 0.042310424588804782 -0.2140630995529598 0 0.036392787169896093 -0.22322562645731159 0 0.045866106706223042 -0.22907627795895011 0 0.040491861427302538 -0.2355872617630255 0 0.036392787169896093 -0.22322562645731159 0 0.045866106706223042 -0.22907627795895011 0 0.045866106706223042 -0.22907627795895011 0 0.058764067980626958 -0.22947949685718549 0 0.052307832003780613 -0.23884346229351339 0 0.045866106706223042 -0.22907627795895011 0 0.052955454276687589 -0.2198291654371925 0 0.058764067980626958 -0.22947949685718549 0 0.042310424588804782 -0.2140630995529598 0 0.045866106706223042 -0.22907627795895011 0 0.052955454276687589 -0.2198291654371925 0 0.062338921595789062 -0.21792006704763969 0 0.058764067980626958 -0.22947949685718549 0 0.065719467571416057 -0.22489822263154319 0 0.062338921595789062 -0.21792006704763969 0 0.052955454276687589 -0.2198291654371925 0 0.058764067980626958 -0.22947949685718549 0 0.058764067980626958 -0.22947949685718549 0 0.062159259289524899 -0.2368834247622158 0 0.052307832003780613 -0.23884346229351339 0 0.062159259289524899 -0.2368834247622158 0 0.052307832003780613 -0.23884346229351339 0 0.061229972926465738 -0.2445427902389527 0 0.045372505498807933 -0.25408090721008542 0 0.042588116356466379 -0.2448823624008481 0 0.05268811686830014 -0.24901610311096159 0 0.042588116356466379 -0.2448823624008481 0 0.052307832003780613 -0.23884346229351339 0 0.05268811686830014 -0.24901610311096159 0 0.061490933840310687 -0.25382890142296882 0 0.05268811686830014 -0.24901610311096159 0 0.061229972926465738 -0.2445427902389527 0 0.052307832003780613 -0.23884346229351339 0 0.05268811686830014 -0.24901610311096159 0 0.061229972926465738 -0.2445427902389527 0 0.061490933840310687 -0.25382890142296882 0 0.061229972926465738 -0.2445427902389527 0 0.070069103552599196 -0.24823964670048029 0 0.061229972926465738 -0.2445427902389527 0 0.070069103552599196 -0.24823964670048029 0 0.069856411684105391 -0.23913895996007839 0 0.062159259289524899 -0.2368834247622158 0 0.061229972926465738 -0.2445427902389527 0 0.069856411684105391 -0.23913895996007839 0 0.062159259289524899 -0.2368834247622158 0 0.069856411684105391 -0.23913895996007839 0 0.067142239376285745 -0.23139328163069281 0 0.069856411684105391 -0.23913895996007839 0 0.077788170153509889 -0.24196191377257101 0 0.076767606518392539 -0.23187249677345001 0 0.080071368274292315 -0.25145738896057979 0 0.070069103552599196 -0.24823964670048029 0 0.077788170153509889 -0.24196191377257101 0 0.070069103552599196 -0.24823964670048029 0 0.069856411684105391 -0.23913895996007839 0 0.077788170153509889 -0.24196191377257101 0 0.080071368274292315 -0.25145738896057979 0 0.090706365013478091 -0.25245448435890872 0 0.085906732882507178 -0.24385162082211831 0 0.080071368274292315 -0.25145738896057979 0 0.077788170153509889 -0.24196191377257101 0 0.085906732882507178 -0.24385162082211831 0 0.077788170153509889 -0.24196191377257101 0 0.085906732882507178 -0.24385162082211831 0 0.083256636250354649 -0.23616880796388259 0 0.077788170153509889 -0.24196191377257101 0 0.083256636250354649 -0.23616880796388259 0 0.076767606518392539 -0.23187249677345001 0 0.085906732882507178 -0.24385162082211831 0 0.089657973372422345 -0.23730775202069579 0 0.094006026236525903 -0.2441335510050745 0 0.085906732882507178 -0.24385162082211831 0 0.083256636250354649 -0.23616880796388259 0 0.089657973372422345 -0.23730775202069579 0 0.083256636250354649 -0.23616880796388259 0 0.089657973372422345 -0.23730775202069579 0 0.089763789457938253 -0.2306791647953326 0 0.089657973372422345 -0.23730775202069579 0 0.089763789457938253 -0.2306791647953326 0 0.096012267649498176 -0.23702186761809721 0 0.089657973372422345 -0.23730775202069579 0 0.094006026236525903 -0.2441335510050745 0 0.096012267649498176 -0.23702186761809721 0 0.090706365013478091 -0.25245448435890872 0 0.085906732882507178 -0.24385162082211831 0 0.094006026236525903 -0.2441335510050745 0 0.086446736705125371 -0.22420087797706609 0 0.091303359373345411 -0.22339335178318359 0 0.089763789457938253 -0.2306791647953326 0 0.086446736705125371 -0.22420087797706609 0 0.091303359373345411 -0.22339335178318359 0 0.086853981468707001 -0.2185547472363609 0 0.091303359373345411 -0.22339335178318359 0 0.086853981468707001 -0.2185547472363609 0 0.09077468002378962 -0.21857675351640271 0 0.091303359373345411 -0.22339335178318359 0 0.09077468002378962 -0.21857675351640271 0 0.094530837428433365 -0.22086489816084981 0 0.091303359373345411 -0.22339335178318359 0 0.089763789457938253 -0.2306791647953326 0 0.098670227838192195 -0.22970514568366851 0 0.086446736705125371 -0.22420087797706609 0 0.089763789457938253 -0.2306791647953326 0 0.083020570332336119 -0.22791650227557511 0 0.083256636250354649 -0.23616880796388259 0 0.083020570332336119 -0.22791650227557511 0 0.076767606518392539 -0.23187249677345001 0 0.083256636250354649 -0.23616880796388259 0 0.089763789457938253 -0.2306791647953326 0 0.083020570332336119 -0.22791650227557511 0 0.083020570332336119 -0.22791650227557511 0 0.077930889523722374 -0.22519622511208121 0 0.076767606518392539 -0.23187249677345001 0 0.083020570332336119 -0.22791650227557511 0 0.081291982893300085 -0.22046062379487821 0 0.077930889523722374 -0.22519622511208121 0 0.086446736705125371 -0.22420087797706609 0 0.083020570332336119 -0.22791650227557511 0 0.081291982893300085 -0.22046062379487821 0 0.086446736705125371 -0.22420087797706609 0 0.081291982893300085 -0.22046062379487821 0 0.086853981468707001 -0.2185547472363609 0 0.081291982893300085 -0.22046062379487821 0 0.077930889523722374 -0.22519622511208121 0 0.073706539318973169 -0.21796036257100029 0 0.072234091795087663 -0.22574485878751241 0 0.065719467571416057 -0.22489822263154319 0 0.073706539318973169 -0.21796036257100029 0 0.077930889523722374 -0.22519622511208121 0 0.072234091795087663 -0.22574485878751241 0 0.073706539318973169 -0.21796036257100029 0 0.069856411684105391 -0.23913895996007839 0 0.076767606518392539 -0.23187249677345001 0 0.067142239376285745 -0.23139328163069281 0 0.072234091795087663 -0.22574485878751241 0 0.076767606518392539 -0.23187249677345001 0 0.067142239376285745 -0.23139328163069281 0 0.077930889523722374 -0.22519622511208121 0 0.072234091795087663 -0.22574485878751241 0 0.076767606518392539 -0.23187249677345001 0 0.058764067980626958 -0.22947949685718549 0 0.062159259289524899 -0.2368834247622158 0 0.067142239376285745 -0.23139328163069281 0 0.058764067980626958 -0.22947949685718549 0 0.067142239376285745 -0.23139328163069281 0 0.065719467571416057 -0.22489822263154319 0 0.072234091795087663 -0.22574485878751241 0 0.067142239376285745 -0.23139328163069281 0 0.065719467571416057 -0.22489822263154319 0 0.062338921595789062 -0.21792006704763969 0 0.065719467571416057 -0.22489822263154319 0 0.073706539318973169 -0.21796036257100029 0 0.062338921595789062 -0.21792006704763969 0 0.067863046951983474 -0.20503048868511209 0 0.073706539318973169 -0.21796036257100029 0 0.067863046951983474 -0.20503048868511209 0 0.073706539318973169 -0.21796036257100029 0 0.079094442607528917 -0.20913243433380641 0 0.067863046951983474 -0.20503048868511209 0 0.081482512553192915 -0.1953056794767786 0 0.079094442607528917 -0.20913243433380641 0 0.056257937900538298 -0.19577788601322099 0 0.067863046951983474 -0.20503048868511209 0 0.066040058368007956 -0.18964665730407451 0 0.067863046951983474 -0.20503048868511209 0 0.066040058368007956 -0.18964665730407451 0 0.081482512553192915 -0.1953056794767786 0 0.081482512553192915 -0.1953056794767786 0 0.095454742848087734 -0.19451486061966669 0 0.093505174579280592 -0.1731787749771625 0 0.081482512553192915 -0.1953056794767786 0 0.08833530696517819 -0.21036332105093219 0 0.095454742848087734 -0.19451486061966669 0 0.08833530696517819 -0.21036332105093219 0 0.097404311116896569 -0.21585094626217091 0 0.095454742848087734 -0.19451486061966669 0 0.081291982893300085 -0.22046062379487821 0 0.073706539318973169 -0.21796036257100029 0 0.082946926161669862 -0.2149195339015407 0 0.082946926161669862 -0.2149195339015407 0 0.079094442607528917 -0.20913243433380641 0 0.08833530696517819 -0.21036332105093219 0 0.073706539318973169 -0.21796036257100029 0 0.082946926161669862 -0.2149195339015407 0 0.079094442607528917 -0.20913243433380641 0 0.081291982893300085 -0.22046062379487821 0 0.082946926161669862 -0.2149195339015407 0 0.086853981468707001 -0.2185547472363609 0 0.081482512553192915 -0.1953056794767786 0 0.079094442607528917 -0.20913243433380641 0 0.08833530696517819 -0.21036332105093219 0 0.082946926161669862 -0.2149195339015407 0 0.08833530696517819 -0.21036332105093219 0 0.086853981468707001 -0.2185547472363609 0 0.08833530696517819 -0.21036332105093219 0 0.086853981468707001 -0.2185547472363609 0 0.09077468002378962 -0.21857675351640271 0 0.08833530696517819 -0.21036332105093219 0 0.09077468002378962 -0.21857675351640271 0 0.092213447725184278 -0.21529843562297729 0 0.08833530696517819 -0.21036332105093219 0 0.092213447725184278 -0.21529843562297729 0 0.097404311116896569 -0.21585094626217091 0 0.09077468002378962 -0.21857675351640271 0 0.094501608789943028 -0.21679829355882299 0 0.094530837428433365 -0.22086489816084981 0 0.09077468002378962 -0.21857675351640271 0 0.092213447725184278 -0.21529843562297729 0 0.094501608789943028 -0.21679829355882299 0 0.094501608789943028 -0.21679829355882299 0 0.097404311116896569 -0.21585094626217091 0 0.094530837428433365 -0.22086489816084981 0 0.092213447725184278 -0.21529843562297729 0 0.094501608789943028 -0.21679829355882299 0 0.097404311116896569 -0.21585094626217091 0 0.097404311116896569 -0.21585094626217091 0 0.095454742848087734 -0.19451486061966669 0 0.097404311116896569 -0.21585094626217091 0 0.1059898830346106 -0.20430933332548051 0 0.095454742848087734 -0.19451486061966669 0 0.097404311116896569 -0.21585094626217091 0 0.1089347031997706 -0.21297733173581901 0 0.1146171121197104 -0.21980430615730401 0 0.097404311116896569 -0.21585094626217091 0 0.1059898830346106 -0.20430933332548051 0 0.1089347031997706 -0.21297733173581901 0 0.095454742848087734 -0.19451486061966669 0 0.1128143282819509 -0.19216489626002589 0 0.10772522460311169 -0.17968171223372481 0 0.1059898830346106 -0.20430933332548051 0 0.095454742848087734 -0.19451486061966669 0 0.1128143282819509 -0.19216489626002589 0 0.1128143282819509 -0.19216489626002589 0 0.1237689835273371 -0.19605207676116951 0 0.1178461100078927 -0.20838697738218431 0 0.1059898830346106 -0.20430933332548051 0 0.1128143282819509 -0.19216489626002589 0 0.1178461100078927 -0.20838697738218431 0 0.1128143282819509 -0.19216489626002589 0 0.1237689835273371 -0.19605207676116951 0 0.1232013989280239 -0.1819146573535104 0 0.1089347031997706 -0.21297733173581901 0 0.1178461100078927 -0.20838697738218431 0 0.1146171121197104 -0.21980430615730401 0 0.1059898830346106 -0.20430933332548051 0 0.1089347031997706 -0.21297733173581901 0 0.1178461100078927 -0.20838697738218431 0 0.1178461100078927 -0.20838697738218431 0 0.1146171121197104 -0.21980430615730401 0 0.12895394136930069 -0.22163642029703709 0 0.1146171121197104 -0.21980430615730401 0 0.12018370186474731 -0.23305432747703519 0 0.12895394136930069 -0.22163642029703709 0 0.097404311116896569 -0.21585094626217091 0 0.1146171121197104 -0.21980430615730401 0 0.12018370186474731 -0.23305432747703519 0 0.1212054647883809 -0.25073068226796852 0 0.12018370186474731 -0.23305432747703519 0 0.1059281586602189 -0.23527494890652931 0 0.13217397618885759 -0.25462043987800831 0 0.1212054647883809 -0.25073068226796852 0 0.12018370186474731 -0.23305432747703519 0 0.1212054647883809 -0.25073068226796852 0 0.1059281586602189 -0.23527494890652931 0 0.1078238037173969 -0.24832262031645649 0 0.1212054647883809 -0.25073068226796852 0 0.1059281586602189 -0.23527494890652931 0 0.099550463170151926 -0.25262580003909579 0 0.1078238037173969 -0.24832262031645649 0 0.10103467245524091 -0.24298905409433241 0 0.1059281586602189 -0.23527494890652931 0 0.1078238037173969 -0.24832262031645649 0 0.10103467245524091 -0.24298905409433241 0 0.099550463170151926 -0.25262580003909579 0 0.10103467245524091 -0.24298905409433241 0 0.094006026236525903 -0.2441335510050745 0 0.090706365013478091 -0.25245448435890872 0 0.099550463170151926 -0.25262580003909579 0 0.094006026236525903 -0.2441335510050745 0 0.1059281586602189 -0.23527494890652931 0 0.10103467245524091 -0.24298905409433241 0 0.096012267649498176 -0.23702186761809721 0 0.10103467245524091 -0.24298905409433241 0 0.094006026236525903 -0.2441335510050745 0 0.096012267649498176 -0.23702186761809721 0 0.1059281586602189 -0.23527494890652931 0 0.096012267649498176 -0.23702186761809721 0 0.098670227838192195 -0.22970514568366851 0 0.089763789457938253 -0.2306791647953326 0 0.096012267649498176 -0.23702186761809721 0 0.098670227838192195 -0.22970514568366851 0 0.097404311116896569 -0.21585094626217091 0 0.12018370186474731 -0.23305432747703519 0 0.097404311116896569 -0.21585094626217091 0 0.12018370186474731 -0.23305432747703519 0 0.1059281586602189 -0.23527494890652931 0 0.097404311116896569 -0.21585094626217091 0 0.1059281586602189 -0.23527494890652931 0 0.098670227838192195 -0.22970514568366851 0 0.091303359373345411 -0.22339335178318359 0 0.098670227838192195 -0.22970514568366851 0 0.094530837428433365 -0.22086489816084981 0 0.097404311116896569 -0.21585094626217091 0 0.098670227838192195 -0.22970514568366851 0 0.094530837428433365 -0.22086489816084981 0 0.097404311116896569 -0.21585094626217091 0 0.098670227838192195 -0.22970514568366851 0 0.1071373084330472 -0.14482826815459701 0 0.1035248479174861 -0.15311019857333261 0 0.098760878024456711 -0.14050656481393209 0 0.1071373084330472 -0.14482826815459701 0 0.1035248479174861 -0.15311019857333261 0 0.1121477659277255 -0.1503271840913511 0 0.1035248479174861 -0.15311019857333261 0 0.098760878024456711 -0.14050656481393209 0 0.091560400862706559 -0.15189516094014111 0 0.098760878024456711 -0.14050656481393209 0 0.099399694252258627 -0.1328638184600745 0 0.089615627146132512 -0.13061154690311971 0 0.099399694252258627 -0.1328638184600745 0 0.099525338641528904 -0.12611341339503321 0 0.089615627146132512 -0.13061154690311971 0 0.099525338641528904 -0.12611341339503321 0 0.1096969331969164 -0.13422374872821319 0 0.1121708616464093 -0.1216807098986791 0 0.099399694252258627 -0.1328638184600745 0 0.099525338641528904 -0.12611341339503321 0 0.1096969331969164 -0.13422374872821319 0 0.098760878024456711 -0.14050656481393209 0 0.099399694252258627 -0.1328638184600745 0 0.1096969331969164 -0.13422374872821319 0 0.1071373084330472 -0.14482826815459701 0 0.098760878024456711 -0.14050656481393209 0 0.1096969331969164 -0.13422374872821319 0 0.1096969331969164 -0.13422374872821319 0 0.1155243526086871 -0.14484298486410191 0 0.12532898621889721 -0.13663811256420449 0 0.1096969331969164 -0.13422374872821319 0 0.11997683785091839 -0.1276371159963853 0 0.12532898621889721 -0.13663811256420449 0 0.1096969331969164 -0.13422374872821319 0 0.11997683785091839 -0.1276371159963853 0 0.1121708616464093 -0.1216807098986791 0 0.1217036921304827 -0.1482443959076799 0 0.1155243526086871 -0.14484298486410191 0 0.12532898621889721 -0.13663811256420449 0 0.1217036921304827 -0.1482443959076799 0 0.1155243526086871 -0.14484298486410191 0 0.1179114041550178 -0.15136128022523329 0 0.1071373084330472 -0.14482826815459701 0 0.1155243526086871 -0.14484298486410191 0 0.1121477659277255 -0.1503271840913511 0 0.1071373084330472 -0.14482826815459701 0 0.1096969331969164 -0.13422374872821319 0 0.1155243526086871 -0.14484298486410191 0 0.1035248479174861 -0.15311019857333261 0 0.1121477659277255 -0.1503271840913511 0 0.1169082366172023 -0.15609331882735419 0 0.1155243526086871 -0.14484298486410191 0 0.1121477659277255 -0.1503271840913511 0 0.1179114041550178 -0.15136128022523329 0 0.1121477659277255 -0.1503271840913511 0 0.1169082366172023 -0.15609331882735419 0 0.1179114041550178 -0.15136128022523329 0 0.1169082366172023 -0.15609331882735419 0 0.1179114041550178 -0.15136128022523329 0 0.12324902196630889 -0.15465793599018671 0 0.1217036921304827 -0.1482443959076799 0 0.1179114041550178 -0.15136128022523329 0 0.12324902196630889 -0.15465793599018671 0 0.1217036921304827 -0.1482443959076799 0 0.12324902196630889 -0.15465793599018671 0 0.12831016946945831 -0.1492440347933528 0 0.1035248479174861 -0.15311019857333261 0 0.12443417021765769 -0.1709717485187108 0 0.1227471198665283 -0.15880086614903269 0 0.12098675462827781 -0.16200852072179159 0 0.1290045142054978 -0.1612372837293575 0 0.1035248479174861 -0.15311019857333261 0 0.12443417021765769 -0.1709717485187108 0 0.12083528946942131 -0.1711597280255607 0 0.1035248479174861 -0.15311019857333261 0 0.12098675462827781 -0.16200852072179159 0 0.12443417021765769 -0.1709717485187108 0 0.1035248479174861 -0.15311019857333261 0 0.1169082366172023 -0.15609331882735419 0 0.12098675462827781 -0.16200852072179159 0 0.1169082366172023 -0.15609331882735419 0 0.1227471198665283 -0.15880086614903269 0 0.12098675462827781 -0.16200852072179159 0 0.1169082366172023 -0.15609331882735419 0 0.12324902196630889 -0.15465793599018671 0 0.1227471198665283 -0.15880086614903269 0 0.12098675462827781 -0.16200852072179159 0 0.12443417021765769 -0.1709717485187108 0 0.12715697753007521 -0.16591248018761531 0 0.1128143282819509 -0.19216489626002589 0 0.1232013989280239 -0.1819146573535104 0 0.1157139550245927 -0.18029465614444529 0 0.12083528946942131 -0.1711597280255607 0 0.1232013989280239 -0.1819146573535104 0 0.1157139550245927 -0.18029465614444529 0 0.12443417021765769 -0.1709717485187108 0 0.12083528946942131 -0.1711597280255607 0 0.1232013989280239 -0.1819146573535104 0 0.12083528946942131 -0.1711597280255607 0 0.1157139550245927 -0.18029465614444529 0 0.10772522460311169 -0.17968171223372481 0 0.1128143282819509 -0.19216489626002589 0 0.1157139550245927 -0.18029465614444529 0 0.10772522460311169 -0.17968171223372481 0 0.095454742848087734 -0.19451486061966669 0 0.10772522460311169 -0.17968171223372481 0 0.093505174579280592 -0.1731787749771625 0 0.12083528946942131 -0.1711597280255607 0 0.093505174579280592 -0.1731787749771625 0 0.095454742848087734 -0.19451486061966669 0 0.093505174579280592 -0.1731787749771625 0 0.12083528946942131 -0.1711597280255607 0 0.10772522460311169 -0.17968171223372481 0 0.093505174579280592 -0.1731787749771625 0 0.1035248479174861 -0.15311019857333261 0 0.093505174579280592 -0.1731787749771625 0 0.091560400862706559 -0.15189516094014111 0 0.1035248479174861 -0.15311019857333261 0 0.12083528946942131 -0.1711597280255607 0 0.093505174579280592 -0.1731787749771625 0 0.078133883947979807 -0.15717501910519549 0 0.093505174579280592 -0.1731787749771625 0 0.091560400862706559 -0.15189516094014111 0 0.078133883947979807 -0.15717501910519549 0 0.093505174579280592 -0.1731787749771625 0 0.072477207369929117 -0.17473224276400179 0 0.093505174579280592 -0.1731787749771625 0 0.091560400862706559 -0.15189516094014111 0 0.081482512553192915 -0.1953056794767786 0 0.093505174579280592 -0.1731787749771625 0 0.072477207369929117 -0.17473224276400179 0 0.093505174579280592 -0.1731787749771625 0 0.072477207369929117 -0.17473224276400179 0 0.066040058368007956 -0.18964665730407451 0 0.072477207369929117 -0.17473224276400179 0 0.051449240160577621 -0.1762857105508405 0 0.066040058368007956 -0.18964665730407451 0 0.081482512553192915 -0.1953056794767786 0 0.072477207369929117 -0.17473224276400179 0 0.078133883947979807 -0.15717501910519549 0 0.072477207369929117 -0.17473224276400179 0 0.063878974636528515 -0.16401540189567099 0 0.072477207369929117 -0.17473224276400179 0 0.063878974636528515 -0.16401540189567099 0 0.051449240160577621 -0.1762857105508405 0 0.078133883947979807 -0.15717501910519549 0 0.063878974636528515 -0.16401540189567099 0 0.06522271263887458 -0.15305574504012881 0 0.06522271263887458 -0.15305574504012881 0 0.069316279952888193 -0.14186668388360371 0 0.075278834721760557 -0.14616760919767161 0 0.06522271263887458 -0.15305574504012881 0 0.069316279952888193 -0.14186668388360371 0 0.05757515479497001 -0.1486962131740798 0 0.069316279952888193 -0.14186668388360371 0 0.075278834721760557 -0.14616760919767161 0 0.079765110473415279 -0.13788087003968491 0 0.078133883947979807 -0.15717501910519549 0 0.06522271263887458 -0.15305574504012881 0 0.075278834721760557 -0.14616760919767161 0 0.098760878024456711 -0.14050656481393209 0 0.091560400862706559 -0.15189516094014111 0 0.089615627146132512 -0.13061154690311971 0 0.078133883947979807 -0.15717501910519549 0 0.083611330147541921 -0.14459745320402559 0 0.091560400862706559 -0.15189516094014111 0 0.091560400862706559 -0.15189516094014111 0 0.089615627146132512 -0.13061154690311971 0 0.078133883947979807 -0.15717501910519549 0 0.075278834721760557 -0.14616760919767161 0 0.083611330147541921 -0.14459745320402559 0 0.083611330147541921 -0.14459745320402559 0 0.091560400862706559 -0.15189516094014111 0 0.089615627146132512 -0.13061154690311971 0 0.075278834721760557 -0.14616760919767161 0 0.083611330147541921 -0.14459745320402559 0 0.079765110473415279 -0.13788087003968491 0 0.099525338641528904 -0.12611341339503321 0 0.089615627146132512 -0.13061154690311971 0 0.081894058627025895 -0.12584863130967919 0 0.083611330147541921 -0.14459745320402559 0 0.089615627146132512 -0.13061154690311971 0 0.079765110473415279 -0.13788087003968491 0 0.089615627146132512 -0.13061154690311971 0 0.079765110473415279 -0.13788087003968491 0 0.081894058627025895 -0.12584863130967919 0 0.081894058627025895 -0.12584863130967919 0 0.065576399090336079 -0.13067912082877309 0 0.057907204523981459 -0.13951585418161591 0 0.081894058627025895 -0.12584863130967919 0 0.057907204523981459 -0.13951585418161591 0 0.069316279952888193 -0.14186668388360371 0 0.081894058627025895 -0.12584863130967919 0 0.057907204523981459 -0.13951585418161591 0 0.081894058627025895 -0.12584863130967919 0 0.068207364780656948 -0.12563827965844471 0 0.065576399090336079 -0.13067912082877309 0 0.069316279952888193 -0.14186668388360371 0 0.079765110473415279 -0.13788087003968491 0 0.081894058627025895 -0.12584863130967919 0 0.068207364780656948 -0.12563827965844471 0 0.065576399090336079 -0.13067912082877309 0 0.054296968429680029 -0.13171371816535249 0 0.054296968429680029 -0.13171371816535249 0 0.057907204523981459 -0.13951585418161591 0 0.034849001543539322 -0.1503583031021323 0 0.054296968429680029 -0.13171371816535249 0 0.045553716665441668 -0.12681104972785159 0 0.052448498866582129 -0.1166826243517366 0 0.065576399090336079 -0.13067912082877309 0 0.054296968429680029 -0.13171371816535249 0 0.057907204523981459 -0.13951585418161591 0 0.069316279952888193 -0.14186668388360371 0 0.057907204523981459 -0.13951585418161591 0 0.05757515479497001 -0.1486962131740798 0 0.06522271263887458 -0.15305574504012881 0 0.05757515479497001 -0.1486962131740798 0 0.052111829065281459 -0.15882829201818821 0 0.046808539919221563 -0.15014413002933799 0 0.052111829065281459 -0.15882829201818821 0 0.043031393960321331 -0.1571354857308308 0 0.05757515479497001 -0.1486962131740798 0 0.046808539919221563 -0.15014413002933799 0 0.052111829065281459 -0.15882829201818821 0 0.057907204523981459 -0.13951585418161591 0 0.05757515479497001 -0.1486962131740798 0 0.046808539919221563 -0.15014413002933799 0 0.057907204523981459 -0.13951585418161591 0 0.046808539919221563 -0.15014413002933799 0 0.033920350420936912 -0.1531830770535528 0 0.057907204523981459 -0.13951585418161591 0 0.034849001543539322 -0.1503583031021323 0 0.033920350420936912 -0.1531830770535528 0 0.054296968429680029 -0.13171371816535249 0 0.034849001543539322 -0.1503583031021323 0 0.038558521200612962 -0.14006542407622449 0 0.054296968429680029 -0.13171371816535249 0 0.034849001543539322 -0.1503583031021323 0 0.057907204523981459 -0.13951585418161591 0 0.033920350420936912 -0.1531830770535528 0 0.046808539919221563 -0.15014413002933799 0 0.040219483271594643 -0.15466785876887121 0 0.033920350420936912 -0.1531830770535528 0 0.046808539919221563 -0.15014413002933799 0 0.040219483271594643 -0.15466785876887121 0 0.043031393960321331 -0.1571354857308308 0 0.040219483271594643 -0.15466785876887121 0 0.033920350420936912 -0.1531830770535528 0 0.037117648785898759 -0.15820874226176301 0 0.034849001543539322 -0.1503583031021323 0 0.031672068294339203 -0.14528428076340441 0 0.030051573782975471 -0.15027594372919439 0 0.034849001543539322 -0.1503583031021323 0 0.033920350420936912 -0.1531830770535528 0 0.030051573782975471 -0.15027594372919439 0 0.034849001543539322 -0.1503583031021323 0 0.031672068294339203 -0.14528428076340441 0 0.038558521200612962 -0.14006542407622449 0 0.031672068294339203 -0.14528428076340441 0 0.038558521200612962 -0.14006542407622449 0 0.030566093298411881 -0.13865773310914861 0 0.054296968429680029 -0.13171371816535249 0 0.038558521200612962 -0.14006542407622449 0 0.040644455285911409 -0.1338393175667463 0 0.038558521200612962 -0.14006542407622449 0 0.040644455285911409 -0.1338393175667463 0 0.030566093298411881 -0.13865773310914861 0 0.034824944079593127 -0.12500853882757099 0 0.040644455285911409 -0.1338393175667463 0 0.030566093298411881 -0.13865773310914861 0 0.034824944079593127 -0.12500853882757099 0 0.045553716665441668 -0.12681104972785159 0 0.040644455285911409 -0.1338393175667463 0 0.054296968429680029 -0.13171371816535249 0 0.045553716665441668 -0.12681104972785159 0 0.040644455285911409 -0.1338393175667463 0 0.072477207369929117 -0.17473224276400179 0 0.051449240160577621 -0.1762857105508405 0 0.056257937900538298 -0.19577788601322099 0 0.066040058368007956 -0.18964665730407451 0 0.051449240160577621 -0.1762857105508405 0 0.063878974636528515 -0.16401540189567099 0 0.051449240160577621 -0.1762857105508405 0 0.052111829065281459 -0.15882829201818821 0 0.051449240160577621 -0.1762857105508405 0 0.052111829065281459 -0.15882829201818821 0 0.040502396519655252 -0.1663673850483231 0 0.063878974636528515 -0.16401540189567099 0 0.06522271263887458 -0.15305574504012881 0 0.052111829065281459 -0.15882829201818821 0 0.043031393960321331 -0.1571354857308308 0 0.037117648785898759 -0.15820874226176301 0 0.040502396519655252 -0.1663673850483231 0 0.052111829065281459 -0.15882829201818821 0 0.043031393960321331 -0.1571354857308308 0 0.040502396519655252 -0.1663673850483231 0 0.040219483271594643 -0.15466785876887121 0 0.043031393960321331 -0.1571354857308308 0 0.037117648785898759 -0.15820874226176301 0 0.033920350420936912 -0.1531830770535528 0 0.033509818979212957 -0.15868168045615499 0 0.027465449436243041 -0.1628752445715565 0 0.037117648785898759 -0.15820874226176301 0 0.034071859908748191 -0.1623715567021686 0 0.040502396519655252 -0.1663673850483231 0 0.033920350420936912 -0.1531830770535528 0 0.037117648785898759 -0.15820874226176301 0 0.033509818979212957 -0.15868168045615499 0 0.037117648785898759 -0.15820874226176301 0 0.033509818979212957 -0.15868168045615499 0 0.034071859908748191 -0.1623715567021686 0 0.033509818979212957 -0.15868168045615499 0 0.034071859908748191 -0.1623715567021686 0 0.027465449436243041 -0.1628752445715565 0 0.031586668938662611 -0.1691709391612749 0 0.040502396519655252 -0.1663673850483231 0 0.030421272951226121 -0.1778391783376792 0 0.034071859908748191 -0.1623715567021686 0 0.031586668938662611 -0.1691709391612749 0 0.040502396519655252 -0.1663673850483231 0 0.051449240160577621 -0.1762857105508405 0 0.040502396519655252 -0.1663673850483231 0 0.030421272951226121 -0.1778391783376792 0 0.041440672425083092 -0.19607701236864419 0 0.051449240160577621 -0.1762857105508405 0 0.030421272951226121 -0.1778391783376792 0 0.051449240160577621 -0.1762857105508405 0 0.030421272951226121 -0.1778391783376792 0 0.02540307025583758 -0.19229280057405279 0 0.015764016274472759 -0.1812646672695073 0 0.030421272951226121 -0.1778391783376792 0 0.031586668938662611 -0.1691709391612749 0 0.030421272951226121 -0.1778391783376792 0 0.021575687727073561 -0.1734893605992324 0 0.015764016274472759 -0.1812646672695073 0 0.021575687727073561 -0.1734893605992324 0 0.012676990919703311 -0.16924925594887871 0 0.015764016274472759 -0.1812646672695073 0 0.030421272951226121 -0.1778391783376792 0 0.021575687727073561 -0.1734893605992324 0 0.033920350420936912 -0.1531830770535528 0 0.009933496317892726 -0.16685029992549011 0 0.02294500892830088 -0.1542832107784407 0 0.033920350420936912 -0.1531830770535528 0 0.027465449436243041 -0.1628752445715565 0 0.009933496317892726 -0.16685029992549011 0 0.019596439448784399 -0.16744493330375371 0 0.027465449436243041 -0.1628752445715565 0 0.009933496317892726 -0.16685029992549011 0 0.033920350420936912 -0.1531830770535528 0 0.009933496317892726 -0.16685029992549011 0 0.021575687727073561 -0.1734893605992324 0 0.019596439448784399 -0.16744493330375371 0 0.012676990919703311 -0.16924925594887871 0 0.021575687727073561 -0.1734893605992324 0 0.019596439448784399 -0.16744493330375371 0 0.025540403417393751 -0.1677775419388785 0 0.031586668938662611 -0.1691709391612749 0 0.021575687727073561 -0.1734893605992324 0 0.025540403417393751 -0.1677775419388785 0 0.019596439448784399 -0.16744493330375371 0 0.025540403417393751 -0.1677775419388785 0 0.027465449436243041 -0.1628752445715565 0 0.034071859908748191 -0.1623715567021686 0 0.031586668938662611 -0.1691709391612749 0 0.027465449436243041 -0.1628752445715565 0 0.031586668938662611 -0.1691709391612749 0 0.025540403417393751 -0.1677775419388785 0 0.027465449436243041 -0.1628752445715565 0 0.009933496317892726 -0.16685029992549011 0 0.01648447247354291 -0.15404273338364399 0 0.02294500892830088 -0.1542832107784407 0 0.009933496317892726 -0.16685029992549011 0 0.01648447247354291 -0.15404273338364399 0 0.0068311679390763679 -0.1533437069849535 0 0.019596439448784399 -0.16744493330375371 0 0.009933496317892726 -0.16685029992549011 0 0.012676990919703311 -0.16924925594887871 0 0.009933496317892726 -0.16685029992549011 0 0.012676990919703311 -0.16924925594887871 0 0.0034571977838801569 -0.17702496179755631 0 0.009933496317892726 -0.16685029992549011 0 0.012676990919703311 -0.16924925594887871 0 -0.0085976242789068957 -0.177408956520272 0 0.009933496317892726 -0.16685029992549011 0 -0.0085976242789068957 -0.177408956520272 0 0.009933496317892726 -0.16685029992549011 0 0.0034571977838801569 -0.17702496179755631 0 0.015764016274472759 -0.1812646672695073 0 0.012676990919703311 -0.16924925594887871 0 0.0034571977838801569 -0.17702496179755631 0 -0.003739977245034012 -0.19168309442994089 0 0.010514116253606281 -0.1925853606064957 0 0.0034571977838801569 -0.17702496179755631 0 0.010514116253606281 -0.1925853606064957 0 0.015764016274472759 -0.1812646672695073 0 0.0034571977838801569 -0.17702496179755631 0 0.02166725362828328 -0.1398342401410575 0 0.019282665512654749 -0.1297026577714144 0 0.01241268948209219 -0.14437852502616319 0 0.034824944079593127 -0.12500853882757099 0 0.019282665512654749 -0.1297026577714144 0 0.030566093298411881 -0.13865773310914861 0 0.02166725362828328 -0.1398342401410575 0 0.019282665512654749 -0.1297026577714144 0 0.030566093298411881 -0.13865773310914861 0 0.031672068294339203 -0.14528428076340441 0 0.030566093298411881 -0.13865773310914861 0 0.024335151646156381 -0.14706399980032239 0 0.02166725362828328 -0.1398342401410575 0 0.030566093298411881 -0.13865773310914861 0 0.024335151646156381 -0.14706399980032239 0 0.031672068294339203 -0.14528428076340441 0 0.024335151646156381 -0.14706399980032239 0 0.030051573782975471 -0.15027594372919439 0 0.033920350420936912 -0.1531830770535528 0 0.030051573782975471 -0.15027594372919439 0 0.02294500892830088 -0.1542832107784407 0 0.024335151646156381 -0.14706399980032239 0 0.030051573782975471 -0.15027594372919439 0 0.02294500892830088 -0.1542832107784407 0 0.024335151646156381 -0.14706399980032239 0 0.01648447247354291 -0.15404273338364399 0 0.01241268948209219 -0.14437852502616319 0 0.024335151646156381 -0.14706399980032239 0 0.01648447247354291 -0.15404273338364399 0 0.02294500892830088 -0.1542832107784407 0 0.02166725362828328 -0.1398342401410575 0 0.024335151646156381 -0.14706399980032239 0 0.01241268948209219 -0.14437852502616319 0 -0.011505986517222349 -0.14810326960451681 0 0.01241268948209219 -0.14437852502616319 0 0.0068311679390763679 -0.1533437069849535 0 -0.011505986517222349 -0.14810326960451681 0 0.009933496317892726 -0.16685029992549011 0 0.0068311679390763679 -0.1533437069849535 0 -0.011505986517222349 -0.14810326960451681 0 0.01241268948209219 -0.14437852502616319 0 0.0027021066240326768 -0.1317064378292063 0 0.01648447247354291 -0.15404273338364399 0 0.01241268948209219 -0.14437852502616319 0 0.0068311679390763679 -0.1533437069849535 0 0.019282665512654749 -0.1297026577714144 0 0.01241268948209219 -0.14437852502616319 0 0.0027021066240326768 -0.1317064378292063 0 0.019282665512654749 -0.1297026577714144 0 0.0027021066240326768 -0.1317064378292063 0 0.005085065621477718 -0.1151057880332567 0 0.019282665512654749 -0.1297026577714144 0 0.005085065621477718 -0.1151057880332567 0 0.024129304522527751 -0.1089818526354679 0 0.034824944079593127 -0.12500853882757099 0 0.019282665512654749 -0.1297026577714144 0 0.024129304522527751 -0.1089818526354679 0 0.024129304522527751 -0.1089818526354679 0 0.01380815825635252 -0.094132232187142617 0 0.031293966725895003 -0.08518965294817829 0 -0.00044729776891663488 -0.1011528385718463 0 0.005085065621477718 -0.1151057880332567 0 0.01380815825635252 -0.094132232187142617 0 0.005085065621477718 -0.1151057880332567 0 0.024129304522527751 -0.1089818526354679 0 0.01380815825635252 -0.094132232187142617 0 0.01380815825635252 -0.094132232187142617 0 0.0042106568376920582 -0.081118225430045127 0 0.020039989671696231 -0.071989185162356889 0 -0.00044729776891663488 -0.1011528385718463 0 0.01380815825635252 -0.094132232187142617 0 0.0042106568376920582 -0.081118225430045127 0 0.0042106568376920582 -0.081118225430045127 0 0.0052181775422467033 -0.064346337314722044 0 0.020039989671696231 -0.071989185162356889 0 -0.0043762627118289626 -0.071729097412358583 0 0.0042106568376920582 -0.081118225430045127 0 0.0052181775422467033 -0.064346337314722044 0 0.0052181775422467033 -0.064346337314722044 0 0.020039989671696231 -0.071989185162356889 0 0.0052181775422467033 -0.064346337314722044 0 0.020039989671696231 -0.071989185162356889 0 0.017880224012190679 -0.058506375123621113 0 0.020039989671696231 -0.071989185162356889 0 0.017880224012190679 -0.058506375123621113 0 0.035073137211611732 -0.060365082031122411 0 0.020039989671696231 -0.071989185162356889 0 0.031293966725895003 -0.08518965294817829 0 0.035073137211611732 -0.060365082031122411 0 0.01380815825635252 -0.094132232187142617 0 0.020039989671696231 -0.071989185162356889 0 0.031293966725895003 -0.08518965294817829 0 0.031293966725895003 -0.08518965294817829 0 0.050629459546369923 -0.074776417317023003 0 0.042727201812981508 -0.099892478072297022 0 0.050629459546369923 -0.074776417317023003 0 0.042727201812981508 -0.099892478072297022 0 0.031293966725895003 -0.08518965294817829 0 0.050629459546369923 -0.074776417317023003 0 0.035073137211611732 -0.060365082031122411 0 0.050629459546369923 -0.074776417317023003 0 0.058531717279758283 -0.049660356561749108 0 0.072219385832792832 -0.066659644627356851 0 0.050629459546369923 -0.074776417317023003 0 0.042727201812981508 -0.099892478072297022 0 0.069701838591585213 -0.089386546866783212 0 0.059655618646742382 -0.10475769562984739 0 0.052448498866582129 -0.1166826243517366 0 0.042727201812981508 -0.099892478072297022 0 0.059655618646742382 -0.10475769562984739 0 0.042727201812981508 -0.099892478072297022 0 0.069701838591585213 -0.089386546866783212 0 0.054296968429680029 -0.13171371816535249 0 0.052448498866582129 -0.1166826243517366 0 0.073744935315820714 -0.1130691332285727 0 0.059655618646742382 -0.10475769562984739 0 0.052448498866582129 -0.1166826243517366 0 0.073744935315820714 -0.1130691332285727 0 0.034824944079593127 -0.12500853882757099 0 0.045553716665441668 -0.12681104972785159 0 0.052448498866582129 -0.1166826243517366 0 0.034824944079593127 -0.12500853882757099 0 0.052448498866582129 -0.1166826243517366 0 0.042727201812981508 -0.099892478072297022 0 0.034824944079593127 -0.12500853882757099 0 0.024129304522527751 -0.1089818526354679 0 0.042727201812981508 -0.099892478072297022 0 0.034824944079593127 -0.12500853882757099 0 0.042727201812981508 -0.099892478072297022 0 0.024129304522527751 -0.1089818526354679 0 0.031293966725895003 -0.08518965294817829 0 0.042727201812981508 -0.099892478072297022 0 0.034885408484197772 0.0062912350017927032 0 0.01265631079038235 -0.01012693536007268 0 0.042517259973231587 -0.011683923625132649 0 -0.00118246574067416 -0.01324232368796026 0 0.0012074066645448821 -0.00065723147797176382 0 0.01265631079038235 -0.01012693536007268 0 0.01265631079038235 -0.01012693536007268 0 0.02406773205363014 -0.026959444655171291 0 0.0015263381015913891 -0.033415212413580753 0 0.01265631079038235 -0.01012693536007268 0 0.0015263381015913891 -0.033415212413580753 0 -0.00118246574067416 -0.01324232368796026 0 0.01265631079038235 -0.01012693536007268 0 0.0015263381015913891 -0.033415212413580753 0 0.01265631079038235 -0.01012693536007268 0 0.02406773205363014 -0.026959444655171291 0 0.042517259973231587 -0.011683923625132649 0 0.02406773205363014 -0.026959444655171291 0 0.021771409900077709 -0.044354063799483319 0 0.04186734150286768 -0.035217088077587062 0 0.02406773205363014 -0.026959444655171291 0 0.021771409900077709 -0.044354063799483319 0 0.0015263381015913891 -0.033415212413580753 0 0.021771409900077709 -0.044354063799483319 0 0.0015263381015913891 -0.033415212413580753 0 0.007298405735321048 -0.051477207310420908 0 -0.0096036345872028556 -0.056703489467087059 0 0.0052181775422467033 -0.064346337314722044 0 0.007298405735321048 -0.051477207310420908 0 0.0052181775422467033 -0.064346337314722044 0 0.007298405735321048 -0.051477207310420908 0 0.017880224012190679 -0.058506375123621113 0 0.021771409900077709 -0.044354063799483319 0 0.017880224012190679 -0.058506375123621113 0 0.035073137211611732 -0.060365082031122411 0 0.021771409900077709 -0.044354063799483319 0 0.007298405735321048 -0.051477207310420908 0 0.017880224012190679 -0.058506375123621113 0 0.035073137211611732 -0.060365082031122411 0 0.058531717279758283 -0.049660356561749108 0 0.04186734150286768 -0.035217088077587062 0 0.050629459546369923 -0.074776417317023003 0 0.058531717279758283 -0.049660356561749108 0 0.050629459546369923 -0.074776417317023003 0 0.035073137211611732 -0.060365082031122411 0 0.058531717279758283 -0.049660356561749108 0 0.058531717279758283 -0.049660356561749108 0 0.066433975013146629 -0.02454429580647528 0 0.058531717279758283 -0.049660356561749108 0 0.04186734150286768 -0.035217088077587062 0 0.066433975013146629 -0.02454429580647528 0 0.021771409900077709 -0.044354063799483319 0 0.035073137211611732 -0.060365082031122411 0 0.04186734150286768 -0.035217088077587062 0 0.02406773205363014 -0.026959444655171291 0 0.04186734150286768 -0.035217088077587062 0 0.042517259973231587 -0.011683923625132649 0 0.04186734150286768 -0.035217088077587062 0 0.042517259973231587 -0.011683923625132649 0 0.066433975013146629 -0.02454429580647528 0 0.052968053050369737 0.0090809173488315582 0 0.042517259973231587 -0.011683923625132649 0 0.067492943165135169 -0.0019794682467893379 0 0.042517259973231587 -0.011683923625132649 0 0.067492943165135169 -0.0019794682467893379 0 0.066433975013146629 -0.02454429580647528 0 0.087040675587819916 -0.0096101539263870796 0 0.066433975013146629 -0.02454429580647528 0 0.098032226742104309 -0.02831505409649597 0 0.083930998993742512 0.0059737405228527038 0 0.087040675587819916 -0.0096101539263870796 0 0.067492943165135169 -0.0019794682467893379 0 0.083930998993742512 0.0059737405228527038 0 0.098495163759696414 0.0029673617968291321 0 0.087040675587819916 -0.0096101539263870796 0 0.087040675587819916 -0.0096101539263870796 0 0.067492943165135169 -0.0019794682467893379 0 0.066433975013146629 -0.02454429580647528 0 0.066433975013146629 -0.02454429580647528 0 0.080663194565618018 -0.042742664855397232 0 0.098032226742104309 -0.02831505409649597 0 0.080663194565618018 -0.042742664855397232 0 0.099119978598511321 -0.045144617550746849 0 0.098032226742104309 -0.02831505409649597 0 0.058531717279758283 -0.049660356561749108 0 0.066433975013146629 -0.02454429580647528 0 0.080663194565618018 -0.042742664855397232 0 0.058531717279758283 -0.049660356561749108 0 0.080663194565618018 -0.042742664855397232 0 0.072219385832792832 -0.066659644627356851 0 0.080663194565618018 -0.042742664855397232 0 0.091985945990252393 -0.059557823171565508 0 0.072219385832792832 -0.066659644627356851 0 0.080663194565618018 -0.042742664855397232 0 0.091985945990252393 -0.059557823171565508 0 0.099119978598511321 -0.045144617550746849 0 0.091985945990252393 -0.059557823171565508 0 0.109385226414503 -0.056941989317685793 0 0.099119978598511321 -0.045144617550746849 0 0.109385226414503 -0.056941989317685793 0 0.1174221699598199 -0.069046986946925279 0 0.12664898879935529 -0.055605769639440771 0 0.109385226414503 -0.056941989317685793 0 0.1155332992800789 -0.038165556312589707 0 0.12664898879935529 -0.055605769639440771 0 0.1155332992800789 -0.038165556312589707 0 0.12954193793015309 -0.041748568408345607 0 0.12664898879935529 -0.055605769639440771 0 0.1155332992800789 -0.038165556312589707 0 0.1294320674019063 -0.023146095115484211 0 0.12954193793015309 -0.041748568408345607 0 0.109385226414503 -0.056941989317685793 0 0.1155332992800789 -0.038165556312589707 0 0.099119978598511321 -0.045144617550746849 0 0.1155332992800789 -0.038165556312589707 0 0.099119978598511321 -0.045144617550746849 0 0.098032226742104309 -0.02831505409649597 0 0.1155332992800789 -0.038165556312589707 0 0.098032226742104309 -0.02831505409649597 0 0.1112777463759113 -0.012222875866518469 0 0.087040675587819916 -0.0096101539263870796 0 0.098032226742104309 -0.02831505409649597 0 0.1112777463759113 -0.012222875866518469 0 0.1155332992800789 -0.038165556312589707 0 0.1112777463759113 -0.012222875866518469 0 0.1294320674019063 -0.023146095115484211 0 0.1158546052028349 0.0064685721448778594 0 0.13464870039648349 0.00080453217212592717 0 0.1112777463759113 -0.012222875866518469 0 0.098495163759696414 0.0029673617968291321 0 0.087040675587819916 -0.0096101539263870796 0 0.1112777463759113 -0.012222875866518469 0 0.1158546052028349 0.0064685721448778594 0 0.098495163759696414 0.0029673617968291321 0 0.1112777463759113 -0.012222875866518469 0 0.093192902201961414 -0.094424548291792879 0 0.088899626305776192 -0.1113374325741409 0 0.073744935315820714 -0.1130691332285727 0 0.093192902201961414 -0.094424548291792879 0 0.073744935315820714 -0.1130691332285727 0 0.069701838591585213 -0.089386546866783212 0 0.093192902201961414 -0.094424548291792879 0 0.073744935315820714 -0.1130691332285727 0 0.081894058627025895 -0.12584863130967919 0 0.088899626305776192 -0.1113374325741409 0 0.09397493983509804 -0.11322330148444169 0 0.081894058627025895 -0.12584863130967919 0 0.079920122843727764 -0.11786127252462281 0 0.075141871126288284 -0.1211898929860986 0 0.081894058627025895 -0.12584863130967919 0 0.088899626305776192 -0.1113374325741409 0 0.079920122843727764 -0.11786127252462281 0 0.088899626305776192 -0.1113374325741409 0 0.079920122843727764 -0.11786127252462281 0 0.073744935315820714 -0.1130691332285727 0 0.068207364780656948 -0.12563827965844471 0 0.054296968429680029 -0.13171371816535249 0 0.073744935315820714 -0.1130691332285727 0 0.054296968429680029 -0.13171371816535249 0 0.073744935315820714 -0.1130691332285727 0 0.068207364780656948 -0.12563827965844471 0 0.073744935315820714 -0.1130691332285727 0 0.075141871126288284 -0.1211898929860986 0 0.079920122843727764 -0.11786127252462281 0 0.073744935315820714 -0.1130691332285727 0 0.075141871126288284 -0.1211898929860986 0 0.081894058627025895 -0.12584863130967919 0 0.068207364780656948 -0.12563827965844471 0 0.075141871126288284 -0.1211898929860986 0 0.059655618646742382 -0.10475769562984739 0 0.073744935315820714 -0.1130691332285727 0 0.069701838591585213 -0.089386546866783212 0 0.050629459546369923 -0.074776417317023003 0 0.069701838591585213 -0.089386546866783212 0 0.072219385832792832 -0.066659644627356851 0 0.069701838591585213 -0.089386546866783212 0 0.072219385832792832 -0.066659644627356851 0 0.089711563165187497 -0.078251462936863553 0 0.091985945990252393 -0.059557823171565508 0 0.072219385832792832 -0.066659644627356851 0 0.089711563165187497 -0.078251462936863553 0 0.093192902201961414 -0.094424548291792879 0 0.069701838591585213 -0.089386546866783212 0 0.089711563165187497 -0.078251462936863553 0 0.093192902201961414 -0.094424548291792879 0 0.089711563165187497 -0.078251462936863553 0 0.1048667032735431 -0.089595599910983495 0 0.089711563165187497 -0.078251462936863553 0 0.1048667032735431 -0.089595599910983495 0 0.1056935618466131 -0.072691272791708894 0 0.1048667032735431 -0.089595599910983495 0 0.1056935618466131 -0.072691272791708894 0 0.11564058922802831 -0.08068930143821873 0 0.091985945990252393 -0.059557823171565508 0 0.089711563165187497 -0.078251462936863553 0 0.1056935618466131 -0.072691272791708894 0 0.091985945990252393 -0.059557823171565508 0 0.109385226414503 -0.056941989317685793 0 0.1056935618466131 -0.072691272791708894 0 0.1174221699598199 -0.069046986946925279 0 0.12840026197867099 -0.078951386265116219 0 0.12664898879935529 -0.055605769639440771 0 0.109385226414503 -0.056941989317685793 0 0.1056935618466131 -0.072691272791708894 0 0.1174221699598199 -0.069046986946925279 0 0.1056935618466131 -0.072691272791708894 0 0.1174221699598199 -0.069046986946925279 0 0.11564058922802831 -0.08068930143821873 0 0.1174221699598199 -0.069046986946925279 0 0.11564058922802831 -0.08068930143821873 0 0.12840026197867099 -0.078951386265116219 0 0.1048667032735431 -0.089595599910983495 0 0.11564058922802831 -0.08068930143821873 0 0.1191358060176364 -0.092450830711447801 0 0.1191358060176364 -0.092450830711447801 0 0.12840026197867099 -0.078951386265116219 0 0.11564058922802831 -0.08068930143821873 0 0.1191358060176364 -0.092450830711447801 0 0.12840026197867099 -0.078951386265116219 0 0.1058809127300703 -0.11218140843774239 0 0.12023297736745781 -0.1110263554770618 0 0.12986776683311119 -0.098514185565799078 0 0.1058809127300703 -0.11218140843774239 0 0.12986776683311119 -0.098514185565799078 0 0.1048667032735431 -0.089595599910983495 0 0.1191358060176364 -0.092450830711447801 0 0.10987135005660249 -0.1059502751577799 0 0.10987135005660249 -0.1059502751577799 0 0.1058809127300703 -0.11218140843774239 0 0.12986776683311119 -0.098514185565799078 0 0.1191358060176364 -0.092450830711447801 0 0.10987135005660249 -0.1059502751577799 0 0.12986776683311119 -0.098514185565799078 0 0.1191358060176364 -0.092450830711447801 0 0.10987135005660249 -0.1059502751577799 0 0.093192902201961414 -0.094424548291792879 0 0.088899626305776192 -0.1113374325741409 0 0.099225161677519755 -0.1035257336162041 0 0.1048667032735431 -0.089595599910983495 0 0.10987135005660249 -0.1059502751577799 0 0.099225161677519755 -0.1035257336162041 0 0.10987135005660249 -0.1059502751577799 0 0.099225161677519755 -0.1035257336162041 0 0.1058809127300703 -0.11218140843774239 0 0.088899626305776192 -0.1113374325741409 0 0.099225161677519755 -0.1035257336162041 0 0.09397493983509804 -0.11322330148444169 0 0.093192902201961414 -0.094424548291792879 0 0.1048667032735431 -0.089595599910983495 0 0.099225161677519755 -0.1035257336162041 0 0.081894058627025895 -0.12584863130967919 0 0.1058809127300703 -0.11218140843774239 0 0.099525338641528904 -0.12611341339503321 0 0.081894058627025895 -0.12584863130967919 0 0.1058809127300703 -0.11218140843774239 0 0.081894058627025895 -0.12584863130967919 0 0.09397493983509804 -0.11322330148444169 0 0.1058809127300703 -0.11218140843774239 0 0.099225161677519755 -0.1035257336162041 0 0.09397493983509804 -0.11322330148444169 0 0.1058809127300703 -0.11218140843774239 0 0.099525338641528904 -0.12611341339503321 0 0.1058809127300703 -0.11218140843774239 0 0.1121708616464093 -0.1216807098986791 0 0.1058809127300703 -0.11218140843774239 0 0.1121708616464093 -0.1216807098986791 0 0.12023297736745781 -0.1110263554770618 0 0.11997683785091839 -0.1276371159963853 0 0.121067612134044 -0.1214532534018402 0 0.13188977167139071 -0.12546883223523481 0 0.12023297736745781 -0.1110263554770618 0 0.121067612134044 -0.1214532534018402 0 0.13188977167139071 -0.12546883223523481 0 0.11997683785091839 -0.1276371159963853 0 0.1121708616464093 -0.1216807098986791 0 0.121067612134044 -0.1214532534018402 0 0.1121708616464093 -0.1216807098986791 0 0.12023297736745781 -0.1110263554770618 0 0.121067612134044 -0.1214532534018402 0 0.12023297736745781 -0.1110263554770618 0 0.12986776683311119 -0.098514185565799078 0 0.13188977167139071 -0.12546883223523481 0 0.12986776683311119 -0.098514185565799078 0 0.13188977167139071 -0.12546883223523481 0 0.14925441928633251 -0.10969288085116551 0 0.13995942417209239 -0.1034127274713456 0 0.13188977167139071 -0.12546883223523481 0 0.14724036225017881 -0.1245170930860646 0 0.14925441928633251 -0.10969288085116551 0 0.13188977167139071 -0.12546883223523481 0 0.14925441928633251 -0.10969288085116551 0 0.15485465026004211 -0.11932571079310079 0 0.15999890680388329 -0.1096406796162286 0 0.14724036225017881 -0.1245170930860646 0 0.15485465026004211 -0.11932571079310079 0 0.15557261582888751 -0.13003178131142151 0 0.14724036225017881 -0.1245170930860646 0 0.14925441928633251 -0.10969288085116551 0 0.15485465026004211 -0.11932571079310079 0 0.14925441928633251 -0.10969288085116551 0 0.14348993397904131 -0.092765062884646393 0 0.1620153957752187 -0.097165399419701551 0 0.14348993397904131 -0.092765062884646393 0 0.1620153957752187 -0.097165399419701551 0 0.14925441928633251 -0.10969288085116551 0 0.13995942417209239 -0.1034127274713456 0 0.14348993397904131 -0.092765062884646393 0 0.13995942417209239 -0.1034127274713456 0 0.12986776683311119 -0.098514185565799078 0 0.13188977167139071 -0.12546883223523481 0 0.13995942417209239 -0.1034127274713456 0 0.12986776683311119 -0.098514185565799078 0 0.14348993397904131 -0.092765062884646393 0 0.12986776683311119 -0.098514185565799078 0 0.12840026197867099 -0.078951386265116219 0 0.1428482005174804 -0.076716741777837147 0 0.1191358060176364 -0.092450830711447801 0 0.12986776683311119 -0.098514185565799078 0 0.12840026197867099 -0.078951386265116219 0 0.12986776683311119 -0.098514185565799078 0 0.12840026197867099 -0.078951386265116219 0 0.12840026197867099 -0.078951386265116219 0 0.12664898879935529 -0.055605769639440771 0 0.12840026197867099 -0.078951386265116219 0 0.12664898879935529 -0.055605769639440771 0 0.14464694777039611 -0.055277979731059648 0 0.12840026197867099 -0.078951386265116219 0 0.1428482005174804 -0.076716741777837147 0 0.14464694777039611 -0.055277979731059648 0 0.12840026197867099 -0.078951386265116219 0 0.14464694777039611 -0.055277979731059648 0 0.1428482005174804 -0.076716741777837147 0 0.15680899227989839 -0.06637062400294011 0 0.14464694777039611 -0.055277979731059648 0 0.1428482005174804 -0.076716741777837147 0 0.15451703372532541 -0.084469533324270707 0 0.15680899227989839 -0.06637062400294011 0 0.12986776683311119 -0.098514185565799078 0 0.15451703372532541 -0.084469533324270707 0 0.12986776683311119 -0.098514185565799078 0 0.14348993397904131 -0.092765062884646393 0 0.15451703372532541 -0.084469533324270707 0 0.14348993397904131 -0.092765062884646393 0 0.15451703372532541 -0.084469533324270707 0 0.1620153957752187 -0.097165399419701551 0 0.12986776683311119 -0.098514185565799078 0 0.1428482005174804 -0.076716741777837147 0 0.15451703372532541 -0.084469533324270707 0 0.15451703372532541 -0.084469533324270707 0 0.1674193516126988 -0.088794767656503876 0 0.1620153957752187 -0.097165399419701551 0 0.15451703372532541 -0.084469533324270707 0 0.1674193516126988 -0.088794767656503876 0 0.16389165652408541 -0.076485311925560115 0 0.1674193516126988 -0.088794767656503876 0 0.16389165652408541 -0.076485311925560115 0 0.17613181446746839 -0.084287857658230353 0 0.15451703372532541 -0.084469533324270707 0 0.15680899227989839 -0.06637062400294011 0 0.16389165652408541 -0.076485311925560115 0 0.16389165652408541 -0.076485311925560115 0 0.1717227713635387 -0.067009979361705274 0 0.17613181446746839 -0.084287857658230353 0 0.15680899227989839 -0.06637062400294011 0 0.16389165652408541 -0.076485311925560115 0 0.1717227713635387 -0.067009979361705274 0 0.15680899227989839 -0.06637062400294011 0 0.1717227713635387 -0.067009979361705274 0 0.1652446184022294 -0.054500080927008407 0 0.1717227713635387 -0.067009979361705274 0 0.17613181446746839 -0.084287857658230353 0 0.1717227713635387 -0.067009979361705274 0 0.18346211879182289 -0.064955309332027283 0 0.18137547142311691 -0.085525622921553163 0 0.18346211879182289 -0.064955309332027283 0 0.18137547142311691 -0.085525622921553163 0 0.1952329782378138 -0.068464889048657496 0 0.1717227713635387 -0.067009979361705274 0 0.18137547142311691 -0.085525622921553163 0 0.1717227713635387 -0.067009979361705274 0 0.18346211879182289 -0.064955309332027283 0 0.1746283364613696 -0.057560297553190053 0 0.18137547142311691 -0.085525622921553163 0 0.17613181446746839 -0.084287857658230353 0 0.18054085757139629 -0.1015657359547559 0 0.17613181446746839 -0.084287857658230353 0 0.18054085757139629 -0.1015657359547559 0 0.1674193516126988 -0.088794767656503876 0 0.17613181446746839 -0.084287857658230353 0 0.18054085757139629 -0.1015657359547559 0 0.1717227713635387 -0.067009979361705274 0 0.18137547142311691 -0.085525622921553163 0 0.17613181446746839 -0.084287857658230353 0 0.18137547142311691 -0.085525622921553163 0 0.19100769245097829 -0.1040519139747048 0 0.18137547142311691 -0.085525622921553163 0 0.18054085757139629 -0.1015657359547559 0 0.19100769245097829 -0.1040519139747048 0 0.18054085757139629 -0.1015657359547559 0 0.1749190978293893 -0.1165979942053425 0 0.16884250162088479 -0.1080310140379921 0 0.18054085757139629 -0.1015657359547559 0 0.19100769245097829 -0.1040519139747048 0 0.18054085757139629 -0.1015657359547559 0 0.1862357176231304 -0.1238823921021804 0 0.1749190978293893 -0.1165979942053425 0 0.18054085757139629 -0.1015657359547559 0 0.1862357176231304 -0.1238823921021804 0 0.19100769245097829 -0.1040519139747048 0 0.18054085757139629 -0.1015657359547559 0 0.1862357176231304 -0.1238823921021804 0 0.1862357176231304 -0.1238823921021804 0 0.1749190978293893 -0.1165979942053425 0 0.17324983187337631 -0.13165498831909611 0 0.1749190978293893 -0.1165979942053425 0 0.16471491079178111 -0.1205264202314431 0 0.16884250162088479 -0.1080310140379921 0 0.16471491079178111 -0.1205264202314431 0 0.15999890680388329 -0.1096406796162286 0 0.16884250162088479 -0.1080310140379921 0 0.1749190978293893 -0.1165979942053425 0 0.16471491079178111 -0.1205264202314431 0 0.17324983187337631 -0.13165498831909611 0 0.15485465026004211 -0.11932571079310079 0 0.16471491079178111 -0.1205264202314431 0 0.15557261582888751 -0.13003178131142151 0 0.15485465026004211 -0.11932571079310079 0 0.16471491079178111 -0.1205264202314431 0 0.15999890680388329 -0.1096406796162286 0 0.18054085757139629 -0.1015657359547559 0 0.1620153957752187 -0.097165399419701551 0 0.1674193516126988 -0.088794767656503876 0 0.18054085757139629 -0.1015657359547559 0 0.1620153957752187 -0.097165399419701551 0 0.14925441928633251 -0.10969288085116551 0 0.15999890680388329 -0.1096406796162286 0 0.1620153957752187 -0.097165399419701551 0 0.15999890680388329 -0.1096406796162286 0 0.1620153957752187 -0.097165399419701551 0 0.16884250162088479 -0.1080310140379921 0 0.18054085757139629 -0.1015657359547559 0 0.1620153957752187 -0.097165399419701551 0 0.16884250162088479 -0.1080310140379921 0 0.13464870039648349 0.00080453217212592717 0 0.15480995508657039 -0.001084596553268768 0 0.14892696920713289 -0.018041582065753459 0 0.13464870039648349 0.00080453217212592717 0 0.1294320674019063 -0.023146095115484211 0 0.14892696920713289 -0.018041582065753459 0 0.13464870039648349 0.00080453217212592717 0 0.1112777463759113 -0.012222875866518469 0 0.1294320674019063 -0.023146095115484211 0 0.1294320674019063 -0.023146095115484211 0 0.14892696920713289 -0.018041582065753459 0 0.14270131340979469 -0.036531096068384838 0 0.14892696920713289 -0.018041582065753459 0 0.14270131340979469 -0.036531096068384838 0 0.16089363356212191 -0.031604573197003549 0 0.14270131340979469 -0.036531096068384838 0 0.14464694777039611 -0.055277979731059648 0 0.16089363356212191 -0.031604573197003549 0 0.14464694777039611 -0.055277979731059648 0 0.15561449558007559 -0.051164132387281437 0 0.16089363356212191 -0.031604573197003549 0 0.14464694777039611 -0.055277979731059648 0 0.16089363356212191 -0.031604573197003549 0 0.14270131340979469 -0.036531096068384838 0 0.12954193793015309 -0.041748568408345607 0 0.14464694777039611 -0.055277979731059648 0 0.1294320674019063 -0.023146095115484211 0 0.14270131340979469 -0.036531096068384838 0 0.12954193793015309 -0.041748568408345607 0 0.12954193793015309 -0.041748568408345607 0 0.12664898879935529 -0.055605769639440771 0 0.14464694777039611 -0.055277979731059648 0 0.15680899227989839 -0.06637062400294011 0 0.14464694777039611 -0.055277979731059648 0 0.15561449558007559 -0.051164132387281437 0 0.15680899227989839 -0.06637062400294011 0 0.15561449558007559 -0.051164132387281437 0 0.1652446184022294 -0.054500080927008407 0 0.15561449558007559 -0.051164132387281437 0 0.1652446184022294 -0.054500080927008407 0 0.1617942405007988 -0.043199732881276223 0 0.1652446184022294 -0.054500080927008407 0 0.1746283364613696 -0.057560297553190053 0 0.1617942405007988 -0.043199732881276223 0 0.1717227713635387 -0.067009979361705274 0 0.1652446184022294 -0.054500080927008407 0 0.1717227713635387 -0.067009979361705274 0 0.1652446184022294 -0.054500080927008407 0 0.1746283364613696 -0.057560297553190053 0 0.1746283364613696 -0.057560297553190053 0 0.1828119860636557 -0.050363577362968731 0 0.1617942405007988 -0.043199732881276223 0 0.18346211879182289 -0.064955309332027283 0 0.1746283364613696 -0.057560297553190053 0 0.1828119860636557 -0.050363577362968731 0 0.18346211879182289 -0.064955309332027283 0 0.1828119860636557 -0.050363577362968731 0 0.19188844298534441 -0.056659859735039647 0 0.1617942405007988 -0.043199732881276223 0 0.18853740735089011 -0.033706188378118708 0 0.1828119860636557 -0.050363577362968731 0 0.1617942405007988 -0.043199732881276223 0 0.18853740735089011 -0.033706188378118708 0 0.15561449558007559 -0.051164132387281437 0 0.16089363356212191 -0.031604573197003549 0 0.1617942405007988 -0.043199732881276223 0 0.16089363356212191 -0.031604573197003549 0 0.1617942405007988 -0.043199732881276223 0 0.18853740735089011 -0.033706188378118708 0 0.16089363356212191 -0.031604573197003549 0 0.17714031935384769 -0.0079311666629475405 0 0.14892696920713289 -0.018041582065753459 0 0.16089363356212191 -0.031604573197003549 0 0.17714031935384769 -0.0079311666629475405 0 0.16089363356212191 -0.031604573197003549 0 0.17714031935384769 -0.0079311666629475405 0 0.18853740735089011 -0.033706188378118708 0 0.1657030786406338 0.0084270166623369204 0 0.15480995508657039 -0.001084596553268768 0 0.17714031935384769 -0.0079311666629475405 0 0.15480995508657039 -0.001084596553268768 0 0.14892696920713289 -0.018041582065753459 0 0.17714031935384769 -0.0079311666629475405 0 0.21351355446813719 -0.0021103410187178909 0 0.2110126965438916 -0.012672932103663791 0 0.2228246624943325 -0.0092295053444410857 0 0.2110126965438916 -0.012672932103663791 0 0.21911622703360889 -0.015650702578479541 0 0.2228246624943325 -0.0092295053444410857 0 0.21351355446813719 -0.0021103410187178909 0 0.2110126965438916 -0.012672932103663791 0 0.19836939172364151 -0.01016904411482358 0 0.1998105265397013 0.00335350757378736 0 0.21351355446813719 -0.0021103410187178909 0 0.19836939172364151 -0.01016904411482358 0 0.1998105265397013 0.00335350757378736 0 0.17714031935384769 -0.0079311666629475405 0 0.19836939172364151 -0.01016904411482358 0 0.17714031935384769 -0.0079311666629475405 0 0.19836939172364151 -0.01016904411482358 0 0.18853740735089011 -0.033706188378118708 0 0.2110126965438916 -0.012672932103663791 0 0.19836939172364151 -0.01016904411482358 0 0.18853740735089011 -0.033706188378118708 0 0.21528057420098159 -0.024212643874961401 0 0.18853740735089011 -0.033706188378118708 0 0.2110126965438916 -0.012672932103663791 0 0.21528057420098159 -0.024212643874961401 0 0.18853740735089011 -0.033706188378118708 0 0.21528057420098159 -0.024212643874961401 0 0.20886364623554921 -0.031523512657201581 0 0.18853740735089011 -0.033706188378118708 0 0.2110126965438916 -0.012672932103663791 0 0.21528057420098159 -0.024212643874961401 0 0.21911622703360889 -0.015650702578479541 0 0.21528057420098159 -0.024212643874961401 0 0.2158000993154765 -0.027276596113623111 0 0.21360323626451261 -0.02858374534336202 0 0.21528057420098159 -0.024212643874961401 0 0.2158000993154765 -0.027276596113623111 0 0.21995729679401421 -0.029331280632926501 0 0.2158000993154765 -0.027276596113623111 0 0.21503400689837671 -0.030930810510401429 0 0.21995729679401421 -0.029331280632926501 0 0.2158000993154765 -0.027276596113623111 0 0.21503400689837671 -0.030930810510401429 0 0.21360323626451261 -0.02858374534336202 0 0.21528057420098159 -0.024212643874961401 0 0.21360323626451261 -0.02858374534336202 0 0.20886364623554921 -0.031523512657201581 0 0.21503400689837671 -0.030930810510401429 0 0.21360323626451261 -0.02858374534336202 0 0.20886364623554921 -0.031523512657201581 0 0.2128060919330283 -0.035124071741943173 0 0.2180191377477218 -0.035203133534298187 0 0.2167024847658664 -0.043974661413588162 0 0.21503400689837671 -0.030930810510401429 0 0.2128060919330283 -0.035124071741943173 0 0.20886364623554921 -0.031523512657201581 0 0.21503400689837671 -0.030930810510401429 0 0.2128060919330283 -0.035124071741943173 0 0.2180191377477218 -0.035203133534298187 0 0.21503400689837671 -0.030930810510401429 0 0.2180191377477218 -0.035203133534298187 0 0.21995729679401421 -0.029331280632926501 0 0.2167024847658664 -0.043974661413588162 0 0.20890374551960481 -0.040729144831228678 0 0.20897987019450001 -0.050060865146210963 0 0.2128060919330283 -0.035124071741943173 0 0.2167024847658664 -0.043974661413588162 0 0.20890374551960481 -0.040729144831228678 0 0.20890374551960481 -0.040729144831228678 0 0.19655169947710091 -0.043788383486002072 0 0.20897987019450001 -0.050060865146210963 0 0.2128060919330283 -0.035124071741943173 0 0.20890374551960481 -0.040729144831228678 0 0.20886364623554921 -0.031523512657201581 0 0.20890374551960481 -0.040729144831228678 0 0.20886364623554921 -0.031523512657201581 0 0.19655169947710091 -0.043788383486002072 0 0.1828119860636557 -0.050363577362968731 0 0.18853740735089011 -0.033706188378118708 0 0.19655169947710091 -0.043788383486002072 0 0.20886364623554921 -0.031523512657201581 0 0.18853740735089011 -0.033706188378118708 0 0.19655169947710091 -0.043788383486002072 0 0.19655169947710091 -0.043788383486002072 0 0.20138343235632811 -0.055727139445542639 0 0.20897987019450001 -0.050060865146210963 0 0.19655169947710091 -0.043788383486002072 0 0.19188844298534441 -0.056659859735039647 0 0.20138343235632811 -0.055727139445542639 0 0.1828119860636557 -0.050363577362968731 0 0.19655169947710091 -0.043788383486002072 0 0.19188844298534441 -0.056659859735039647 0 0.19188844298534441 -0.056659859735039647 0 0.20138343235632811 -0.055727139445542639 0 0.1952329782378138 -0.068464889048657496 0 0.20138343235632811 -0.055727139445542639 0 0.22670270369963491 -0.067064047377793826 0 0.20138343235632811 -0.055727139445542639 0 0.21577564808412511 -0.056666161138016313 0 0.22670270369963491 -0.067064047377793826 0 0.20138343235632811 -0.055727139445542639 0 0.20897987019450001 -0.050060865146210963 0 0.21577564808412511 -0.056666161138016313 0 0.2167024847658664 -0.043974661413588162 0 0.20897987019450001 -0.050060865146210963 0 0.21577564808412511 -0.056666161138016313 0 0.21577564808412511 -0.056666161138016313 0 0.23694359709532001 -0.061394592404840097 0 0.22670270369963491 -0.067064047377793826 0 0.21577564808412511 -0.056666161138016313 0 0.22648325856373289 -0.049317463857355977 0 0.23694359709532001 -0.061394592404840097 0 0.21577564808412511 -0.056666161138016313 0 0.23694359709532001 -0.061394592404840097 0 0.2167024847658664 -0.043974661413588162 0 0.21577564808412511 -0.056666161138016313 0 0.22648325856373289 -0.049317463857355977 0 0.22648325856373289 -0.049317463857355977 0 0.23694359709532001 -0.061394592404840097 0 0.23716366819637241 -0.046229271507985323 0 0.25811154610651499 -0.066123023671663908 0 0.23694359709532001 -0.061394592404840097 0 0.24870160087168189 -0.052882304334001928 0 0.23694359709532001 -0.061394592404840097 0 0.24870160087168189 -0.052882304334001928 0 0.23716366819637241 -0.046229271507985323 0 0.24870160087168189 -0.052882304334001928 0 0.23716366819637241 -0.046229271507985323 0 0.24731406762381819 -0.035960341631652723 0 0.23716366819637241 -0.046229271507985323 0 0.24731406762381819 -0.035960341631652723 0 0.23342582712955959 -0.033308149953783547 0 0.23342582712955959 -0.033308149953783547 0 0.2258308946769807 -0.038322632822349968 0 0.22548915127375299 -0.027513718828695861 0 0.22648325856373289 -0.049317463857355977 0 0.23716366819637241 -0.046229271507985323 0 0.2258308946769807 -0.038322632822349968 0 0.23716366819637241 -0.046229271507985323 0 0.23342582712955959 -0.033308149953783547 0 0.2258308946769807 -0.038322632822349968 0 0.2180191377477218 -0.035203133534298187 0 0.2167024847658664 -0.043974661413588162 0 0.2258308946769807 -0.038322632822349968 0 0.2167024847658664 -0.043974661413588162 0 0.22648325856373289 -0.049317463857355977 0 0.2258308946769807 -0.038322632822349968 0 0.2180191377477218 -0.035203133534298187 0 0.2258308946769807 -0.038322632822349968 0 0.21995729679401421 -0.029331280632926501 0 0.2258308946769807 -0.038322632822349968 0 0.22548915127375299 -0.027513718828695861 0 0.21995729679401421 -0.029331280632926501 0 0.21528057420098159 -0.024212643874961401 0 0.2313313538768734 -0.018514784978234038 0 0.22829619310998309 -0.01520182636873813 0 0.21528057420098159 -0.024212643874961401 0 0.2313313538768734 -0.018514784978234038 0 0.21528057420098159 -0.024212643874961401 0 0.22548915127375299 -0.027513718828695861 0 0.2313313538768734 -0.018514784978234038 0 0.21528057420098159 -0.024212643874961401 0 0.22548915127375299 -0.027513718828695861 0 0.21995729679401421 -0.029331280632926501 0 0.21528057420098159 -0.024212643874961401 0 0.22829619310998309 -0.01520182636873813 0 0.21528057420098159 -0.024212643874961401 0 0.21911622703360889 -0.015650702578479541 0 0.22829619310998309 -0.01520182636873813 0 0.2313313538768734 -0.018514784978234038 0 0.22829619310998309 -0.01520182636873813 0 0.23342582712955959 -0.033308149953783547 0 0.22548915127375299 -0.027513718828695861 0 0.2313313538768734 -0.018514784978234038 0 0.25508119948702751 -0.010083838205662381 0 0.2313313538768734 -0.018514784978234038 0 0.2482857443068576 -0.021714794414400052 0 0.24731406762381819 -0.035960341631652723 0 0.2313313538768734 -0.018514784978234038 0 0.2482857443068576 -0.021714794414400052 0 0.24731406762381819 -0.035960341631652723 0 0.23342582712955959 -0.033308149953783547 0 0.2313313538768734 -0.018514784978234038 0 0.24731406762381819 -0.035960341631652723 0 0.2313313538768734 -0.018514784978234038 0 0.25508119948702751 -0.010083838205662381 0 0.2313313538768734 -0.018514784978234038 0 0.24138147174972829 -0.0061427828714447699 0 0.25508119948702751 -0.010083838205662381 0 0.2313313538768734 -0.018514784978234038 0 0.24138147174972829 -0.0061427828714447699 0 0.22829619310998309 -0.01520182636873813 0 0.25446675038947358 0.0029162606258486688 0 0.2541426920980116 -0.0036136263454906951 0 0.24138147174972829 -0.0061427828714447699 0 0.25446675038947358 0.0029162606258486688 0 0.24138147174972829 -0.0061427828714447699 0 0.22999165343287109 0.0038227322559807589 0 0.24138147174972829 -0.0061427828714447699 0 0.23189167676904729 -0.0064153040848911828 0 0.22999165343287109 0.0038227322559807589 0 0.23189167676904729 -0.0064153040848911828 0 0.2228246624943325 -0.0092295053444410857 0 0.22999165343287109 0.0038227322559807589 0 0.21351355446813719 -0.0021103410187178909 0 0.2228246624943325 -0.0092295053444410857 0 0.23189167676904729 -0.0064153040848911828 0 0.22829619310998309 -0.01520182636873813 0 0.2228246624943325 -0.0092295053444410857 0 0.2313313538768734 -0.018514784978234038 0 0.24138147174972829 -0.0061427828714447699 0 0.22829619310998309 -0.01520182636873813 0 0.24138147174972829 -0.0061427828714447699 0 0.23189167676904729 -0.0064153040848911828 0 0.22829619310998309 -0.01520182636873813 0 0.21911622703360889 -0.015650702578479541 0 0.22829619310998309 -0.01520182636873813 0 0.2228246624943325 -0.0092295053444410857 0 0.22829619310998309 -0.01520182636873813 0 0.2228246624943325 -0.0092295053444410857 0 0.2084634723971549 -0.097930235578601213 0 0.21737999015654699 -0.1103161024944793 0 0.2275791846540145 -0.10054182369239011 0 0.21737999015654699 -0.1103161024944793 0 0.19100769245097829 -0.1040519139747048 0 0.2084634723971549 -0.097930235578601213 0 0.21140608144591419 -0.084503356370523836 0 0.2275791846540145 -0.10054182369239011 0 0.2084634723971549 -0.097930235578601213 0 0.21737999015654699 -0.1103161024944793 0 0.19100769245097829 -0.1040519139747048 0 0.21737999015654699 -0.1103161024944793 0 0.21277072480774051 -0.1248863227998855 0 0.20025029595199689 -0.1218288277367077 0 0.21737999015654699 -0.1103161024944793 0 0.21277072480774051 -0.1248863227998855 0 0.2239597136694004 -0.1277946194696456 0 0.1862357176231304 -0.1238823921021804 0 0.20025029595199689 -0.1218288277367077 0 0.19100769245097829 -0.1040519139747048 0 0.21737999015654699 -0.1103161024944793 0 0.20025029595199689 -0.1218288277367077 0 0.19100769245097829 -0.1040519139747048 0 0.20025029595199689 -0.1218288277367077 0 0.19100769245097829 -0.1040519139747048 0 0.2084634723971549 -0.097930235578601213 0 0.19100769245097829 -0.1040519139747048 0 0.19624682445825681 -0.08914472739044943 0 0.18137547142311691 -0.085525622921553163 0 0.19100769245097829 -0.1040519139747048 0 0.19624682445825681 -0.08914472739044943 0 0.19624682445825681 -0.08914472739044943 0 0.1952329782378138 -0.068464889048657496 0 0.21140608144591419 -0.084503356370523836 0 0.18137547142311691 -0.085525622921553163 0 0.19624682445825681 -0.08914472739044943 0 0.1952329782378138 -0.068464889048657496 0 0.20138343235632811 -0.055727139445542639 0 0.1952329782378138 -0.068464889048657496 0 0.21149591893834541 -0.070957707586151192 0 0.18346211879182289 -0.064955309332027283 0 0.19188844298534441 -0.056659859735039647 0 0.1952329782378138 -0.068464889048657496 0 0.1952329782378138 -0.068464889048657496 0 0.21140608144591419 -0.084503356370523836 0 0.20138343235632811 -0.055727139445542639 0 0.21149591893834541 -0.070957707586151192 0 0.22670270369963491 -0.067064047377793826 0 0.1952329782378138 -0.068464889048657496 0 0.21149591893834541 -0.070957707586151192 0 0.21140608144591419 -0.084503356370523836 0 0.2084634723971549 -0.097930235578601213 0 0.19624682445825681 -0.08914472739044943 0 0.21140608144591419 -0.084503356370523836 0 0.21149591893834541 -0.070957707586151192 0 0.21140608144591419 -0.084503356370523836 0 0.2227543989520358 -0.079029105688238177 0 0.21140608144591419 -0.084503356370523836 0 0.2275791846540145 -0.10054182369239011 0 0.2227543989520358 -0.079029105688238177 0 0.23449163343577681 -0.083610487294907485 0 0.2275791846540145 -0.10054182369239011 0 0.21140608144591419 -0.084503356370523836 0 0.2227543989520358 -0.079029105688238177 0 0.2275791846540145 -0.10054182369239011 0 0.2227543989520358 -0.079029105688238177 0 0.22670270369963491 -0.067064047377793826 0 0.23449163343577681 -0.083610487294907485 0 0.21149591893834541 -0.070957707586151192 0 0.2227543989520358 -0.079029105688238177 0 0.22670270369963491 -0.067064047377793826 0 0.25202197504294188 -0.078400955310045109 0 0.25811154610651499 -0.066123023671663908 0 0.23694359709532001 -0.061394592404840097 0 0.25202197504294188 -0.078400955310045109 0 0.22670270369963491 -0.067064047377793826 0 0.25202197504294188 -0.078400955310045109 0 0.22670270369963491 -0.067064047377793826 0 0.23449163343577681 -0.083610487294907485 0 0.25202197504294188 -0.078400955310045109 0 0.23694359709532001 -0.061394592404840097 0 0.22670270369963491 -0.067064047377793826 0 0.25811154610651499 -0.066123023671663908 0 0.23694359709532001 -0.061394592404840097 0 0.25202197504294188 -0.078400955310045109 0 0.23449163343577681 -0.083610487294907485 0 0.24624903761231479 -0.086847438891893419 0 0.23449163343577681 -0.083610487294907485 0 0.24292322406264641 -0.096552741650977186 0 0.2275791846540145 -0.10054182369239011 0 0.23449163343577681 -0.083610487294907485 0 0.24624903761231479 -0.086847438891893419 0 0.24292322406264641 -0.096552741650977186 0 0.25304747237378489 -0.090741332181114118 0 0.24624903761231479 -0.086847438891893419 0 0.24292322406264641 -0.096552741650977186 0 0.2275791846540145 -0.10054182369239011 0 0.24375228786211539 -0.116580291014256 0 0.24292322406264641 -0.096552741650977186 0 0.2275791846540145 -0.10054182369239011 0 0.24375228786211539 -0.116580291014256 0 0.25771864553297669 -0.099620140202181948 0 0.24292322406264641 -0.096552741650977186 0 0.24375228786211539 -0.116580291014256 0 0.21737999015654699 -0.1103161024944793 0 0.2275791846540145 -0.10054182369239011 0 0.24375228786211539 -0.116580291014256 0 0.21737999015654699 -0.1103161024944793 0 0.24375228786211539 -0.116580291014256 0 0.2239597136694004 -0.1277946194696456 0 0.21737999015654699 -0.1103161024944793 0 0.24375228786211539 -0.116580291014256 0 0.24375228786211539 -0.116580291014256 0 0.235054631712311 -0.13955626642273861 0 0.24955680073527009 -0.143898101237383 0 0.235054631712311 -0.13955626642273861 0 0.24955680073527009 -0.143898101237383 0 0.23627457688356679 -0.15840319400941011 0 0.25449645062408999 -0.16331052089379791 0 0.24955680073527009 -0.143898101237383 0 0.23627457688356679 -0.15840319400941011 0 0.235054631712311 -0.13955626642273861 0 0.22199130801810529 -0.1478171468904442 0 0.23627457688356679 -0.15840319400941011 0 0.24375228786211539 -0.116580291014256 0 0.235054631712311 -0.13955626642273861 0 0.2239597136694004 -0.1277946194696456 0 0.235054631712311 -0.13955626642273861 0 0.22199130801810529 -0.1478171468904442 0 0.2239597136694004 -0.1277946194696456 0 0.20025029595199689 -0.1218288277367077 0 0.20949289945301761 -0.1396057414987095 0 0.22199130801810529 -0.1478171468904442 0 0.2239597136694004 -0.1277946194696456 0 0.20949289945301761 -0.1396057414987095 0 0.21277072480774051 -0.1248863227998855 0 0.20025029595199689 -0.1218288277367077 0 0.20949289945301761 -0.1396057414987095 0 0.21277072480774051 -0.1248863227998855 0 0.2239597136694004 -0.1277946194696456 0 0.20949289945301761 -0.1396057414987095 0 0.22199130801810529 -0.1478171468904442 0 0.20949289945301761 -0.1396057414987095 0 0.2069794531536403 -0.1537888919124783 0 0.20949289945301761 -0.1396057414987095 0 0.2069794531536403 -0.1537888919124783 0 0.1919305776748628 -0.1461990482496055 0 0.2069794531536403 -0.1537888919124783 0 0.1919305776748628 -0.1461990482496055 0 0.19225769977326759 -0.16432491474026781 0 0.1862357176231304 -0.1238823921021804 0 0.1919305776748628 -0.1461990482496055 0 0.19714487019074359 -0.1333469628700395 0 0.20025029595199689 -0.1218288277367077 0 0.20949289945301761 -0.1396057414987095 0 0.19714487019074359 -0.1333469628700395 0 0.20949289945301761 -0.1396057414987095 0 0.1919305776748628 -0.1461990482496055 0 0.19714487019074359 -0.1333469628700395 0 0.1862357176231304 -0.1238823921021804 0 0.1919305776748628 -0.1461990482496055 0 0.1862357176231304 -0.1238823921021804 0 0.20025029595199689 -0.1218288277367077 0 0.19714487019074359 -0.1333469628700395 0 0.19629081049063871 -0.1815365299480412 0 0.19225769977326759 -0.16432491474026781 0 0.17982600751226671 -0.1762593337595659 0 0.19629081049063871 -0.1815365299480412 0 0.19225769977326759 -0.16432491474026781 0 0.22018657323669569 -0.16775416802968299 0 0.2069794531536403 -0.1537888919124783 0 0.19225769977326759 -0.16432491474026781 0 0.22018657323669569 -0.16775416802968299 0 0.22199130801810529 -0.1478171468904442 0 0.2069794531536403 -0.1537888919124783 0 0.22018657323669569 -0.16775416802968299 0 0.19629081049063871 -0.1815365299480412 0 0.22018657323669569 -0.16775416802968299 0 0.21237941264848451 -0.18810475376770611 0 0.22018657323669569 -0.16775416802968299 0 0.23934418379307471 -0.18436482883247621 0 0.22018657323669569 -0.16775416802968299 0 0.23934418379307471 -0.18436482883247621 0 0.21237941264848451 -0.18810475376770611 0 0.22018657323669569 -0.16775416802968299 0 0.23627457688356679 -0.15840319400941011 0 0.23934418379307471 -0.18436482883247621 0 0.22199130801810529 -0.1478171468904442 0 0.22018657323669569 -0.16775416802968299 0 0.23627457688356679 -0.15840319400941011 0 0.25449645062408999 -0.16331052089379791 0 0.23627457688356679 -0.15840319400941011 0 0.23934418379307471 -0.18436482883247621 0 0.25850179434945381 -0.20097548963526929 0 0.23934418379307471 -0.18436482883247621 0 0.25850179434945381 -0.20097548963526929 0 0.23934418379307471 -0.18436482883247621 0 0.23907695871134879 -0.21289681242661959 0 0.23907695871134879 -0.21289681242661959 0 0.22308479462261119 -0.20217133576560289 0 0.21722062693650279 -0.2226466586169516 0 0.23934418379307471 -0.18436482883247621 0 0.22308479462261119 -0.20217133576560289 0 0.21237941264848451 -0.18810475376770611 0 0.23934418379307471 -0.18436482883247621 0 0.23907695871134879 -0.21289681242661959 0 0.22308479462261119 -0.20217133576560289 0 0.25037283077400019 -0.2416092145933311 0 0.23239962387573149 -0.2337287944253621 0 0.2339549802858914 -0.24933471903745599 0 0.25658827463044448 -0.2222138965281123 0 0.23907695871134879 -0.21289681242661959 0 0.2446094219978813 -0.2276121794933563 0 0.25037283077400019 -0.2416092145933311 0 0.2446094219978813 -0.2276121794933563 0 0.23239962387573149 -0.2337287944253621 0 0.23907695871134879 -0.21289681242661959 0 0.2446094219978813 -0.2276121794933563 0 0.23239962387573149 -0.2337287944253621 0 0.23907695871134879 -0.21289681242661959 0 0.23239962387573149 -0.2337287944253621 0 0.21722062693650279 -0.2226466586169516 0 0.23239962387573149 -0.2337287944253621 0 0.2194561222393229 -0.23682627783696539 0 0.21722062693650279 -0.2226466586169516 0 0.23239962387573149 -0.2337287944253621 0 0.22502312889380549 -0.2426362774769398 0 0.2339549802858914 -0.24933471903745599 0 0.2194561222393229 -0.23682627783696539 0 0.22502312889380549 -0.2426362774769398 0 0.21456577207223029 -0.24270171036535029 0 0.23239962387573149 -0.2337287944253621 0 0.2194561222393229 -0.23682627783696539 0 0.22502312889380549 -0.2426362774769398 0 0.22331750647786899 -0.25281133177650322 0 0.22502312889380549 -0.2426362774769398 0 0.21456577207223029 -0.24270171036535029 0 0.22331750647786899 -0.25281133177650322 0 0.22502312889380549 -0.2426362774769398 0 0.2339549802858914 -0.24933471903745599 0 0.2084475354763706 -0.25511513831035743 0 0.2080714594183444 -0.2424179483002232 0 0.21336353465090491 -0.24693864317134839 0 0.2080714594183444 -0.2424179483002232 0 0.21336353465090491 -0.24693864317134839 0 0.2080714594183444 -0.2424179483002232 0 0.21336353465090491 -0.24693864317134839 0 0.21456577207223029 -0.24270171036535029 0 0.2194561222393229 -0.23682627783696539 0 0.2080714594183444 -0.2424179483002232 0 0.21456577207223029 -0.24270171036535029 0 0.21722062693650279 -0.2226466586169516 0 0.20244123733496699 -0.2260211367091485 0 0.19848523837712481 -0.2136299623964425 0 0.2080714594183444 -0.2424179483002232 0 0.21722062693650279 -0.2226466586169516 0 0.2194561222393229 -0.23682627783696539 0 0.2080714594183444 -0.2424179483002232 0 0.21722062693650279 -0.2226466586169516 0 0.2080714594183444 -0.2424179483002232 0 0.21722062693650279 -0.2226466586169516 0 0.20244123733496699 -0.2260211367091485 0 0.2080714594183444 -0.2424179483002232 0 0.18716213711817259 -0.22455639835484539 0 0.2080714594183444 -0.2424179483002232 0 0.20244123733496699 -0.2260211367091485 0 0.18716213711817259 -0.22455639835484539 0 0.20244123733496699 -0.2260211367091485 0 0.19848523837712481 -0.2136299623964425 0 0.18716213711817259 -0.22455639835484539 0 0.2080714594183444 -0.2424179483002232 0 0.19254414318066221 -0.24961624770678509 0 0.1866817818972302 -0.23981118877977231 0 0.2080714594183444 -0.2424179483002232 0 0.1866817818972302 -0.23981118877977231 0 0.18716213711817259 -0.22455639835484539 0 0.19254414318066221 -0.24961624770678509 0 0.18399505531774341 -0.24981832115951039 0 0.1866817818972302 -0.23981118877977231 0 0.21237941264848451 -0.18810475376770611 0 0.20793523744788639 -0.20366419955677639 0 0.19447652973028121 -0.19759128756789451 0 0.22308479462261119 -0.20217133576560289 0 0.21237941264848451 -0.18810475376770611 0 0.20793523744788639 -0.20366419955677639 0 0.22308479462261119 -0.20217133576560289 0 0.21722062693650279 -0.2226466586169516 0 0.20793523744788639 -0.20366419955677639 0 0.21722062693650279 -0.2226466586169516 0 0.20793523744788639 -0.20366419955677639 0 0.19848523837712481 -0.2136299623964425 0 0.19848523837712481 -0.2136299623964425 0 0.19447652973028121 -0.19759128756789451 0 0.1831457957419608 -0.2071674304332729 0 0.20793523744788639 -0.20366419955677639 0 0.19848523837712481 -0.2136299623964425 0 0.19447652973028121 -0.19759128756789451 0 0.19848523837712481 -0.2136299623964425 0 0.1831457957419608 -0.2071674304332729 0 0.18716213711817259 -0.22455639835484539 0 0.19629081049063871 -0.1815365299480412 0 0.19447652973028121 -0.19759128756789451 0 0.1840061663436266 -0.1900566622106199 0 0.19629081049063871 -0.1815365299480412 0 0.21237941264848451 -0.18810475376770611 0 0.19447652973028121 -0.19759128756789451 0 0.19447652973028121 -0.19759128756789451 0 0.1840061663436266 -0.1900566622106199 0 0.1831457957419608 -0.2071674304332729 0 0.1840061663436266 -0.1900566622106199 0 0.1831457957419608 -0.2071674304332729 0 0.16486725365112659 -0.18785963188663279 0 0.1831457957419608 -0.2071674304332729 0 0.16486725365112659 -0.18785963188663279 0 0.1831457957419608 -0.2071674304332729 0 0.16625281481800089 -0.2066948484094672 0 0.18716213711817259 -0.22455639835484539 0 0.16625281481800089 -0.2066948484094672 0 0.18716213711817259 -0.22455639835484539 0 0.16625281481800089 -0.2066948484094672 0 0.18716213711817259 -0.22455639835484539 0 0.16937657335138201 -0.22198425569814831 0 0.16625281481800089 -0.2066948484094672 0 0.15661990237239229 -0.21733625041789439 0 0.14909823278687431 -0.20687378182447139 0 0.16625281481800089 -0.2066948484094672 0 0.15661990237239229 -0.21733625041789439 0 0.16937657335138201 -0.22198425569814831 0 0.1831457957419608 -0.2071674304332729 0 0.16625281481800089 -0.2066948484094672 0 0.16486725365112659 -0.18785963188663279 0 0.16625281481800089 -0.2066948484094672 0 0.16486725365112659 -0.18785963188663279 0 0.14534349251782941 -0.188833298464089 0 0.17619278994504239 -0.24587918172992959 0 0.18399505531774341 -0.24981832115951039 0 0.1866817818972302 -0.23981118877977231 0 0.17619278994504239 -0.24587918172992959 0 0.17450151464944069 -0.23276490516368609 0 0.16609645978724119 -0.24143951784646769 0 0.17619278994504239 -0.24587918172992959 0 0.1866817818972302 -0.23981118877977231 0 0.17450151464944069 -0.23276490516368609 0 0.17450151464944069 -0.23276490516368609 0 0.18716213711817259 -0.22455639835484539 0 0.16937657335138201 -0.22198425569814831 0 0.1866817818972302 -0.23981118877977231 0 0.17450151464944069 -0.23276490516368609 0 0.18716213711817259 -0.22455639835484539 0 0.15661990237239229 -0.21733625041789439 0 0.1623464977989032 -0.22856887614484861 0 0.15090654410468329 -0.22688320449844629 0 0.15661990237239229 -0.21733625041789439 0 0.16937657335138201 -0.22198425569814831 0 0.1623464977989032 -0.22856887614484861 0 0.17450151464944069 -0.23276490516368609 0 0.1623464977989032 -0.22856887614484861 0 0.16609645978724119 -0.24143951784646769 0 0.17450151464944069 -0.23276490516368609 0 0.16937657335138201 -0.22198425569814831 0 0.1623464977989032 -0.22856887614484861 0 0.1623464977989032 -0.22856887614484861 0 0.16609645978724119 -0.24143951784646769 0 0.1528270009437688 -0.23836283418195289 0 0.16001236861667459 -0.2513654190734112 0 0.16609645978724119 -0.24143951784646769 0 0.1528270009437688 -0.23836283418195289 0 0.16978669848249819 -0.25098739912941831 0 0.17619278994504239 -0.24587918172992959 0 0.16609645978724119 -0.24143951784646769 0 0.16001236861667459 -0.2513654190734112 0 0.16978669848249819 -0.25098739912941831 0 0.16609645978724119 -0.24143951784646769 0 0.1429630926125974 -0.2502577086919005 0 0.16001236861667459 -0.2513654190734112 0 0.1528270009437688 -0.23836283418195289 0 0.1429630926125974 -0.2502577086919005 0 0.1528270009437688 -0.23836283418195289 0 0.13988621804673579 -0.23152362256679451 0 0.1528270009437688 -0.23836283418195289 0 0.15090654410468329 -0.22688320449844629 0 0.13988621804673579 -0.23152362256679451 0 0.1623464977989032 -0.22856887614484861 0 0.1528270009437688 -0.23836283418195289 0 0.15090654410468329 -0.22688320449844629 0 0.15661990237239229 -0.21733625041789439 0 0.15090654410468329 -0.22688320449844629 0 0.1428531013616163 -0.21862443918074129 0 0.15090654410468329 -0.22688320449844629 0 0.13988621804673579 -0.23152362256679451 0 0.1428531013616163 -0.21862443918074129 0 0.12018370186474731 -0.23305432747703519 0 0.12895394136930069 -0.22163642029703709 0 0.13988621804673579 -0.23152362256679451 0 0.12895394136930069 -0.22163642029703709 0 0.13988621804673579 -0.23152362256679451 0 0.1428531013616163 -0.21862443918074129 0 0.1429630926125974 -0.2502577086919005 0 0.12018370186474731 -0.23305432747703519 0 0.1429630926125974 -0.2502577086919005 0 0.12018370186474731 -0.23305432747703519 0 0.13988621804673579 -0.23152362256679451 0 0.13217397618885759 -0.25462043987800831 0 0.1429630926125974 -0.2502577086919005 0 0.12018370186474731 -0.23305432747703519 0 0.16625281481800089 -0.2066948484094672 0 0.14534349251782941 -0.188833298464089 0 0.16625281481800089 -0.2066948484094672 0 0.14534349251782941 -0.188833298464089 0 0.14909823278687431 -0.20687378182447139 0 0.14534349251782941 -0.188833298464089 0 0.14909823278687431 -0.20687378182447139 0 0.1346280568372662 -0.20359450925845249 0 0.15661990237239229 -0.21733625041789439 0 0.14909823278687431 -0.20687378182447139 0 0.1428531013616163 -0.21862443918074129 0 0.14909823278687431 -0.20687378182447139 0 0.1428531013616163 -0.21862443918074129 0 0.1346280568372662 -0.20359450925845249 0 0.1178461100078927 -0.20838697738218431 0 0.12895394136930069 -0.22163642029703709 0 0.1346280568372662 -0.20359450925845249 0 0.12895394136930069 -0.22163642029703709 0 0.1428531013616163 -0.21862443918074129 0 0.1346280568372662 -0.20359450925845249 0 0.14534349251782941 -0.188833298464089 0 0.1346280568372662 -0.20359450925845249 0 0.13128332926409281 -0.18787359724935929 0 0.1237689835273371 -0.19605207676116951 0 0.1178461100078927 -0.20838697738218431 0 0.1346280568372662 -0.20359450925845249 0 0.1237689835273371 -0.19605207676116951 0 0.1346280568372662 -0.20359450925845249 0 0.13128332926409281 -0.18787359724935929 0 0.1237689835273371 -0.19605207676116951 0 0.1232013989280239 -0.1819146573535104 0 0.13128332926409281 -0.18787359724935929 0 0.12443417021765769 -0.1709717485187108 0 0.14534349251782941 -0.188833298464089 0 0.12443417021765769 -0.1709717485187108 0 0.1232013989280239 -0.1819146573535104 0 0.13128332926409281 -0.18787359724935929 0 0.12443417021765769 -0.1709717485187108 0 0.14534349251782941 -0.188833298464089 0 0.13128332926409281 -0.18787359724935929 0 0.12443417021765769 -0.1709717485187108 0 0.14534349251782941 -0.188833298464089 0 0.13540865390058859 -0.1688207667960602 0 0.14534349251782941 -0.188833298464089 0 0.14658871156029241 -0.16855183333999291 0 0.13540865390058859 -0.1688207667960602 0 0.16486725365112659 -0.18785963188663279 0 0.14658871156029241 -0.16855183333999291 0 0.16486725365112659 -0.18785963188663279 0 0.14534349251782941 -0.188833298464089 0 0.14658871156029241 -0.16855183333999291 0 0.14658871156029241 -0.16855183333999291 0 0.13391177650968769 -0.15242347890466901 0 0.14971917460686079 -0.1530450482394467 0 0.14658871156029241 -0.16855183333999291 0 0.14971917460686079 -0.1530450482394467 0 0.16192904395431579 -0.15800089119817939 0 0.14658871156029241 -0.16855183333999291 0 0.13391177650968769 -0.15242347890466901 0 0.12831016946945831 -0.1492440347933528 0 0.14658871156029241 -0.16855183333999291 0 0.12831016946945831 -0.1492440347933528 0 0.14658871156029241 -0.16855183333999291 0 0.13540865390058859 -0.1688207667960602 0 0.1290045142054978 -0.1612372837293575 0 0.14658871156029241 -0.16855183333999291 0 0.1290045142054978 -0.1612372837293575 0 0.12831016946945831 -0.1492440347933528 0 0.13540865390058859 -0.1688207667960602 0 0.12715697753007521 -0.16591248018761531 0 0.1290045142054978 -0.1612372837293575 0 0.12443417021765769 -0.1709717485187108 0 0.13540865390058859 -0.1688207667960602 0 0.12715697753007521 -0.16591248018761531 0 0.12098675462827781 -0.16200852072179159 0 0.12715697753007521 -0.16591248018761531 0 0.1290045142054978 -0.1612372837293575 0 0.12324902196630889 -0.15465793599018671 0 0.1227471198665283 -0.15880086614903269 0 0.1290045142054978 -0.1612372837293575 0 0.13391177650968769 -0.15242347890466901 0 0.12831016946945831 -0.1492440347933528 0 0.12532898621889721 -0.13663811256420449 0 0.12324902196630889 -0.15465793599018671 0 0.1290045142054978 -0.1612372837293575 0 0.12831016946945831 -0.1492440347933528 0 0.1217036921304827 -0.1482443959076799 0 0.12831016946945831 -0.1492440347933528 0 0.12532898621889721 -0.13663811256420449 0 0.13391177650968769 -0.15242347890466901 0 0.13188977167139071 -0.12546883223523481 0 0.13391177650968769 -0.15242347890466901 0 0.13188977167139071 -0.12546883223523481 0 0.1446303542042412 -0.1380662602394005 0 0.13391177650968769 -0.15242347890466901 0 0.13188977167139071 -0.12546883223523481 0 0.12532898621889721 -0.13663811256420449 0 0.11997683785091839 -0.1276371159963853 0 0.13188977167139071 -0.12546883223523481 0 0.12532898621889721 -0.13663811256420449 0 0.1446303542042412 -0.1380662602394005 0 0.15557261582888751 -0.13003178131142151 0 0.1621281360659286 -0.14191921566573409 0 0.14724036225017881 -0.1245170930860646 0 0.13188977167139071 -0.12546883223523481 0 0.1446303542042412 -0.1380662602394005 0 0.14724036225017881 -0.1245170930860646 0 0.1446303542042412 -0.1380662602394005 0 0.15557261582888751 -0.13003178131142151 0 0.13391177650968769 -0.15242347890466901 0 0.1446303542042412 -0.1380662602394005 0 0.14971917460686079 -0.1530450482394467 0 0.1446303542042412 -0.1380662602394005 0 0.14971917460686079 -0.1530450482394467 0 0.1621281360659286 -0.14191921566573409 0 0.1621281360659286 -0.14191921566573409 0 0.17324983187337631 -0.13165498831909611 0 0.17651024624945799 -0.1485415537171802 0 0.14971917460686079 -0.1530450482394467 0 0.1621281360659286 -0.14191921566573409 0 0.16192904395431579 -0.15800089119817939 0 0.1621281360659286 -0.14191921566573409 0 0.17651024624945799 -0.1485415537171802 0 0.16192904395431579 -0.15800089119817939 0 0.16471491079178111 -0.1205264202314431 0 0.15557261582888751 -0.13003178131142151 0 0.1639163736399934 -0.1310331013819237 0 0.15557261582888751 -0.13003178131142151 0 0.1621281360659286 -0.14191921566573409 0 0.1639163736399934 -0.1310331013819237 0 0.1621281360659286 -0.14191921566573409 0 0.1639163736399934 -0.1310331013819237 0 0.17324983187337631 -0.13165498831909611 0 0.16471491079178111 -0.1205264202314431 0 0.1639163736399934 -0.1310331013819237 0 0.17324983187337631 -0.13165498831909611 0 0.1862357176231304 -0.1238823921021804 0 0.1919305776748628 -0.1461990482496055 0 0.17324983187337631 -0.13165498831909611 0 0.1919305776748628 -0.1461990482496055 0 0.17324983187337631 -0.13165498831909611 0 0.17651024624945799 -0.1485415537171802 0 0.1919305776748628 -0.1461990482496055 0 0.19225769977326759 -0.16432491474026781 0 0.17651024624945799 -0.1485415537171802 0 0.19225769977326759 -0.16432491474026781 0 0.17526083145963689 -0.16308053239281189 0 0.17982600751226671 -0.1762593337595659 0 0.19225769977326759 -0.16432491474026781 0 0.17651024624945799 -0.1485415537171802 0 0.17526083145963689 -0.16308053239281189 0 0.17526083145963689 -0.16308053239281189 0 0.17982600751226671 -0.1762593337595659 0 0.16627328335530381 -0.17069773137902189 0 0.1840061663436266 -0.1900566622106199 0 0.16486725365112659 -0.18785963188663279 0 0.17982600751226671 -0.1762593337595659 0 0.19629081049063871 -0.1815365299480412 0 0.1840061663436266 -0.1900566622106199 0 0.17982600751226671 -0.1762593337595659 0 0.16486725365112659 -0.18785963188663279 0 0.14658871156029241 -0.16855183333999291 0 0.16627328335530381 -0.17069773137902189 0 0.16486725365112659 -0.18785963188663279 0 0.17982600751226671 -0.1762593337595659 0 0.16627328335530381 -0.17069773137902189 0 0.14658871156029241 -0.16855183333999291 0 0.16192904395431579 -0.15800089119817939 0 0.16627328335530381 -0.17069773137902189 0 0.17526083145963689 -0.16308053239281189 0 0.16192904395431579 -0.15800089119817939 0 0.16627328335530381 -0.17069773137902189 0 0.17651024624945799 -0.1485415537171802 0 0.17526083145963689 -0.16308053239281189 0 0.16192904395431579 -0.15800089119817939 0 
</DataArray>
</Points>
<Cells>
<DataArray type="UInt32" Name="connectivity" format="ascii">
0 1 2 3 4 5 6 7 8 9 10 11 12 13 14 15 16 17 18 19 20 21 22 23 24 25 26 27 28 29 30 31 32 33 34 35 36 37 38 39 40 41 42 43 44 45 46 47 48 49 50 51 52 53 54 55 56 57 58 59 60 61 62 63 64 65 66 67 68 69 70 71 72 73 74 75 76 77 78 79 80 81 82 83 84 85 86 87 88 89 90 91 92 93 94 95 96 97 98 99 100 101 102 103 104 105 106 107 108 109 110 111 112 113 114 115 116 117 118 119 120 121 122 123 124 125 126 127 128 129 130 131 132 133 134 135 136 137 138 139 140 141 142 143 144 145 146 147 148 149 150 151 152 153 154 155 156 157 158 159 160 161 162 163 164 165 166 167 168 169 170 171 172 173 174 175 176 177 178 179 180 181 182 183 184 185 186 187 188 189 190 191 192 193 194 195 196 197 198 199 200 201 202 203 204 205 206 207 208 209 210 211 212 213 214 215 216 217 218 219 220 221 222 223 224 225 226 227 228 229 230 231 232 233 234 235 236 237 238 239 240 241 242 243 244 245 246 247 248 249 250 251 252 253 254 255 256 257 258 259 260 261 262 263 264 265 266 267 268 269 270 271 272 273 274 275 276 277 278 279 280 281 282 283 284 285 286 287 288 289 290 291 292 293 294 295 296 297 298 299 300 301 302 303 304 305 306 307 308 309 310 311 312 313 314 315 316 317 318 319 320 321 322 323 324 325 326 327 328 329 330 331 332 333 334 335 336 337 338 339 340 341 342 343 344 345 346 347 348 349 350 351 352 353 354 355 356 357 358 359 360 361 362 363 364 365 366 367 368 369 370 371 372 373 374 375 376 377 378 379 380 381 382 383 384 385 386 387 388 389 390 391 392 393 394 395 396 397 398 399 400 401 402 403 404 405 406 407 408 409 410 411 412 413 414 415 416 417 418 419 420 421 422 423 424 425 426 427 428 429 430 431 432 433 434 435 436 437 438 439 440 441 442 443 444 445 446 447 448 449 450 451 452 453 454 455 456 457 458 459 460 461 462 463 464 465 466 467 468 469 470 471 472 473 474 475 476 477 478 479 480 481 482 483 484 485 486 487 488 489 490 491 492 493 494 495 496 497 498 499 500 501 502 503 504 505 506 507 508 509 510 511 512 513 514 515 516 517 518 519 520 521 522 523 524 525 526 527 528 529 530 531 532 533 534 535 536 537 538 539 540 541 542 543 544 545 546 547 548 549 550 551 552 553 554 555 556 557 558 559 560 561 562 563 564 565 566 567 568 569 570 571 572 573 574 575 576 577 578 579 580 581 582 583 584 585 586 587 588 589 590 591 592 593 594 595 596 597 598 599 600 601 602 603 604 605 606 607 608 609 610 611 612 613 614 615 616 617 618 619 620 621 622 623 624 625 626 627 628 629 630 631 632 633 634 635 636 637 638 639 640 641 642 643 644 645 646 647 648 649 650 651 652 653 654 655 656 657 658 659 660 661 662 663 664 665 666 667 668 669 670 671 672 673 674 675 676 677 678 679 680 681 682 683 684 685 686 687 688 689 690 691 692 693 694 695 696 697 698 699 700 701 702 703 704 705 706 707 708 709 710 711 712 713 714 715 716 717 718 719 720 721 722 723 724 725 726 727 728 729 730 731 732 733 734 735 736 737 738 739 740 741 742 743 744 745 746 747 748 749 750 751 752 753 754 755 756 757 758 759 760 761 762 763 764 765 766 767 768 769 770 771 772 773 774 775 776 777 778 779 780 781 782 783 784 785 786 787 788 789 790 791 792 793 794 795 796 797 798 799 800 801 802 803 804 805 806 807 808 809 810 811 812 813 814 815 816 817 818 819 820 821 822 823 824 825 826 827 828 829 830 831 832 833 834 835 836 837 838 839 840 841 842 843 844 845 846 847 848 849 850 851 852 853 854 855 856 857 858 859 860 861 862 863 864 865 866 867 868 869 870 871 872 873 874 875 876 877 878 879 880 881 882 883 884 885 886 887 888 889 890 891 892 893 894 895 896 897 898 899 900 901 902 903 904 905 906 907 908 909 910 911 912 913 914 915 916 917 918 919 920 921 922 923 924 925 926 927 928 929 930 931 932 933 934 935 936 937 938 939 940 941 942 943 944 945 946 947 948 949 950 951 952 953 954 955 956 957 958 959 960 961 962 963 964 965 966 967 968 969 970 971 972 973 974 975 976 977 978 979 980 981 982 983 984 985 986 987 988 989 990 991 992 993 994 995 996 997 998 999 1000 1001 1002 1003 1004 1005 1006 1007 1008 1009 1010 1011 1012 1013 1014 1015 1016 1017 1018 1019 1020 1021 1022 1023 1024 1025 1026 1027 1028 1029 1030 1031 1032 1033 1034 1035 1036 1037 1038 1039 1040 1041 1042 1043 1044 1045 1046 1047 1048 1049 1050 1051 1052 1053 1054 1055 1056 1057 1058 1059 1060 1061 1062 1063 1064 1065 1066 1067 1068 1069 1070 1071 1072 1073 1074 1075 1076 1077 1078 1079 1080 1081 1082 1083 1084 1085 1086 1087 1088 1089 1090 1091 1092 1093 1094 1095 1096 1097 1098 1099 1100 1101 1102 1103 1104 1105 1106 1107 1108 1109 1110 1111 1112 1113 1114 1115 1116 1117 1118 1119 1120 1121 1122 1123 1124 1125 1126 1127 1128 1129 1130 1131 1132 1133 1134 1135 1136 1137 1138 1139 1140 1141 1142 1143 1144 1145 1146 1147 1148 1149 1150 1151 1152 1153 1154 1155 1156 1157 1158 1159 1160 1161 1162 1163 1164 1165 1166 1167 1168 1169 1170 1171 1172 1173 1174 1175 1176 1177 1178 1179 1180 1181 1182 1183 1184 1185 1186 1187 1188 1189 1190 1191 1192 1193 1194 1195 1196 1197 1198 1199 1200 1201 1202 1203 1204 1205 1206 1207 1208 1209 1210 1211 1212 1213 1214 1215 1216 1217 1218 1219 1220 1221 1222 1223 1224 1225 1226 1227 1228 1229 1230 1231 1232 1233 1234 1235 1236 1237 1238 1239 1240 1241 1242 1243 1244 1245 1246 1247 1248 1249 1250 1251 1252 1253 1254 1255 1256 1257 1258 1259 1260 1261 1262 1263 1264 1265 1266 1267 1268 1269 1270 1271 1272 1273 1274 1275 1276 1277 1278 1279 1280 1281 1282 1283 1284 1285 1286 1287 1288 1289 1290 1291 1292 1293 1294 1295 1296 1297 1298 1299 1300 1301 1302 1303 1304 1305 1306 1307 1308 1309 1310 1311 1312 1313 1314 1315 1316 1317 1318 1319 1320 1321 1322 1323 1324 1325 1326 1327 1328 1329 1330 1331 1332 1333 1334 1335 1336 1337 1338 1339 1340 1341 1342 1343 1344 1345 1346 1347 1348 1349 1350 1351 1352 1353 1354 1355 1356 1357 1358 1359 1360 1361 1362 1363 1364 1365 1366 1367 1368 1369 1370 1371 1372 1373 1374 1375 1376 1377 1378 1379 1380 1381 1382 1383 1384 1385 1386 1387 1388 1389 1390 1391 1392 1393 1394 1395 1396 1397 1398 1399 1400 1401 1402 1403 1404 1405 1406 1407 1408 1409 1410 1411 1412 1413 1414 1415 1416 1417 1418 1419 1420 1421 1422 1423 1424 1425 1426 1427 1428 1429 1430 1431 1432 1433 1434 1435 1436 1437 1438 1439 1440 1441 1442 1443 1444 1445 1446 1447 1448 1449 1450 1451 1452 1453 1454 1455 1456 1457 1458 1459 1460 1461 1462 1463 1464 1465 1466 1467 1468 1469 1470 1471 1472 1473 1474 1475 1476 1477 1478 1479 1480 1481 1482 1483 1484 1485 1486 1487 1488 1489 1490 1491 1492 1493 1494 1495 1496 1497 1498 1499 1500 1501 1502 1503 1504 1505 1506 1507 1508 1509 1510 1511 1512 1513 1514 1515 1516 1517 1518 1519 1520 1521 1522 1523 1524 1525 1526 1527 1528 1529 1530 1531 1532 1533 1534 1535 1536 1537 1538 1539 1540 1541 1542 1543 1544 1545 1546 1547 1548 1549 1550 1551 1552 1553 1554 1555 1556 1557 1558 1559 1560 1561 1562 1563 1564 1565 1566 1567 1568 1569 1570 1571 1572 1573 1574 1575 1576 1577 1578 1579 1580 1581 1582 1583 1584 1585 1586 1587 1588 1589 1590 1591 1592 1593 1594 1595 1596 1597 1598 1599 1600 1601 1602 1603 1604 1605 1606 1607 1608 1609 1610 1611 1612 1613 1614 1615 1616 1617 1618 1619 1620 1621 1622 1623 1624 1625 1626 1627 1628 1629 1630 1631 1632 1633 1634 1635 1636 1637 1638 1639 1640 1641 1642 1643 1644 1645 1646 1647 1648 1649 1650 1651 1652 1653 1654 1655 1656 1657 1658 1659 1660 1661 1662 1663 1664 1665 1666 1667 1668 1669 1670 1671 1672 1673 1674 1675 1676 1677 1678 1679 1680 1681 1682 1683 1684 1685 1686 1687 1688 1689 1690 1691 1692 1693 1694 1695 1696 1697 1698 1699 1700 1701 1702 1703 1704 1705 1706 1707 1708 1709 1710 1711 1712 1713 1714 1715 1716 1717 1718 1719 1720 1721 1722 1723 1724 1725 1726 1727 1728 1729 1730 1731 1732 1733 1734 1735 1736 1737 1738 1739 1740 1741 1742 1743 1744 1745 1746 1747 1748 1749 1750 1751 1752 1753 1754 1755 1756 1757 1758 1759 1760 1761 1762 1763 1764 1765 1766 1767 1768 1769 1770 1771 1772 1773 1774 1775 1776 1777 1778 1779 1780 1781 1782 1783 1784 1785 1786 1787 1788 1789 1790 1791 1792 1793 1794 1795 1796 1797 1798 1799 1800 1801 1802 1803 1804 1805 1806 1807 1808 1809 1810 1811 1812 1813 1814 1815 1816 1817 1818 1819 1820 1821 1822 1823 1824 1825 1826 1827 1828 1829 1830 1831 1832 1833 1834 1835 1836 1837 1838 1839 1840 1841 1842 1843 1844 1845 1846 1847 1848 1849 1850 1851 1852 1853 1854 1855 1856 1857 1858 1859 1860 1861 1862 1863 1864 1865 1866 1867 1868 1869 1870 1871 1872 1873 1874 1875 1876 1877 1878 1879 1880 1881 1882 1883 1884 1885 1886 1887 1888 1889 1890 1891 1892 1893 1894 1895 1896 1897 1898 1899 1900 1901 1902 1903 1904 1905 1906 1907 1908 1909 1910 1911 1912 1913 1914 1915 1916 1917 1918 1919 1920 1921 1922 1923 1924 1925 1926 1927 1928 1929 1930 1931 1932 1933 1934 1935 1936 1937 1938 1939 1940 1941 1942 1943 1944 1945 1946 1947 1948 1949 1950 1951 1952 1953 1954 1955 1956 1957 1958 1959 1960 1961 1962 1963 1964 1965 1966 1967 1968 1969 1970 1971 1972 1973 1974 1975 1976 1977 1978 1979 1980 1981 1982 1983 1984 1985 1986 1987 1988 1989 1990 1991 1992 1993 1994 1995 1996 1997 1998 1999 2000 2001 2002 2003 2004 2005 2006 2007 2008 2009 2010 2011 2012 2013 2014 2015 2016 2017 2018 2019 2020 2021 2022 2023 2024 2025 2026 2027 2028 2029 2030 2031 2032 2033 2034 2035 2036 2037 2038 2039 2040 2041 2042 2043 2044 2045 2046 2047 2048 2049 2050 2051 2052 2053 2054 2055 2056 2057 2058 2059 2060 2061 2062 2063 2064 2065 2066 2067 2068 2069 2070 2071 2072 2073 2074 2075 2076 2077 2078 2079 2080 2081 2082 2083 2084 2085 2086 2087 2088 2089 2090 2091 2092 2093 2094 2095 2096 2097 2098 2099 2100 2101 2102 2103 2104 2105 2106 2107 2108 2109 2110 2111 2112 2113 2114 2115 2116 2117 2118 2119 2120 2121 2122 2123 2124 2125 2126 2127 2128 2129 2130 2131 2132 2133 2134 2135 2136 2137 2138 2139 2140 2141 2142 2143 2144 2145 2146 2147 2148 2149 2150 2151 2152 2153 2154 2155 2156 2157 2158 2159 2160 2161 2162 2163 2164 2165 2166 2167 2168 2169 2170 2171 2172 2173 2174 2175 2176 2177 2178 2179 2180 2181 2182 2183 2184 2185 2186 2187 2188 2189 2190 2191 2192 2193 2194 2195 2196 2197 2198 2199 2200 2201 2202 2203 2204 2205 2206 2207 2208 2209 2210 2211 2212 2213 2214 2215 2216 2217 2218 2219 2220 2221 2222 2223 2224 2225 2226 2227 2228 2229 2230 2231 2232 2233 2234 2235 2236 2237 2238 2239 2240 2241 2242 2243 2244 2245 2246 2247 2248 2249 2250 2251 2252 2253 2254 2255 2256 2257 2258 2259 2260 2261 2262 2263 2264 2265 2266 2267 2268 2269 2270 2271 2272 2273 2274 2275 2276 2277 2278 2279 2280 2281 2282 2283 2284 2285 2286 2287 2288 2289 2290 2291 2292 2293 2294 2295 2296 2297 2298 2299 2300 2301 2302 2303 2304 2305 2306 2307 2308 2309 2310 2311 2312 2313 2314 2315 2316 2317 2318 2319 2320 2321 2322 2323 2324 2325 2326 2327 2328 2329 2330 2331 2332 2333 2334 2335 2336 2337 2338 2339 2340 2341 2342 2343 2344 2345 2346 2347 2348 2349 2350 2351 2352 2353 2354 2355 2356 2357 2358 2359 2360 2361 2362 2363 2364 2365 2366 2367 2368 2369 2370 2371 2372 2373 2374 2375 2376 2377 2378 2379 2380 2381 2382 2383 2384 2385 2386 2387 2388 2389 2390 2391 2392 2393 2394 2395 2396 2397 2398 2399 2400 2401 2402 2403 2404 2405 2406 2407 2408 2409 2410 2411 2412 2413 2414 2415 2416 2417 2418 2419 2420 2421 2422 2423 2424 2425 2426 2427 2428 2429 2430 2431 2432 2433 2434 2435 2436 2437 2438 2439 2440 2441 2442 2443 2444 2445 2446 2447 2448 2449 2450 2451 2452 2453 2454 2455 2456 2457 2458 2459 2460 2461 2462 2463 2464 2465 2466 2467 2468 2469 2470 2471 2472 2473 2474 2475 2476 2477 2478 2479 2480 2481 2482 2483 2484 2485 2486 2487 2488 2489 2490 2491 2492 2493 2494 2495 2496 2497 2498 2499 2500 2501 2502 2503 2504 2505 2506 2507 2508 2509 2510 2511 2512 2513 2514 2515 2516 2517 2518 2519 2520 2521 2522 2523 2524 2525 2526 2527 2528 2529 2530 2531 2532 2533 2534 2535 2536 2537 2538 2539 2540 2541 2542 2543 2544 2545 2546 2547 2548 2549 2550 2551 2552 2553 2554 2555 2556 2557 2558 2559 2560 2561 2562 2563 2564 2565 2566 2567 2568 2569 2570 2571 2572 2573 2574 2575 2576 2577 2578 2579 2580 2581 2582 2583 2584 2585 2586 2587 2588 2589 2590 2591 2592 2593 2594 2595 2596 2597 2598 2599 2600 2601 2602 2603 2604 2605 2606 2607 2608 2609 2610 2611 2612 2613 2614 2615 2616 2617 2618 2619 2620 2621 2622 2623 2624 2625 2626 2627 2628 2629 2630 2631 2632 2633 2634 2635 2636 2637 2638 2639 2640 2641 2642 2643 2644 2645 2646 2647 2648 2649 2650 2651 2652 2653 2654 2655 2656 2657 2658 2659 2660 2661 2662 2663 2664 2665 2666 2667 2668 2669 2670 2671 2672 2673 2674 2675 2676 2677 2678 2679 2680 2681 2682 2683 2684 2685 2686 2687 2688 2689 2690 2691 2692 2693 2694 2695 2696 2697 2698 2699 2700 2701 2702 2703 2704 2705 2706 2707 2708 2709 2710 2711 2712 2713 2714 2715 2716 2717 2718 2719 2720 2721 2722 2723 2724 2725 2726 2727 2728 2729 2730 2731 2732 2733 2734 2735 2736 2737 2738 2739 2740 2741 2742 2743 2744 2745 2746 2747 2748 2749 2750 2751 2752 2753 2754 2755 2756 2757 2758 2759 2760 2761 2762 2763 2764 2765 2766 2767 2768 2769 2770 2771 2772 2773 2774 2775 2776 2777 2778 2779 2780 2781 2782 2783 2784 2785 2786 2787 2788 2789 2790 2791 2792 2793 2794 2795 2796 2797 2798 2799 2800 2801 2802 2803 2804 2805 2806 2807 2808 2809 2810 2811 2812 2813 2814 2815 2816 2817 2818 2819 2820 2821 2822 2823 2824 2825 2826 2827 2828 2829 2830 2831 2832 2833 2834 2835 2836 2837 2838 2839 2840 2841 2842 2843 2844 2845 2846 2847 2848 2849 2850 2851 2852 2853 2854 2855 2856 2857 2858 2859 2860 2861 2862 2863 2864 2865 2866 2867 2868 2869 2870 2871 2872 2873 2874 2875 2876 2877 2878 2879 2880 2881 2882 2883 2884 2885 2886 2887 2888 2889 2890 2891 2892 2893 2894 2895 2896 2897 2898 2899 2900 2901 2902 2903 2904 2905 2906 2907 2908 2909 2910 2911 2912 2913 2914 2915 2916 2917 2918 2919 2920 2921 2922 2923 2924 2925 2926 2927 2928 2929 2930 2931 2932 2933 2934 2935 2936 2937 2938 2939 2940 2941 2942 2943 2944 2945 2946 2947 2948 2949 2950 2951 2952 2953 2954 2955 2956 2957 2958 2959 2960 2961 2962 2963 2964 2965 2966 2967 2968 2969 2970 2971 2972 2973 2974 2975 2976 2977 2978 2979 2980 2981 2982 2983 2984 2985 2986 2987 2988 2989 2990 2991 2992 2993 2994 2995 2996 2997 2998 2999 3000 3001 3002 3003 3004 3005 3006 3007 3008 3009 3010 3011 3012 3013 3014 3015 3016 3017 3018 3019 3020 3021 3022 3023 3024 3025 3026 3027 3028 3029 3030 3031 3032 3033 3034 3035 3036 3037 3038 3039 3040 3041 3042 3043 3044 3045 3046 3047 3048 3049 3050 3051 3052 3053 3054 3055 3056 3057 3058 3059 3060 3061 3062 3063 3064 3065 3066 3067 3068 3069 3070 3071 3072 3073 3074 3075 3076 3077 3078 3079 3080 3081 3082 3083 3084 3085 3086 3087 3088 3089 3090 3091 3092 3093 3094 3095 3096 3097 3098 3099 3100 3101 3102 3103 3104 3105 3106 3107 3108 3109 3110 3111 3112 3113 3114 3115 3116 3117 3118 3119 3120 3121 3122 3123 3124 3125 3126 3127 3128 3129 3130 3131 3132 3133 3134 3135 3136 3137 3138 3139 3140 3141 3142 3143 3144 3145 3146 3147 3148 3149 3150 3151 3152 3153 3154 3155 3156 3157 3158 3159 3160 3161 3162 3163 3164 3165 3166 3167 3168 3169 3170 3171 3172 3173 3174 3175 3176 3177 3178 3179 3180 3181 3182 3183 3184 3185 3186 3187 3188 3189 3190 3191 3192 3193 3194 3195 3196 3197 3198 3199 3200 3201 3202 3203 3204 3205 3206 3207 3208 3209 3210 3211 3212 3213 3214 3215 3216 3217 3218 3219 3220 3221 3222 3223 3224 3225 3226 3227 3228 3229 3230 3231 3232 3233 3234 3235 3236 3237 3238 3239 3240 3241 3242 3243 3244 3245 3246 3247 3248 3249 3250 3251 3252 3253 3254 3255 3256 3257 3258 3259 3260 3261 3262 3263 3264 3265 3266 3267 3268 3269 3270 3271 3272 3273 3274 3275 3276 3277 3278 3279 3280 3281 3282 3283 3284 3285 3286 3287 3288 3289 3290 3291 3292 3293 3294 3295 3296 3297 3298 3299 3300 3301 3302 3303 3304 3305 3306 3307 3308 3309 3310 3311 3312 3313 3314 3315 3316 3317 3318 3319 3320 3321 3322 3323 3324 3325 3326 3327 3328 3329 3330 3331 3332 3333 3334 3335 3336 3337 3338 3339 3340 3341 3342 3343 3344 3345 3346 3347 3348 3349 3350 3351 3352 3353 3354 3355 3356 3357 3358 3359 3360 3361 3362 3363 3364 3365 3366 3367 3368 3369 3370 3371 3372 3373 3374 3375 3376 3377 3378 3379 3380 3381 3382 3383 3384 3385 3386 3387 3388 3389 3390 3391 3392 3393 3394 3395 3396 3397 3398 3399 3400 3401 3402 3403 3404 3405 3406 3407 3408 3409 3410 3411 3412 3413 3414 3415 3416 3417 3418 3419 3420 3421 3422 3423 3424 3425 3426 3427 3428 3429 3430 3431 3432 3433 3434 3435 3436 3437 3438 3439 3440 3441 3442 3443 3444 3445 3446 3447 3448 3449 3450 3451 3452 3453 3454 3455 3456 3457 3458 3459 3460 3461 3462 3463 3464 3465 3466 3467 3468 3469 3470 3471 3472 3473 3474 3475 3476 3477 3478 3479 3480 3481 3482 3483 3484 3485 3486 3487 3488 3489 3490 3491 3492 3493 3494 3495 3496 3497 3498 3499 3500 3501 3502 3503 3504 3505 3506 3507 3508 3509 3510 3511 3512 3513 3514 3515 3516 3517 3518 3519 3520 3521 3522 3523 3524 3525 3526 3527 3528 3529 3530 3531 3532 3533 3534 3535 3536 3537 3538 3539 3540 3541 3542 3543 3544 3545 3546 3547 3548 3549 3550 3551 3552 3553 3554 3555 3556 3557 3558 3559 3560 3561 3562 3563 3564 3565 3566 3567 3568 3569 3570 3571 3572 3573 3574 3575 3576 3577 3578 3579 3580 3581 3582 3583 3584 3585 3586 3587 3588 3589 3590 3591 3592 3593 3594 3595 3596 3597 3598 3599 3600 3601 3602 3603 3604 3605 3606 3607 3608 3609 3610 3611 3612 3613 3614 3615 3616 3617 3618 3619 3620 3621 3622 3623 3624 3625 3626 3627 3628 3629 3630 3631 3632 3633 3634 3635 3636 3637 3638 3639 3640 3641 3642 3643 3644 3645 3646 3647 3648 3649 3650 3651 3652 3653 3654 3655 3656 3657 3658 3659 3660 3661 3662 3663 3664 3665 3666 3667 3668 3669 3670 3671 3672 3673 3674 3675 3676 3677 3678 3679 3680 3681 3682 3683 3684 3685 3686 3687 3688 3689 3690 3691 3692 3693 3694 3695 3696 3697 3698 3699 3700 3701 3702 3703 3704 3705 3706 3707 3708 3709 3710 3711 3712 3713 3714 3715 3716 3717 3718 3719 3720 3721 3722 3723 3724 3725 3726 3727 3728 3729 3730 3731 3732 3733 3734 3735 3736 3737 3738 3739 3740 3741 3742 3743 3744 3745 3746 3747 3748 3749 3750 3751 3752 3753 3754 3755 3756 3757 3758 3759 3760 3761 3762 3763 3764 3765 3766 3767 3768 3769 3770 3771 3772 3773 3774 3775 3776 3777 3778 3779 3780 3781 3782 3783 3784 3785 3786 3787 3788 3789 3790 3791 3792 3793 3794 3795 3796 3797 3798 3799 3800 3801 3802 3803 3804 3805 3806 3807 3808 3809 3810 3811 3812 3813 3814 3815 3816 3817 3818 3819 3820 3821 3822 3823 3824 3825 3826 3827 3828 3829 3830 3831 3832 3833 3834 3835 3836 3837 3838 3839 3840 3841 3842 3843 3844 3845 3846 3847 3848 3849 3850 3851 3852 3853 3854 3855 3856 3857 3858 3859 3860 3861 3862 3863 3864 3865 3866 3867 3868 3869 3870 3871 3872 3873 3874 3875 3876 3877 3878 3879 3880 3881 3882 3883 3884 3885 3886 3887 3888 3889 3890 3891 3892 3893 3894 3895 3896 3897 3898 3899 3900 3901 3902 3903 3904 3905 3906 3907 3908 3909 3910 3911 3912 3913 3914 3915 3916 3917 3918 3919 3920 3921 3922 3923 3924 3925 3926 3927 3928 3929 3930 3931 3932 3933 3934 3935 3936 3937 3938 3939 3940 3941 3942 3943 3944 3945 3946 3947 3948 3949 3950 3951 3952 3953 3954 3955 3956 3957 3958 3959 3960 3961 3962 3963 3964 3965 3966 3967 3968 3969 3970 3971 3972 3973 3974 3975 3976 3977 3978 3979 3980 3981 3982 3983 3984 3985 3986 3987 3988 3989 3990 3991 3992 3993 3994 3995 3996 3997 3998 3999 4000 4001 4002 4003 4004 4005 4006 4007 4008 4009 4010 4011 4012 4013 4014 4015 4016 4017 4018 4019 4020 4021 4022 4023 4024 4025 4026 4027 4028 4029 4030 4031 4032 4033 4034 4035 4036 4037 4038 4039 4040 4041 4042 4043 4044 4045 4046 4047 4048 4049 4050 4051 4052 4053 4054 4055 4056 4057 4058 4059 4060 4061 4062 4063 4064 4065 4066 4067 4068 4069 4070 4071 4072 4073 4074 4075 4076 4077 4078 4079 4080 4081 4082 4083 4084 4085 4086 4087 4088 4089 4090 4091 4092 4093 4094 4095 4096 4097 4098 4099 4100 4101 4102 4103 4104 4105 4106 4107 4108 4109 4110 4111 4112 4113 4114 4115 4116 4117 4118 4119 4120 4121 4122 4123 4124 4125 4126 4127 4128 4129 4130 4131 4132 4133 4134 4135 4136 4137 4138 4139 4140 4141 4142 4143 4144 4145 4146 4147 4148 4149 4150 4151 4152 4153 4154 4155 4156 4157 4158 4159 4160 4161 4162 4163 4164 4165 4166 4167 4168 4169 4170 4171 4172 4173 4174 4175 4176 4177 4178 4179 4180 4181 4182 4183 4184 4185 4186 4187 4188 4189 4190 4191 4192 4193 4194 4195 4196 4197 4198 4199 4200 4201 4202 4203 4204 4205 4206 4207 4208 4209 4210 4211 4212 4213 4214 4215 4216 4217 4218 4219 4220 4221 4222 4223 4224 4225 4226 4227 4228 4229 4230 4231 4232 4233 4234 4235 4236 4237 4238 4239 4240 4241 4242 4243 4244 4245 4246 4247 4248 4249 4250 4251 4252 4253 4254 4255 4256 4257 4258 4259 4260 4261 4262 4263 4264 4265 4266 4267 4268 4269 4270 4271 4272 4273 4274 4275 4276 4277 4278 4279 4280 4281 4282 4283 4284 4285 4286 4287 4288 4289 4290 4291 4292 4293 4294 4295 4296 4297 4298 4299 4300 4301 4302 4303 4304 4305 4306 4307 4308 4309 4310 4311 4312 4313 4314 4315 4316 4317 4318 4319 4320 4321 4322 4323 4324 4325 4326 4327 4328 4329 4330 4331 4332 4333 4334 4335 4336 4337 4338 4339 4340 4341 4342 4343 4344 4345 4346 4347 4348 4349 4350 4351 4352 4353 4354 4355 4356 4357 4358 4359 4360 4361 4362 4363 4364 4365 4366 4367 4368 4369 4370 4371 4372 4373 4374 4375 4376 4377 4378 4379 4380 4381 4382 4383 4384 4385 4386 4387 4388 4389 4390 4391 4392 4393 4394 4395 4396 4397 4398 4399 4400 4401 4402 4403 4404 4405 4406 4407 4408 4409 4410 4411 4412 4413 4414 4415 4416 4417 4418 4419 4420 4421 4422 4423 4424 4425 4426 4427 4428 4429 4430 4431 4432 4433 4434 4435 4436 4437 4438 4439 4440 4441 4442 4443 4444 4445 4446 4447 4448 4449 4450 4451 4452 4453 4454 4455 4456 4457 4458 4459 4460 4461 4462 4463 4464 4465 4466 4467 4468 4469 4470 4471 4472 4473 4474 4475 4476 4477 4478 4479 4480 4481 4482 4483 4484 4485 4486 4487 4488 4489 4490 4491 4492 4493 4494 4495 4496 4497 4498 4499 4500 4501 4502 4503 4504 4505 4506 4507 4508 4509 4510 4511 4512 4513 4514 4515 4516 4517 4518 4519 4520 4521 4522 4523 4524 4525 4526 4527 4528 4529 4530 4531 4532 4533 4534 4535 4536 4537 4538 4539 4540 4541 4542 4543 4544 4545 4546 4547 4548 4549 4550 4551 4552 4553 4554 4555 4556 4557 4558 4559 4560 4561 4562 4563 4564 4565 4566 4567 4568 4569 4570 4571 4572 4573 4574 4575 4576 4577 4578 4579 4580 4581 4582 4583 4584 4585 4586 4587 4588 4589 4590 4591 4592 4593 4594 4595 4596 4597 4598 4599 4600 4601 4602 4603 4604 4605 4606 4607 4608 4609 4610 4611 4612 4613 4614 4615 4616 4617 4618 4619 4620 4621 4622 4623 4624 4625 4626 4627 4628 4629 4630 4631 4632 4633 4634 4635 4636 4637 4638 4639 4640 4641 4642 4643 4644 4645 4646 4647 4648 4649 4650 4651 4652 4653 4654 4655 4656 4657 4658 4659 4660 4661 4662 4663 4664 4665 4666 4667 4668 4669 4670 4671 4672 4673 4674 4675 4676 4677 4678 4679 4680 4681 4682 4683 4684 4685 4686 4687 4688 4689 4690 4691 4692 4693 4694 4695 4696 4697 4698 4699 4700 4701 4702 4703 4704 4705 4706 4707 4708 4709 4710 4711 4712 4713 4714 4715 4716 4717 4718 4719 4720 4721 4722 4723 4724 4725 4726 4727 4728 4729 4730 4731 4732 4733 4734 4735 4736 4737 4738 4739 4740 4741 4742 4743 4744 4745 4746 4747 4748 4749 4750 4751 4752 4753 4754 4755 4756 4757 4758 4759 4760 4761 4762 4763 4764 4765 4766 4767 4768 4769 4770 4771 4772 4773 4774 4775 4776 4777 4778 4779 4780 4781 4782 4783 4784 4785 4786 4787 4788 4789 4790 4791 4792 4793 4794 4795 4796 4797 4798 4799 4800 4801 4802 4803 4804 4805 4806 4807 4808 4809 4810 4811 4812 4813 4814 4815 4816 4817 4818 4819 4820 4821 4822 4823 4824 4825 4826 4827 4828 4829 4830 4831 4832 4833 4834 4835 4836 4837 4838 4839 4840 4841 4842 4843 4844 4845 4846 4847 4848 4849 4850 4851 4852 4853 4854 4855 4856 4857 4858 4859 4860 4861 4862 4863 4864 4865 4866 4867 4868 4869 4870 4871 4872 4873 4874 4875 4876 4877 4878 4879 4880 4881 4882 4883 4884 4885 4886 4887 4888 4889 4890 4891 4892 4893 4894 4895 4896 4897 4898 4899 4900 4901 4902 4903 4904 4905 4906 4907 4908 4909 4910 4911 4912 4913 4914 4915 4916 4917 4918 4919 4920 4921 4922 4923 4924 4925 4926 4927 4928 4929 4930 4931 4932 4933 4934 4935 4936 4937 4938 4939 4940 4941 4942 4943 4944 4945 4946 4947 4948 4949 4950 4951 4952 4953 4954 4955 4956 4957 4958 4959 4960 4961 4962 4963 4964 4965 4966 4967 4968 4969 4970 4971 4972 4973 4974 4975 4976 4977 4978 4979 4980 4981 4982 4983 4984 4985 4986 4987 4988 4989 4990 4991 4992 4993 4994 4995 4996 4997 4998 4999 5000 5001 5002 5003 5004 5005 5006 5007 5008 5009 5010 5011 5012 5013 5014 5015 5016 5017 5018 5019 5020 5021 5022 5023 5024 5025 5026 5027 5028 5029 5030 5031 5032 5033 5034 5035 5036 5037 5038 5039 5040 5041 5042 5043 5044 5045 5046 5047 5048 5049 5050 5051 5052 5053 5054 5055 5056 5057 5058 5059 5060 5061 5062 5063 5064 5065 5066 5067 5068 5069 5070 5071 5072 5073 5074 5075 5076 5077 5078 5079 5080 5081 5082 5083 5084 5085 5086 5087 5088 5089 5090 5091 5092 5093 5094 5095 5096 5097 5098 5099 5100 5101 5102 5103 5104 5105 5106 5107 5108 5109 5110 5111 5112 5113 5114 5115 5116 5117 5118 5119 5120 5121 5122 5123 5124 5125 5126 5127 5128 5129 5130 5131 5132 5133 5134 5135 5136 5137 5138 5139 5140 5141 5142 5143 5144 5145 5146 5147 5148 5149 5150 5151 5152 5153 5154 5155 5156 5157 5158 5159 5160 5161 5162 5163 5164 5165 5166 5167 5168 5169 5170 5171 5172 5173 5174 5175 5176 5177 5178 5179 5180 5181 5182 5183 5184 5185 5186 5187 5188 5189 5190 5191 5192 5193 5194 5195 5196 5197 5198 5199 5200 5201 5202 5203 5204 5205 5206 5207 5208 5209 5210 5211 5212 5213 5214 5215 5216 5217 5218 5219 5220 5221 5222 5223 5224 5225 5226 5227 5228 5229 5230 5231 5232 5233 5234 5235 5236 5237 5238 5239 5240 5241 5242 5243 5244 5245 5246 5247 5248 5249 5250 5251 5252 5253 5254 5255 5256 5257 5258 5259 5260 5261 5262 5263 5264 5265 5266 5267 5268 5269 5270 5271 5272 5273 5274 5275 5276 5277 5278 5279 5280 5281 5282 5283 5284 5285 5286 5287 5288 5289 5290 5291 5292 5293 5294 5295 5296 5297 5298 5299 5300 5301 5302 5303 5304 5305 5306 5307 5308 5309 5310 5311 5312 5313 5314 5315 5316 5317 5318 5319 5320 5321 5322 5323 5324 5325 5326 5327 5328 5329 5330 5331 5332 5333 5334 5335 5336 5337 5338 5339 5340 5341 5342 5343 5344 5345 5346 5347 5348 5349 5350 5351 5352 5353 5354 5355 5356 5357 5358 5359 5360 5361 5362 5363 5364 5365 5366 5367 5368 5369 5370 5371 5372 5373 5374 5375 5376 5377 5378 5379 5380 5381 5382 5383 5384 5385 5386 5387 5388 5389 5390 5391 5392 5393 5394 5395 5396 5397 5398 5399 5400 5401 5402 5403 5404 5405 5406 5407 5408 5409 5410 5411 5412 5413 5414 5415 5416 5417 5418 5419 5420 5421 5422 5423 5424 5425 5426 5427 5428 5429 5430 5431 5432 5433 5434 5435 5436 5437 5438 5439 5440 5441 5442 5443 5444 5445 5446 5447 5448 5449 5450 5451 5452 5453 5454 5455 5456 5457 5458 5459 5460 5461 5462 5463 5464 5465 5466 5467 5468 5469 5470 5471 5472 5473 5474 5475 5476 5477 5478 5479 5480 5481 5482 5483 5484 5485 5486 5487 5488 5489 5490 5491 5492 5493 5494 5495 5496 5497 5498 5499 5500 5501 5502 5503 5504 5505 5506 5507 5508 5509 5510 5511 5512 5513 5514 5515 5516 5517 5518 5519 5520 5521 5522 5523 5524 5525 5526 5527 5528 5529 5530 5531 5532 5533 5534 5535 5536 5537 5538 5539 5540 5541 5542 5543 5544 5545 5546 5547 5548 5549 5550 5551 5552 5553 5554 5555 5556 5557 5558 5559 5560 5561 5562 5563 5564 5565 5566 5567 5568 5569 5570 5571 5572 5573 5574 5575 5576 5577 5578 5579 5580 5581 5582 5583 5584 5585 5586 5587 5588 5589 5590 5591 5592 5593 5594 5595 5596 5597 5598 5599 5600 5601 5602 5603 5604 5605 5606 5607 5608 5609 5610 5611 5612 5613 5614 5615 5616 5617 5618 5619 5620 5621 5622 5623 5624 5625 5626 5627 5628 5629 5630 5631 5632 5633 5634 5635 5636 5637 5638 5639 5640 5641 5642 5643 5644 5645 5646 5647 5648 5649 5650 5651 5652 5653 5654 5655 5656 5657 5658 5659 5660 5661 5662 5663 5664 5665 5666 5667 5668 5669 5670 5671 5672 5673 5674 5675 5676 5677 5678 5679 5680 5681 5682 5683 5684 5685 5686 5687 5688 5689 5690 5691 5692 5693 5694 5695 5696 5697 5698 5699 5700 5701 5702 5703 5704 5705 5706 5707 5708 5709 5710 5711 5712 5713 5714 5715 5716 5717 5718 5719 5720 5721 5722 5723 5724 5725 5726 5727 5728 5729 5730 5731 5732 5733 5734 5735 5736 5737 5738 5739 5740 5741 5742 5743 5744 5745 5746 5747 5748 5749 5750 5751 5752 5753 5754 5755 5756 5757 5758 5759 5760 5761 5762 5763 5764 5765 5766 5767 5768 5769 5770 5771 5772 5773 5774 5775 5776 5777 5778 5779 5780 5781 5782 5783 5784 5785 5786 5787 5788 5789 5790 5791 5792 5793 5794 5795 5796 5797 5798 5799 5800 5801 5802 5803 5804 5805 5806 5807 5808 5809 5810 5811 5812 5813 5814 5815 5816 5817 5818 5819 5820 5821 5822 5823 5824 5825 5826 5827 5828 5829 5830 5831 5832 5833 5834 5835 5836 5837 5838 5839 5840 5841 5842 5843 5844 5845 5846 5847 5848 5849 5850 5851 5852 5853 5854 5855 5856 5857 5858 5859 5860 5861 5862 5863 5864 5865 5866 5867 5868 5869 5870 5871 5872 5873 5874 5875 5876 5877 5878 5879 5880 5881 5882 5883 5884 5885 5886 5887 5888 5889 5890 5891 5892 5893 5894 5895 5896 5897 5898 5899 5900 5901 5902 5903 5904 5905 5906 5907 5908 5909 5910 5911 5912 5913 5914 5915 5916 5917 5918 5919 5920 5921 5922 5923 5924 5925 5926 5927 5928 5929 5930 5931 5932 5933 5934 5935 5936 5937 5938 5939 5940 5941 5942 5943 5944 5945 5946 5947 5948 5949 5950 5951 5952 5953 5954 5955 5956 5957 5958 5959 5960 5961 5962 5963 5964 5965 5966 5967 5968 5969 5970 5971 5972 5973 5974 5975 5976 5977 5978 5979 5980 5981 5982 5983 5984 5985 5986 5987 5988 5989 5990 5991 5992 5993 5994 5995 5996 5997 5998 5999 6000 6001 6002 6003 6004 6005 6006 6007 6008 6009 6010 6011 6012 6013 6014 6015 6016 6017 6018 6019 6020 6021 6022 6023 6024 6025 6026 6027 6028 6029 6030 6031 6032 6033 6034 6035 6036 6037 6038 6039 6040 6041 6042 6043 6044 6045 6046 6047 6048 6049 6050 6051 6052 6053 6054 6055 6056 6057 6058 6059 6060 6061 6062 6063 6064 6065 6066 6067 6068 6069 6070 6071 6072 6073 6074 6075 6076 6077 6078 6079 6080 6081 6082 6083 6084 6085 6086 6087 6088 6089 6090 6091 6092 6093 6094 6095 6096 6097 6098 6099 6100 6101 6102 6103 6104 6105 6106 6107 6108 6109 6110 6111 6112 6113 6114 6115 6116 6117 6118 6119 6120 6121 6122 6123 6124 6125 6126 6127 6128 6129 6130 6131 6132 6133 6134 6135 6136 6137 6138 6139 6140 6141 6142 6143 6144 6145 6146 6147 6148 6149 6150 6151 6152 6153 6154 6155 6156 6157 6158 6159 6160 6161 6162 6163 6164 6165 6166 6167 6168 6169 6170 6171 6172 6173 6174 6175 6176 6177 6178 6179 6180 6181 6182 6183 6184 6185 6186 6187 6188 6189 6190 6191 6192 6193 6194 6195 6196 6197 6198 6199 6200 6201 6202 6203 6204 6205 6206 6207 6208 6209 6210 6211 6212 6213 6214 6215 6216 6217 6218 6219 6220 6221 6222 6223 6224 6225 6226 6227 6228 6229 6230 6231 6232 6233 6234 6235 6236 6237 6238 6239 6240 6241 6242 6243 6244 6245 6246 6247 6248 6249 6250 6251 6252 6253 6254 6255 6256 6257 6258 6259 6260 6261 6262 6263 6264 6265 6266 6267 6268 6269 6270 6271 6272 6273 6274 6275 6276 6277 6278 6279 6280 6281 6282 6283 6284 6285 6286 6287 6288 6289 6290 6291 6292 6293 6294 6295 6296 6297 6298 6299 6300 6301 6302 6303 6304 6305 6306 6307 6308 6309 6310 6311 6312 6313 6314 6315 6316 6317 6318 6319 6320 6321 6322 6323 6324 6325 6326 6327 6328 6329 6330 6331 6332 6333 6334 6335 6336 6337 6338 6339 6340 6341 6342 6343 6344 6345 6346 6347 6348 6349 6350 6351 6352 6353 6354 6355 6356 6357 6358 6359 6360 6361 6362 6363 6364 6365 6366 6367 6368 6369 6370 6371 6372 6373 6374 6375 6376 6377 6378 6379 6380 6381 6382 6383 6384 6385 6386 6387 6388 6389 6390 6391 6392 6393 6394 6395 6396 6397 6398 6399 6400 6401 6402 6403 6404 6405 6406 6407 6408 6409 6410 6411 6412 6413 6414 6415 6416 6417 6418 6419 6420 6421 6422 6423 6424 6425 6426 6427 6428 6429 6430 6431 6432 6433 6434 6435 6436 6437 6438 6439 6440 6441 6442 6443 6444 6445 6446 6447 6448 6449 6450 6451 6452 6453 6454 6455 6456 6457 6458 6459 6460 6461 6462 6463 6464 6465 6466 6467 6468 6469 6470 6471 6472 6473 6474 6475 6476 6477 6478 6479 6480 6481 6482 6483 6484 6485 6486 6487 6488 6489 6490 6491 6492 6493 6494 6495 6496 6497 6498 6499 6500 6501 6502 6503 6504 6505 6506 6507 6508 6509 6510 6511 6512 6513 6514 6515 6516 6517 6518 6519 6520 6521 6522 6523 6524 6525 6526 6527 6528 6529 6530 6531 6532 6533 6534 6535 6536 6537 6538 6539 6540 6541 6542 6543 6544 6545 6546 6547 6548 6549 6550 6551 6552 6553 6554 6555 6556 6557 6558 6559 6560 6561 6562 6563 6564 6565 6566 6567 6568 6569 6570 6571 6572 6573 6574 6575 6576 6577 6578 6579 6580 6581 6582 6583 6584 6585 6586 6587 6588 6589 6590 6591 6592 6593 6594 6595 6596 6597 6598 6599 6600 6601 6602 6603 6604 6605 6606 6607 6608 6609 6610 6611 6612 6613 6614 6615 6616 6617 6618 6619 6620 6621 6622 6623 6624 6625 6626 6627 6628 6629 6630 6631 6632 6633 6634 6635 6636 6637 6638 6639 6640 6641 6642 6643 6644 6645 6646 6647 6648 6649 6650 6651 6652 6653 6654 6655 6656 6657 6658 6659 6660 6661 6662 6663 6664 6665 6666 6667 6668 6669 6670 6671 6672 6673 6674 6675 6676 6677 6678 6679 6680 6681 6682 6683 6684 6685 6686 6687 6688 6689 6690 6691 6692 6693 6694 6695 6696 6697 6698 6699 6700 6701 6702 6703 6704 6705 6706 6707 6708 6709 6710 6711 6712 6713 6714 6715 6716 6717 6718 6719 6720 6721 6722 6723 6724 6725 6726 6727 6728 6729 6730 6731 6732 6733 6734 6735 6736 6737 6738 6739 6740 6741 6742 6743 6744 6745 6746 6747 6748 6749 6750 6751 6752 6753 6754 6755 6756 6757 6758 6759 6760 6761 6762 6763 6764 6765 6766 6767 6768 6769 6770 6771 6772 6773 6774 6775 6776 6777 6778 6779 6780 6781 6782 6783 6784 6785 6786 6787 6788 6789 6790 6791 6792 6793 6794 6795 6796 6797 6798 6799 6800 6801 6802 6803 6804 6805 6806 6807 6808 6809 6810 6811 6812 6813 6814 6815 6816 6817 6818 6819 6820 6821 6822 6823 6824 6825 6826 6827 6828 6829 6830 6831 6832 6833 6834 6835 6836 6837 6838 6839 6840 6841 6842 6843 6844 6845 6846 6847 6848 6849 6850 6851 6852 6853 6854 6855 6856 6857 6858 6859 6860 6861 6862 6863 6864 6865 6866 6867 6868 6869 6870 6871 6872 6873 6874 6875 6876 6877 6878 6879 6880 6881 6882 6883 6884 6885 6886 6887 6888 6889 6890 6891 6892 6893 6894 6895 6896 6897 6898 6899 6900 6901 6902 6903 6904 6905 6906 6907 6908 6909 6910 6911 6912 6913 6914 6915 6916 6917 6918 6919 6920 6921 6922 6923 6924 6925 6926 6927 6928 6929 6930 6931 6932 6933 6934 6935 6936 6937 6938 6939 6940 6941 6942 6943 6944 6945 6946 6947 6948 6949 6950 6951 6952 6953 6954 6955 6956 6957 6958 6959 6960 6961 6962 6963 6964 6965 6966 6967 6968 6969 6970 6971 6972 6973 6974 6975 6976 6977 6978 6979 6980 6981 6982 6983 6984 6985 6986 6987 6988 6989 6990 6991 6992 6993 6994 6995 6996 6997 6998 6999 7000 7001 7002 7003 7004 7005 7006 7007 7008 7009 7010 7011 7012 7013 7014 7015 7016 7017 7018 7019 7020 7021 7022 7023 7024 7025 7026 7027 7028 7029 7030 7031 7032 7033 7034 7035 7036 7037 7038 7039 7040 7041 7042 7043 7044 7045 7046 7047 7048 7049 7050 7051 7052 7053 7054 7055 7056 7057 7058 7059 7060 7061 7062 7063 7064 7065 7066 7067 7068 7069 7070 7071 7072 7073 7074 7075 7076 7077 7078 7079 7080 7081 7082 7083 7084 7085 7086 7087 7088 7089 7090 7091 7092 7093 7094 7095 7096 7097 7098 7099 7100 7101 7102 7103 7104 7105 7106 7107 7108 7109 7110 7111 7112 7113 7114 7115 7116 7117 7118 7119 7120 7121 7122 7123 7124 7125 7126 7127 7128 7129 7130 7131 7132 7133 7134 7135 7136 7137 7138 7139 7140 7141 7142 7143 7144 7145 7146 7147 7148 7149 7150 7151 7152 7153 7154 7155 7156 7157 7158 7159 7160 7161 7162 7163 7164 7165 7166 7167 7168 7169 7170 7171 7172 7173 7174 7175 7176 7177 7178 7179 7180 7181 7182 7183 7184 7185 7186 7187 7188 7189 7190 7191 7192 7193 7194 7195 7196 7197 7198 7199 7200 7201 7202 7203 7204 7205 7206 7207 7208 7209 7210 7211 7212 7213 7214 7215 7216 7217 7218 7219 7220 7221 7222 7223 7224 7225 7226 7227 7228 7229 7230 7231 7232 7233 7234 7235 7236 7237 7238 7239 7240 7241 7242 7243 7244 7245 7246 7247 7248 7249 7250 7251 7252 7253 7254 7255 7256 7257 7258 7259 7260 7261 7262 7263 7264 7265 7266 7267 7268 7269 7270 7271 7272 7273 7274 7275 7276 7277 7278 7279 7280 7281 7282 7283 7284 7285 7286 7287 7288 7289 7290 7291 7292 7293 7294 7295 7296 7297 7298 7299 7300 7301 7302 7303 7304 7305 7306 7307 7308 7309 7310 7311 7312 7313 7314 7315 7316 7317 7318 7319 7320 7321 7322 7323 7324 7325 7326 7327 7328 7329 7330 7331 7332 7333 7334 7335 7336 7337 7338 7339 7340 7341 7342 7343 7344 7345 7346 7347 7348 7349 7350 7351 7352 7353 7354 7355 7356 7357 7358 7359 7360 7361 7362 7363 7364 7365 7366 7367 7368 7369 7370 7371 7372 7373 7374 7375 7376 7377 7378 7379 7380 7381 7382 7383 7384 7385 7386 7387 7388 7389 7390 7391 7392 7393 7394 7395 7396 7397 7398 7399 7400 7401 7402 7403 7404 7405 7406 7407 7408 7409 7410 7411 7412 7413 7414 7415 7416 7417 7418 7419 7420 7421 7422 7423 7424 7425 7426 7427 7428 7429 7430 7431 7432 7433 7434 7435 7436 7437 7438 7439 7440 7441 7442 7443 7444 7445 7446 7447 7448 7449 7450 7451 7452 7453 7454 7455 7456 7457 7458 7459 7460 7461 7462 7463 7464 7465 7466 7467 7468 7469 7470 7471 7472 7473 7474 7475 7476 7477 7478 7479 7480 7481 7482 7483 7484 7485 7486 7487 7488 7489 7490 7491 7492 7493 7494 7495 7496 7497 7498 7499 7500 7501 7502 7503 7504 7505 7506 7507 7508 7509 7510 7511 7512 7513 7514 7515 7516 7517 7518 7519 7520 7521 7522 7523 7524 7525 7526 7527 7528 7529 7530 7531 7532 7533 7534 7535 7536 7537 7538 7539 7540 7541 7542 7543 7544 7545 7546 7547 7548 7549 7550 7551 7552 7553 7554 7555 7556 7557 7558 7559 7560 7561 7562 7563 7564 7565 7566 7567 7568 7569 7570 7571 7572 7573 7574 7575 7576 7577 7578 7579 7580 7581 7582 7583 7584 7585 7586 7587 7588 7589 7590 7591 7592 7593 7594 7595 7596 7597 7598 7599 7600 7601 7602 7603 7604 7605 7606 7607 7608 7609 7610 7611 7612 7613 7614 7615 7616 7617 7618 7619 7620 7621 7622 7623 7624 7625 7626 7627 7628 7629 7630 7631 7632 7633 7634 7635 7636 7637 7638 7639 7640 7641 7642 7643 7644 7645 7646 7647 7648 7649 7650 7651 7652 7653 7654 7655 7656 7657 7658 7659 7660 7661 7662 7663 7664 7665 7666 7667 7668 7669 7670 7671 7672 7673 7674 7675 7676 7677 7678 7679 7680 7681 7682 7683 7684 7685 7686 7687 7688 7689 7690 7691 7692 7693 7694 7695 7696 7697 7698 7699 7700 7701 7702 7703 7704 7705 7706 7707 7708 7709 7710 7711 7712 7713 7714 7715 7716 7717 7718 7719 7720 7721 7722 7723 7724 7725 7726 7727 7728 7729 7730 7731 7732 7733 7734 7735 7736 7737 7738 7739 7740 7741 7742 7743 7744 7745 7746 7747 7748 7749 7750 7751 7752 7753 7754 7755 7756 7757 7758 7759 7760 7761 7762 7763 7764 7765 7766 7767 7768 7769 7770 7771 7772 7773 7774 7775 7776 7777 7778 7779 7780 7781 7782 7783 7784 7785 7786 7787 7788 7789 7790 7791 7792 7793 7794 7795 7796 7797 7798 7799 7800 7801 7802 7803 7804 7805 7806 7807 7808 7809 7810 7811 7812 7813 7814 7815 7816 7817 7818 7819 7820 7821 7822 7823 7824 7825 7826 7827 7828 7829 7830 7831 7832 7833 7834 7835 7836 7837 7838 7839 7840 7841 7842 7843 7844 7845 7846 7847 7848 7849 7850 7851 7852 7853 7854 7855 7856 7857 7858 7859 7860 7861 7862 7863 7864 7865 7866 7867 7868 7869 7870 7871 7872 7873 7874 7875 7876 7877 7878 7879 7880 7881 7882 7883 7884 7885 7886 7887 7888 7889 7890 7891 7892 7893 7894 7895 7896 7897 7898 7899 7900 7901 7902 7903 7904 7905 7906 7907 7908 7909 7910 7911 7912 7913 7914 7915 7916 7917 7918 7919 7920 7921 7922 7923 7924 7925 7926 7927 7928 7929 7930 7931 7932 7933 7934 7935 7936 7937 7938 7939 7940 7941 7942 7943 7944 7945 7946 7947 7948 7949 7950 7951 7952 7953 7954 7955 7956 7957 7958 7959 7960 7961 7962 7963 7964 7965 7966 7967 7968 7969 7970 7971 7972 7973 7974 7975 7976 7977 7978 7979 7980 7981 7982 7983 7984 7985 7986 7987 7988 7989 7990 7991 7992 7993 7994 7995 7996 7997 7998 7999 8000 8001 8002 8003 8004 8005 8006 8007 8008 8009 8010 8011 8012 8013 8014 8015 8016 8017 8018 8019 8020 8021 8022 8023 8024 8025 8026 8027 8028 8029 8030 8031 8032 8033 8034 8035 8036 8037 8038 8039 8040 8041 8042 8043 8044 8045 8046 8047 8048 8049 8050 8051 8052 8053 8054 8055 8056 8057 8058 8059 8060 8061 8062 8063 8064 8065 8066 8067 8068 8069 8070 8071 8072 8073 8074 8075 8076 8077 8078 8079 8080 8081 8082 8083 8084 8085 8086 8087 8088 8089 8090 8091 8092 8093 8094 8095 8096 8097 8098 8099 8100 8101 8102 8103 8104 8105 8106 8107 8108 8109 8110 8111 8112 8113 8114 8115 8116 8117 8118 8119 8120 8121 8122 8123 8124 8125 8126 8127 8128 8129 8130 8131 8132 8133 8134 8135 8136 8137 8138 8139 8140 8141 8142 8143 8144 8145 8146 8147 8148 8149 8150 8151 8152 8153 8154 8155 8156 8157 8158 8159 8160 8161 8162 8163 8164 8165 8166 8167 8168 8169 8170 8171 8172 8173 8174 8175 8176 8177 8178 8179 8180 8181 8182 8183 8184 8185 8186 8187 8188 8189 8190 8191 8192 8193 8194 8195 8196 8197 8198 8199 8200 8201 8202 8203 8204 8205 8206 8207 8208 8209 8210 8211 8212 8213 8214 8215 8216 8217 8218 8219 8220 8221 8222 8223 8224 8225 8226 8227 8228 8229 8230 8231 8232 8233 8234 8235 8236 8237 8238 8239 8240 8241 8242 8243 8244 8245 8246 8247 8248 8249 8250 8251 8252 8253 8254 8255 8256 8257 8258 8259 8260 8261 8262 8263 8264 8265 8266 8267 8268 8269 8270 8271 8272 8273 8274 8275 8276 8277 8278 8279 8280 8281 8282 8283 8284 8285 8286 8287 8288 8289 8290 8291 8292 8293 8294 8295 8296 8297 8298 8299 8300 8301 8302 8303 8304 8305 8306 8307 8308 8309 8310 8311 8312 8313 8314 8315 8316 8317 8318 8319 8320 8321 8322 8323 8324 8325 8326 8327 8328 8329 8330 8331 8332 8333 8334 8335 8336 8337 8338 8339 8340 8341 8342 8343 8344 8345 8346 8347 8348 8349 8350 8351 8352 8353 8354 8355 8356 8357 8358 8359 8360 8361 8362 8363 8364 8365 8366 8367 8368 8369 8370 8371 8372 8373 8374 8375 8376 8377 8378 8379 8380 8381 8382 8383 8384 8385 8386 8387 8388 8389 8390 8391 8392 8393 8394 8395 8396 8397 8398 8399 8400 8401 8402 8403 8404 8405 8406 8407 8408 8409 8410 8411 8412 8413 8414 8415 8416 8417 8418 8419 8420 8421 8422 8423 8424 8425 8426 8427 8428 8429 8430 8431 8432 8433 8434 8435 8436 8437 8438 8439 8440 8441 8442 8443 8444 8445 8446 8447 8448 8449 8450 8451 8452 8453 8454 8455 8456 8457 8458 8459 8460 8461 8462 8463 8464 8465 8466 8467 8468 8469 8470 8471 8472 8473 8474 8475 8476 8477 8478 8479 8480 8481 8482 8483 8484 8485 8486 8487 8488 8489 8490 8491 8492 8493 8494 8495 8496 8497 8498 8499 8500 8501 8502 8503 8504 8505 8506 8507 8508 8509 8510 8511 8512 8513 8514 8515 8516 8517 8518 8519 8520 8521 8522 8523 8524 8525 8526 8527 8528 8529 8530 8531 8532 8533 8534 8535 8536 8537 8538 8539 8540 8541 8542 8543 8544 8545 8546 8547 8548 8549 8550 8551 8552 8553 8554 8555 8556 8557 8558 8559 8560 8561 8562 8563 8564 8565 8566 8567 8568 8569 8570 8571 8572 8573 8574 8575 8576 8577 8578 8579 8580 8581 8582 8583 8584 8585 8586 8587 8588 8589 8590 8591 8592 8593 8594 8595 8596 8597 8598 8599 8600 8601 8602 8603 8604 8605 8606 8607 8608 8609 8610 8611 8612 8613 8614 8615 8616 8617 8618 8619 8620 8621 8622 8623 8624 8625 8626 8627 8628 8629 8630 8631 8632 8633 8634 8635 8636 8637 8638 8639 8640 8641 8642 8643 8644 8645 8646 8647 8648 8649 8650 8651 8652 8653 8654 8655 8656 8657 8658 8659 8660 8661 8662 8663 8664 8665 8666 8667 8668 8669 8670 8671 8672 8673 8674 8675 8676 8677 8678 8679 8680 8681 8682 8683 8684 8685 8686 8687 8688 8689 8690 8691 8692 8693 8694 8695 8696 8697 8698 8699 8700 8701 8702 8703 8704 8705 8706 8707 8708 8709 8710 8711 8712 8713 8714 8715 8716 8717 8718 8719 8720 8721 8722 8723 8724 8725 8726 8727 8728 8729 8730 8731 8732 8733 8734 8735 8736 8737 8738 8739 8740 8741 8742 8743 8744 8745 8746 8747 8748 8749 8750 8751 8752 8753 8754 8755 8756 8757 8758 8759 8760 8761 8762 8763 8764 8765 8766 8767 8768 8769 8770 8771 8772 8773 8774 8775 8776 8777 8778 8779 8780 8781 8782 8783 8784 8785 8786 8787 8788 8789 8790 8791 8792 8793 8794 8795 8796 8797 8798 8799 8800 8801 8802 8803 8804 8805 8806 8807 8808 8809 8810 8811 8812 8813 8814 8815 8816 8817 8818 8819 8820 8821 8822 8823 8824 8825 8826 8827 8828 8829 8830 8831 8832 8833 8834 8835 8836 8837 8838 8839 8840 8841 8842 8843 8844 8845 8846 8847 8848 8849 8850 8851 8852 8853 8854 8855 8856 8857 8858 8859 8860 8861 8862 8863 8864 8865 8866 8867 8868 8869 8870 8871 8872 8873 8874 8875 8876 8877 8878 8879 8880 8881 8882 8883 8884 8885 8886 8887 8888 8889 8890 8891 8892 8893 8894 8895 8896 8897 8898 8899 8900 8901 8902 8903 8904 8905 8906 8907 8908 8909 8910 8911 8912 8913 8914 8915 8916 8917 8918 8919 8920 8921 8922 8923 8924 8925 8926 8927 8928 8929 8930 8931 8932 8933 8934 8935 8936 8937 8938 8939 8940 8941 8942 8943 8944 8945 8946 8947 8948 8949 8950 8951 8952 8953 8954 8955 8956 8957 8958 8959 8960 8961 8962 8963 8964 8965 8966 8967 8968 8969 8970 8971 8972 8973 8974 8975 8976 8977 8978 8979 8980 8981 8982 8983 8984 8985 8986 8987 8988 8989 8990 8991 8992 8993 8994 8995 8996 8997 8998 8999 9000 9001 9002 9003 9004 9005 9006 9007 9008 9009 9010 9011 9012 9013 9014 9015 9016 9017 9018 9019 9020 9021 9022 9023 9024 9025 9026 9027 9028 9029 9030 9031 9032 9033 9034 9035 9036 9037 9038 9039 9040 9041 9042 9043 9044 9045 9046 9047 9048 9049 9050 9051 9052 9053 9054 9055 9056 9057 9058 9059 9060 9061 9062 9063 9064 9065 9066 9067 9068 9069 9070 9071 9072 9073 9074 9075 9076 9077 9078 9079 9080 9081 9082 9083 9084 9085 9086 9087 9088 9089 9090 9091 9092 9093 9094 9095 9096 9097 9098 9099 9100 9101 9102 9103 9104 9105 9106 9107 9108 9109 9110 9111 9112 9113 9114 9115 9116 9117 9118 9119 9120 9121 9122 9123 9124 9125 9126 9127 9128 9129 9130 9131 9132 9133 9134 9135 9136 9137 9138 9139 9140 9141 9142 9143 9144 9145 9146 9147 9148 9149 9150 9151 9152 9153 9154 9155 9156 9157 9158 9159 9160 9161 9162 9163 9164 9165 9166 9167 9168 9169 9170 9171 9172 9173 9174 9175 9176 9177 9178 9179 9180 9181 9182 9183 9184 9185 9186 9187 9188 9189 9190 9191 9192 9193 9194 9195 9196 9197 9198 9199 9200 9201 9202 9203 9204 9205 9206 9207 9208 9209 9210 9211 9212 9213 9214 9215 9216 9217 9218 9219 9220 9221 9222 9223 9224 9225 9226 9227 9228 9229 9230 9231 9232 9233 9234 9235 9236 9237 9238 9239 9240 9241 9242 9243 9244 9245 9246 9247 9248 9249 9250 9251 9252 9253 9254 9255 9256 9257 9258 9259 9260 9261 9262 9263 9264 9265 9266 9267 9268 9269 9270 9271 9272 9273 9274 9275 9276 9277 9278 9279 9280 9281 9282 9283 9284 9285 9286 9287 9288 9289 9290 9291 9292 9293 9294 9295 9296 9297 9298 9299 9300 9301 9302 9303 9304 9305 9306 9307 9308 9309 9310 9311 9312 9313 9314 9315 9316 9317 9318 9319 9320 9321 9322 9323 9324 9325 9326 9327 9328 9329 9330 9331 9332 9333 9334 9335 9336 9337 9338 9339 9340 9341 9342 9343 9344 9345 9346 9347 9348 9349 9350 9351 9352 9353 9354 9355 9356 9357 9358 9359 9360 9361 9362 9363 9364 9365 9366 9367 9368 9369 9370 9371 9372 9373 9374 9375 9376 9377 9378 9379 9380 9381 9382 9383 9384 9385 9386 9387 9388 9389 9390 9391 9392 9393 9394 9395 9396 9397 9398 9399 9400 9401 9402 9403 9404 9405 9406 9407 9408 9409 9410 9411 9412 9413 9414 9415 9416 9417 9418 9419 9420 9421 9422 9423 9424 9425 9426 9427 9428 9429 9430 9431 9432 9433 9434 9435 9436 9437 9438 9439 9440 9441 9442 9443 9444 9445 9446 9447 9448 9449 9450 9451 9452 9453 9454 9455 9456 9457 9458 9459 9460 9461 9462 9463 9464 9465 9466 9467 9468 9469 9470 9471 9472 9473 9474 9475 9476 9477 9478 9479 9480 9481 9482 9483 9484 9485 9486 9487 9488 9489 9490 9491 9492 9493 9494 9495 9496 9497 9498 9499 9500 9501 9502 9503 9504 9505 9506 9507 9508 9509 9510 9511 9512 9513 9514 9515 9516 9517 9518 9519 9520 9521 9522 9523 9524 9525 9526 9527 9528 9529 9530 9531 9532 9533 9534 9535 9536 9537 9538 9539 9540 9541 9542 9543 9544 9545 9546 9547 9548 9549 9550 9551 9552 9553 9554 9555 9556 9557 9558 9559 9560 9561 9562 9563 9564 9565 9566 9567 9568 9569 9570 9571 9572 9573 9574 9575 9576 9577 9578 9579 9580 9581 9582 9583 9584 9585 9586 9587 9588 9589 9590 9591 9592 9593 9594 9595 9596 9597 9598 9599 9600 9601 9602 9603 9604 9605 9606 9607 9608 9609 9610 9611 9612 9613 9614 9615 9616 9617 9618 9619 9620 9621 9622 9623 9624 9625 9626 9627 9628 9629 9630 9631 9632 9633 9634 9635 9636 9637 9638 9639 9640 9641 9642 9643 9644 9645 9646 9647 9648 9649 9650 9651 9652 9653 9654 9655 9656 9657 9658 9659 9660 9661 9662 9663 9664 9665 9666 9667 9668 9669 9670 9671 9672 9673 9674 9675 9676 9677 9678 9679 9680 9681 9682 9683 9684 9685 9686 9687 9688 9689 9690 9691 9692 9693 9694 9695 9696 9697 9698 9699 9700 9701 9702 9703 9704 9705 9706 9707 9708 9709 9710 9711 9712 9713 9714 9715 9716 9717 9718 9719 9720 9721 9722 9723 9724 9725 9726 9727 9728 9729 9730 9731 9732 9733 9734 9735 9736 9737 9738 9739 9740 9741 9742 9743 9744 9745 9746 9747 9748 9749 9750 9751 9752 9753 9754 9755 9756 9757 9758 9759 9760 9761 9762 9763 9764 9765 9766 9767 9768 9769 9770 9771 9772 9773 9774 9775 9776 9777 9778 9779 9780 9781 9782 9783 9784 9785 9786 9787 9788 9789 9790 9791 9792 9793 9794 9795 9796 9797 9798 9799 9800 9801 9802 9803 9804 9805 9806 9807 9808 9809 9810 9811 9812 9813 9814 9815 9816 9817 9818 9819 9820 9821 9822 9823 9824 9825 9826 9827 9828 9829 9830 9831 9832 9833 9834 9835 9836 9837 9838 9839 9840 9841 9842 9843 9844 9845 9846 9847 9848 9849 9850 9851 9852 9853 9854 9855 9856 9857 9858 9859 9860 9861 9862 9863 9864 9865 9866 9867 9868 9869 9870 9871 9872 9873 9874 9875 9876 9877 9878 9879 9880 9881 9882 9883 9884 9885 9886 9887 9888 9889 9890 9891 9892 9893 9894 9895 9896 9897 9898 9899 9900 9901 9902 9903 9904 9905 9906 9907 9908 9909 9910 9911 9912 9913 9914 9915 9916 9917 9918 9919 9920 9921 9922 9923 9924 9925 9926 9927 9928 9929 9930 9931 9932 9933 9934 9935 9936 9937 9938 9939 9940 9941 9942 9943 9944 9945 9946 9947 9948 9949 9950 9951 9952 9953 9954 9955 9956 9957 9958 9959 9960 9961 9962 9963 9964 9965 9966 9967 9968 9969 9970 9971 9972 9973 9974 9975 9976 9977 9978 9979 9980 9981 9982 9983 9984 9985 9986 9987 9988 9989 9990 9991 9992 9993 9994 9995 9996 9997 9998 9999 10000 10001 10002 10003 10004 10005 10006 10007 10008 10009 10010 10011 10012 10013 10014 10015 10016 10017 10018 10019 10020 10021 10022 10023 10024 10025 10026 10027 10028 10029 10030 10031 10032 10033 10034 10035 10036 10037 10038 10039 10040 10041 10042 10043 10044 10045 10046 10047 10048 10049 10050 10051 10052 10053 10054 10055 10056 10057 10058 10059 10060 10061 10062 10063 10064 10065 10066 10067 10068 10069 10070 10071 10072 10073 10074 10075 10076 10077 10078 10079 10080 10081 10082 10083 10084 10085 10086 10087 10088 10089 10090 10091 10092 10093 10094 10095 10096 10097 10098 10099 10100 10101 10102 10103 10104 10105 10106 10107 10108 10109 10110 10111 10112 10113 10114 10115 10116 10117 10118 10119 10120 10121 10122 10123 10124 10125 10126 10127 10128 10129 10130 10131 10132 10133 10134 10135 10136 10137 10138 10139 10140 10141 10142 10143 10144 10145 10146 10147 10148 10149 10150 10151 10152 10153 10154 10155 10156 10157 10158 10159 10160 10161 10162 10163 10164 10165 10166 10167 10168 10169 10170 10171 10172 10173 10174 10175 10176 10177 10178 10179 10180 10181 10182 10183 10184 10185 10186 10187 10188 10189 10190 10191 10192 10193 10194 10195 10196 10197 10198 10199 10200 10201 10202 10203 10204 10205 10206 10207 10208 10209 10210 10211 10212 10213 10214 10215 10216 10217 10218 10219 10220 10221 10222 10223 10224 10225 10226 10227 10228 10229 10230 10231 10232 10233 10234 10235 10236 10237 10238 10239 10240 10241 10242 10243 10244 10245 10246 10247 10248 10249 10250 10251 10252 10253 10254 10255 10256 10257 10258 10259 10260 10261 10262 10263 10264 10265 10266 10267 10268 10269 10270 10271 10272 10273 10274 10275 10276 10277 10278 10279 10280 10281 10282 10283 10284 10285 10286 10287 10288 10289 10290 10291 10292 10293 10294 10295 10296 10297 10298 10299 10300 10301 10302 10303 10304 10305 10306 10307 10308 10309 10310 10311 10312 10313 10314 10315 10316 10317 10318 10319 10320 10321 10322 10323 10324 10325 10326 10327 10328 10329 10330 10331 10332 10333 10334 10335 10336 10337 10338 10339 10340 10341 10342 10343 10344 10345 10346 10347 10348 10349 10350 10351 10352 10353 10354 10355 10356 10357 10358 10359 10360 10361 10362 10363 10364 10365 10366 10367 10368 10369 10370 10371 10372 10373 10374 10375 10376 10377 10378 10379 10380 10381 10382 10383 10384 10385 10386 10387 10388 10389 10390 10391 10392 10393 10394 10395 10396 10397 10398 10399 10400 10401 10402 10403 10404 10405 10406 10407 10408 10409 10410 10411 10412 10413 10414 10415 10416 10417 10418 10419 10420 10421 10422 10423 10424 10425 10426 10427 10428 10429 10430 10431 10432 10433 10434 10435 10436 10437 10438 10439 10440 10441 10442 10443 10444 10445 10446 10447 10448 10449 10450 10451 10452 10453 10454 10455 10456 10457 10458 10459 10460 10461 10462 10463 10464 10465 10466 10467 10468 10469 10470 10471 10472 10473 10474 10475 10476 10477 10478 10479 10480 10481 10482 10483 10484 10485 10486 10487 10488 10489 10490 10491 10492 10493 10494 10495 10496 10497 10498 10499 10500 10501 10502 10503 10504 10505 10506 10507 10508 10509 10510 10511 10512 10513 10514 10515 10516 10517 10518 10519 10520 10521 10522 10523 10524 10525 10526 10527 10528 10529 10530 10531 10532 10533 10534 10535 10536 10537 10538 10539 10540 10541 10542 10543 10544 10545 10546 10547 10548 10549 10550 10551 10552 10553 10554 10555 10556 10557 10558 10559 10560 10561 10562 10563 10564 10565 10566 10567 10568 10569 10570 10571 10572 10573 10574 10575 10576 10577 10578 10579 10580 10581 10582 10583 10584 10585 10586 10587 10588 10589 10590 10591 10592 10593 10594 10595 10596 10597 10598 10599 10600 10601 10602 10603 10604 10605 10606 10607 10608 10609 10610 10611 10612 10613 10614 10615 10616 10617 10618 10619 10620 10621 10622 10623 10624 10625 10626 10627 10628 10629 10630 10631 10632 10633 10634 10635 10636 10637 10638 10639 10640 10641 10642 10643 10644 10645 10646 10647 10648 10649 10650 10651 10652 10653 10654 10655 10656 10657 10658 10659 10660 10661 10662 10663 10664 10665 10666 10667 10668 10669 10670 10671 10672 10673 10674 10675 10676 10677 10678 10679 10680 10681 10682 10683 10684 10685 10686 10687 10688 10689 10690 10691 10692 10693 10694 10695 10696 10697 10698 10699 10700 10701 10702 10703 10704 10705 10706 10707 10708 10709 10710 10711 10712 10713 10714 10715 10716 10717 10718 10719 10720 10721 10722 10723 10724 10725 10726 10727 10728 10729 10730 10731 10732 10733 10734 10735 10736 10737 10738 10739 10740 10741 10742 10743 10744 10745 10746 10747 10748 10749 10750 10751 10752 10753 10754 10755 10756 10757 10758 10759 10760 10761 10762 10763 10764 10765 10766 10767 10768 10769 10770 10771 10772 10773 10774 10775 10776 10777 10778 10779 10780 10781 10782 10783 10784 10785 10786 10787 10788 10789 10790 10791 10792 10793 10794 10795 10796 10797 10798 10799 10800 10801 10802 10803 10804 10805 10806 10807 10808 10809 10810 10811 10812 10813 10814 10815 10816 10817 10818 10819 10820 10821 10822 10823 10824 10825 10826 10827 10828 10829 10830 10831 10832 10833 10834 10835 10836 10837 10838 10839 10840 10841 10842 10843 10844 10845 10846 10847 10848 10849 10850 10851 10852 10853 10854 10855 10856 10857 10858 10859 10860 10861 10862 10863 10864 10865 10866 10867 10868 10869 10870 10871 10872 10873 10874 10875 10876 10877 10878 10879 10880 10881 10882 10883 10884 10885 10886 10887 10888 10889 10890 10891 10892 10893 10894 10895 10896 10897 10898 10899 10900 10901 10902 10903 10904 10905 10906 10907 10908 10909 10910 10911 10912 10913 10914 10915 10916 10917 10918 10919 10920 10921 10922 10923 10924 10925 10926 10927 10928 10929 10930 10931 10932 10933 10934 10935 10936 10937 10938 10939 10940 10941 10942 10943 10944 10945 10946 10947 10948 10949 10950 10951 10952 10953 10954 10955 10956 10957 10958 10959 10960 10961 10962 10963 10964 10965 10966 10967 10968 10969 10970 10971 10972 10973 10974 10975 10976 10977 10978 10979 10980 10981 10982 10983 10984 10985 10986 10987 10988 10989 10990 10991 10992 10993 10994 10995 10996 10997 10998 10999 11000 11001 11002 11003 11004 11005 11006 11007 11008 11009 11010 11011 11012 11013 11014 11015 11016 11017 11018 11019 11020 11021 11022 11023 11024 11025 11026 11027 11028 11029 11030 11031 11032 11033 11034 11035 11036 11037 11038 11039 11040 11041 11042 11043 11044 11045 11046 11047 11048 11049 11050 11051 11052 11053 11054 11055 11056 11057 11058 11059 11060 11061 11062 11063 11064 11065 11066 11067 11068 11069 11070 11071 11072 11073 11074 11075 11076 11077 11078 11079 11080 11081 11082 11083 11084 11085 11086 11087 11088 11089 11090 11091 11092 11093 11094 11095 11096 11097 11098 11099 11100 11101 11102 11103 11104 11105 11106 11107 11108 11109 11110 11111 11112 11113 11114 11115 11116 11117 11118 11119 11120 11121 11122 11123 11124 11125 11126 11127 11128 11129 11130 11131 11132 11133 11134 11135 11136 11137 11138 11139 11140 11141 11142 11143 11144 11145 11146 11147 11148 11149 11150 11151 11152 11153 11154 11155 11156 11157 11158 11159 11160 11161 11162 11163 11164 11165 11166 11167 11168 11169 11170 11171 11172 11173 11174 11175 11176 11177 11178 11179 11180 11181 11182 11183 11184 11185 11186 11187 11188 11189 11190 11191 11192 11193 11194 11195 11196 11197 11198 11199 11200 11201 11202 11203 11204 11205 11206 11207 11208 11209 11210 11211 11212 11213 11214 11215 11216 11217 11218 11219 11220 11221 11222 11223 11224 11225 11226 11227 11228 11229 11230 11231 11232 11233 11234 11235 11236 11237 11238 11239 11240 11241 11242 11243 11244 11245 11246 11247 11248 11249 11250 11251 11252 11253 11254 11255 11256 11257 11258 11259 11260 11261 11262 11263 11264 11265 11266 11267 11268 11269 11270 11271 11272 11273 11274 11275 11276 11277 11278 11279 11280 11281 11282 11283 11284 11285 11286 11287 11288 11289 11290 11291 11292 11293 11294 11295 11296 11297 11298 11299 11300 11301 11302 11303 11304 11305 11306 11307 11308 11309 11310 11311 11312 11313 11314 11315 11316 11317 11318 11319 11320 11321 11322 11323 11324 11325 11326 11327 11328 11329 11330 11331 11332 11333 11334 11335 11336 11337 11338 11339 11340 11341 11342 11343 11344 11345 11346 11347 11348 11349 11350 11351 11352 11353 11354 11355 11356 11357 11358 11359 11360 11361 11362 11363 11364 11365 11366 11367 11368 11369 11370 11371 11372 11373 11374 11375 11376 11377 11378 11379 11380 11381 11382 11383 11384 11385 11386 11387 11388 11389 11390 11391 11392 11393 11394 11395 11396 11397 11398 11399 11400 11401 11402 11403 11404 11405 11406 11407 11408 11409 11410 11411 11412 11413 11414 11415 11416 11417 11418 11419 11420 11421 11422 11423 11424 11425 11426 11427 11428 11429 11430 11431 11432 11433 11434 11435 11436 11437 11438 11439 11440 11441 11442 11443 11444 11445 11446 11447 11448 11449 11450 11451 11452 11453 11454 11455 11456 11457 11458 11459 11460 11461 11462 11463 11464 11465 11466 11467 11468 11469 11470 11471 11472 11473 11474 11475 11476 11477 11478 11479 11480 11481 11482 11483 11484 11485 11486 11487 11488 11489 11490 11491 11492 11493 11494 11495 11496 11497 11498 11499 11500 11501 11502 11503 11504 11505 11506 11507 11508 11509 11510 11511 11512 11513 11514 11515 11516 11517 11518 11519 11520 11521 11522 11523 11524 11525 11526 11527 11528 11529 11530 11531 11532 11533 11534 11535 11536 11537 11538 11539 11540 11541 11542 11543 11544 11545 11546 11547 11548 11549 11550 11551 11552 11553 11554 11555 11556 11557 11558 11559 11560 11561 11562 11563 11564 11565 11566 11567 11568 11569 11570 11571 11572 11573 11574 11575 11576 11577 11578 11579 11580 11581 11582 11583 11584 11585 11586 11587 11588 11589 11590 11591 11592 11593 11594 11595 11596 11597 11598 11599 11600 11601 11602 11603 11604 11605 11606 11607 11608 11609 11610 11611 11612 11613 11614 11615 11616 11617 11618 11619 11620 11621 11622 11623 11624 11625 11626 11627 11628 11629 11630 11631 11632 11633 11634 11635 11636 11637 11638 11639 11640 11641 11642 11643 11644 11645 11646 11647 11648 11649 11650 11651 11652 11653 11654 11655 11656 11657 11658 11659 11660 11661 11662 11663 11664 11665 11666 11667 11668 11669 11670 11671 11672 11673 11674 11675 11676 11677 11678 11679 11680 11681 11682 11683 11684 11685 11686 11687 11688 11689 11690 11691 11692 11693 11694 11695 11696 11697 11698 11699 11700 11701 11702 11703 11704 11705 11706 11707 11708 11709 11710 11711 11712 11713 11714 11715 11716 11717 11718 11719 11720 11721 11722 11723 11724 11725 11726 11727 11728 11729 11730 11731 11732 11733 11734 11735 11736 11737 11738 11739 11740 11741 11742 11743 11744 11745 11746 11747 11748 11749 11750 11751 11752 11753 11754 11755 11756 11757 11758 11759 11760 11761 11762 11763 11764 11765 11766 11767 11768 11769 11770 11771 11772 11773 11774 11775 11776 11777 11778 11779 11780 11781 11782 11783 11784 11785 11786 11787 11788 11789 11790 11791 11792 11793 11794 11795 11796 11797 11798 11799 11800 11801 11802 11803 11804 11805 11806 11807 11808 11809 11810 11811 11812 11813 11814 11815 11816 11817 11818 11819 11820 11821 11822 11823 11824 11825 11826 11827 11828 11829 11830 11831 11832 11833 11834 11835 11836 11837 11838 11839 11840 11841 11842 11843 11844 11845 11846 11847 11848 11849 11850 11851 11852 11853 11854 11855 11856 11857 11858 11859 11860 11861 11862 11863 11864 11865 11866 11867 11868 11869 11870 11871 11872 11873 11874 11875 11876 11877 11878 11879 11880 11881 11882 11883 11884 11885 11886 11887 11888 11889 11890 11891 11892 11893 11894 11895 11896 11897 11898 11899 11900 11901 11902 11903 11904 11905 11906 11907 11908 11909 11910 11911 11912 11913 11914 11915 11916 11917 11918 11919 11920 11921 11922 11923 11924 11925 11926 11927 11928 11929 11930 11931 11932 11933 11934 11935 11936 11937 11938 11939 11940 11941 11942 11943 11944 11945 11946 11947 11948 11949 11950 11951 11952 11953 11954 11955 11956 11957 11958 11959 11960 11961 11962 11963 11964 11965 11966 11967 11968 11969 11970 11971 11972 11973 11974 11975 11976 11977 11978 11979 11980 11981 11982 11983 11984 11985 11986 11987 11988 11989 11990 11991 11992 11993 11994 11995 11996 11997 11998 11999 12000 12001 12002 12003 12004 12005 12006 12007 12008 12009 12010 12011 12012 12013 12014 12015 12016 12017 12018 12019 12020 12021 12022 12023 12024 12025 12026 12027 12028 12029 12030 12031 12032 12033 12034 12035 12036 12037 12038 12039 12040 12041 12042 12043 12044 12045 12046 12047 12048 12049 12050 12051 12052 12053 12054 12055 12056 12057 12058 12059 12060 12061 12062 12063 12064 12065 12066 12067 12068 12069 12070 12071 12072 12073 12074 12075 12076 12077 12078 12079 12080 12081 12082 12083 12084 12085 12086 12087 12088 12089 12090 12091 12092 12093 12094 12095 12096 12097 12098 12099 12100 12101 12102 12103 12104 12105 12106 12107 12108 12109 12110 12111 12112 12113 12114 12115 12116 12117 12118 12119 12120 12121 12122 12123 12124 12125 12126 12127 12128 12129 12130 12131 12132 12133 12134 12135 12136 12137 12138 12139 12140 12141 12142 12143 12144 12145 12146 12147 12148 12149 12150 12151 12152 12153 12154 12155 12156 12157 12158 12159 12160 12161 12162 12163 12164 12165 12166 12167 12168 12169 12170 12171 12172 12173 12174 12175 12176 12177 12178 12179 12180 12181 12182 12183 12184 12185 12186 12187 12188 12189 12190 12191 12192 12193 12194 12195 12196 12197 12198 12199 12200 12201 12202 12203 12204 12205 12206 12207 12208 12209 12210 12211 12212 12213 12214 12215 12216 12217 12218 12219 12220 12221 12222 12223 12224 12225 12226 12227 12228 12229 12230 12231 12232 12233 12234 12235 12236 12237 12238 12239 12240 12241 12242 12243 12244 12245 12246 12247 12248 12249 12250 12251 12252 12253 12254 12255 12256 12257 12258 12259 12260 12261 12262 12263 12264 12265 12266 12267 12268 12269 12270 12271 12272 12273 12274 12275 12276 12277 12278 12279 12280 12281 12282 12283 12284 12285 12286 12287 12288 12289 12290 12291 12292 12293 12294 12295 12296 12297 12298 12299 12300 12301 12302 12303 12304 12305 12306 12307 12308 12309 12310 12311 12312 12313 12314 12315 12316 12317 12318 12319 12320 12321 12322 12323 12324 12325 12326 12327 12328 12329 12330 12331 12332 12333 12334 12335 12336 12337 12338 12339 12340 12341 12342 12343 12344 12345 12346 12347 12348 12349 12350 12351 12352 12353 12354 12355 12356 12357 12358 12359 12360 12361 12362 12363 12364 12365 12366 12367 12368 12369 12370 12371 12372 12373 12374 12375 12376 12377 12378 12379 12380 12381 12382 12383 12384 12385 12386 12387 12388 12389 12390 12391 12392 12393 12394 12395 12396 12397 12398 12399 12400 12401 12402 12403 12404 12405 12406 12407 12408 12409 12410 12411 12412 12413 12414 12415 12416 12417 12418 12419 12420 12421 12422 12423 12424 12425 12426 12427 12428 12429 12430 12431 12432 12433 12434 12435 12436 12437 12438 12439 12440 12441 12442 12443 12444 12445 12446 12447 12448 12449 12450 12451 12452 12453 12454 12455 12456 12457 12458 12459 12460 12461 12462 12463 12464 12465 12466 12467 12468 12469 12470 12471 12472 12473 12474 12475 12476 12477 12478 12479 12480 12481 12482 12483 12484 12485 12486 12487 12488 12489 12490 12491 12492 12493 12494 12495 12496 12497 12498 12499 12500 12501 12502 12503 12504 12505 12506 12507 12508 12509 12510 12511 12512 12513 12514 12515 12516 12517 12518 12519 12520 12521 12522 12523 12524 12525 12526 12527 12528 12529 12530 12531 12532 12533 12534 12535 12536 12537 12538 12539 12540 12541 12542 12543 12544 12545 12546 12547 12548 12549 12550 12551 12552 12553 12554 12555 12556 12557 12558 12559 12560 12561 12562 12563 12564 12565 12566 12567 12568 12569 12570 12571 12572 12573 12574 12575 12576 12577 12578 12579 12580 12581 12582 12583 12584 12585 12586 12587 12588 12589 12590 12591 12592 12593 12594 12595 12596 12597 12598 12599 12600 12601 12602 12603 12604 12605 12606 12607 12608 12609 12610 12611 12612 12613 12614 12615 12616 12617 12618 12619 12620 12621 12622 12623 12624 12625 12626 12627 12628 12629 12630 12631 12632 12633 12634 12635 12636 12637 12638 12639 12640 12641 12642 12643 12644 12645 12646 12647 12648 12649 12650 12651 12652 12653 12654 12655 12656 12657 12658 12659 12660 12661 12662 12663 12664 12665 12666 12667 12668 12669 12670 12671 12672 12673 12674 12675 12676 12677 12678 12679 12680 12681 12682 12683 12684 12685 12686 12687 12688 12689 12690 12691 12692 12693 12694 12695 12696 12697 12698 12699 12700 12701 12702 12703 12704 12705 12706 12707 12708 12709 12710 12711 12712 12713 12714 12715 12716 12717 12718 12719 12720 12721 12722 12723 12724 12725 12726 12727 12728 12729 12730 12731 12732 12733 12734 12735 12736 12737 12738 12739 12740 12741 12742 12743 12744 12745 12746 12747 12748 12749 12750 12751 12752 12753 12754 12755 12756 12757 12758 12759 12760 12761 12762 12763 12764 12765 12766 12767 12768 12769 12770 12771 12772 12773 12774 12775 12776 12777 12778 12779 12780 12781 12782 12783 12784 12785 12786 12787 12788 12789 12790 12791 12792 12793 12794 12795 12796 12797 12798 12799 12800 12801 12802 12803 12804 12805 12806 12807 12808 12809 12810 12811 12812 12813 12814 12815 12816 12817 12818 12819 12820 12821 12822 12823 12824 12825 12826 12827 12828 12829 12830 12831 12832 12833 12834 12835 12836 12837 12838 12839 12840 12841 12842 12843 12844 12845 12846 12847 12848 12849 12850 12851 12852 12853 12854 12855 12856 12857 12858 12859 12860 12861 12862 12863 12864 12865 12866 12867 12868 12869 12870 12871 12872 12873 12874 12875 12876 12877 12878 12879 12880 12881 12882 12883 12884 12885 12886 12887 12888 12889 12890 12891 12892 12893 12894 12895 12896 12897 12898 12899 12900 12901 12902 12903 12904 12905 12906 12907 12908 12909 12910 12911 12912 12913 12914 12915 12916 12917 12918 12919 12920 12921 12922 12923 12924 12925 12926 12927 12928 12929 12930 12931 12932 12933 12934 12935 12936 12937 12938 12939 12940 12941 12942 12943 12944 12945 12946 12947 12948 12949 12950 12951 12952 12953 12954 12955 12956 12957 12958 12959 12960 12961 12962 12963 12964 12965 12966 12967 12968 12969 12970 12971 12972 12973 12974 12975 12976 12977 12978 12979 12980 12981 12982 12983 12984 12985 12986 12987 12988 12989 12990 12991 12992 12993 12994 12995 12996 12997 12998 12999 13000 13001 13002 13003 13004 13005 13006 13007 13008 13009 13010 13011 13012 13013 13014 13015 13016 13017 13018 13019 13020 13021 13022 13023 13024 13025 13026 13027 13028 13029 13030 13031 13032 13033 13034 13035 13036 13037 13038 13039 13040 13041 13042 13043 13044 13045 13046 13047 13048 13049 13050 13051 13052 13053 13054 13055 13056 13057 13058 13059 13060 13061 13062 13063 13064 13065 13066 13067 13068 13069 13070 13071 13072 13073 13074 13075 13076 13077 13078 13079 13080 13081 13082 13083 13084 13085 13086 13087 13088 13089 13090 13091 13092 13093 13094 13095 13096 13097 13098 13099 13100 13101 13102 13103 13104 13105 13106 13107 13108 13109 13110 13111 13112 13113 13114 13115 13116 13117 13118 13119 13120 13121 13122 13123 13124 13125 13126 13127 13128 13129 13130 13131 13132 13133 13134 13135 13136 13137 13138 13139 13140 13141 13142 13143 13144 13145 13146 13147 13148 13149 13150 13151 13152 13153 13154 13155 13156 13157 13158 13159 13160 13161 13162 13163 13164 13165 13166 13167 13168 13169 13170 13171 13172 13173 13174 13175 13176 13177 13178 13179 13180 13181 13182 13183 13184 13185 13186 13187 13188 13189 13190 13191 13192 13193 13194 13195 13196 13197 13198 13199 13200 13201 13202 13203 13204 13205 13206 13207 13208 13209 13210 13211 13212 13213 13214 13215 13216 13217 13218 13219 13220 13221 13222 13223 13224 13225 13226 13227 13228 13229 13230 13231 13232 13233 13234 13235 13236 13237 13238 13239 13240 13241 13242 13243 13244 13245 13246 13247 13248 13249 13250 13251 13252 13253 13254 13255 13256 13257 13258 13259 13260 13261 13262 13263 13264 13265 13266 13267 13268 13269 13270 13271 13272 13273 13274 13275 13276 13277 13278 13279 13280 13281 13282 13283 13284 13285 13286 13287 13288 13289 13290 13291 13292 13293 13294 13295 13296 13297 13298 13299 13300 13301 13302 13303 13304 13305 13306 13307 13308 13309 13310 13311 13312 13313 13314 13315 13316 13317 13318 13319 13320 13321 13322 13323 13324 13325 13326 13327 13328 13329 13330 13331 13332 13333 13334 13335 13336 13337 13338 13339 13340 13341 13342 13343 13344 13345 13346 13347 13348 13349 13350 13351 13352 13353 13354 13355 13356 13357 13358 13359 13360 13361 13362 13363 13364 13365 13366 13367 13368 13369 13370 13371 13372 13373 13374 13375 13376 13377 13378 13379 13380 13381 13382 13383 13384 13385 13386 13387 13388 13389 13390 13391 13392 13393 13394 13395 13396 13397 13398 13399 13400 13401 13402 13403 13404 13405 13406 13407 13408 13409 13410 13411 13412 13413 13414 13415 13416 13417 13418 13419 13420 13421 13422 13423 13424 13425 13426 13427 13428 13429 13430 13431 13432 13433 13434 13435 13436 13437 13438 13439 13440 13441 13442 13443 13444 13445 13446 13447 13448 13449 13450 13451 13452 13453 13454 13455 13456 13457 13458 13459 13460 13461 13462 13463 13464 13465 13466 13467 13468 13469 13470 13471 13472 13473 13474 13475 13476 13477 13478 13479 13480 13481 13482 13483 13484 13485 13486 13487 13488 13489 13490 13491 13492 13493 13494 13495 13496 13497 13498 13499 13500 13501 13502 13503 13504 13505 13506 13507 13508 13509 13510 13511 13512 13513 13514 13515 13516 13517 13518 13519 13520 13521 13522 13523 13524 13525 13526 13527 13528 13529 13530 13531 13532 13533 13534 13535 13536 13537 13538 13539 13540 13541 13542 13543 13544 13545 13546 13547 13548 13549 13550 13551 13552 13553 13554 13555 13556 13557 13558 13559 13560 13561 13562 13563 13564 13565 13566 13567 13568 13569 13570 13571 13572 13573 13574 13575 13576 13577 13578 13579 13580 13581 13582 13583 13584 13585 13586 13587 13588 13589 13590 13591 13592 13593 13594 13595 13596 13597 13598 13599 13600 13601 13602 13603 13604 13605 13606 13607 13608 13609 13610 13611 13612 13613 13614 13615 13616 13617 13618 13619 13620 13621 13622 13623 13624 13625 13626 13627 13628 13629 13630 13631 13632 13633 13634 13635 13636 13637 13638 13639 13640 13641 13642 13643 13644 13645 13646 13647 13648 13649 13650 13651 13652 13653 13654 13655 13656 13657 13658 13659 13660 13661 13662 13663 13664 13665 13666 13667 13668 13669 13670 13671 13672 13673 13674 13675 13676 13677 13678 13679 13680 13681 13682 13683 13684 13685 13686 13687 13688 13689 13690 13691 13692 13693 13694 13695 13696 13697 13698 13699 13700 13701 13702 13703 13704 13705 13706 13707 13708 13709 13710 13711 13712 13713 13714 13715 13716 13717 13718 13719 13720 13721 13722 13723 13724 13725 13726 13727 13728 13729 13730 13731 13732 13733 13734 13735 13736 13737 13738 13739 13740 13741 13742 13743 13744 13745 13746 13747 13748 13749 13750 13751 13752 13753 13754 13755 13756 13757 13758 13759 13760 13761 13762 13763 13764 13765 13766 13767 13768 13769 13770 13771 13772 13773 13774 13775 13776 13777 13778 13779 13780 13781 13782 13783 13784 13785 13786 13787 13788 13789 13790 13791 13792 13793 13794 13795 13796 13797 13798 13799 13800 13801 13802 13803 13804 13805 13806 13807 13808 13809 13810 13811 13812 13813 13814 13815 13816 13817 13818 13819 13820 13821 13822 13823 13824 13825 13826 13827 13828 13829 13830 13831 13832 13833 13834 13835 13836 13837 13838 13839 13840 13841 13842 13843 13844 13845 13846 13847 13848 13849 13850 13851 13852 13853 13854 13855 13856 13857 13858 13859 13860 13861 13862 13863 13864 13865 13866 13867 13868 13869 13870 13871 13872 13873 13874 13875 13876 13877 13878 13879 13880 13881 13882 13883 13884 13885 13886 13887 13888 13889 13890 13891 13892 13893 13894 13895 13896 13897 13898 13899 13900 13901 13902 13903 13904 13905 13906 13907 13908 13909 13910 13911 13912 13913 13914 13915 13916 13917 13918 13919 13920 13921 13922 13923 13924 13925 13926 13927 13928 13929 13930 13931 13932 13933 13934 13935 13936 13937 13938 13939 13940 13941 13942 13943 13944 13945 13946 13947 13948 13949 13950 13951 13952 13953 13954 13955 13956 13957 13958 13959 13960 13961 13962 13963 13964 13965 13966 13967 13968 13969 13970 13971 13972 13973 13974 13975 13976 13977 13978 13979 13980 13981 13982 13983 13984 13985 13986 13987 13988 13989 13990 13991 13992 13993 13994 13995 13996 13997 13998 13999 14000 14001 14002 14003 14004 14005 14006 14007 14008 14009 14010 14011 14012 14013 14014 14015 14016 14017 14018 14019 14020 14021 14022 14023 14024 14025 14026 14027 14028 14029 14030 14031 14032 14033 14034 14035 14036 14037 14038 14039 14040 14041 14042 14043 14044 14045 14046 14047 14048 14049 14050 14051 14052 14053 14054 14055 14056 14057 14058 14059 14060 14061 14062 14063 14064 14065 14066 14067 14068 14069 14070 14071 14072 14073 14074 14075 14076 14077 14078 14079 14080 14081 14082 14083 14084 14085 14086 14087 14088 14089 14090 14091 14092 14093 14094 14095 14096 14097 14098 14099 14100 14101 14102 14103 14104 14105 14106 14107 14108 14109 14110 14111 14112 14113 14114 14115 14116 14117 14118 14119 14120 14121 14122 14123 14124 14125 14126 14127 14128 14129 14130 14131 14132 14133 14134 14135 14136 14137 14138 14139 14140 14141 14142 14143 14144 14145 14146 14147 14148 14149 14150 14151 14152 14153 14154 14155 14156 14157 14158 14159 14160 14161 14162 14163 14164 14165 14166 14167 14168 14169 14170 14171 14172 14173 14174 14175 14176 14177 14178 14179 14180 14181 14182 14183 14184 14185 14186 14187 14188 14189 14190 14191 14192 14193 14194 14195 14196 14197 14198 14199 14200 14201 14202 14203 14204 14205 14206 14207 14208 14209 14210 14211 14212 14213 14214 14215 14216 14217 14218 14219 14220 14221 14222 14223 14224 14225 14226 14227 14228 14229 14230 14231 14232 14233 14234 14235 14236 14237 14238 14239 14240 14241 14242 14243 14244 14245 14246 14247 14248 14249 14250 14251 14252 14253 14254 14255 14256 14257 14258 14259 14260 14261 14262 14263 14264 14265 14266 14267 14268 14269 14270 14271 14272 14273 14274 14275 14276 14277 14278 14279 14280 14281 14282 14283 14284 14285 14286 14287 14288 14289 14290 14291 14292 14293 14294 14295 14296 14297 14298 14299 14300 14301 14302 14303 14304 14305 14306 14307 14308 14309 14310 14311 14312 14313 14314 14315 14316 14317 14318 14319 14320 14321 14322 14323 14324 14325 14326 14327 14328 14329 14330 14331 14332 14333 14334 14335 14336 14337 14338 14339 14340 14341 14342 14343 14344 14345 14346 14347 14348 14349 14350 14351 14352 14353 14354 14355 14356 14357 14358 14359 14360 14361 14362 14363 14364 14365 14366 14367 14368 14369 14370 14371 14372 14373 14374 14375 14376 14377 14378 14379 14380 14381 14382 14383 14384 14385 14386 14387 14388 14389 14390 14391 14392 14393 14394 14395 14396 14397 14398 14399 14400 14401 14402 14403 14404 14405 14406 14407 14408 14409 14410 14411 14412 14413 14414 14415 14416 14417 14418 14419 14420 14421 14422 14423 14424 14425 14426 14427 14428 14429 14430 14431 14432 14433 14434 14435 14436 14437 14438 14439 14440 14441 14442 14443 14444 14445 14446 14447 14448 14449 14450 14451 14452 14453 14454 14455 14456 14457 14458 14459 14460 14461 14462 14463 14464 14465 14466 14467 14468 14469 14470 14471 14472 14473 14474 14475 14476 14477 14478 14479 14480 14481 14482 14483 14484 14485 14486 14487 14488 14489 14490 14491 14492 14493 14494 14495 14496 14497 14498 14499 14500 14501 14502 14503 14504 14505 14506 14507 14508 14509 14510 14511 14512 14513 14514 14515 14516 14517 14518 14519 14520 14521 14522 14523 14524 14525 14526 14527 14528 14529 14530 14531 14532 14533 14534 14535 14536 14537 14538 14539 14540 14541 14542 14543 14544 14545 14546 14547 14548 14549 14550 14551 14552 14553 14554 14555 14556 14557 14558 14559 14560 14561 14562 14563 14564 14565 14566 14567 14568 14569 14570 14571 14572 14573 14574 14575 14576 14577 14578 14579 14580 14581 14582 14583 14584 14585 14586 14587 14588 14589 14590 14591 14592 14593 14594 14595 14596 14597 14598 14599 14600 14601 14602 14603 14604 14605 14606 14607 14608 14609 14610 14611 14612 14613 14614 14615 14616 14617 14618 14619 14620 14621 14622 14623 14624 14625 14626 14627 14628 14629 14630 14631 14632 14633 14634 14635 14636 14637 14638 14639 14640 14641 14642 14643 14644 14645 14646 14647 14648 14649 14650 14651 14652 14653 14654 14655 14656 14657 14658 14659 14660 14661 14662 14663 14664 14665 14666 14667 14668 14669 14670 14671 14672 14673 14674 14675 14676 14677 14678 14679 14680 14681 14682 14683 14684 14685 14686 14687 14688 14689 14690 14691 14692 14693 14694 14695 14696 14697 14698 14699 14700 14701 14702 14703 14704 14705 14706 14707 14708 14709 14710 14711 14712 14713 14714 14715 14716 14717 14718 14719 14720 14721 14722 14723 14724 14725 14726 14727 14728 14729 14730 14731 14732 14733 14734 14735 14736 14737 14738 14739 14740 14741 14742 14743 14744 14745 14746 14747 14748 14749 14750 14751 14752 14753 14754 14755 14756 14757 14758 14759 14760 14761 14762 14763 14764 14765 14766 14767 14768 14769 14770 14771 14772 14773 14774 14775 14776 14777 14778 14779 14780 14781 14782 14783 14784 14785 14786 14787 14788 14789 14790 14791 14792 14793 14794 14795 14796 14797 14798 14799 14800 14801 14802 14803 14804 14805 14806 14807 14808 14809 14810 14811 14812 14813 14814 14815 14816 14817 14818 14819 14820 14821 14822 14823 14824 14825 14826 14827 14828 14829 14830 14831 14832 14833 14834 14835 14836 14837 14838 14839 14840 14841 14842 14843 14844 14845 14846 14847 14848 14849 14850 14851 14852 14853 14854 14855 14856 14857 14858 14859 14860 14861 14862 14863 14864 14865 14866 14867 14868 14869 14870 14871 14872 14873 14874 14875 14876 14877 14878 14879 14880 14881 14882 14883 14884 14885 14886 14887 14888 14889 14890 14891 14892 14893 14894 14895 14896 14897 14898 14899 14900 14901 14902 14903 14904 14905 14906 14907 14908 14909 14910 14911 14912 14913 14914 14915 14916 14917 14918 14919 14920 14921 14922 14923 14924 14925 14926 14927 14928 14929 14930 14931 14932 14933 14934 14935 14936 14937 14938 14939 14940 14941 14942 14943 14944 14945 14946 14947 14948 14949 14950 14951 14952 14953 14954 14955 14956 14957 14958 14959 14960 14961 14962 14963 14964 14965 14966 14967 14968 14969 14970 14971 14972 14973 14974 14975 14976 14977 14978 14979 14980 14981 14982 14983 14984 14985 14986 14987 14988 14989 14990 14991 14992 14993 14994 14995 14996 14997 14998 14999 15000 15001 15002 15003 15004 15005 15006 15007 15008 15009 15010 15011 15012 15013 15014 15015 15016 15017 15018 15019 15020 15021 15022 15023 15024 15025 15026 15027 15028 15029 15030 15031 15032 15033 15034 15035 15036 15037 15038 15039 15040 15041 15042 15043 15044 15045 15046 15047 15048 15049 15050 15051 15052 15053 15054 15055 15056 15057 15058 15059 15060 15061 15062 15063 15064 15065 15066 15067 15068 15069 15070 15071 15072 15073 15074 15075 15076 15077 15078 15079 15080 15081 15082 15083 15084 15085 15086 15087 15088 15089 15090 15091 15092 15093 15094 15095 15096 15097 15098 15099 15100 15101 15102 15103 15104 15105 15106 15107 15108 15109 15110 15111 15112 15113 15114 15115 15116 15117 15118 15119 15120 15121 15122 15123 15124 15125 15126 15127 15128 15129 15130 15131 15132 15133 15134 15135 15136 15137 15138 15139 15140 15141 15142 15143 15144 15145 15146 15147 15148 15149 15150 15151 15152 15153 15154 15155 15156 15157 15158 15159 15160 15161 15162 15163 15164 15165 15166 15167 15168 15169 15170 15171 15172 15173 15174 15175 15176 15177 15178 15179 15180 15181 15182 15183 15184 15185 15186 15187 15188 15189 15190 15191 15192 15193 15194 15195 15196 15197 15198 15199 15200 15201 15202 15203 15204 15205 15206 15207 15208 15209 15210 15211 15212 15213 15214 15215 15216 15217 15218 15219 15220 15221 15222 15223 15224 15225 15226 15227 15228 15229 15230 15231 15232 15233 15234 15235 15236 15237 15238 15239 15240 15241 15242 15243 15244 15245 15246 15247 15248 15249 15250 15251 15252 15253 15254 15255 15256 15257 15258 15259 15260 15261 15262 15263 15264 15265 15266 15267 15268 15269 15270 15271 15272 15273 15274 15275 15276 15277 15278 15279 15280 15281 15282 15283 15284 15285 15286 15287 15288 15289 15290 15291 15292 15293 15294 15295 15296 15297 15298 15299 15300 15301 15302 15303 15304 15305 15306 15307 15308 15309 15310 15311 15312 15313 15314 15315 15316 15317 15318 15319 15320 15321 15322 15323 15324 15325 15326 15327 15328 15329 15330 15331 15332 15333 15334 15335 15336 15337 15338 15339 15340 15341 15342 15343 15344 15345 15346 15347 15348 15349 15350 15351 15352 15353 15354 15355 15356 15357 15358 15359 15360 15361 15362 15363 15364 15365 15366 15367 15368 15369 15370 15371 15372 15373 15374 15375 15376 15377 15378 15379 15380 15381 15382 15383 15384 15385 15386 15387 15388 15389 15390 15391 15392 15393 15394 15395 15396 15397 15398 15399 15400 15401 15402 15403 15404 15405 15406 15407 15408 15409 15410 15411 15412 15413 15414 15415 15416 15417 15418 15419 15420 15421 15422 15423 15424 15425 15426 15427 15428 15429 15430 15431 15432 15433 15434 15435 15436 15437 15438 15439 15440 15441 15442 15443 15444 15445 15446 15447 15448 15449 15450 15451 15452 15453 15454 15455 15456 15457 15458 15459 15460 15461 15462 15463 15464 15465 15466 15467 15468 15469 15470 15471 15472 15473 15474 15475 15476 15477 15478 15479 15480 15481 15482 15483 15484 15485 15486 15487 15488 15489 15490 15491 15492 15493 15494 15495 15496 15497 15498 15499 15500 15501 15502 15503 15504 15505 15506 15507 15508 15509 15510 15511 15512 15513 15514 15515 15516 15517 15518 15519 15520 15521 15522 15523 15524 15525 15526 15527 15528 15529 15530 15531 15532 15533 15534 15535 15536 15537 15538 15539 15540 15541 15542 15543 15544 15545 15546 15547 15548 15549 15550 15551 15552 15553 15554 15555 15556 15557 15558 15559 15560 15561 15562 15563 15564 15565 15566 15567 15568 15569 15570 15571 15572 15573 15574 15575 15576 15577 15578 15579 15580 15581 15582 15583 15584 15585 15586 15587 15588 15589 15590 15591 15592 15593 15594 15595 15596 15597 15598 15599 15600 15601 15602 15603 15604 15605 15606 15607 15608 15609 15610 15611 15612 15613 15614 15615 15616 15617 15618 15619 15620 15621 15622 15623 15624 15625 15626 15627 15628 15629 15630 15631 15632 15633 15634 15635 15636 15637 15638 15639 15640 15641 15642 15643 15644 15645 15646 15647 15648 15649 15650 15651 15652 15653 15654 15655 15656 15657 15658 15659 15660 15661 15662 15663 15664 15665 15666 15667 15668 15669 15670 15671 15672 15673 15674 15675 15676 15677 15678 15679 15680 15681 15682 15683 15684 15685 15686 15687 15688 15689 15690 15691 15692 15693 15694 15695 15696 15697 15698 15699 15700 15701 15702 15703 15704 15705 15706 15707 15708 15709 15710 15711 15712 15713 15714 15715 15716 15717 15718 15719 15720 15721 15722 15723 15724 15725 15726 15727 15728 15729 15730 15731 15732 15733 15734 15735 15736 15737 15738 15739 15740 15741 15742 15743 15744 15745 15746 15747 15748 15749 15750 15751 15752 15753 15754 15755 15756 15757 15758 15759 15760 15761 15762 15763 15764 15765 15766 15767 15768 15769 15770 15771 15772 15773 15774 15775 15776 15777 15778 15779 15780 15781 15782 15783 15784 15785 15786 15787 15788 15789 15790 15791 15792 15793 15794 15795 15796 15797 15798 15799 15800 15801 15802 15803 15804 15805 15806 15807 15808 15809 15810 15811 15812 15813 15814 15815 15816 15817 15818 15819 15820 15821 15822 15823 15824 15825 15826 15827 15828 15829 15830 15831 15832 15833 15834 15835 15836 15837 15838 15839 15840 15841 15842 15843 15844 15845 15846 15847 15848 15849 15850 15851 15852 15853 15854 15855 15856 15857 15858 15859 15860 15861 15862 15863 15864 15865 15866 15867 15868 15869 15870 15871 15872 15873 15874 15875 15876 15877 15878 15879 15880 15881 15882 15883 15884 15885 15886 15887 15888 15889 15890 15891 15892 15893 15894 15895 15896 15897 15898 15899 15900 15901 15902 15903 15904 15905 15906 15907 15908 15909 15910 15911 15912 15913 15914 15915 15916 15917 15918 15919 15920 15921 15922 15923 15924 15925 15926 15927 15928 15929 15930 15931 15932 15933 15934 15935 15936 15937 15938 15939 15940 15941 15942 15943 15944 15945 15946 15947 15948 15949 15950 15951 15952 15953 15954 15955 15956 15957 15958 15959 15960 15961 15962 15963 15964 15965 15966 15967 15968 15969 15970 15971 15972 15973 15974 15975 15976 15977 15978 15979 15980 15981 15982 15983 15984 15985 15986 15987 15988 15989 15990 15991 15992 15993 15994 15995 15996 15997 15998 15999 16000 16001 16002 16003 16004 16005 16006 16007 16008 16009 16010 16011 16012 16013 16014 16015 16016 16017 16018 16019 16020 16021 16022 16023 16024 16025 16026 16027 16028 16029 16030 16031 16032 16033 16034 16035 16036 16037 16038 16039 16040 16041 16042 16043 16044 16045 16046 16047 16048 16049 16050 16051 16052 16053 16054 16055 16056 16057 16058 16059 16060 16061 16062 16063 16064 16065 16066 16067 16068 16069 16070 16071 16072 16073 16074 16075 16076 16077 16078 16079 16080 16081 16082 16083 16084 16085 16086 16087 16088 16089 16090 16091 16092 16093 16094 16095 16096 16097 16098 16099 16100 16101 16102 16103 16104 16105 16106 16107 16108 16109 16110 16111 16112 16113 16114 16115 16116 16117 16118 16119 16120 16121 16122 16123 16124 16125 16126 16127 16128 16129 16130 16131 16132 16133 16134 16135 16136 16137 16138 16139 16140 16141 16142 16143 16144 16145 16146 16147 16148 16149 16150 16151 16152 16153 16154 16155 16156 16157 16158 16159 16160 16161 16162 16163 16164 16165 16166 16167 16168 16169 16170 16171 16172 16173 16174 16175 16176 16177 16178 16179 16180 16181 16182 16183 16184 16185 16186 16187 16188 16189 16190 16191 16192 16193 16194 16195 16196 16197 16198 16199 16200 16201 16202 16203 16204 16205 16206 16207 16208 16209 16210 16211 16212 16213 16214 16215 16216 16217 16218 16219 16220 16221 16222 16223 16224 16225 16226 16227 16228 16229 16230 16231 16232 16233 16234 16235 16236 16237 16238 16239 16240 16241 16242 16243 16244 16245 16246 16247 16248 16249 16250 16251 16252 16253 16254 16255 16256 16257 16258 16259 16260 16261 16262 16263 16264 16265 16266 16267 16268 16269 16270 16271 16272 16273 16274 16275 16276 16277 16278 16279 16280 16281 16282 16283 16284 16285 16286 16287 16288 16289 16290 16291 16292 16293 16294 16295 16296 16297 16298 16299 16300 16301 16302 16303 16304 16305 16306 16307 16308 16309 16310 16311 16312 16313 16314 16315 16316 16317 16318 16319 16320 16321 16322 16323 16324 16325 16326 16327 16328 16329 16330 16331 16332 16333 16334 16335 16336 16337 16338 16339 16340 16341 16342 16343 16344 16345 16346 16347 16348 16349 16350 16351 16352 16353 16354 16355 16356 16357 16358 16359 16360 16361 16362 16363 16364 16365 16366 16367 16368 16369 16370 16371 16372 16373 16374 16375 16376 16377 16378 16379 16380 16381 16382 16383 16384 16385 16386 16387 16388 16389 16390 16391 16392 16393 16394 16395 16396 16397 16398 16399 16400 16401 16402 16403 16404 16405 16406 16407 16408 16409 16410 16411 16412 16413 16414 16415 16416 16417 16418 16419 16420 16421 16422 16423 16424 16425 16426 16427 16428 16429 16430 16431 16432 16433 16434 16435 16436 16437 16438 16439 16440 16441 16442 16443 16444 16445 16446 16447 16448 16449 16450 16451 16452 16453 16454 16455 16456 16457 16458 16459 16460 16461 16462 16463 16464 16465 16466 16467 16468 16469 16470 16471 16472 16473 16474 16475 16476 16477 16478 16479 16480 16481 16482 16483 16484 16485 16486 16487 16488 16489 16490 16491 16492 16493 16494 16495 16496 16497 16498 16499 16500 16501 16502 16503 16504 16505 16506 16507 16508 16509 16510 16511 16512 16513 16514 16515 16516 16517 16518 16519 16520 16521 16522 16523 16524 16525 16526 16527 16528 16529 16530 16531 16532 16533 16534 16535 16536 16537 16538 16539 16540 16541 16542 16543 16544 16545 16546 16547 16548 16549 16550 16551 16552 16553 16554 16555 16556 16557 16558 16559 16560 16561 16562 16563 16564 16565 16566 16567 16568 16569 16570 16571 16572 16573 16574 16575 16576 16577 16578 16579 16580 16581 16582 16583 16584 16585 16586 16587 16588 16589 16590 16591 16592 16593 16594 16595 16596 16597 16598 16599 16600 16601 16602 16603 16604 16605 16606 16607 16608 16609 16610 16611 16612 16613 16614 16615 16616 16617 16618 16619 16620 16621 16622 16623 16624 16625 16626 16627 16628 16629 16630 16631 16632 16633 16634 16635 16636 16637 16638 16639 16640 16641 16642 16643 16644 16645 16646 16647 16648 16649 16650 16651 16652 16653 16654 16655 16656 16657 16658 16659 16660 16661 16662 16663 16664 16665 16666 16667 16668 16669 16670 16671 16672 16673 16674 16675 16676 16677 16678 16679 16680 16681 16682 16683 16684 16685 16686 16687 16688 16689 16690 16691 16692 16693 16694 16695 16696 16697 16698 16699 16700 16701 16702 16703 16704 16705 16706 16707 16708 16709 16710 16711 16712 16713 16714 16715 16716 16717 16718 16719 16720 16721 16722 16723 16724 16725 16726 16727 16728 16729 16730 16731 16732 16733 16734 16735 16736 16737 16738 16739 16740 16741 16742 16743 16744 16745 16746 16747 16748 16749 16750 16751 16752 16753 16754 16755 16756 16757 16758 16759 16760 16761 16762 16763 16764 16765 16766 16767 16768 16769 16770 16771 16772 16773 16774 16775 16776 16777 16778 16779 16780 16781 16782 16783 16784 16785 16786 16787 16788 16789 16790 16791 16792 16793 16794 16795 16796 16797 16798 16799 16800 16801 16802 16803 16804 16805 16806 16807 16808 16809 16810 16811 16812 16813 16814 16815 16816 16817 16818 16819 16820 16821 16822 16823 16824 16825 16826 16827 16828 16829 16830 16831 16832 16833 16834 16835 16836 16837 16838 16839 16840 16841 16842 16843 16844 16845 16846 16847 16848 16849 16850 16851 16852 16853 16854 16855 16856 16857 16858 16859 16860 16861 16862 16863 16864 16865 16866 16867 16868 16869 16870 16871 16872 16873 16874 16875 16876 16877 16878 16879 16880 16881 16882 16883 16884 16885 16886 16887 16888 16889 16890 16891 16892 16893 16894 16895 16896 16897 16898 16899 16900 16901 16902 16903 16904 16905 16906 16907 16908 16909 16910 16911 16912 16913 16914 16915 16916 16917 16918 16919 16920 16921 16922 16923 16924 16925 16926 16927 16928 16929 16930 16931 16932 16933 16934 16935 16936 16937 16938 16939 16940 16941 16942 16943 16944 16945 16946 16947 16948 16949 16950 16951 16952 16953 16954 16955 16956 16957 16958 16959 16960 16961 16962 16963 16964 16965 16966 16967 16968 16969 16970 16971 16972 16973 16974 16975 16976 16977 16978 16979 16980 16981 16982 16983 16984 16985 16986 16987 16988 16989 16990 16991 16992 16993 16994 16995 16996 16997 16998 16999 17000 17001 17002 17003 17004 17005 17006 17007 17008 17009 17010 17011 17012 17013 17014 17015 17016 17017 17018 17019 17020 17021 17022 17023 17024 17025 17026 17027 17028 17029 17030 17031 17032 17033 17034 17035 17036 17037 17038 17039 17040 17041 17042 17043 17044 17045 17046 17047 17048 17049 17050 17051 17052 17053 17054 17055 17056 17057 17058 17059 17060 17061 17062 17063 17064 17065 17066 17067 17068 17069 17070 17071 17072 17073 17074 17075 17076 17077 17078 17079 17080 17081 17082 17083 17084 17085 17086 17087 17088 17089 17090 17091 17092 17093 17094 17095 17096 17097 17098 17099 17100 17101 17102 17103 17104 17105 17106 17107 17108 17109 17110 17111 17112 17113 17114 17115 17116 17117 17118 17119 17120 17121 17122 17123 17124 17125 17126 17127 17128 17129 17130 17131 17132 17133 17134 17135 17136 17137 17138 17139 17140 17141 17142 17143 17144 17145 17146 17147 17148 17149 17150 17151 17152 17153 17154 17155 17156 17157 17158 17159 17160 17161 17162 17163 17164 17165 17166 17167 17168 17169 17170 17171 17172 17173 17174 17175 17176 17177 17178 17179 17180 17181 17182 17183 17184 17185 17186 17187 17188 17189 17190 17191 17192 17193 17194 17195 17196 17197 17198 17199 17200 17201 17202 17203 17204 17205 17206 17207 17208 17209 17210 17211 17212 17213 17214 17215 17216 17217 17218 17219 17220 17221 17222 17223 17224 17225 17226 17227 17228 17229 17230 17231 17232 17233 17234 17235 17236 17237 17238 17239 17240 17241 17242 17243 17244 17245 17246 17247 17248 17249 17250 17251 17252 17253 17254 17255 17256 17257 17258 17259 17260 17261 17262 17263 17264 17265 17266 17267 17268 17269 17270 17271 17272 17273 17274 17275 17276 17277 17278 17279 17280 17281 17282 17283 17284 17285 17286 17287 17288 17289 17290 17291 17292 17293 17294 17295 17296 17297 17298 17299 17300 17301 17302 17303 17304 17305 17306 17307 17308 17309 17310 17311 17312 17313 17314 17315 17316 17317 17318 17319 17320 17321 17322 17323 17324 17325 17326 17327 17328 17329 17330 17331 17332 17333 17334 17335 17336 17337 17338 17339 17340 17341 17342 17343 17344 17345 17346 17347 17348 17349 17350 17351 17352 17353 17354 17355 17356 17357 17358 17359 17360 17361 17362 17363 17364 17365 17366 17367 17368 17369 17370 17371 17372 17373 17374 17375 17376 17377 17378 17379 17380 17381 17382 17383 17384 17385 17386 17387 17388 17389 17390 17391 17392 17393 17394 17395 17396 17397 17398 17399 17400 17401 17402 17403 17404 17405 17406 17407 17408 17409 17410 17411 17412 17413 17414 17415 17416 17417 17418 17419 17420 17421 17422 17423 17424 17425 17426 17427 17428 17429 17430 17431 17432 17433 17434 17435 17436 17437 17438 17439 17440 17441 17442 17443 17444 17445 17446 17447 17448 17449 17450 17451 17452 17453 17454 17455 17456 17457 17458 17459 17460 17461 17462 17463 17464 17465 17466 17467 17468 17469 17470 17471 17472 17473 17474 17475 17476 17477 17478 17479 17480 17481 17482 17483 17484 17485 17486 17487 17488 17489 17490 17491 17492 17493 17494 17495 17496 17497 17498 17499 17500 17501 17502 17503 17504 17505 17506 17507 17508 17509 17510 17511 17512 17513 17514 17515 17516 17517 17518 17519 17520 17521 17522 17523 17524 17525 17526 17527 17528 17529 17530 17531 17532 17533 17534 17535 17536 17537 17538 17539 17540 17541 17542 17543 17544 17545 17546 17547 17548 17549 17550 17551 17552 17553 17554 17555 17556 17557 17558 17559 17560 17561 17562 17563 17564 17565 17566 17567 17568 17569 17570 17571 17572 17573 17574 17575 17576 17577 17578 17579 17580 17581 17582 17583 17584 17585 17586 17587 17588 17589 17590 17591 17592 17593 17594 17595 17596 17597 17598 17599 17600 17601 17602 17603 17604 17605 17606 17607 17608 17609 17610 17611 17612 17613 17614 17615 17616 17617 17618 17619 17620 17621 17622 17623 17624 17625 17626 17627 17628 17629 17630 17631 17632 17633 17634 17635 17636 17637 17638 17639 17640 17641 17642 17643 17644 17645 17646 17647 17648 17649 17650 17651 17652 17653 17654 17655 17656 17657 17658 17659 17660 17661 17662 17663 17664 17665 17666 17667 17668 17669 17670 17671 17672 17673 17674 17675 17676 17677 17678 17679 17680 17681 17682 17683 17684 17685 17686 17687 17688 17689 17690 17691 17692 17693 17694 17695 17696 17697 17698 17699 17700 17701 17702 17703 17704 17705 17706 17707 17708 17709 17710 17711 17712 17713 17714 17715 17716 17717 17718 17719 17720 17721 17722 17723 17724 17725 17726 17727 17728 17729 17730 17731 17732 17733 17734 17735 17736 17737 17738 17739 17740 17741 17742 17743 17744 17745 17746 17747 17748 17749 17750 17751 17752 17753 17754 17755 17756 17757 17758 17759 17760 17761 17762 17763 17764 17765 17766 17767 17768 17769 17770 17771 17772 17773 17774 17775 17776 17777 17778 17779 17780 17781 17782 17783 17784 17785 17786 17787 17788 17789 17790 17791 17792 17793 17794 17795 17796 17797 17798 17799 17800 17801 17802 17803 17804 17805 17806 17807 17808 17809 17810 17811 17812 17813 17814 17815 17816 17817 17818 17819 17820 17821 17822 17823 17824 17825 17826 17827 17828 17829 17830 17831 17832 17833 17834 17835 17836 17837 17838 17839 17840 17841 17842 17843 17844 17845 17846 17847 17848 17849 17850 17851 17852 17853 17854 17855 17856 17857 17858 17859 17860 17861 17862 17863 17864 17865 17866 17867 17868 17869 17870 17871 17872 17873 17874 17875 17876 17877 17878 17879 17880 17881 17882 17883 17884 17885 17886 17887 17888 17889 17890 17891 17892 17893 17894 17895 17896 17897 17898 17899 17900 17901 17902 17903 17904 17905 17906 17907 17908 17909 17910 17911 17912 17913 17914 17915 17916 17917 17918 17919 17920 17921 17922 17923 17924 17925 17926 17927 17928 17929 17930 17931 17932 17933 17934 17935 17936 17937 17938 17939 17940 17941 17942 17943 17944 17945 17946 17947 17948 17949 17950 17951 17952 17953 17954 17955 17956 17957 17958 17959 17960 17961 17962 17963 17964 17965 17966 17967 17968 17969 17970 17971 17972 17973 17974 17975 17976 17977 17978 17979 17980 17981 17982 17983 17984 17985 17986 17987 17988 17989 17990 17991 17992 17993 17994 17995 17996 17997 17998 17999 18000 18001 18002 18003 18004 18005 18006 18007 18008 18009 18010 18011 18012 18013 18014 18015 18016 18017 18018 18019 18020 18021 18022 18023 18024 18025 18026 18027 18028 18029 18030 18031 18032 18033 18034 18035 18036 18037 18038 18039 18040 18041 18042 18043 18044 18045 18046 18047 18048 18049 18050 18051 18052 18053 18054 18055 18056 18057 18058 18059 18060 18061 18062 18063 18064 18065 18066 18067 18068 18069 18070 18071 18072 18073 18074 18075 18076 18077 18078 18079 18080 18081 18082 18083 18084 18085 18086 18087 18088 18089 18090 18091 18092 18093 18094 18095 18096 18097 18098 18099 18100 18101 18102 18103 18104 18105 18106 18107 18108 18109 18110 18111 18112 18113 18114 18115 18116 18117 18118 18119 18120 18121 18122 18123 18124 18125 18126 18127 18128 18129 18130 18131 18132 18133 18134 18135 18136 18137 18138 18139 18140 18141 18142 18143 18144 18145 18146 18147 18148 18149 18150 18151 18152 18153 18154 18155 18156 18157 18158 18159 18160 18161 18162 18163 18164 18165 18166 18167 18168 18169 18170 18171 18172 18173 18174 18175 18176 18177 18178 18179 18180 18181 18182 18183 18184 18185 18186 18187 18188 18189 18190 18191 18192 18193 18194 18195 18196 18197 18198 18199 18200 18201 18202 18203 18204 18205 18206 18207 18208 18209 18210 18211 18212 18213 18214 18215 18216 18217 18218 18219 18220 18221 18222 18223 18224 18225 18226 18227 18228 18229 18230 18231 18232 18233 18234 18235 18236 18237 18238 18239 18240 18241 18242 18243 18244 18245 18246 18247 18248 18249 18250 18251 18252 18253 18254 18255 18256 18257 18258 18259 18260 18261 18262 18263 18264 18265 18266 18267 18268 18269 18270 18271 18272 18273 18274 18275 18276 18277 18278 18279 18280 18281 18282 18283 18284 18285 18286 18287 18288 18289 18290 18291 18292 18293 18294 18295 18296 18297 18298 18299 18300 18301 18302 18303 18304 18305 18306 18307 18308 18309 18310 18311 18312 18313 18314 18315 18316 18317 18318 18319 18320 18321 18322 18323 18324 18325 18326 18327 18328 18329 18330 18331 18332 18333 18334 18335 18336 18337 18338 18339 18340 18341 18342 18343 18344 18345 18346 18347 18348 18349 18350 18351 18352 18353 18354 18355 18356 18357 18358 18359 18360 18361 18362 18363 18364 18365 18366 18367 18368 18369 18370 18371 18372 18373 18374 18375 18376 18377 18378 18379 18380 18381 18382 18383 18384 18385 18386 18387 18388 18389 18390 18391 18392 18393 18394 18395 18396 18397 18398 18399 18400 18401 18402 18403 18404 18405 18406 18407 18408 18409 18410 18411 18412 18413 18414 18415 18416 18417 18418 18419 18420 18421 18422 18423 18424 18425 18426 18427 18428 18429 18430 18431 18432 18433 18434 18435 18436 18437 18438 18439 18440 18441 18442 18443 18444 18445 18446 18447 18448 18449 18450 18451 18452 18453 18454 18455 18456 18457 18458 18459 18460 18461 18462 18463 18464 18465 18466 18467 18468 18469 18470 18471 18472 18473 18474 18475 18476 18477 18478 18479 18480 18481 18482 18483 18484 18485 18486 18487 18488 18489 18490 18491 18492 18493 18494 18495 18496 18497 18498 18499 18500 18501 18502 18503 18504 18505 18506 18507 18508 18509 18510 18511 18512 18513 18514 18515 18516 18517 18518 18519 18520 18521 18522 18523 18524 18525 18526 18527 18528 18529 18530 18531 18532 18533 18534 18535 18536 18537 18538 18539 18540 18541 18542 18543 18544 18545 18546 18547 18548 18549 18550 18551 18552 18553 18554 18555 18556 18557 18558 18559 18560 18561 18562 18563 18564 18565 18566 18567 18568 18569 18570 18571 18572 18573 18574 18575 18576 18577 18578 18579 18580 18581 18582 18583 18584 18585 18586 18587 18588 18589 18590 18591 18592 18593 18594 18595 18596 18597 18598 18599 18600 18601 18602 18603 18604 18605 18606 18607 18608 18609 18610 18611 18612 18613 18614 18615 18616 18617 18618 18619 18620 18621 18622 18623 18624 18625 18626 18627 18628 18629 18630 18631 18632 18633 18634 18635 18636 18637 18638 18639 18640 18641 18642 18643 18644 18645 18646 18647 18648 18649 18650 18651 18652 18653 18654 18655 18656 18657 18658 18659 18660 18661 18662 18663 18664 18665 18666 18667 18668 18669 18670 18671 18672 18673 18674 18675 18676 18677 18678 18679 18680 18681 18682 18683 18684 18685 18686 18687 18688 18689 18690 18691 18692 18693 18694 18695 18696 18697 18698 18699 18700 18701 18702 18703 18704 18705 18706 18707 18708 18709 18710 18711 18712 18713 18714 18715 18716 18717 18718 18719 18720 18721 18722 18723 18724 18725 18726 18727 18728 18729 18730 18731 18732 18733 18734 18735 18736 18737 18738 18739 18740 18741 18742 18743 18744 18745 18746 18747 18748 18749 18750 18751 18752 18753 18754 18755 18756 18757 18758 18759 18760 18761 18762 18763 18764 18765 18766 18767 18768 18769 18770 18771 18772 18773 18774 18775 18776 18777 18778 18779 18780 18781 18782 18783 18784 18785 18786 18787 18788 18789 18790 18791 18792 18793 18794 18795 18796 18797 18798 18799 18800 18801 18802 18803 18804 18805 18806 18807 18808 18809 18810 18811 18812 18813 18814 18815 18816 18817 18818 18819 18820 18821 18822 18823 18824 18825 18826 18827 18828 18829 18830 18831 18832 18833 18834 18835 18836 18837 18838 18839 18840 18841 18842 18843 18844 18845 18846 18847 18848 18849 18850 18851 18852 18853 18854 18855 18856 18857 18858 18859 18860 18861 18862 18863 18864 18865 18866 18867 18868 18869 18870 18871 18872 18873 18874 18875 18876 18877 18878 18879 18880 18881 18882 18883 18884 18885 18886 18887 18888 18889 18890 18891 18892 18893 18894 18895 18896 18897 18898 18899 18900 18901 18902 18903 18904 18905 18906 18907 18908 18909 18910 18911 18912 18913 18914 18915 18916 18917 18918 18919 18920 18921 18922 18923 18924 18925 18926 18927 18928 18929 18930 18931 18932 18933 18934 18935 18936 18937 18938 18939 18940 18941 18942 18943 18944 18945 18946 18947 18948 18949 18950 18951 18952 18953 18954 18955 18956 18957 18958 18959 18960 18961 18962 18963 18964 18965 18966 18967 18968 18969 18970 18971 18972 18973 18974 18975 18976 18977 18978 18979 18980 18981 18982 18983 18984 18985 18986 18987 18988 18989 18990 18991 18992 18993 18994 18995 18996 18997 18998 18999 19000 19001 19002 19003 19004 19005 19006 19007 19008 19009 19010 19011 19012 19013 19014 19015 19016 19017 19018 19019 19020 19021 19022 19023 19024 19025 19026 19027 19028 19029 19030 19031 19032 19033 19034 19035 19036 19037 19038 19039 19040 19041 19042 19043 19044 19045 19046 19047 19048 19049 19050 19051 19052 19053 19054 19055 19056 19057 19058 19059 19060 19061 19062 19063 19064 19065 19066 19067 19068 19069 19070 19071 19072 19073 19074 19075 19076 19077 19078 19079 19080 19081 19082 19083 19084 19085 19086 19087 19088 19089 19090 19091 19092 19093 19094 19095 19096 19097 19098 19099 19100 19101 19102 19103 19104 19105 19106 19107 19108 19109 19110 19111 19112 19113 19114 19115 19116 19117 19118 19119 19120 19121 19122 19123 19124 19125 19126 19127 19128 19129 19130 19131 19132 19133 19134 19135 19136 19137 19138 19139 19140 19141 19142 19143 19144 19145 19146 19147 19148 19149 19150 19151 19152 19153 19154 19155 19156 19157 19158 19159 19160 19161 19162 19163 19164 19165 19166 19167 19168 19169 19170 19171 19172 19173 19174 19175 19176 19177 19178 19179 19180 19181 19182 19183 19184 19185 19186 19187 19188 19189 19190 19191 19192 19193 19194 19195 19196 19197 19198 19199 19200 19201 19202 19203 19204 19205 19206 19207 19208 19209 19210 19211 19212 19213 19214 19215 19216 19217 19218 19219 19220 19221 19222 19223 19224 19225 19226 19227 19228 19229 19230 19231 19232 19233 19234 19235 19236 19237 19238 19239 19240 19241 19242 19243 19244 19245 19246 19247 19248 19249 19250 19251 19252 19253 19254 19255 19256 19257 19258 19259 19260 19261 19262 19263 19264 19265 19266 19267 19268 19269 19270 19271 19272 19273 19274 19275 19276 19277 19278 19279 19280 19281 19282 19283 19284 19285 19286 19287 19288 19289 19290 19291 19292 19293 19294 19295 19296 19297 19298 19299 19300 19301 19302 19303 19304 19305 19306 19307 19308 19309 19310 19311 19312 19313 19314 19315 19316 19317 19318 19319 19320 19321 19322 19323 19324 19325 19326 19327 19328 19329 19330 19331 19332 19333 19334 19335 19336 19337 19338 19339 19340 19341 19342 19343 19344 19345 19346 19347 19348 19349 19350 19351 19352 19353 19354 19355 19356 19357 19358 19359 19360 19361 19362 19363 19364 19365 19366 19367 19368 19369 19370 19371 19372 19373 19374 19375 19376 19377 19378 19379 19380 19381 19382 19383 19384 19385 19386 19387 19388 19389 19390 19391 19392 19393 19394 19395 19396 19397 19398 19399 19400 19401 19402 19403 19404 19405 19406 19407 19408 19409 19410 19411 19412 19413 19414 19415 19416 19417 19418 19419 19420 19421 19422 19423 19424 19425 19426 19427 19428 19429 19430 19431 19432 19433 19434 19435 19436 19437 19438 19439 19440 19441 19442 19443 19444 19445 19446 19447 19448 19449 19450 19451 19452 19453 19454 19455 19456 19457 19458 19459 19460 19461 19462 19463 19464 19465 19466 19467 19468 19469 19470 19471 19472 19473 19474 19475 19476 19477 19478 19479 19480 19481 19482 19483 19484 19485 19486 19487 19488 19489 19490 19491 19492 19493 19494 19495 19496 19497 19498 19499 19500 19501 19502 19503 19504 19505 19506 19507 19508 19509 19510 19511 19512 19513 19514 19515 19516 19517 19518 19519 19520 19521 19522 19523 19524 19525 19526 19527 19528 19529 19530 19531 19532 19533 19534 19535 19536 19537 19538 19539 19540 19541 19542 19543 19544 19545 19546 19547 19548 19549 19550 19551 19552 19553 19554 19555 19556 19557 19558 19559 19560 19561 19562 19563 19564 19565 19566 19567 19568 19569 19570 19571 19572 19573 19574 19575 19576 19577 19578 19579 19580 19581 19582 19583 19584 19585 19586 19587 19588 19589 19590 19591 19592 19593 19594 19595 19596 19597 19598 19599 19600 19601 19602 19603 19604 19605 19606 19607 19608 19609 19610 19611 19612 19613 19614 19615 19616 19617 19618 19619 19620 19621 19622 19623 19624 19625 19626 19627 19628 19629 19630 19631 19632 19633 19634 19635 19636 19637 19638 19639 19640 19641 19642 19643 19644 19645 19646 19647 19648 19649 19650 19651 19652 19653 19654 19655 19656 19657 19658 19659 19660 19661 19662 19663 19664 19665 19666 19667 19668 19669 19670 19671 19672 19673 19674 19675 19676 19677 19678 19679 19680 19681 19682 19683 19684 19685 19686 19687 19688 19689 19690 19691 19692 19693 19694 19695 19696 19697 19698 19699 19700 19701 19702 19703 19704 19705 19706 19707 19708 19709 19710 19711 19712 19713 19714 19715 19716 19717 19718 19719 19720 19721 19722 19723 19724 19725 19726 19727 19728 19729 19730 19731 19732 19733 19734 19735 19736 19737 19738 19739 19740 19741 19742 19743 19744 19745 19746 19747 19748 19749 19750 19751 19752 19753 19754 19755 19756 19757 19758 19759 19760 19761 19762 19763 19764 19765 19766 19767 19768 19769 19770 19771 19772 19773 19774 19775 19776 19777 19778 19779 19780 19781 19782 19783 19784 19785 19786 19787 19788 19789 19790 19791 19792 19793 19794 19795 19796 19797 19798 19799 19800 19801 19802 19803 19804 19805 19806 19807 19808 19809 19810 19811 19812 19813 19814 19815 19816 19817 19818 19819 19820 19821 19822 19823 19824 19825 19826 19827 19828 19829 19830 19831 19832 19833 19834 19835 19836 19837 19838 19839 19840 19841 19842 19843 19844 19845 19846 19847 19848 19849 19850 19851 19852 19853 19854 19855 19856 19857 19858 19859 19860 19861 19862 19863 19864 19865 19866 19867 19868 19869 19870 19871 19872 19873 19874 19875 19876 19877 19878 19879 19880 19881 19882 19883 19884 19885 19886 19887 19888 19889 19890 19891 19892 19893 19894 19895 19896 19897 19898 19899 19900 19901 19902 19903 19904 19905 19906 19907 19908 19909 19910 19911 19912 19913 19914 19915 19916 19917 19918 19919 19920 19921 19922 19923 19924 19925 19926 19927 19928 19929 19930 19931 19932 19933 19934 19935 19936 19937 19938 19939 19940 19941 19942 19943 19944 19945 19946 19947 19948 19949 19950 19951 19952 19953 19954 19955 19956 19957 19958 19959 19960 19961 19962 19963 19964 19965 19966 19967 19968 19969 19970 19971 19972 19973 19974 19975 19976 19977 19978 19979 19980 19981 19982 19983 19984 19985 19986 19987 19988 19989 19990 19991 19992 19993 19994 19995 19996 19997 19998 19999 20000 20001 20002 20003 20004 20005 20006 20007 20008 20009 20010 20011 20012 20013 20014 20015 20016 20017 20018 20019 20020 20021 20022 20023 20024 20025 20026 20027 20028 20029 20030 20031 20032 20033 20034 20035 20036 20037 20038 20039 20040 20041 20042 20043 20044 20045 20046 20047 20048 20049 20050 20051 20052 20053 20054 20055 20056 20057 20058 20059 20060 20061 20062 20063 20064 20065 20066 20067 20068 20069 20070 20071 20072 20073 20074 20075 20076 20077 20078 20079 20080 20081 20082 20083 20084 20085 20086 20087 20088 20089 20090 20091 20092 20093 20094 20095 20096 20097 20098 20099 20100 20101 20102 20103 20104 20105 20106 20107 20108 20109 20110 20111 20112 20113 20114 20115 20116 20117 20118 20119 20120 20121 20122 20123 20124 20125 20126 20127 20128 20129 20130 20131 20132 20133 20134 20135 20136 20137 20138 20139 20140 20141 20142 20143 20144 20145 20146 20147 20148 20149 20150 20151 20152 20153 20154 20155 20156 20157 20158 20159 20160 20161 20162 20163 20164 20165 20166 20167 20168 20169 20170 20171 20172 20173 20174 20175 20176 20177 20178 20179 20180 20181 20182 20183 20184 20185 20186 20187 20188 20189 20190 20191 20192 20193 20194 20195 20196 20197 20198 20199 20200 20201 20202 20203 20204 20205 20206 20207 20208 20209 20210 20211 20212 20213 20214 20215 20216 20217 20218 20219 20220 20221 20222 20223 20224 20225 20226 20227 20228 20229 20230 20231 20232 20233 20234 20235 20236 20237 20238 20239 20240 20241 20242 20243 20244 20245 20246 20247 20248 20249 20250 20251 20252 20253 20254 20255 20256 20257 20258 20259 20260 20261 20262 20263 20264 20265 20266 20267 20268 20269 20270 20271 20272 20273 20274 20275 20276 20277 20278 20279 20280 20281 20282 20283 20284 20285 20286 20287 20288 20289 20290 20291 20292 20293 20294 20295 20296 20297 20298 20299 20300 20301 20302 20303 20304 20305 20306 20307 20308 20309 20310 20311 20312 20313 20314 20315 20316 20317 20318 20319 20320 20321 20322 20323 20324 20325 20326 20327 20328 20329 20330 20331 20332 20333 20334 20335 20336 20337 20338 20339 20340 20341 20342 20343 20344 20345 20346 20347 20348 20349 20350 20351 20352 20353 20354 20355 20356 20357 20358 20359 20360 20361 20362 20363 20364 20365 20366 20367 20368 20369 20370 20371 20372 20373 20374 20375 20376 20377 20378 20379 20380 20381 20382 20383 20384 20385 20386 20387 20388 20389 20390 20391 20392 20393 20394 20395 20396 20397 20398 20399 20400 20401 20402 20403 20404 20405 20406 20407 20408 20409 20410 20411 20412 20413 20414 20415 20416 20417 20418 20419 20420 20421 20422 20423 20424 20425 20426 20427 20428 20429 20430 20431 20432 20433 20434 20435 20436 20437 20438 20439 20440 20441 20442 20443 20444 20445 20446 20447 20448 20449 20450 20451 20452 20453 20454 20455 20456 20457 20458 20459 20460 20461 20462 20463 20464 20465 20466 20467 20468 20469 20470 20471 20472 20473 20474 20475 20476 20477 20478 20479 20480 20481 20482 20483 20484 20485 20486 20487 20488 20489 20490 20491 20492 20493 20494 20495 20496 20497 20498 20499 20500 20501 20502 20503 20504 20505 20506 20507 20508 20509 20510 20511 20512 20513 20514 20515 20516 20517 20518 20519 20520 20521 20522 20523 20524 20525 20526 20527 20528 20529 20530 20531 20532 20533 20534 20535 20536 20537 20538 20539 20540 20541 20542 20543 20544 20545 20546 20547 20548 20549 20550 20551 20552 20553 20554 20555 20556 20557 20558 20559 20560 20561 20562 20563 20564 20565 20566 20567 20568 20569 20570 20571 20572 20573 20574 20575 20576 20577 20578 20579 20580 20581 20582 20583 20584 20585 20586 20587 20588 20589 20590 20591 20592 20593 20594 20595 20596 20597 20598 20599 20600 20601 20602 20603 20604 20605 20606 20607 20608 20609 20610 20611 20612 20613 20614 20615 20616 20617 20618 20619 20620 20621 20622 20623 20624 20625 20626 20627 20628 20629 20630 20631 20632 20633 20634 20635 20636 20637 20638 20639 20640 20641 20642 20643 20644 20645 20646 20647 20648 20649 20650 20651 20652 20653 20654 20655 20656 20657 20658 20659 20660 20661 20662 20663 20664 20665 20666 20667 20668 20669 20670 20671 20672 20673 20674 20675 20676 20677 20678 20679 20680 20681 20682 20683 20684 20685 20686 20687 20688 20689 20690 20691 20692 20693 20694 20695 20696 20697 20698 20699 20700 20701 20702 20703 20704 20705 20706 20707 20708 20709 20710 20711 20712 20713 20714 20715 20716 20717 20718 20719 20720 20721 20722 20723 20724 20725 20726 20727 20728 20729 20730 20731 20732 20733 20734 20735 20736 20737 20738 20739 20740 20741 20742 20743 20744 20745 20746 20747 20748 20749 20750 20751 20752 20753 20754 20755 20756 20757 20758 20759 20760 20761 20762 20763 20764 20765 20766 20767 20768 20769 20770 20771 20772 20773 20774 20775 20776 20777 20778 20779 20780 20781 20782 20783 20784 20785 20786 20787 20788 20789 20790 20791 20792 20793 20794 20795 20796 20797 20798 20799 20800 20801 20802 20803 20804 20805 20806 20807 20808 20809 20810 20811 20812 20813 20814 20815 20816 20817 20818 20819 20820 20821 20822 20823 20824 20825 20826 20827 20828 20829 20830 20831 20832 20833 20834 20835 20836 20837 20838 20839 20840 20841 20842 20843 20844 20845 20846 20847 20848 20849 20850 20851 20852 20853 20854 20855 20856 20857 20858 20859 20860 20861 20862 20863 20864 20865 20866 20867 20868 20869 20870 20871 20872 20873 20874 20875 20876 20877 20878 20879 20880 20881 20882 20883 20884 20885 20886 20887 20888 20889 20890 20891 20892 20893 20894 20895 20896 20897 20898 20899 20900 20901 20902 20903 20904 20905 20906 20907 20908 20909 20910 20911 20912 20913 20914 20915 20916 20917 20918 20919 20920 20921 20922 20923 20924 20925 20926 20927 20928 20929 20930 20931 20932 20933 20934 20935 20936 20937 20938 20939 20940 20941 20942 20943 20944 20945 20946 20947 20948 20949 20950 20951 20952 20953 20954 20955 20956 20957 20958 20959 20960 20961 20962 20963 20964 20965 20966 20967 20968 20969 20970 20971 20972 20973 20974 20975 20976 20977 20978 20979 20980 20981 20982 20983 20984 20985 20986 20987 20988 20989 20990 20991 20992 20993 20994 20995 20996 20997 20998 20999 21000 21001 21002 21003 21004 21005 21006 21007 21008 21009 21010 21011 21012 21013 21014 21015 21016 21017 21018 21019 21020 21021 21022 21023 21024 21025 21026 21027 21028 21029 21030 21031 21032 21033 21034 21035 21036 21037 21038 21039 21040 21041 21042 21043 21044 21045 21046 21047 21048 21049 21050 21051 21052 21053 21054 21055 21056 21057 21058 21059 21060 21061 21062 21063 21064 21065 21066 21067 21068 21069 21070 21071 21072 21073 21074 21075 21076 21077 21078 21079 21080 21081 21082 21083 21084 21085 21086 21087 21088 21089 21090 21091 21092 21093 21094 21095 21096 21097 21098 21099 21100 21101 21102 21103 21104 21105 21106 21107 21108 21109 21110 21111 21112 21113 21114 21115 21116 21117 21118 21119 21120 21121 21122 21123 21124 21125 21126 21127 21128 21129 21130 21131 21132 21133 21134 21135 21136 21137 21138 21139 21140 21141 21142 21143 21144 21145 21146 21147 21148 21149 21150 21151 21152 21153 21154 21155 21156 21157 21158 21159 21160 21161 21162 21163 21164 21165 21166 21167 21168 21169 21170 21171 21172 21173 21174 21175 21176 21177 21178 21179 21180 21181 21182 21183 21184 21185 21186 21187 21188 21189 21190 21191 21192 21193 21194 21195 21196 21197 21198 21199 21200 21201 21202 21203 21204 21205 21206 21207 21208 21209 21210 21211 21212 21213 21214 21215 21216 21217 21218 21219 21220 21221 21222 21223 21224 21225 21226 21227 21228 21229 21230 21231 21232 21233 21234 21235 21236 21237 21238 21239 21240 21241 21242 21243 21244 21245 21246 21247 21248 21249 21250 21251 21252 21253 21254 21255 21256 21257 21258 21259 21260 21261 21262 21263 21264 21265 21266 21267 21268 21269 21270 21271 21272 21273 21274 21275 21276 21277 21278 21279 21280 21281 21282 21283 21284 21285 21286 21287 21288 21289 21290 21291 21292 21293 21294 21295 21296 21297 21298 21299 21300 21301 21302 21303 21304 21305 21306 21307 21308 21309 21310 21311 21312 21313 21314 21315 21316 21317 21318 21319 21320 21321 21322 21323 21324 21325 21326 21327 21328 21329 21330 21331 21332 21333 21334 21335 21336 21337 21338 21339 21340 21341 21342 21343 21344 21345 21346 21347 21348 21349 21350 21351 21352 21353 21354 21355 21356 21357 21358 21359 21360 21361 21362 21363 21364 21365 21366 21367 21368 21369 21370 21371 21372 21373 21374 21375 21376 21377 21378 21379 21380 21381 21382 21383 21384 21385 21386 21387 21388 21389 21390 21391 21392 21393 21394 21395 21396 21397 21398 21399 21400 21401 21402 21403 21404 21405 21406 21407 21408 21409 21410 21411 21412 21413 21414 21415 21416 21417 21418 21419 21420 21421 21422 21423 21424 21425 21426 21427 21428 21429 21430 21431 21432 21433 21434 21435 21436 21437 21438 21439 21440 21441 21442 21443 21444 21445 21446 21447 21448 21449 21450 21451 21452 21453 21454 21455 21456 21457 21458 21459 21460 21461 21462 21463 21464 21465 21466 21467 21468 21469 21470 21471 21472 21473 21474 21475 21476 21477 21478 21479 21480 21481 21482 21483 21484 21485 21486 21487 21488 21489 21490 21491 21492 21493 21494 21495 21496 21497 21498 21499 21500 21501 21502 21503 21504 21505 21506 21507 21508 21509 21510 21511 21512 21513 21514 21515 21516 21517 21518 21519 21520 21521 21522 21523 21524 21525 21526 21527 21528 21529 21530 21531 21532 21533 21534 21535 21536 21537 21538 21539 21540 21541 21542 21543 21544 21545 21546 21547 21548 21549 21550 21551 21552 21553 21554 21555 21556 21557 21558 21559 21560 21561 21562 21563 21564 21565 21566 21567 21568 21569 21570 21571 21572 21573 21574 21575 21576 21577 21578 21579 21580 21581 21582 21583 21584 21585 21586 21587 21588 21589 21590 21591 21592 21593 21594 21595 21596 21597 21598 21599 21600 21601 21602 21603 21604 21605 21606 21607 21608 21609 21610 21611 21612 21613 21614 21615 21616 21617 21618 21619 21620 21621 21622 21623 21624 21625 21626 21627 21628 21629 21630 21631 21632 21633 21634 21635 21636 21637 21638 21639 21640 21641 21642 21643 21644 21645 21646 21647 21648 21649 21650 21651 21652 21653 21654 21655 21656 21657 21658 21659 21660 21661 21662 21663 21664 21665 21666 21667 21668 21669 21670 21671 21672 21673 21674 21675 21676 21677 21678 21679 21680 21681 21682 21683 21684 21685 21686 21687 21688 21689 21690 21691 21692 21693 21694 21695 21696 21697 21698 21699 21700 21701 21702 21703 21704 21705 21706 21707 21708 21709 21710 21711 21712 21713 21714 21715 21716 21717 21718 21719 21720 21721 21722 21723 21724 21725 21726 21727 21728 21729 21730 21731 21732 21733 21734 21735 21736 21737 21738 21739 21740 21741 21742 21743 21744 21745 21746 21747 21748 21749 21750 21751 21752 21753 21754 21755 21756 21757 21758 21759 21760 21761 21762 21763 21764 21765 21766 21767 21768 21769 21770 21771 21772 21773 21774 21775 21776 21777 21778 21779 21780 21781 21782 21783 21784 21785 21786 21787 21788 21789 21790 21791 21792 21793 21794 21795 21796 21797 21798 21799 21800 21801 21802 21803 21804 21805 21806 21807 21808 21809 21810 21811 21812 21813 21814 21815 21816 21817 21818 21819 21820 21821 21822 21823 21824 21825 21826 21827 21828 21829 21830 21831 21832 21833 21834 21835 21836 21837 21838 21839 21840 21841 21842 21843 21844 21845 21846 21847 21848 21849 21850 21851 21852 21853 21854 21855 21856 21857 21858 21859 21860 21861 21862 21863 21864 21865 21866 21867 21868 21869 21870 21871 21872 21873 21874 21875 21876 21877 21878 21879 21880 21881 21882 21883 21884 21885 21886 21887 21888 21889 21890 21891 21892 21893 21894 21895 21896 21897 21898 21899 21900 21901 21902 21903 21904 21905 21906 21907 21908 21909 21910 21911 21912 21913 21914 21915 21916 21917 21918 21919 21920 21921 21922 21923 21924 21925 21926 21927 21928 21929 21930 21931 21932 21933 21934 21935 21936 21937 21938 21939 21940 21941 21942 21943 21944 21945 21946 21947 21948 21949 21950 21951 21952 21953 21954 21955 21956 21957 21958 21959 21960 21961 21962 21963 21964 21965 21966 21967 21968 21969 21970 21971 21972 21973 21974 21975 21976 21977 21978 21979 21980 21981 21982 21983 21984 21985 21986 21987 21988 21989 21990 21991 21992 21993 21994 21995 21996 21997 21998 21999 22000 22001 22002 22003 22004 22005 22006 22007 22008 22009 22010 22011 22012 22013 22014 22015 22016 22017 22018 22019 22020 22021 22022 22023 22024 22025 22026 22027 22028 22029 22030 22031 22032 22033 22034 22035 22036 22037 22038 22039 22040 22041 22042 22043 22044 22045 22046 22047 22048 22049 22050 22051 22052 22053 22054 22055 22056 22057 22058 22059 22060 22061 22062 22063 22064 22065 22066 22067 22068 22069 22070 22071 22072 22073 22074 22075 22076 22077 22078 22079 22080 22081 22082 22083 22084 22085 22086 22087 22088 22089 22090 22091 22092 22093 22094 22095 22096 22097 22098 22099 22100 22101 22102 22103 22104 22105 22106 22107 22108 22109 22110 22111 22112 22113 22114 22115 22116 22117 22118 22119 22120 22121 22122 22123 22124 22125 22126 22127 22128 22129 22130 22131 22132 22133 22134 22135 22136 22137 22138 22139 22140 22141 22142 22143 22144 22145 22146 22147 22148 22149 22150 22151 22152 22153 22154 22155 22156 22157 22158 22159 22160 22161 22162 22163 22164 22165 22166 22167 22168 22169 22170 22171 22172 22173 22174 22175 22176 22177 22178 22179 22180 22181 22182 22183 22184 22185 22186 22187 22188 22189 22190 22191 22192 22193 22194 22195 22196 22197 22198 22199 22200 22201 22202 22203 22204 22205 22206 22207 22208 22209 22210 22211 22212 22213 22214 22215 22216 22217 22218 22219 22220 22221 22222 22223 22224 22225 22226 22227 22228 22229 22230 22231 22232 22233 22234 22235 22236 22237 22238 22239 22240 22241 22242 22243 22244 22245 22246 22247 22248 22249 22250 22251 22252 22253 22254 22255 22256 22257 22258 22259 22260 22261 22262 22263 22264 22265 22266 22267 22268 22269 22270 22271 22272 22273 22274 22275 22276 22277 22278 22279 22280 22281 22282 22283 22284 22285 22286 22287 22288 22289 22290 22291 22292 22293 22294 22295 22296 22297 22298 22299 22300 22301 22302 22303 22304 22305 22306 22307 22308 22309 22310 22311 22312 22313 22314 22315 22316 22317 22318 22319 22320 22321 22322 22323 22324 22325 22326 22327 22328 22329 22330 22331 22332 22333 22334 22335 22336 22337 22338 22339 22340 22341 22342 22343 22344 22345 22346 22347 22348 22349 22350 22351 22352 22353 22354 22355 22356 22357 22358 22359 22360 22361 22362 22363 22364 22365 22366 22367 22368 22369 22370 22371 22372 22373 22374 22375 22376 22377 22378 22379 22380 22381 22382 22383 22384 22385 22386 22387 22388 22389 22390 22391 22392 22393 22394 22395 22396 22397 22398 22399 22400 22401 22402 22403 22404 22405 22406 22407 22408 22409 22410 22411 22412 22413 22414 22415 22416 22417 22418 22419 22420 22421 22422 22423 22424 22425 22426 22427 22428 22429 22430 22431 22432 22433 22434 22435 22436 22437 22438 22439 22440 22441 22442 22443 22444 22445 22446 22447 22448 22449 22450 22451 22452 22453 22454 22455 22456 22457 22458 22459 22460 22461 22462 22463 22464 22465 22466 22467 22468 22469 22470 22471 22472 22473 22474 22475 22476 22477 22478 22479 22480 22481 22482 22483 22484 22485 22486 22487 22488 22489 22490 22491 22492 22493 22494 22495 22496 22497 22498 22499 22500 22501 22502 22503 22504 22505 22506 22507 22508 22509 22510 22511 22512 22513 22514 22515 22516 22517 22518 22519 22520 22521 22522 22523 22524 22525 22526 22527 22528 22529 22530 22531 22532 22533 22534 22535 22536 22537 22538 22539 22540 22541 22542 22543 22544 22545 22546 22547 22548 22549 22550 22551 22552 22553 22554 22555 22556 22557 22558 22559 22560 22561 22562 22563 22564 22565 22566 22567 22568 22569 22570 22571 22572 22573 22574 22575 22576 22577 22578 22579 22580 22581 22582 22583 22584 22585 22586 22587 22588 22589 22590 22591 22592 22593 22594 22595 22596 22597 22598 22599 22600 22601 22602 22603 22604 22605 22606 22607 22608 22609 22610 22611 22612 22613 22614 22615 22616 22617 22618 22619 22620 22621 22622 22623 22624 22625 22626 22627 22628 22629 22630 22631 22632 22633 22634 22635 22636 22637 22638 22639 22640 22641 22642 22643 22644 22645 22646 22647 22648 22649 22650 22651 22652 22653 22654 22655 22656 22657 22658 22659 22660 22661 22662 22663 22664 22665 22666 22667 22668 22669 22670 22671 22672 22673 22674 22675 22676 22677 22678 22679 22680 22681 22682 22683 22684 22685 22686 22687 22688 22689 22690 22691 22692 22693 22694 22695 22696 22697 22698 22699 22700 22701 22702 22703 22704 22705 22706 22707 22708 22709 22710 22711 22712 22713 22714 22715 22716 22717 22718 22719 22720 22721 22722 22723 22724 22725 22726 22727 22728 22729 22730 22731 22732 22733 22734 22735 22736 22737 22738 22739 22740 22741 22742 22743 22744 22745 22746 22747 22748 22749 22750 22751 22752 22753 22754 22755 22756 22757 22758 22759 22760 22761 22762 22763 22764 22765 22766 22767 22768 22769 22770 22771 22772 22773 22774 22775 22776 22777 22778 22779 22780 22781 22782 22783 22784 22785 22786 22787 22788 22789 22790 22791 22792 22793 22794 22795 22796 22797 22798 22799 22800 22801 22802 22803 22804 22805 22806 22807 22808 22809 22810 22811 22812 22813 22814 22815 22816 22817 22818 22819 22820 22821 22822 22823 22824 22825 22826 22827 22828 22829 22830 22831 22832 22833 22834 22835 22836 22837 22838 22839 22840 22841 22842 22843 22844 22845 22846 22847 22848 22849 22850 22851 22852 22853 22854 22855 22856 22857 22858 22859 22860 22861 22862 22863 22864 22865 22866 22867 22868 22869 22870 22871 22872 22873 22874 22875 22876 22877 22878 22879 22880 22881 22882 22883 22884 22885 22886 22887 22888 22889 22890 22891 22892 22893 22894 22895 22896 22897 22898 22899 22900 22901 22902 22903 22904 22905 22906 22907 22908 22909 22910 22911 22912 22913 22914 22915 22916 22917 22918 22919 22920 22921 22922 22923 22924 22925 22926 22927 22928 22929 22930 22931 22932 22933 22934 22935 22936 22937 22938 22939 22940 22941 22942 22943 22944 22945 22946 22947 22948 22949 22950 22951 22952 22953 22954 22955 22956 22957 22958 22959 22960 22961 22962 22963 22964 22965 22966 22967 22968 22969 22970 22971 22972 22973 22974 22975 22976 22977 22978 22979 22980 22981 22982 22983 22984 22985 22986 22987 22988 22989 22990 22991 22992 22993 22994 22995 22996 22997 22998 22999 23000 23001 23002 23003 23004 23005 23006 23007 23008 23009 23010 23011 23012 23013 23014 23015 23016 23017 23018 23019 23020 23021 23022 23023 23024 23025 23026 23027 23028 23029 23030 23031 23032 23033 23034 23035 23036 23037 23038 23039 23040 23041 23042 23043 23044 23045 23046 23047 23048 23049 23050 23051 23052 23053 23054 23055 23056 23057 23058 23059 23060 23061 23062 23063 23064 23065 23066 23067 23068 23069 23070 23071 23072 23073 23074 23075 23076 23077 23078 23079 23080 23081 23082 23083 23084 23085 23086 23087 23088 23089 23090 23091 23092 23093 23094 23095 23096 23097 23098 23099 23100 23101 23102 23103 23104 23105 23106 23107 23108 23109 23110 23111 23112 23113 23114 23115 23116 23117 23118 23119 23120 23121 23122 23123 23124 23125 23126 23127 23128 23129 23130 23131 23132 23133 23134 23135 23136 23137 23138 23139 23140 23141 23142 23143 23144 23145 23146 23147 23148 23149 23150 23151 23152 23153 23154 23155 23156 23157 23158 23159 23160 23161 23162 23163 23164 23165 23166 23167 23168 23169 23170 23171 23172 23173 23174 23175 23176 23177 23178 23179 23180 23181 23182 23183 23184 23185 23186 23187 23188 23189 23190 23191 23192 23193 23194 23195 23196 23197 23198 23199 23200 23201 23202 23203 23204 23205 23206 23207 23208 23209 23210 23211 23212 23213 23214 23215 23216 23217 23218 23219 23220 23221 23222 23223 23224 23225 23226 23227 23228 23229 23230 23231 23232 23233 23234 23235 23236 23237 23238 23239 23240 23241 23242 23243 23244 23245 23246 23247 23248 23249 23250 23251 23252 23253 23254 23255 23256 23257 23258 23259 23260 23261 23262 23263 23264 23265 23266 23267 23268 23269 23270 23271 23272 23273 23274 23275 23276 23277 23278 23279 23280 23281 23282 23283 23284 23285 23286 23287 23288 23289 23290 23291 23292 23293 23294 23295 23296 23297 23298 23299 23300 23301 23302 23303 23304 23305 23306 23307 23308 23309 23310 23311 23312 23313 23314 23315 23316 23317 23318 23319 23320 23321 23322 23323 23324 23325 23326 23327 23328 23329 23330 23331 23332 23333 23334 23335 23336 23337 23338 23339 23340 23341 23342 23343 23344 23345 23346 23347 23348 23349 23350 23351 23352 23353 23354 23355 23356 23357 23358 23359 23360 23361 23362 23363 23364 23365 23366 23367 23368 23369 23370 23371 23372 23373 23374 23375 23376 23377 23378 23379 23380 23381 23382 23383 23384 23385 23386 23387 23388 23389 23390 23391 23392 23393 23394 23395 23396 23397 23398 23399 23400 23401 23402 23403 23404 23405 23406 23407 23408 23409 23410 23411 23412 23413 23414 23415 23416 23417 23418 23419 23420 23421 23422 23423 23424 23425 23426 23427 23428 23429 23430 23431 23432 23433 23434 23435 23436 23437 23438 23439 23440 23441 23442 23443 23444 23445 23446 23447 23448 23449 23450 23451 23452 23453 23454 23455 23456 23457 23458 23459 23460 23461 23462 23463 23464 23465 23466 23467 23468 23469 23470 23471 23472 23473 23474 23475 23476 23477 23478 23479 23480 23481 23482 23483 23484 23485 23486 23487 23488 23489 23490 23491 23492 23493 23494 23495 23496 23497 23498 23499 23500 23501 23502 23503 23504 23505 23506 23507 23508 23509 23510 23511 23512 23513 23514 23515 23516 23517 23518 23519 23520 23521 23522 23523 23524 23525 23526 23527 23528 23529 23530 23531 23532 23533 23534 23535 23536 23537 23538 23539 23540 23541 23542 23543 23544 23545 23546 23547 23548 23549 23550 23551 23552 23553 23554 23555 23556 23557 23558 23559 23560 23561 23562 23563 23564 23565 23566 23567 23568 23569 23570 23571 23572 23573 23574 23575 23576 23577 23578 23579 23580 23581 23582 23583 23584 23585 23586 23587 23588 23589 23590 23591 23592 23593 23594 23595 23596 23597 23598 23599 23600 23601 23602 23603 23604 23605 23606 23607 23608 23609 23610 23611 23612 23613 23614 23615 23616 23617 23618 23619 23620 23621 23622 23623 23624 23625 23626 23627 23628 23629 23630 23631 23632 23633 23634 23635 23636 23637 23638 23639 23640 23641 23642 23643 23644 23645 23646 23647 23648 23649 23650 23651 23652 23653 23654 23655 23656 23657 23658 23659 23660 23661 23662 23663 23664 23665 23666 23667 23668 23669 23670 23671 23672 23673 23674 23675 23676 23677 23678 23679 23680 23681 23682 23683 23684 23685 23686 23687 23688 23689 23690 23691 23692 23693 23694 23695 23696 23697 23698 23699 23700 23701 23702 23703 23704 23705 23706 23707 23708 23709 23710 23711 23712 23713 23714 23715 23716 23717 23718 23719 23720 23721 23722 23723 23724 23725 23726 23727 23728 23729 23730 23731 23732 23733 23734 23735 23736 23737 23738 23739 23740 23741 23742 23743 23744 23745 23746 23747 23748 23749 23750 23751 23752 23753 23754 23755 23756 23757 23758 23759 23760 23761 23762 23763 23764 23765 23766 23767 23768 23769 23770 23771 23772 23773 23774 23775 23776 23777 23778 23779 23780 23781 23782 23783 23784 23785 23786 23787 23788 23789 23790 23791 23792 23793 23794 23795 23796 23797 23798 23799 23800 23801 23802 23803 23804 23805 23806 23807 23808 23809 23810 23811 23812 23813 23814 23815 23816 23817 23818 23819 23820 23821 23822 23823 23824 23825 23826 23827 23828 23829 23830 23831 23832 23833 23834 23835 23836 23837 23838 23839 23840 23841 23842 23843 23844 23845 23846 23847 23848 23849 23850 23851 23852 23853 23854 23855 23856 23857 23858 23859 23860 23861 23862 23863 23864 23865 23866 23867 23868 23869 23870 23871 23872 23873 23874 23875 23876 23877 23878 23879 23880 23881 23882 23883 23884 23885 23886 23887 23888 23889 23890 23891 23892 23893 23894 23895 23896 23897 23898 23899 23900 23901 23902 23903 23904 23905 23906 23907 23908 23909 23910 23911 23912 23913 23914 23915 23916 23917 23918 23919 23920 23921 23922 23923 23924 23925 23926 23927 23928 23929 23930 23931 23932 23933 23934 23935 23936 23937 23938 23939 23940 23941 23942 23943 23944 23945 23946 23947 23948 23949 23950 23951 23952 23953 23954 23955 23956 23957 23958 23959 23960 23961 23962 23963 23964 23965 23966 23967 23968 23969 23970 23971 23972 23973 23974 23975 23976 23977 23978 23979 23980 23981 23982 23983 23984 23985 23986 23987 23988 23989 23990 23991 23992 23993 23994 23995 23996 23997 23998 23999 24000 24001 24002 24003 24004 24005 24006 24007 24008 24009 24010 24011 24012 24013 24014 24015 24016 24017 24018 24019 24020 24021 24022 24023 24024 24025 24026 24027 24028 24029 24030 24031 24032 24033 24034 24035 24036 24037 24038 24039 24040 24041 24042 24043 24044 24045 24046 24047 24048 24049 24050 24051 24052 24053 24054 24055 24056 24057 24058 24059 24060 24061 24062 24063 24064 24065 24066 24067 24068 24069 24070 24071 24072 24073 24074 24075 24076 24077 24078 24079 24080 24081 24082 24083 24084 24085 24086 24087 24088 24089 24090 24091 24092 24093 24094 24095 24096 24097 24098 24099 24100 24101 24102 24103 24104 24105 24106 24107 24108 24109 24110 24111 24112 24113 24114 24115 24116 24117 24118 24119 24120 24121 24122 24123 24124 24125 24126 24127 24128 24129 24130 24131 24132 24133 24134 24135 24136 24137 24138 24139 24140 24141 24142 24143 24144 24145 24146 24147 24148 24149 24150 24151 24152 24153 24154 24155 24156 24157 24158 24159 24160 24161 24162 24163 24164 24165 24166 24167 24168 24169 24170 24171 24172 24173 24174 24175 24176 24177 24178 24179 24180 24181 24182 24183 24184 24185 24186 24187 24188 24189 24190 24191 24192 24193 24194 24195 24196 24197 24198 24199 24200 24201 24202 24203 24204 24205 24206 24207 24208 24209 24210 24211 24212 24213 24214 24215 24216 24217 24218 24219 24220 24221 24222 24223 24224 24225 24226 24227 24228 24229 24230 24231 24232 24233 24234 24235 24236 24237 24238 24239 24240 24241 24242 24243 24244 24245 24246 24247 24248 24249 24250 24251 24252 24253 24254 24255 24256 24257 24258 24259 24260 24261 24262 24263 24264 24265 24266 24267 24268 24269 24270 24271 24272 24273 24274 24275 24276 24277 24278 24279 24280 24281 24282 24283 24284 24285 24286 24287 24288 24289 24290 24291 24292 24293 24294 24295 24296 24297 24298 24299 24300 24301 24302 24303 24304 24305 24306 24307 24308 24309 24310 24311 24312 24313 24314 24315 24316 24317 24318 24319 24320 24321 24322 24323 24324 24325 24326 24327 24328 24329 24330 24331 24332 24333 24334 24335 24336 24337 24338 24339 24340 24341 24342 24343 24344 24345 24346 24347 24348 24349 24350 24351 24352 24353 24354 24355 24356 24357 24358 24359 24360 24361 24362 24363 24364 24365 24366 24367 24368 24369 24370 24371 24372 24373 24374 24375 24376 24377 24378 24379 24380 24381 24382 24383 24384 24385 24386 24387 24388 24389 24390 24391 24392 24393 24394 24395 24396 24397 24398 24399 24400 24401 24402 24403 24404 24405 24406 24407 24408 24409 24410 24411 24412 24413 24414 24415 24416 24417 24418 24419 24420 24421 24422 24423 24424 24425 24426 24427 24428 24429 24430 24431 24432 24433 24434 24435 24436 24437 24438 24439 24440 24441 24442 24443 24444 24445 24446 24447 24448 24449 24450 24451 24452 24453 24454 24455 24456 24457 24458 24459 24460 24461 24462 24463 24464 24465 24466 24467 24468 24469 24470 24471 24472 24473 24474 24475 24476 24477 24478 24479 24480 24481 24482 24483 24484 24485 24486 24487 24488 24489 24490 24491 24492 24493 24494 24495 24496 24497 24498 24499 24500 24501 24502 24503 24504 24505 24506 24507 24508 24509 24510 24511 24512 24513 24514 24515 24516 24517 24518 24519 24520 24521 24522 24523 24524 24525 24526 24527 24528 24529 24530 24531 24532 24533 24534 24535 24536 24537 24538 24539 24540 24541 24542 24543 24544 24545 24546 24547 24548 24549 24550 24551 24552 24553 24554 24555 24556 24557 24558 24559 24560 24561 24562 24563 24564 24565 24566 24567 24568 24569 24570 24571 24572 24573 24574 24575 24576 24577 24578 24579 24580 24581 24582 24583 24584 24585 24586 24587 24588 24589 24590 24591 24592 24593 24594 24595 24596 24597 24598 24599 24600 24601 24602 24603 24604 24605 24606 24607 24608 24609 24610 24611 24612 24613 24614 24615 24616 24617 24618 24619 24620 24621 24622 24623 24624 24625 24626 24627 24628 24629 24630 24631 24632 24633 24634 24635 24636 24637 24638 24639 24640 24641 24642 24643 24644 24645 24646 24647 24648 24649 24650 24651 24652 24653 24654 24655 24656 24657 24658 24659 24660 24661 24662 24663 24664 24665 24666 24667 24668 24669 24670 24671 24672 24673 24674 24675 24676 24677 24678 24679 24680 24681 24682 24683 24684 24685 24686 24687 24688 24689 24690 24691 24692 24693 24694 24695 24696 24697 24698 24699 24700 24701 24702 24703 24704 24705 24706 24707 24708 24709 24710 24711 24712 24713 24714 24715 24716 24717 24718 24719 24720 24721 24722 24723 24724 24725 24726 24727 24728 24729 24730 24731 24732 24733 24734 24735 24736 24737 24738 24739 24740 24741 24742 24743 24744 24745 24746 24747 24748 24749 24750 24751 24752 24753 24754 24755 24756 24757 24758 24759 24760 24761 24762 24763 24764 24765 24766 24767 24768 24769 24770 24771 24772 24773 24774 24775 24776 24777 24778 24779 24780 24781 24782 24783 24784 24785 24786 24787 24788 24789 24790 24791 24792 24793 24794 24795 24796 24797 24798 24799 24800 24801 24802 24803 24804 24805 24806 24807 24808 24809 24810 24811 24812 24813 24814 24815 24816 24817 24818 24819 24820 24821 24822 24823 24824 24825 24826 24827 24828 24829 24830 24831 24832 24833 24834 24835 24836 24837 24838 24839 24840 24841 24842 24843 24844 24845 24846 24847 24848 24849 24850 24851 24852 24853 24854 24855 24856 24857 24858 24859 24860 24861 24862 24863 24864 24865 24866 24867 24868 24869 24870 24871 24872 24873 24874 24875 24876 24877 24878 24879 24880 24881 24882 24883 24884 24885 24886 24887 24888 24889 24890 24891 24892 24893 24894 24895 24896 24897 24898 24899 24900 24901 24902 24903 24904 24905 24906 24907 24908 24909 24910 24911 24912 24913 24914 24915 24916 24917 24918 24919 24920 24921 24922 24923 24924 24925 24926 24927 24928 24929 24930 24931 24932 24933 24934 24935 24936 24937 24938 24939 24940 24941 24942 24943 24944 24945 24946 24947 24948 24949 24950 24951 24952 24953 24954 24955 24956 24957 24958 24959 24960 24961 24962 24963 24964 24965 24966 24967 24968 24969 24970 24971 24972 24973 24974 24975 24976 24977 24978 24979 24980 24981 24982 24983 24984 24985 24986 24987 24988 24989 24990 24991 24992 24993 24994 24995 24996 24997 24998 24999 25000 25001 25002 25003 25004 25005 25006 25007 25008 25009 25010 25011 25012 25013 25014 25015 25016 25017 25018 25019 25020 25021 25022 25023 25024 25025 25026 25027 25028 25029 25030 25031 25032 25033 25034 25035 25036 25037 25038 25039 25040 25041 25042 25043 25044 25045 25046 25047 25048 25049 25050 25051 25052 25053 25054 25055 25056 25057 25058 25059 25060 25061 25062 25063 25064 25065 25066 25067 25068 25069 25070 25071 25072 25073 25074 25075 25076 25077 25078 25079 25080 25081 25082 25083 25084 25085 25086 25087 25088 25089 25090 25091 25092 25093 25094 25095 25096 25097 25098 25099 25100 25101 25102 25103 25104 25105 25106 25107 25108 25109 25110 25111 25112 25113 25114 25115 25116 25117 25118 25119 25120 25121 25122 25123 25124 25125 25126 25127 25128 25129 25130 25131 25132 25133 25134 25135 25136 25137 25138 25139 25140 25141 25142 25143 25144 25145 25146 25147 25148 25149 25150 25151 25152 25153 25154 25155 25156 25157 25158 25159 25160 25161 25162 25163 25164 25165 25166 25167 25168 25169 25170 25171 25172 25173 25174 25175 25176 25177 25178 25179 25180 25181 25182 25183 25184 25185 25186 25187 25188 25189 25190 25191 25192 25193 25194 25195 25196 25197 25198 25199 25200 25201 25202 25203 25204 25205 25206 25207 25208 25209 25210 25211 25212 25213 25214 25215 25216 25217 25218 25219 25220 25221 25222 25223 25224 25225 25226 25227 25228 25229 25230 25231 25232 25233 25234 25235 25236 25237 25238 25239 25240 25241 25242 25243 25244 25245 25246 25247 25248 25249 25250 25251 25252 25253 25254 25255 25256 25257 25258 25259 25260 25261 25262 25263 25264 25265 25266 25267 25268 25269 25270 25271 25272 25273 25274 25275 25276 25277 25278 25279 25280 25281 25282 25283 25284 25285 25286 25287 25288 25289 25290 25291 25292 25293 25294 25295 25296 25297 25298 25299 25300 25301 25302 25303 25304 25305 25306 25307 25308 25309 25310 25311 25312 25313 25314 25315 25316 25317 25318 25319 25320 25321 25322 25323 25324 25325 25326 25327 25328 25329 25330 25331 25332 25333 25334 25335 25336 25337 25338 25339 25340 25341 25342 25343 25344 25345 25346 25347 25348 25349 25350 25351 25352 25353 25354 25355 25356 25357 25358 25359 25360 25361 25362 25363 25364 25365 25366 25367 25368 25369 25370 25371 25372 25373 25374 25375 25376 25377 25378 25379 25380 25381 25382 25383 25384 25385 25386 25387 25388 25389 25390 25391 25392 25393 25394 25395 25396 25397 25398 25399 25400 25401 25402 25403 25404 25405 25406 25407 25408 25409 25410 25411 25412 25413 25414 25415 25416 25417 25418 25419 25420 25421 25422 25423 25424 25425 25426 25427 25428 25429 25430 25431 25432 25433 25434 25435 25436 25437 25438 25439 25440 25441 25442 25443 25444 25445 25446 25447 25448 25449 25450 25451 25452 25453 25454 25455 25456 25457 25458 25459 25460 25461 25462 25463 25464 25465 25466 25467 25468 25469 25470 25471 25472 25473 25474 25475 25476 25477 25478 25479 25480 25481 25482 25483 25484 25485 25486 25487 25488 25489 25490 25491 25492 25493 25494 25495 25496 25497 25498 25499 25500 25501 25502 25503 25504 25505 25506 25507 25508 25509 25510 25511 25512 25513 25514 25515 25516 25517 25518 25519 25520 25521 25522 25523 25524 25525 25526 25527 25528 25529 25530 25531 25532 25533 25534 25535 25536 25537 25538 25539 25540 25541 25542 25543 25544 25545 25546 25547 25548 25549 25550 25551 25552 25553 25554 25555 25556 25557 25558 25559 25560 25561 25562 25563 25564 25565 25566 25567 25568 25569 25570 25571 25572 25573 25574 25575 25576 25577 25578 25579 25580 25581 25582 25583 25584 25585 25586 25587 25588 25589 25590 25591 25592 25593 25594 25595 25596 25597 25598 25599 25600 25601 25602 25603 25604 25605 25606 25607 25608 25609 25610 25611 25612 25613 25614 25615 25616 25617 25618 25619 25620 25621 25622 25623 25624 25625 25626 25627 25628 25629 25630 25631 25632 25633 25634 25635 25636 25637 25638 25639 25640 25641 25642 25643 25644 25645 25646 25647 25648 25649 25650 25651 25652 25653 25654 25655 25656 25657 25658 25659 25660 25661 25662 25663 25664 25665 25666 25667 25668 25669 25670 25671 25672 25673 25674 25675 25676 25677 25678 25679 25680 25681 25682 25683 25684 25685 25686 25687 25688 25689 25690 25691 25692 25693 25694 25695 25696 25697 25698 25699 25700 25701 25702 25703 25704 25705 25706 25707 25708 25709 25710 25711 25712 25713 25714 25715 25716 25717 25718 25719 25720 25721 25722 25723 25724 25725 25726 25727 25728 25729 25730 25731 25732 25733 25734 25735 25736 25737 25738 25739 25740 25741 25742 25743 25744 25745 25746 25747 25748 25749 25750 25751 25752 25753 25754 25755 25756 25757 25758 25759 25760 25761 25762 25763 25764 25765 25766 25767 25768 25769 25770 25771 25772 25773 25774 25775 25776 25777 25778 25779 25780 25781 25782 25783 25784 25785 25786 25787 25788 25789 25790 25791 25792 25793 25794 25795 25796 25797 25798 25799 25800 25801 25802 25803 25804 25805 25806 25807 25808 25809 25810 25811 25812 25813 25814 25815 25816 25817 25818 25819 25820 25821 25822 25823 25824 25825 25826 25827 25828 25829 25830 25831 25832 25833 25834 25835 25836 25837 25838 25839 25840 25841 25842 25843 25844 25845 25846 25847 25848 25849 25850 25851 25852 25853 25854 25855 25856 25857 25858 25859 25860 25861 25862 25863 25864 25865 25866 25867 25868 25869 25870 25871 25872 25873 25874 25875 25876 25877 25878 25879 25880 25881 25882 25883 25884 25885 25886 25887 25888 25889 25890 25891 25892 25893 25894 25895 25896 25897 25898 25899 25900 25901 25902 25903 25904 25905 25906 25907 25908 25909 25910 25911 25912 25913 25914 25915 25916 25917 25918 25919 25920 25921 25922 25923 25924 25925 25926 25927 25928 25929 25930 25931 25932 25933 25934 25935 25936 25937 25938 25939 25940 25941 25942 25943 25944 25945 25946 25947 25948 25949 25950 25951 25952 25953 25954 25955 25956 25957 25958 25959 25960 25961 25962 25963 25964 25965 25966 25967 25968 25969 25970 25971 25972 25973 25974 25975 25976 25977 25978 25979 25980 25981 25982 25983 25984 25985 25986 25987 25988 25989 25990 25991 25992 25993 25994 25995 25996 25997 25998 25999 26000 26001 26002 26003 26004 26005 26006 26007 26008 26009 26010 26011 26012 26013 26014 26015 26016 26017 26018 26019 26020 26021 26022 26023 26024 26025 26026 26027 26028 26029 26030 26031 26032 26033 26034 26035 26036 26037 26038 26039 26040 26041 26042 26043 26044 26045 26046 26047 26048 26049 26050 26051 26052 26053 26054 26055 26056 26057 26058 26059 26060 26061 26062 26063 26064 26065 26066 26067 26068 26069 26070 26071 26072 26073 26074 26075 26076 26077 26078 26079 26080 26081 26082 26083 26084 26085 26086 26087 26088 26089 26090 26091 26092 26093 26094 26095 26096 26097 26098 26099 26100 26101 26102 26103 26104 26105 26106 26107 26108 26109 26110 26111 26112 26113 26114 26115 26116 26117 26118 26119 26120 26121 26122 26123 26124 26125 26126 26127 26128 26129 26130 26131 26132 26133 26134 26135 26136 26137 26138 26139 26140 26141 26142 26143 26144 26145 26146 26147 26148 26149 26150 26151 26152 26153 26154 26155 26156 26157 26158 26159 26160 26161 26162 26163 26164 26165 26166 26167 26168 26169 26170 26171 26172 26173 26174 26175 26176 26177 26178 26179 26180 26181 26182 26183 26184 26185 26186 26187 26188 26189 26190 26191 26192 26193 26194 26195 26196 26197 26198 26199 26200 26201 26202 26203 26204 26205 26206 26207 26208 26209 26210 26211 26212 26213 26214 26215 26216 26217 26218 26219 26220 26221 26222 26223 26224 26225 26226 26227 26228 26229 26230 26231 26232 26233 26234 26235 26236 26237 26238 26239 26240 26241 26242 26243 26244 26245 26246 26247 26248 26249 26250 26251 26252 26253 26254 26255 26256 26257 26258 26259 26260 26261 26262 26263 26264 26265 26266 26267 26268 26269 26270 26271 26272 26273 26274 26275 26276 26277 26278 26279 26280 26281 26282 26283 26284 26285 26286 26287 26288 26289 26290 26291 26292 26293 26294 26295 26296 26297 26298 26299 26300 26301 26302 26303 26304 26305 26306 26307 26308 26309 26310 26311 26312 26313 26314 26315 26316 26317 26318 26319 26320 26321 26322 26323 26324 26325 26326 26327 26328 26329 26330 26331 26332 26333 26334 26335 26336 26337 26338 26339 26340 26341 26342 26343 26344 26345 26346 26347 26348 26349 26350 26351 26352 26353 26354 26355 26356 26357 26358 26359 26360 26361 26362 26363 26364 26365 26366 26367 26368 26369 26370 26371 26372 26373 26374 26375 26376 26377 26378 26379 26380 26381 26382 26383 26384 26385 26386 26387 26388 26389 26390 26391 26392 26393 26394 26395 26396 26397 26398 26399 26400 26401 26402 26403 26404 26405 26406 26407 26408 26409 26410 26411 26412 26413 26414 26415 26416 26417 26418 26419 26420 26421 26422 26423 26424 26425 26426 26427 26428 26429 26430 26431 26432 26433 26434 26435 26436 26437 26438 26439 26440 26441 26442 26443 26444 26445 26446 26447 26448 26449 26450 26451 26452 26453 26454 26455 26456 26457 26458 26459 26460 26461 26462 26463 26464 26465 26466 26467 26468 26469 26470 26471 26472 26473 26474 26475 26476 26477 26478 26479 26480 26481 26482 26483 26484 26485 26486 26487 26488 26489 26490 26491 26492 26493 26494 26495 26496 26497 26498 26499 26500 26501 26502 26503 26504 26505 26506 26507 26508 26509 26510 26511 26512 26513 26514 26515 26516 26517 26518 26519 26520 26521 26522 26523 26524 26525 26526 26527 26528 26529 26530 26531 26532 26533 26534 26535 26536 26537 26538 26539 26540 26541 26542 26543 26544 26545 26546 26547 26548 26549 26550 26551 26552 26553 26554 26555 26556 26557 26558 26559 26560 26561 26562 26563 26564 26565 26566 26567 26568 26569 26570 26571 26572 26573 26574 26575 26576 26577 26578 26579 26580 26581 26582 26583 26584 26585 26586 26587 26588 26589 26590 26591 26592 26593 26594 26595 26596 26597 26598 26599 26600 26601 26602 26603 26604 26605 26606 26607 26608 26609 26610 26611 26612 26613 26614 26615 26616 26617 26618 26619 26620 26621 26622 26623 26624 26625 26626 26627 26628 26629 26630 26631 26632 26633 26634 26635 26636 26637 26638 26639 26640 26641 26642 26643 26644 26645 26646 26647 26648 26649 26650 26651 26652 26653 26654 26655 26656 26657 26658 26659 26660 26661 26662 26663 26664 26665 26666 26667 26668 26669 26670 26671 26672 26673 26674 26675 26676 26677 26678 26679 26680 26681 26682 26683 26684 26685 26686 26687 26688 26689 26690 26691 26692 26693 26694 26695 26696 26697 26698 26699 26700 26701 26702 26703 26704 26705 26706 26707 26708 26709 26710 26711 26712 26713 26714 26715 26716 26717 26718 26719 26720 26721 26722 26723 26724 26725 26726 26727 26728 26729 26730 26731 26732 26733 26734 26735 26736 26737 26738 26739 26740 26741 26742 26743 26744 26745 26746 26747 26748 26749 26750 26751 26752 26753 26754 26755 26756 26757 26758 26759 26760 26761 26762 26763 26764 26765 26766 26767 26768 26769 26770 26771 26772 26773 26774 26775 26776 26777 26778 26779 26780 26781 26782 26783 26784 26785 26786 26787 26788 26789 26790 26791 26792 26793 26794 26795 26796 26797 26798 26799 26800 26801 26802 26803 26804 26805 26806 26807 26808 26809 26810 26811 26812 26813 26814 26815 26816 26817 26818 26819 26820 26821 26822 26823 26824 26825 26826 26827 26828 26829 26830 26831 26832 26833 26834 26835 26836 26837 26838 26839 26840 26841 26842 26843 26844 26845 26846 26847 26848 26849 26850 26851 26852 26853 26854 26855 26856 26857 26858 26859 26860 26861 26862 26863 26864 26865 26866 26867 26868 26869 26870 26871 26872 26873 26874 26875 26876 26877 26878 26879 26880 26881 26882 26883 26884 26885 26886 26887 26888 26889 26890 26891 26892 26893 26894 26895 26896 26897 26898 26899 26900 26901 26902 26903 26904 26905 26906 26907 26908 26909 26910 26911 26912 26913 26914 26915 26916 26917 26918 26919 26920 26921 26922 26923 26924 26925 26926 26927 26928 26929 26930 26931 26932 26933 26934 26935 26936 26937 26938 26939 26940 26941 26942 26943 26944 26945 26946 26947 26948 26949 26950 26951 26952 26953 26954 26955 26956 26957 26958 26959 26960 26961 26962 26963 26964 26965 26966 26967 26968 26969 26970 26971 26972 26973 26974 26975 26976 26977 26978 26979 26980 26981 26982 26983 26984 26985 26986 26987 26988 26989 26990 26991 26992 26993 26994 26995 26996 26997 26998 26999 27000 27001 27002 27003 27004 27005 27006 27007 27008 27009 27010 27011 27012 27013 27014 27015 27016 27017 27018 27019 27020 27021 27022 27023 27024 27025 27026 27027 27028 27029 27030 27031 27032 27033 27034 27035 27036 27037 27038 27039 27040 27041 27042 27043 27044 27045 27046 27047 27048 27049 27050 27051 27052 27053 27054 27055 27056 27057 27058 27059 27060 27061 27062 27063 27064 27065 27066 27067 27068 27069 27070 27071 27072 27073 27074 27075 27076 27077 27078 27079 27080 27081 27082 27083 27084 27085 27086 27087 27088 27089 27090 27091 27092 27093 27094 27095 27096 27097 27098 27099 27100 27101 27102 27103 27104 27105 27106 27107 27108 27109 27110 27111 27112 27113 27114 27115 27116 27117 27118 27119 27120 27121 27122 27123 27124 27125 27126 27127 27128 27129 27130 27131 27132 27133 27134 27135 27136 27137 27138 27139 27140 27141 27142 27143 27144 27145 27146 27147 27148 27149 27150 27151 27152 27153 27154 27155 27156 27157 27158 27159 27160 27161 27162 27163 27164 27165 27166 27167 27168 27169 27170 27171 27172 27173 27174 27175 27176 27177 27178 27179 27180 27181 27182 27183 27184 27185 27186 27187 27188 27189 27190 27191 27192 27193 27194 27195 27196 27197 27198 27199 27200 27201 27202 27203 27204 27205 27206 27207 27208 27209 27210 27211 27212 27213 27214 27215 27216 27217 27218 27219 27220 27221 27222 27223 27224 27225 27226 27227 27228 27229 27230 27231 27232 27233 27234 27235 27236 27237 27238 27239 27240 27241 27242 27243 27244 27245 27246 27247 27248 27249 27250 27251 27252 27253 27254 27255 27256 27257 27258 27259 27260 27261 27262 27263 27264 27265 27266 27267 27268 27269 27270 27271 27272 27273 27274 27275 27276 27277 27278 27279 27280 27281 27282 27283 27284 27285 27286 27287 27288 27289 27290 27291 27292 27293 27294 27295 27296 27297 27298 27299 27300 27301 27302 27303 27304 27305 27306 27307 27308 27309 27310 27311 27312 27313 27314 27315 27316 27317 27318 27319 27320 27321 27322 27323 27324 27325 27326 27327 27328 27329 27330 27331 27332 27333 27334 27335 27336 27337 27338 27339 27340 27341 27342 27343 27344 27345 27346 27347 27348 27349 27350 27351 27352 27353 27354 27355 27356 27357 27358 27359 27360 27361 27362 27363 27364 27365 27366 27367 27368 27369 27370 27371 27372 27373 27374 27375 27376 27377 27378 27379 27380 27381 27382 27383 27384 27385 27386 27387 27388 27389 27390 27391 27392 27393 27394 27395 27396 27397 27398 27399 27400 27401 27402 27403 27404 27405 27406 27407 27408 27409 27410 27411 27412 27413 27414 27415 27416 27417 27418 27419 27420 27421 27422 27423 27424 27425 27426 27427 27428 27429 27430 27431 27432 27433 27434 27435 27436 27437 27438 27439 27440 27441 27442 27443 27444 27445 27446 27447 27448 27449 27450 27451 27452 27453 27454 27455 27456 27457 27458 27459 27460 27461 27462 27463 27464 27465 27466 27467 27468 27469 27470 27471 27472 27473 27474 27475 27476 27477 27478 27479 27480 27481 27482 27483 27484 27485 27486 27487 27488 27489 27490 27491 27492 27493 27494 27495 27496 27497 27498 27499 27500 27501 27502 27503 27504 27505 27506 27507 27508 27509 27510 27511 27512 27513 27514 27515 27516 27517 27518 27519 27520 27521 27522 27523 27524 27525 27526 27527 27528 27529 27530 27531 27532 27533 27534 27535 27536 27537 27538 27539 27540 27541 27542 27543 27544 27545 27546 27547 27548 27549 27550 27551 27552 27553 27554 27555 27556 27557 27558 27559 27560 27561 27562 27563 27564 27565 27566 27567 27568 27569 27570 27571 27572 27573 27574 27575 27576 27577 27578 27579 27580 27581 27582 27583 27584 27585 27586 27587 27588 27589 27590 27591 27592 27593 27594 27595 27596 27597 27598 27599 27600 27601 27602 27603 27604 27605 27606 27607 27608 27609 27610 27611 27612 27613 27614 27615 27616 27617 27618 27619 27620 27621 27622 27623 27624 27625 27626 27627 27628 27629 27630 27631 27632 27633 27634 27635 27636 27637 27638 27639 27640 27641 27642 27643 27644 27645 27646 27647 27648 27649 27650 27651 27652 27653 27654 27655 27656 27657 27658 27659 27660 27661 27662 27663 27664 27665 27666 27667 27668 27669 27670 27671 27672 27673 27674 27675 27676 27677 27678 27679 27680 27681 27682 27683 27684 27685 27686 27687 27688 27689 27690 27691 27692 27693 27694 27695 27696 27697 27698 27699 27700 27701 27702 27703 27704 27705 27706 27707 27708 27709 27710 27711 27712 27713 27714 27715 27716 27717 27718 27719 27720 27721 27722 27723 27724 27725 27726 27727 27728 27729 27730 27731 27732 27733 27734 27735 27736 27737 27738 27739 27740 27741 27742 27743 27744 27745 27746 27747 27748 27749 27750 27751 27752 27753 27754 27755 27756 27757 27758 27759 27760 27761 27762 27763 27764 27765 27766 27767 27768 27769 27770 27771 27772 27773 27774 27775 27776 27777 27778 27779 27780 27781 27782 27783 27784 27785 27786 27787 27788 27789 27790 27791 27792 27793 27794 27795 27796 27797 27798 27799 27800 27801 27802 27803 27804 27805 27806 27807 27808 27809 27810 27811 27812 27813 27814 27815 27816 27817 27818 27819 27820 27821 27822 27823 27824 27825 27826 27827 27828 27829 27830 27831 27832 27833 27834 27835 27836 27837 27838 27839 27840 27841 27842 27843 27844 27845 27846 27847 27848 27849 27850 27851 27852 27853 27854 27855 27856 27857 27858 27859 27860 27861 27862 27863 27864 27865 27866 27867 27868 27869 27870 27871 27872 27873 27874 27875 27876 27877 27878 27879 27880 27881 27882 27883 27884 27885 27886 27887 27888 27889 27890 27891 27892 27893 27894 27895 27896 27897 27898 27899 27900 27901 27902 27903 27904 27905 27906 27907 27908 27909 27910 27911 27912 27913 27914 27915 27916 27917 27918 27919 27920 27921 27922 27923 27924 27925 27926 27927 27928 27929 27930 27931 27932 27933 27934 27935 27936 27937 27938 27939 27940 27941 27942 27943 27944 27945 27946 27947 27948 27949 27950 27951 27952 27953 27954 27955 27956 27957 27958 27959 27960 27961 27962 27963 27964 27965 27966 27967 27968 27969 27970 27971 27972 27973 27974 27975 27976 27977 27978 27979 27980 27981 27982 27983 27984 27985 27986 27987 27988 27989 27990 27991 27992 27993 27994 27995 27996 27997 27998 27999 28000 28001 28002 28003 28004 28005 28006 28007 28008 28009 28010 28011 28012 28013 28014 28015 28016 28017 28018 28019 28020 28021 28022 28023 28024 28025 28026 28027 28028 28029 28030 28031 28032 28033 28034 28035 28036 28037 28038 28039 28040 28041 28042 28043 28044 28045 28046 28047 28048 28049 28050 28051 28052 28053 28054 28055 28056 28057 28058 28059 28060 28061 28062 28063 28064 28065 28066 28067 28068 28069 28070 28071 28072 28073 28074 28075 28076 28077 28078 28079 28080 28081 28082 28083 28084 28085 28086 28087 28088 28089 28090 28091 28092 28093 28094 28095 28096 28097 28098 28099 28100 28101 28102 28103 28104 28105 28106 28107 28108 28109 28110 28111 28112 28113 28114 28115 28116 28117 28118 28119 28120 28121 28122 28123 28124 28125 28126 28127 28128 28129 28130 28131 28132 28133 28134 28135 28136 28137 28138 28139 28140 28141 28142 28143 28144 28145 28146 28147 28148 28149 28150 28151 28152 28153 28154 28155 28156 28157 28158 28159 28160 28161 28162 28163 28164 28165 28166 28167 28168 28169 28170 28171 28172 28173 28174 28175 28176 28177 28178 28179 28180 28181 28182 28183 28184 28185 28186 28187 28188 28189 28190 28191 28192 28193 28194 28195 28196 28197 28198 28199 28200 28201 28202 28203 28204 28205 28206 28207 28208 28209 28210 28211 28212 28213 28214 28215 28216 28217 28218 28219 28220 28221 28222 28223 28224 28225 28226 28227 28228 28229 28230 28231 28232 28233 28234 28235 28236 28237 28238 28239 28240 28241 28242 28243 28244 28245 28246 28247 28248 28249 28250 28251 28252 28253 28254 28255 28256 28257 28258 28259 28260 28261 28262 28263 28264 28265 28266 28267 28268 28269 28270 28271 28272 28273 28274 28275 28276 28277 28278 28279 28280 28281 28282 28283 28284 28285 28286 28287 28288 28289 28290 28291 28292 28293 28294 28295 28296 28297 28298 28299 28300 28301 28302 28303 28304 28305 28306 28307 28308 28309 28310 28311 28312 28313 28314 28315 28316 28317 28318 28319 28320 28321 28322 28323 28324 28325 28326 28327 28328 28329 28330 28331 28332 28333 28334 28335 28336 28337 28338 28339 28340 28341 28342 28343 28344 28345 28346 28347 28348 28349 28350 28351 28352 28353 28354 28355 28356 28357 28358 28359 28360 28361 28362 28363 28364 28365 28366 28367 28368 28369 28370 28371 28372 28373 28374 28375 28376 28377 28378 28379 28380 28381 28382 28383 28384 28385 28386 28387 28388 28389 28390 28391 28392 28393 28394 28395 28396 28397 28398 28399 28400 28401 28402 28403 28404 28405 28406 28407 28408 28409 28410 28411 28412 28413 28414 28415 28416 28417 28418 28419 28420 28421 28422 28423 28424 28425 28426 28427 28428 28429 28430 28431 28432 28433 28434 28435 28436 28437 28438 28439 28440 28441 28442 28443 28444 28445 28446 28447 28448 28449 28450 28451 28452 28453 28454 28455 28456 28457 28458 28459 28460 28461 28462 28463 28464 28465 28466 28467 28468 28469 28470 28471 28472 28473 28474 28475 28476 28477 28478 28479 28480 28481 28482 28483 28484 28485 28486 28487 28488 28489 28490 28491 28492 28493 28494 28495 28496 28497 28498 28499 28500 28501 28502 28503 28504 28505 28506 28507 28508 28509 28510 28511 28512 28513 28514 28515 28516 28517 28518 28519 28520 28521 28522 28523 28524 28525 28526 28527 28528 28529 28530 28531 28532 28533 28534 28535 28536 28537 28538 28539 28540 28541 28542 28543 28544 28545 28546 28547 28548 28549 28550 28551 28552 28553 28554 28555 28556 28557 28558 28559 28560 28561 28562 28563 28564 28565 28566 28567 28568 28569 28570 28571 28572 28573 28574 28575 28576 28577 28578 28579 28580 28581 28582 28583 28584 28585 28586 28587 28588 28589 28590 28591 28592 28593 28594 28595 28596 28597 28598 28599 28600 28601 28602 28603 28604 28605 28606 28607 28608 28609 28610 28611 28612 28613 28614 28615 28616 28617 28618 28619 28620 28621 28622 28623 28624 28625 28626 28627 28628 28629 28630 28631 28632 28633 28634 28635 28636 28637 28638 28639 28640 28641 28642 28643 28644 28645 28646 28647 28648 28649 28650 28651 28652 28653 28654 28655 28656 28657 28658 28659 28660 28661 28662 28663 28664 28665 28666 28667 28668 28669 28670 28671 28672 28673 28674 28675 28676 28677 28678 28679 28680 28681 28682 28683 28684 28685 28686 28687 28688 28689 28690 28691 28692 28693 28694 28695 28696 28697 28698 28699 28700 28701 28702 28703 28704 28705 28706 28707 28708 28709 28710 28711 28712 28713 28714 28715 28716 28717 28718 28719 28720 28721 28722 28723 28724 28725 28726 28727 28728 28729 28730 28731 28732 28733 28734 28735 28736 28737 28738 28739 28740 28741 28742 28743 28744 28745 28746 28747 28748 28749 28750 28751 28752 28753 28754 28755 28756 28757 28758 28759 28760 28761 28762 28763 28764 28765 28766 28767 28768 28769 28770 28771 28772 28773 28774 28775 28776 28777 28778 28779 28780 28781 28782 28783 28784 28785 28786 28787 28788 28789 28790 28791 28792 28793 28794 28795 28796 28797 28798 28799 28800 28801 28802 28803 28804 28805 28806 28807 28808 28809 28810 28811 28812 28813 28814 28815 28816 28817 28818 28819 28820 28821 28822 28823 28824 28825 28826 28827 28828 28829 28830 28831 28832 28833 28834 28835 28836 28837 28838 28839 28840 28841 28842 28843 28844 28845 28846 28847 28848 28849 28850 28851 28852 28853 28854 28855 28856 28857 28858 28859 28860 28861 28862 28863 28864 28865 28866 28867 28868 28869 28870 28871 28872 28873 28874 28875 28876 28877 28878 28879 28880 28881 28882 28883 28884 28885 28886 28887 28888 28889 28890 28891 28892 28893 28894 28895 28896 28897 28898 28899 28900 28901 28902 28903 28904 28905 28906 28907 28908 28909 28910 28911 28912 28913 28914 28915 28916 28917 28918 28919 28920 28921 28922 28923 28924 28925 28926 28927 28928 28929 28930 28931 28932 28933 28934 28935 28936 28937 28938 28939 28940 28941 28942 28943 28944 28945 28946 28947 28948 28949 28950 28951 28952 28953 28954 28955 28956 28957 28958 28959 28960 28961 28962 28963 28964 28965 28966 28967 28968 28969 28970 28971 28972 28973 28974 28975 28976 28977 28978 28979 28980 28981 28982 28983 28984 28985 28986 28987 28988 28989 28990 28991 28992 28993 28994 28995 28996 28997 28998 28999 29000 29001 29002 29003 29004 29005 29006 29007 29008 29009 29010 29011 29012 29013 29014 29015 29016 29017 29018 29019 29020 29021 29022 29023 29024 29025 29026 29027 29028 29029 29030 29031 29032 29033 29034 29035 29036 29037 29038 29039 29040 29041 29042 29043 29044 29045 29046 29047 29048 29049 29050 29051 29052 29053 29054 29055 29056 29057 29058 29059 29060 29061 29062 29063 29064 29065 29066 29067 29068 29069 29070 29071 29072 29073 29074 29075 29076 29077 29078 29079 29080 29081 29082 29083 29084 29085 29086 29087 29088 29089 29090 29091 29092 29093 29094 29095 29096 29097 29098 29099 29100 29101 29102 29103 29104 29105 29106 29107 29108 29109 29110 29111 29112 29113 29114 29115 29116 29117 29118 29119 29120 29121 29122 29123 29124 29125 29126 29127 29128 29129 29130 29131 29132 29133 29134 29135 29136 29137 29138 29139 29140 29141 29142 29143 29144 29145 29146 29147 29148 29149 29150 29151 29152 29153 29154 29155 29156 29157 29158 29159 29160 29161 29162 29163 29164 29165 29166 29167 29168 29169 29170 29171 29172 29173 29174 29175 29176 29177 29178 29179 29180 29181 29182 29183 29184 29185 29186 29187 29188 29189 29190 29191 29192 29193 29194 29195 29196 29197 29198 29199 29200 29201 29202 29203 29204 29205 29206 29207 29208 29209 29210 29211 29212 29213 29214 29215 29216 29217 29218 29219 29220 29221 29222 29223 29224 29225 29226 29227 29228 29229 29230 29231 29232 29233 29234 29235 29236 29237 29238 29239 29240 29241 29242 29243 29244 29245 29246 29247 29248 29249 29250 29251 29252 29253 29254 29255 29256 29257 29258 29259 29260 29261 29262 29263 29264 29265 29266 29267 29268 29269 29270 29271 29272 29273 29274 29275 29276 29277 29278 29279 29280 29281 29282 29283 29284 29285 29286 29287 29288 29289 29290 29291 29292 29293 29294 29295 29296 29297 29298 29299 29300 29301 29302 29303 29304 29305 29306 29307 29308 29309 29310 29311 29312 29313 29314 29315 29316 29317 29318 29319 29320 29321 29322 29323 29324 29325 29326 29327 29328 29329 29330 29331 29332 29333 29334 29335 29336 29337 29338 29339 29340 29341 29342 29343 29344 29345 29346 29347 29348 29349 29350 29351 29352 29353 29354 29355 29356 29357 29358 29359 29360 29361 29362 29363 29364 29365 29366 29367 29368 29369 29370 29371 29372 29373 29374 29375 29376 29377 29378 29379 29380 29381 29382 29383 29384 29385 29386 29387 29388 29389 29390 29391 29392 29393 29394 29395 29396 29397 29398 29399 29400 29401 29402 29403 29404 29405 29406 29407 29408 29409 29410 29411 29412 29413 29414 29415 29416 29417 29418 29419 29420 29421 29422 29423 29424 29425 29426 29427 29428 29429 29430 29431 29432 29433 29434 29435 29436 29437 29438 29439 29440 29441 29442 29443 29444 29445 29446 29447 29448 29449 29450 29451 29452 29453 29454 29455 29456 29457 29458 29459 29460 29461 29462 29463 29464 29465 29466 29467 29468 29469 29470 29471 29472 29473 29474 29475 29476 29477 29478 29479 29480 29481 29482 29483 29484 29485 29486 29487 29488 29489 29490 29491 29492 29493 29494 29495 29496 29497 29498 29499 29500 29501 29502 29503 29504 29505 29506 29507 29508 29509 29510 29511 29512 29513 29514 29515 29516 29517 29518 29519 29520 29521 29522 29523 29524 29525 29526 29527 29528 29529 29530 29531 29532 29533 29534 29535 29536 29537 29538 29539 29540 29541 29542 29543 29544 29545 29546 29547 29548 29549 29550 29551 29552 29553 29554 29555 29556 29557 29558 29559 29560 29561 29562 29563 29564 29565 29566 29567 29568 29569 29570 29571 29572 29573 29574 29575 29576 29577 29578 29579 29580 29581 29582 29583 29584 29585 29586 29587 29588 29589 29590 29591 29592 29593 29594 29595 29596 29597 29598 29599 29600 29601 29602 29603 29604 29605 29606 29607 29608 29609 29610 29611 29612 29613 29614 29615 29616 29617 29618 29619 29620 29621 29622 29623 29624 29625 29626 29627 29628 29629 29630 29631 29632 29633 29634 29635 29636 29637 29638 29639 29640 29641 29642 29643 29644 29645 29646 29647 29648 29649 29650 29651 29652 29653 29654 29655 29656 29657 29658 29659 29660 29661 29662 29663 29664 29665 29666 29667 29668 29669 29670 29671 29672 29673 29674 29675 29676 29677 29678 29679 29680 29681 29682 29683 29684 29685 29686 29687 29688 29689 29690 29691 29692 29693 29694 29695 29696 29697 29698 29699 29700 29701 29702 29703 29704 29705 29706 29707 29708 29709 29710 29711 29712 29713 29714 29715 29716 29717 29718 29719 29720 29721 29722 29723 29724 29725 29726 29727 29728 29729 29730 29731 29732 29733 29734 29735 29736 29737 29738 29739 29740 29741 29742 29743 29744 29745 29746 29747 29748 29749 29750 29751 29752 29753 29754 29755 29756 29757 29758 29759 29760 29761 29762 29763 29764 29765 29766 29767 29768 29769 29770 29771 29772 29773 29774 29775 29776 29777 29778 29779 29780 29781 29782 29783 29784 29785 29786 29787 29788 29789 29790 29791 29792 29793 29794 29795 29796 29797 29798 29799 29800 29801 29802 29803 29804 29805 29806 29807 29808 29809 29810 29811 29812 29813 29814 29815 29816 29817 29818 29819 29820 29821 29822 29823 29824 29825 29826 29827 29828 29829 29830 29831 29832 29833 29834 29835 29836 29837 29838 29839 29840 29841 29842 29843 29844 29845 29846 29847 29848 29849 29850 29851 29852 29853 29854 29855 29856 29857 29858 29859 29860 29861 29862 29863 29864 29865 29866 29867 29868 29869 29870 29871 29872 29873 29874 29875 29876 29877 29878 29879 29880 29881 29882 29883 29884 29885 29886 29887 29888 29889 29890 29891 29892 29893 29894 29895 29896 29897 29898 29899 29900 29901 29902 29903 29904 29905 29906 29907 29908 29909 29910 29911 29912 29913 29914 29915 29916 29917 29918 29919 29920 29921 29922 29923 29924 29925 29926 29927 29928 29929 29930 29931 29932 29933 29934 29935 29936 29937 29938 29939 29940 29941 29942 29943 29944 29945 29946 29947 29948 29949 29950 29951 29952 29953 29954 29955 29956 29957 29958 29959 29960 29961 29962 29963 29964 29965 29966 29967 29968 29969 29970 29971 29972 29973 29974 29975 29976 29977 29978 29979 29980 29981 29982 29983 29984 29985 29986 29987 29988 29989 29990 29991 29992 29993 29994 29995 29996 29997 29998 29999 30000 30001 30002 30003 30004 30005 30006 30007 30008 30009 30010 30011 30012 30013 30014 30015 30016 30017 30018 30019 30020 30021 30022 30023 30024 30025 30026 30027 30028 30029 30030 30031 30032 30033 30034 30035 30036 30037 30038 30039 30040 30041 30042 30043 30044 30045 30046 30047 30048 30049 30050 30051 30052 30053 30054 30055 30056 30057 30058 30059 30060 30061 30062 30063 30064 30065 30066 30067 30068 30069 30070 30071 30072 30073 30074 30075 30076 30077 30078 30079 30080 30081 30082 30083 30084 30085 30086 30087 30088 30089 30090 30091 30092 30093 30094 30095 30096 30097 30098 30099 30100 30101 30102 30103 30104 30105 30106 30107 30108 30109 30110 30111 30112 30113 30114 30115 30116 30117 30118 30119 30120 30121 30122 30123 30124 30125 30126 30127 30128 30129 30130 30131 30132 30133 30134 30135 30136 30137 30138 30139 30140 30141 30142 30143 30144 30145 30146 30147 30148 30149 30150 30151 30152 30153 30154 30155 30156 30157 30158 30159 30160 30161 30162 30163 30164 30165 30166 30167 30168 30169 30170 30171 30172 30173 30174 30175 30176 30177 30178 30179 30180 30181 30182 30183 30184 30185 30186 30187 30188 30189 30190 30191 30192 30193 30194 30195 30196 30197 30198 30199 30200 30201 30202 30203 30204 30205 30206 30207 30208 30209 30210 30211 30212 30213 30214 30215 30216 30217 30218 30219 30220 30221 30222 30223 30224 30225 30226 30227 30228 30229 30230 30231 30232 30233 30234 30235 30236 30237 30238 30239 30240 30241 30242 30243 30244 30245 30246 30247 30248 30249 30250 30251 30252 30253 30254 30255 30256 30257 30258 30259 30260 30261 30262 30263 30264 30265 30266 30267 30268 30269 30270 30271 30272 30273 30274 30275 30276 30277 30278 30279 30280 30281 30282 30283 30284 30285 30286 30287 30288 30289 30290 30291 30292 30293 30294 30295 30296 30297 30298 30299 30300 30301 30302 30303 30304 30305 30306 30307 30308 30309 30310 30311 30312 30313 30314 30315 30316 30317 30318 30319 30320 30321 30322 30323 30324 30325 30326 30327 30328 30329 30330 30331 30332 30333 30334 30335 30336 30337 30338 30339 30340 30341 30342 30343 30344 30345 30346 30347 30348 30349 30350 30351 30352 30353 30354 30355 30356 30357 30358 30359 30360 30361 30362 30363 30364 30365 30366 30367 30368 30369 30370 30371 30372 30373 30374 30375 30376 30377 30378 30379 30380 30381 30382 30383 30384 30385 30386 30387 30388 30389 30390 30391 30392 30393 30394 30395 30396 30397 30398 30399 30400 30401 30402 30403 30404 30405 30406 30407 30408 30409 30410 30411 30412 30413 30414 30415 30416 30417 30418 30419 30420 30421 30422 30423 30424 30425 30426 30427 30428 30429 30430 30431 30432 30433 30434 30435 30436 30437 30438 30439 30440 30441 30442 30443 30444 30445 30446 30447 30448 30449 30450 30451 30452 30453 30454 30455 30456 30457 30458 30459 30460 30461 30462 30463 30464 30465 30466 30467 30468 30469 30470 30471 30472 30473 30474 30475 30476 30477 30478 30479 30480 30481 30482 30483 30484 30485 30486 30487 30488 30489 30490 30491 30492 30493 30494 30495 30496 30497 30498 30499 30500 30501 30502 30503 30504 30505 30506 30507 30508 30509 30510 30511 30512 30513 30514 30515 30516 30517 30518 30519 30520 30521 30522 30523 30524 30525 30526 30527 30528 30529 30530 30531 30532 30533 30534 30535 30536 30537 30538 30539 30540 30541 30542 30543 30544 30545 30546 30547 30548 30549 30550 30551 30552 30553 30554 30555 30556 30557 30558 30559 30560 30561 30562 30563 30564 30565 30566 30567 30568 30569 30570 30571 30572 30573 30574 30575 30576 30577 30578 30579 30580 30581 30582 30583 30584 30585 30586 30587 30588 30589 30590 30591 30592 30593 30594 30595 30596 30597 30598 30599 30600 30601 30602 30603 30604 30605 30606 30607 30608 30609 30610 30611 30612 30613 30614 30615 30616 30617 30618 30619 30620 30621 30622 30623 30624 30625 30626 30627 30628 30629 30630 30631 30632 30633 30634 30635 30636 30637 30638 30639 30640 30641 30642 30643 30644 30645 30646 30647 30648 30649 30650 30651 30652 30653 30654 30655 30656 30657 30658 30659 30660 30661 30662 30663 30664 30665 30666 30667 30668 30669 30670 30671 30672 30673 30674 30675 30676 30677 30678 30679 30680 30681 30682 30683 30684 30685 30686 30687 30688 30689 30690 30691 30692 30693 30694 30695 30696 30697 30698 30699 30700 30701 30702 30703 30704 30705 30706 30707 30708 30709 30710 30711 30712 30713 30714 30715 30716 30717 30718 30719 30720 30721 30722 30723 30724 30725 30726 30727 30728 30729 30730 30731 30732 30733 30734 30735 30736 30737 30738 30739 30740 30741 30742 30743 30744 30745 30746 30747 30748 30749 30750 30751 30752 30753 30754 30755 30756 30757 30758 30759 30760 30761 30762 30763 30764 30765 30766 30767 30768 30769 30770 30771 30772 30773 30774 30775 30776 30777 30778 30779 30780 30781 30782 30783 30784 30785 30786 30787 30788 30789 30790 30791 30792 30793 30794 30795 30796 30797 30798 30799 30800 30801 30802 30803 30804 30805 30806 30807 30808 30809 30810 30811 30812 30813 30814 30815 30816 30817 30818 30819 30820 30821 30822 30823 30824 30825 30826 30827 30828 30829 30830 30831 30832 30833 30834 30835 30836 30837 30838 30839 30840 30841 30842 30843 30844 30845 30846 30847 30848 30849 30850 30851 30852 30853 30854 30855 30856 30857 30858 30859 30860 30861 30862 30863 30864 30865 30866 30867 30868 30869 30870 30871 30872 30873 30874 30875 30876 30877 30878 30879 30880 30881 30882 30883 30884 30885 30886 30887 30888 30889 30890 30891 30892 30893 30894 30895 30896 30897 30898 30899 30900 30901 30902 30903 30904 30905 30906 30907 30908 30909 30910 30911 30912 30913 30914 30915 30916 30917 30918 30919 30920 30921 30922 30923 30924 30925 30926 30927 30928 30929 30930 30931 30932 30933 30934 30935 30936 30937 30938 30939 30940 30941 30942 30943 30944 30945 30946 30947 30948 30949 30950 30951 30952 30953 30954 30955 30956 30957 30958 30959 30960 30961 30962 30963 30964 30965 30966 30967 30968 30969 30970 30971 30972 30973 30974 30975 30976 30977 30978 30979 30980 30981 30982 30983 30984 30985 30986 30987 30988 30989 30990 30991 30992 30993 30994 30995 30996 30997 30998 30999 31000 31001 31002 31003 31004 31005 31006 31007 31008 31009 31010 31011 31012 31013 31014 31015 31016 31017 31018 31019 31020 31021 31022 31023 31024 31025 31026 31027 31028 31029 31030 31031 31032 31033 31034 31035 31036 31037 31038 31039 31040 31041 31042 31043 31044 31045 31046 31047 31048 31049 31050 31051 31052 31053 31054 31055 31056 31057 31058 31059 31060 31061 31062 31063 31064 31065 31066 31067 31068 31069 31070 31071 31072 31073 31074 31075 31076 31077 31078 31079 31080 31081 31082 31083 31084 31085 31086 31087 31088 31089 31090 31091 31092 31093 31094 31095 31096 31097 31098 31099 31100 31101 31102 31103 31104 31105 31106 31107 31108 31109 31110 31111 31112 31113 31114 31115 31116 31117 31118 31119 31120 31121 31122 31123 31124 31125 31126 31127 31128 31129 31130 31131 31132 31133 31134 31135 31136 31137 31138 31139 31140 31141 31142 31143 31144 31145 31146 31147 31148 31149 31150 31151 31152 31153 31154 31155 31156 31157 31158 31159 31160 31161 31162 31163 31164 31165 31166 31167 31168 31169 31170 31171 31172 31173 31174 31175 31176 31177 31178 31179 31180 31181 31182 31183 31184 31185 31186 31187 31188 31189 31190 31191 31192 31193 31194 31195 31196 31197 31198 31199 31200 31201 31202 31203 31204 31205 31206 31207 31208 31209 31210 31211 31212 31213 31214 31215 31216 31217 31218 31219 31220 31221 31222 31223 31224 31225 31226 31227 31228 31229 31230 31231 31232 31233 31234 31235 31236 31237 31238 31239 31240 31241 31242 31243 31244 31245 31246 31247 31248 31249 31250 31251 31252 31253 31254 31255 31256 31257 31258 31259 31260 31261 31262 31263 31264 31265 31266 31267 31268 31269 31270 31271 31272 31273 31274 31275 31276 31277 31278 31279 31280 31281 31282 31283 31284 31285 31286 31287 31288 31289 31290 31291 31292 31293 31294 31295 31296 31297 31298 31299 31300 31301 31302 31303 31304 31305 31306 31307 31308 31309 31310 31311 31312 31313 31314 31315 31316 31317 31318 31319 31320 31321 31322 31323 31324 31325 31326 31327 31328 31329 31330 31331 31332 31333 31334 31335 31336 31337 31338 31339 31340 31341 31342 31343 31344 31345 31346 31347 31348 31349 31350 31351 31352 31353 31354 31355 31356 31357 31358 31359 31360 31361 31362 31363 31364 31365 31366 31367 31368 31369 31370 31371 31372 31373 31374 31375 31376 31377 31378 31379 31380 31381 31382 31383 31384 31385 31386 31387 31388 31389 31390 31391 31392 31393 31394 31395 31396 31397 31398 31399 31400 31401 31402 31403 31404 31405 31406 31407 31408 31409 31410 31411 31412 31413 31414 31415 31416 31417 31418 31419 31420 31421 31422 31423 31424 31425 31426 31427 31428 31429 31430 31431 31432 31433 31434 31435 31436 31437 31438 31439 31440 31441 31442 31443 31444 31445 31446 31447 31448 31449 31450 31451 31452 31453 31454 31455 31456 31457 31458 31459 31460 31461 31462 31463 31464 31465 31466 31467 31468 31469 31470 31471 31472 31473 31474 31475 31476 31477 31478 31479 31480 31481 31482 31483 31484 31485 31486 31487 31488 31489 31490 31491 31492 31493 31494 31495 31496 31497 31498 31499 31500 31501 31502 31503 31504 31505 31506 31507 31508 31509 31510 31511 31512 31513 31514 31515 31516 31517 31518 31519 31520 31521 31522 31523 31524 31525 31526 31527 31528 31529 31530 31531 31532 31533 31534 31535 31536 31537 31538 31539 31540 31541 31542 31543 31544 31545 31546 31547 31548 31549 31550 31551 31552 31553 31554 31555 31556 31557 31558 31559 31560 31561 31562 31563 31564 31565 31566 31567 31568 31569 31570 31571 31572 31573 31574 31575 31576 31577 31578 31579 31580 31581 31582 31583 31584 31585 31586 31587 31588 31589 31590 31591 31592 31593 31594 31595 31596 31597 31598 31599 31600 31601 31602 31603 31604 31605 31606 31607 31608 31609 31610 31611 31612 31613 31614 31615 31616 31617 31618 31619 31620 31621 31622 31623 31624 31625 31626 31627 31628 31629 31630 31631 31632 31633 31634 31635 31636 31637 31638 31639 31640 31641 31642 31643 31644 31645 31646 31647 31648 31649 31650 31651 31652 31653 31654 31655 31656 31657 31658 31659 31660 31661 31662 31663 31664 31665 31666 31667 31668 31669 31670 31671 31672 31673 31674 31675 31676 31677 31678 31679 31680 31681 31682 31683 31684 31685 31686 31687 31688 31689 31690 31691 31692 31693 31694 31695 31696 31697 31698 31699 31700 31701 31702 31703 31704 31705 31706 31707 31708 31709 31710 31711 31712 31713 31714 31715 31716 31717 31718 31719 31720 31721 31722 31723 31724 31725 31726 31727 31728 31729 31730 31731 31732 31733 31734 31735 31736 31737 31738 31739 31740 31741 31742 31743 31744 31745 31746 31747 31748 31749 31750 31751 31752 31753 31754 31755 31756 31757 31758 31759 31760 31761 31762 31763 31764 31765 31766 31767 31768 31769 31770 31771 31772 31773 31774 31775 31776 31777 31778 31779 31780 31781 31782 31783 31784 31785 31786 31787 31788 31789 31790 31791 31792 31793 31794 31795 31796 31797 31798 31799 31800 31801 31802 31803 31804 31805 31806 31807 31808 31809 31810 31811 31812 31813 31814 31815 31816 31817 31818 31819 31820 31821 31822 31823 31824 31825 31826 31827 31828 31829 31830 31831 31832 31833 31834 31835 31836 31837 31838 31839 31840 31841 31842 31843 31844 31845 31846 31847 31848 31849 31850 31851 31852 31853 31854 31855 31856 31857 31858 31859 31860 31861 31862 31863 31864 31865 31866 31867 31868 31869 31870 31871 31872 31873 31874 31875 31876 31877 31878 31879 31880 31881 31882 31883 31884 31885 31886 31887 31888 31889 31890 31891 31892 31893 31894 31895 31896 31897 
</DataArray>
<DataArray type="UInt32" Name="offsets" format="ascii">
3 6 9 12 15 17 20 23 26 29 32 35 38 40 43 46 49 52 54 57 60 62 65 68 71 74 76 79 82 85 88 90 93 96 99 102 105 108 111 114 117 120 123 126 129 131 134 137 139 142 145 148 151 154 156 159 162 165 168 171 174 177 179 182 185 188 191 193 196 199 202 205 208 211 214 217 220 222 225 228 230 233 236 238 241 244 247 250 252 255 258 261 264 267 270 273 275 277 279 282 285 287 290 293 296 299 302 304 307 310 313 316 319 322 325 328 331 334 337 340 343 345 348 351 354 356 359 362 365 368 371 374 376 379 382 385 388 391 394 397 400 403 406 409 412 415 418 421 424 427 430 433 436 439 442 445 448 451 453 456 459 462 464 467 470 472 475 478 481 484 487 490 493 496 499 502 505 507 510 513 516 519 522 525 528 531 533 536 539 542 545 548 551 554 557 559 562 565 568 571 574 577 580 583 586 588 591 594 597 600 603 606 609 612 615 618 621 624 627 630 633 636 639 642 645 648 651 654 657 659 662 665 668 670 673 675 678 680 683 686 688 691 694 697 699 702 704 707 709 712 714 716 719 721 724 727 729 732 734 737 740 743 745 748 750 752 755 758 760 763 766 769 771 774 776 778 780 783 785 788 791 794 796 799 801 803 805 808 811 813 815 818 821 824 827 829 832 834 837 840 842 845 848 851 853 856 858 860 862 865 868 871 873 876 878 880 882 884 887 890 893 895 897 900 903 905 907 909 912 914 917 920 923 926 928 931 934 937 940 943 946 949 951 954 957 960 963 966 969 971 973 976 979 982 984 987 990 993 995 998 1000 1003 1005 1007 1010 1013 1016 1019 1021 1024 1027 1029 1032 1035 1038 1041 1043 1046 1048 1051 1054 1057 1060 1063 1065 1067 1070 1073 1076 1079 1082 1085 1088 1091 1093 1096 1099 1102 1104 1107 1110 1112 1115 1117 1120 1123 1126 1129 1132 1135 1138 1141 1144 1147 1150 1152 1155 1157 1160 1162 1165 1168 1171 1173 1176 1178 1181 1183 1186 1189 1192 1195 1198 1201 1203 1206 1208 1211 1214 1217 1219 1222 1225 1228 1230 1233 1235 1237 1240 1243 1246 1249 1251 1254 1257 1260 1263 1265 1267 1270 1273 1275 1278 1280 1283 1285 1287 1290 1293 1296 1298 1301 1304 1307 1310 1312 1315 1318 1321 1324 1327 1330 1333 1336 1339 1342 1345 1347 1350 1353 1356 1359 1361 1364 1367 1370 1372 1375 1377 1379 1381 1384 1387 1390 1392 1394 1397 1399 1402 1405 1407 1410 1413 1416 1419 1421 1424 1427 1430 1433 1436 1439 1442 1445 1448 1451 1454 1456 1458 1461 1464 1466 1469 1472 1475 1477 1480 1483 1486 1489 1492 1495 1497 1500 1503 1506 1508 1511 1514 1517 1519 1522 1525 1528 1531 1534 1537 1540 1543 1546 1549 1552 1554 1557 1560 1563 1565 1568 1571 1574 1577 1580 1583 1586 1588 1591 1594 1597 1600 1603 1605 1608 1611 1614 1617 1620 1623 1626 1629 1632 1635 1638 1641 1644 1647 1650 1653 1656 1659 1662 1664 1667 1670 1673 1676 1678 1681 1684 1686 1689 1692 1695 1698 1701 1704 1707 1709 1712 1715 1718 1721 1724 1727 1730 1733 1735 1738 1740 1743 1746 1748 1751 1754 1757 1759 1762 1765 1767 1770 1773 1776 1778 1781 1783 1786 1789 1791 1794 1796 1799 1802 1805 1808 1811 1814 1817 1820 1823 1826 1829 1832 1835 1838 1841 1844 1847 1850 1853 1856 1859 1862 1864 1867 1869 1872 1874 1877 1880 1883 1886 1889 1892 1895 1898 1901 1904 1907 1910 1913 1916 1919 1921 1924 1927 1930 1933 1936 1939 1942 1945 1948 1950 1953 1956 1959 1962 1965 1968 1971 1974 1977 1980 1983 1986 1989 1992 1995 1998 2001 2004 2007 2010 2013 2016 2019 2022 2025 2028 2031 2034 2037 2039 2042 2045 2047 2050 2053 2056 2058 2060 2063 2065 2068 2071 2074 2077 2080 2082 2085 2088 2091 2094 2097 2099 2102 2105 2108 2111 2114 2117 2120 2123 2126 2129 2132 2135 2138 2141 2144 2147 2150 2153 2156 2159 2162 2165 2168 2171 2174 2177 2180 2183 2186 2189 2192 2195 2198 2201 2204 2207 2210 2213 2216 2219 2222 2225 2228 2231 2234 2237 2240 2243 2246 2248 2251 2254 2257 2260 2263 2266 2269 2272 2275 2278 2281 2284 2287 2290 2293 2295 2298 2301 2304 2307 2309 2312 2315 2318 2321 2324 2327 2330 2333 2336 2339 2342 2345 2348 2351 2354 2357 2360 2363 2366 2369 2372 2375 2378 2381 2384 2387 2390 2392 2395 2398 2400 2403 2405 2407 2409 2411 2414 2417 2419 2422 2425 2428 2431 2434 2437 2440 2443 2446 2449 2452 2455 2458 2461 2464 2467 2470 2472 2475 2478 2480 2483 2485 2488 2491 2494 2497 2499 2502 2504 2507 2510 2513 2516 2518 2521 2524 2527 2529 2532 2535 2538 2541 2544 2546 2549 2551 2554 2557 2559 2561 2564 2566 2569 2572 2575 2578 2581 2584 2587 2590 2593 2596 2599 2601 2604 2607 2610 2612 2615 2618 2621 2623 2626 2629 2631 2633 2635 2638 2641 2644 2647 2650 2653 2656 2659 2662 2665 2668 2670 2673 2676 2679 2682 2685 2688 2691 2694 2696 2698 2700 2703 2706 2709 2712 2715 2718 2721 2724 2726 2728 2731 2734 2737 2739 2742 2745 2747 2750 2753 2756 2759 2762 2765 2768 2771 2774 2777 2780 2782 2785 2788 2791 2794 2797 2800 2803 2806 2808 2811 2814 2817 2820 2823 2826 2829 2832 2835 2838 2840 2843 2845 2847 2849 2852 2855 2858 2861 2864 2867 2870 2872 2874 2877 2879 2882 2885 2888 2891 2894 2896 2899 2901 2903 2906 2909 2912 2914 2917 2919 2922 2925 2928 2931 2933 2936 2939 2942 2945 2948 2951 2954 2957 2960 2963 2966 2969 2972 2975 2978 2981 2984 2986 2989 2992 2995 2997 3000 3003 3006 3009 3012 3014 3017 3020 3023 3026 3029 3032 3034 3037 3039 3042 3045 3048 3051 3054 3057 3060 3063 3065 3068 3071 3074 3076 3079 3082 3085 3088 3091 3094 3097 3100 3103 3106 3109 3112 3115 3118 3121 3124 3127 3130 3133 3136 3139 3142 3145 3148 3151 3153 3155 3157 3160 3163 3166 3169 3171 3174 3177 3180 3183 3185 3188 3191 3194 3197 3200 3203 3206 3208 3211 3214 3217 3220 3223 3226 3229 3232 3234 3237 3240 3243 3246 3249 3252 3255 3258 3261 3264 3267 3270 3272 3275 3278 3281 3284 3287 3290 3292 3295 3298 3301 3304 3307 3310 3313 3316 3318 3321 3324 3327 3329 3332 3335 3338 3341 3344 3347 3350 3353 3356 3359 3362 3365 3367 3370 3373 3376 3379 3382 3385 3388 3391 3394 3397 3400 3403 3406 3409 3412 3415 3418 3421 3424 3427 3430 3433 3436 3439 3442 3445 3448 3451 3454 3457 3460 3463 3466 3469 3472 3475 3478 3481 3484 3487 3490 3493 3496 3499 3502 3505 3508 3510 3513 3516 3519 3522 3525 3528 3531 3534 3537 3540 3543 3546 3549 3552 3555 3558 3561 3564 3567 3570 3573 3576 3579 3582 3584 3587 3590 3593 3596 3599 3602 3605 3608 3611 3614 3616 3619 3622 3624 3627 3630 3633 3636 3639 3642 3645 3648 3651 3653 3656 3658 3661 3664 3667 3670 3672 3675 3678 3680 3683 3685 3688 3691 3694 3697 3700 3702 3705 3708 3711 3714 3717 3720 3723 3726 3728 3731 3734 3737 3740 3743 3746 3749 3752 3755 3758 3761 3764 3767 3770 3772 3775 3777 3779 3782 3785 3788 3791 3794 3796 3799 3802 3805 3808 3811 3814 3817 3820 3823 3826 3829 3832 3835 3838 3841 3843 3846 3849 3852 3855 3858 3861 3864 3867 3870 3873 3876 3879 3882 3885 3888 3891 3893 3896 3899 3902 3905 3908 3910 3912 3915 3918 3920 3923 3926 3929 3932 3935 3938 3941 3944 3947 3950 3952 3955 3958 3961 3964 3967 3970 3973 3976 3979 3981 3984 3986 3989 3992 3995 3998 4001 4003 4006 4009 4012 4015 4017 4020 4023 4026 4028 4031 4034 4037 4039 4042 4045 4047 4050 4053 4056 4059 4062 4065 4068 4071 4074 4077 4080 4083 4086 4089 4092 4095 4097 4100 4103 4106 4109 4112 4115 4118 4120 4123 4126 4129 4132 4135 4138 4141 4144 4147 4150 4153 4156 4159 4162 4165 4168 4171 4174 4177 4180 4183 4186 4189 4192 4195 4198 4201 4203 4206 4209 4212 4215 4217 4220 4223 4226 4228 4231 4234 4237 4240 4243 4246 4249 4252 4255 4257 4260 4262 4265 4268 4271 4274 4277 4280 4283 4286 4289 4292 4295 4298 4301 4304 4307 4310 4313 4316 4318 4320 4323 4326 4329 4331 4334 4337 4339 4342 4345 4347 4350 4353 4356 4358 4361 4364 4366 4369 4372 4375 4378 4381 4384 4387 4390 4393 4396 4399 4402 4405 4408 4411 4414 4417 4420 4423 4426 4428 4431 4433 4436 4439 4442 4445 4448 4451 4454 4457 4460 4463 4466 4468 4471 4473 4476 4479 4482 4484 4487 4490 4493 4496 4499 4501 4504 4507 4510 4513 4516 4519 4521 4524 4527 4530 4533 4536 4539 4542 4545 4548 4551 4554 4556 4559 4562 4565 4568 4571 4574 4577 4580 4582 4585 4588 4591 4593 4596 4599 4601 4604 4607 4610 4613 4616 4618 4621 4624 4627 4630 4633 4636 4639 4642 4645 4647 4650 4653 4655 4658 4660 4663 4665 4667 4669 4672 4674 4677 4680 4683 4686 4689 4692 4694 4697 4700 4703 4706 4709 4712 4714 4717 4720 4723 4726 4729 4732 4735 4737 4740 4743 4746 4749 4751 4754 4757 4760 4763 4766 4768 4771 4773 4776 4779 4782 4785 4788 4791 4794 4797 4800 4803 4805 4808 4811 4814 4817 4820 4823 4826 4828 4831 4834 4837 4840 4843 4846 4849 4851 4854 4856 4859 4862 4865 4868 4871 4874 4877 4880 4882 4885 4888 4891 4893 4895 4898 4901 4904 4907 4910 4912 4914 4917 4919 4922 4925 4927 4930 4933 4935 4938 4941 4944 4947 4950 4953 4956 4959 4961 4964 4967 4970 4973 4976 4978 4981 4984 4987 4990 4992 4995 4998 5000 5003 5006 5009 5012 5015 5018 5021 5024 5027 5030 5033 5036 5039 5042 5045 5048 5051 5054 5057 5060 5063 5066 5069 5072 5075 5078 5081 5084 5087 5090 5093 5096 5099 5102 5105 5108 5111 5114 5117 5120 5123 5125 5128 5131 5133 5136 5139 5142 5145 5148 5150 5153 5156 5159 5162 5164 5167 5170 5173 5176 5179 5182 5185 5188 5191 5194 5197 5200 5203 5206 5209 5212 5215 5218 5221 5224 5227 5230 5233 5236 5238 5241 5244 5247 5249 5252 5255 5258 5261 5264 5267 5269 5272 5275 5278 5281 5284 5287 5290 5293 5296 5299 5302 5304 5307 5309 5311 5314 5317 5319 5322 5325 5328 5331 5334 5337 5340 5343 5346 5349 5352 5354 5357 5360 5362 5365 5368 5371 5374 5377 5380 5383 5386 5389 5392 5395 5398 5401 5404 5407 5409 5412 5415 5418 5421 5424 5427 5430 5432 5435 5437 5440 5443 5446 5449 5451 5454 5456 5459 5462 5465 5468 5471 5474 5477 5480 5483 5485 5488 5491 5494 5497 5500 5503 5506 5509 5512 5515 5518 5521 5524 5527 5530 5533 5536 5538 5541 5544 5547 5550 5553 5556 5559 5562 5565 5568 5571 5574 5577 5580 5583 5586 5589 5592 5595 5598 5601 5604 5607 5610 5613 5615 5617 5620 5623 5626 5629 5632 5635 5638 5641 5644 5647 5650 5652 5655 5658 5661 5664 5666 5669 5672 5675 5678 5680 5683 5686 5689 5692 5695 5698 5701 5704 5706 5709 5712 5715 5718 5721 5724 5727 5730 5733 5735 5738 5741 5744 5747 5750 5753 5756 5759 5762 5765 5768 5771 5774 5777 5780 5783 5786 5789 5792 5795 5797 5800 5803 5806 5809 5812 5815 5818 5821 5824 5827 5830 5833 5836 5839 5841 5844 5846 5849 5852 5855 5858 5861 5864 5867 5870 5872 5875 5878 5880 5883 5886 5889 5892 5895 5898 5901 5904 5907 5910 5913 5916 5919 5922 5925 5928 5931 5934 5937 5940 5943 5946 5949 5952 5955 5958 5961 5964 5967 5970 5973 5976 5979 5982 5985 5988 5990 5993 5996 5998 6001 6004 6007 6010 6012 6015 6017 6020 6023 6025 6028 6030 6033 6036 6039 6042 6045 6047 6050 6053 6056 6059 6062 6065 6068 6071 6074 6077 6080 6083 6085 6088 6091 6094 6096 6099 6102 6105 6108 6111 6114 6117 6120 6123 6125 6128 6131 6134 6137 6139 6141 6144 6147 6150 6153 6156 6159 6162 6165 6167 6170 6173 6176 6179 6182 6184 6187 6190 6193 6195 6198 6201 6204 6206 6209 6212 6215 6218 6220 6223 6226 6229 6232 6235 6238 6241 6244 6247 6250 6253 6256 6259 6262 6264 6267 6270 6273 6276 6279 6282 6284 6287 6289 6291 6294 6296 6299 6301 6304 6307 6310 6313 6315 6318 6321 6324 6327 6329 6332 6335 6338 6341 6344 6347 6350 6353 6356 6358 6361 6364 6367 6370 6373 6376 6379 6382 6385 6388 6391 6394 6397 6400 6402 6405 6408 6411 6413 6416 6419 6422 6424 6427 6429 6432 6435 6438 6441 6444 6447 6450 6453 6456 6459 6462 6465 6468 6471 6474 6477 6479 6482 6485 6488 6491 6494 6497 6499 6502 6505 6508 6511 6514 6517 6520 6523 6526 6529 6532 6535 6538 6541 6544 6547 6550 6553 6555 6558 6561 6564 6567 6570 6573 6576 6579 6582 6585 6588 6591 6594 6597 6600 6603 6606 6609 6612 6615 6618 6621 6624 6627 6630 6633 6636 6639 6642 6645 6648 6651 6654 6657 6659 6662 6665 6668 6671 6673 6676 6679 6682 6685 6688 6691 6694 6696 6699 6702 6705 6708 6711 6714 6717 6720 6723 6725 6728 6731 6733 6736 6739 6742 6745 6748 6750 6753 6756 6759 6761 6764 6767 6769 6772 6775 6778 6781 6784 6787 6790 6793 6796 6799 6802 6805 6808 6811 6814 6817 6820 6823 6826 6829 6831 6834 6837 6840 6843 6846 6849 6852 6855 6858 6861 6863 6865 6868 6870 6873 6876 6879 6882 6885 6887 6890 6893 6896 6899 6901 6904 6907 6910 6913 6916 6918 6921 6923 6926 6929 6931 6934 6937 6940 6943 6946 6949 6952 6955 6957 6960 6963 6966 6969 6972 6975 6977 6980 6983 6986 6989 6992 6995 6997 7000 7003 7006 7009 7011 7014 7017 7019 7022 7024 7027 7030 7032 7035 7038 7041 7044 7047 7050 7052 7055 7058 7061 7064 7066 7069 7072 7075 7078 7081 7084 7087 7090 7092 7094 7097 7100 7103 7106 7109 7112 7115 7118 7120 7123 7126 7129 7132 7135 7138 7140 7143 7146 7149 7152 7155 7158 7161 7163 7166 7169 7172 7174 7177 7180 7183 7186 7189 7192 7195 7198 7201 7204 7207 7210 7212 7215 7218 7221 7224 7226 7229 7232 7234 7237 7240 7243 7246 7248 7251 7254 7257 7259 7261 7264 7267 7270 7272 7275 7278 7281 7283 7286 7289 7292 7295 7298 7301 7304 7307 7310 7312 7315 7318 7321 7323 7326 7329 7332 7335 7338 7341 7344 7347 7350 7353 7356 7359 7361 7364 7366 7369 7372 7374 7377 7380 7382 7385 7388 7391 7394 7397 7400 7403 7405 7408 7411 7414 7417 7420 7422 7425 7427 7430 7433 7436 7438 7440 7443 7445 7447 7450 7452 7455 7458 7461 7464 7467 7470 7472 7475 7477 7480 7483 7486 7489 7492 7495 7498 7501 7504 7507 7510 7513 7516 7518 7521 7524 7526 7529 7531 7534 7537 7539 7542 7545 7548 7550 7552 7555 7558 7560 7563 7566 7569 7572 7575 7578 7581 7584 7587 7590 7593 7596 7599 7602 7605 7608 7611 7614 7617 7620 7623 7626 7629 7631 7633 7636 7638 7641 7643 7646 7649 7651 7653 7656 7659 7661 7664 7667 7669 7672 7675 7677 7680 7682 7685 7688 7691 7694 7696 7699 7702 7705 7708 7710 7713 7715 7717 7720 7722 7725 7728 7730 7732 7735 7738 7741 7743 7746 7749 7752 7755 7757 7759 7762 7765 7768 7771 7774 7776 7779 7782 7785 7788 7791 7794 7797 7800 7803 7806 7809 7811 7814 7816 7819 7821 7824 7827 7829 7832 7834 7837 7840 7843 7846 7849 7852 7855 7858 7860 7863 7866 7868 7871 7874 7877 7880 7882 7885 7888 7891 7894 7897 7900 7903 7906 7909 7912 7915 7918 7920 7923 7926 7929 7932 7935 7938 7941 7944 7947 7950 7953 7955 7958 7961 7964 7967 7970 7973 7975 7978 7980 7983 7986 7988 7991 7994 7997 8000 8003 8006 8009 8012 8015 8018 8021 8024 8027 8030 8033 8036 8039 8041 8043 8046 8049 8052 8054 8057 8060 8062 8065 8068 8071 8074 8077 8080 8083 8086 8089 8092 8095 8098 8101 8104 8107 8110 8113 8116 8119 8122 8125 8128 8131 8134 8137 8139 8141 8144 8147 8150 8153 8156 8159 8162 8165 8168 8171 8174 8176 8179 8182 8185 8188 8191 8194 8197 8200 8203 8206 8209 8212 8215 8218 8221 8224 8227 8230 8233 8236 8239 8242 8245 8248 8251 8254 8257 8260 8263 8266 8269 8272 8275 8277 8280 8283 8286 8289 8292 8294 8297 8300 8302 8305 8308 8310 8312 8315 8318 8321 8324 8327 8330 8333 8336 8339 8342 8345 8348 8351 8353 8356 8359 8361 8364 8367 8370 8373 8376 8379 8381 8384 8387 8389 8392 8395 8398 8401 8404 8407 8410 8413 8416 8419 8422 8425 8428 8430 8433 8436 8439 8442 8445 8448 8451 8453 8456 8459 8462 8465 8468 8471 8474 8477 8480 8483 8486 8489 8491 8494 8497 8499 8502 8505 8508 8511 8514 8517 8520 8523 8526 8529 8532 8535 8538 8541 8544 8547 8550 8553 8556 8559 8561 8564 8567 8569 8572 8574 8577 8580 8583 8585 8588 8591 8593 8596 8598 8601 8604 8607 8609 8612 8615 8618 8621 8623 8626 8629 8632 8635 8638 8641 8644 8646 8649 8652 8655 8657 8660 8663 8666 8669 8672 8675 8678 8681 8684 8687 8690 8693 8695 8698 8701 8704 8707 8710 8713 8716 8719 8721 8724 8727 8730 8733 8736 8739 8742 8745 8748 8751 8754 8756 8759 8762 8765 8768 8771 8774 8777 8780 8783 8786 8789 8792 8795 8798 8801 8804 8807 8810 8813 8815 8817 8820 8823 8826 8828 8831 8834 8837 8840 8843 8846 8849 8852 8855 8858 8861 8864 8866 8869 8872 8875 8878 8881 8884 8887 8890 8893 8895 8898 8901 8904 8907 8910 8913 8916 8919 8922 8925 8928 8931 8934 8937 8940 8943 8945 8948 8950 8953 8956 8959 8962 8965 8967 8970 8973 8976 8979 8981 8984 8987 8990 8992 8995 8998 9001 9003 9006 9009 9012 9015 9018 9021 9024 9027 9030 9032 9035 9038 9041 9043 9046 9049 9051 9054 9057 9060 9063 9066 9069 9071 9074 9077 9080 9083 9086 9089 9092 9095 9097 9100 9103 9106 9108 9111 9114 9117 9120 9123 9126 9129 9132 9135 9138 9141 9144 9147 9150 9153 9156 9159 9162 9165 9168 9171 9174 9177 9180 9183 9186 9189 9191 9194 9197 9200 9203 9206 9209 9212 9214 9217 9220 9223 9226 9229 9232 9235 9238 9241 9244 9247 9250 9253 9256 9259 9262 9265 9268 9271 9274 9277 9280 9283 9286 9289 9291 9294 9296 9299 9302 9305 9308 9311 9314 9316 9319 9322 9325 9327 9330 9333 9335 9338 9341 9344 9347 9350 9353 9356 9359 9362 9365 9368 9371 9373 9376 9379 9382 9385 9388 9390 9393 9396 9399 9402 9405 9408 9411 9414 9417 9420 9423 9426 9429 9431 9434 9437 9440 9442 9445 9448 9451 9454 9457 9460 9463 9466 9469 9472 9475 9478 9480 9482 9485 9488 9491 9494 9496 9499 9502 9505 9508 9511 9514 9517 9520 9523 9525 9527 9530 9533 9536 9539 9542 9544 9547 9550 9553 9556 9559 9561 9564 9567 9570 9573 9576 9578 9581 9583 9586 9589 9592 9595 9597 9600 9602 9605 9607 9609 9612 9615 9618 9621 9624 9627 9630 9632 9634 9637 9640 9643 9646 9649 9652 9654 9656 9658 9661 9663 9665 9668 9671 9674 9676 9679 9682 9685 9688 9691 9693 9695 9697 9700 9702 9705 9708 9711 9713 9716 9718 9720 9723 9726 9729 9732 9735 9738 9741 9743 9745 9748 9751 9753 9755 9757 9760 9763 9766 9769 9772 9775 9778 9781 9784 9787 9790 9793 9796 9799 9802 9805 9808 9811 9814 9817 9820 9823 9826 9829 9832 9835 9838 9841 9844 9847 9850 9853 9856 9859 9862 9865 9868 9871 9874 9877 9879 9882 9885 9888 9891 9894 9897 9900 9903 9906 9909 9911 9914 9917 9920 9923 9926 9929 9931 9934 9937 9939 9942 9945 9948 9951 9954 9957 9960 9963 9966 9969 9972 9975 9978 9980 9983 9985 9988 9991 9994 9997 9999 10002 10005 10008 10010 10013 10016 10018 10021 10024 10027 10029 10032 10035 10037 10040 10043 10046 10049 10052 10054 10057 10060 10063 10066 10069 10072 10075 10077 10080 10083 10086 10089 10092 10095 10098 10100 10103 10106 10108 10111 10114 10117 10120 10122 10125 10127 10130 10133 10136 10139 10142 10144 10147 10150 10153 10156 10158 10161 10164 10167 10170 10173 10176 10178 10180 10183 10186 10189 10192 10195 10197 10200 10203 10205 10208 10211 10214 10217 10220 10223 10226 10229 10232 10235 10237 10240 10243 10246 10249 10252 10255 10258 10261 10264 10267 10270 10273 10276 10279 10282 10285 10288 10291 10293 10296 10299 10302 10305 10308 10311 10313 10316 10319 10322 10325 10328 10331 10334 10336 10338 10341 10344 10347 10350 10352 10355 10358 10361 10364 10367 10370 10373 10375 10378 10381 10383 10386 10388 10390 10392 10395 10398 10401 10404 10407 10410 10412 10415 10418 10421 10424 10427 10429 10432 10435 10438 10441 10443 10446 10449 10452 10454 10457 10460 10463 10465 10468 10471 10474 10477 10480 10483 10486 10489 10492 10495 10498 10501 10504 10507 10510 10513 10516 10519 10522 10525 10528 10531 10534 10537 10540 10542 10545 10548 10551 10554 10557 10560 10563 10565 10568 10570 10573 10576 10579 10582 10585 10588 10590 10593 10596 10598 10601 10604 10607 10609 10612 10615 10617 10620 10623 10626 10629 10632 10634 10637 10640 10643 10645 10647 10650 10653 10656 10659 10662 10665 10668 10671 10674 10677 10680 10683 10685 10688 10691 10694 10697 10700 10703 10706 10709 10712 10714 10717 10720 10723 10726 10729 10731 10733 10736 10739 10742 10745 10748 10751 10754 10757 10760 10762 10765 10768 10771 10774 10777 10780 10783 10786 10788 10791 10794 10797 10800 10803 10806 10809 10812 10815 10818 10821 10824 10827 10830 10833 10836 10839 10842 10844 10847 10850 10853 10856 10858 10861 10863 10866 10868 10871 10874 10877 10880 10883 10886 10889 10892 10895 10898 10901 10904 10907 10910 10913 10916 10919 10921 10924 10927 10930 10933 10936 10938 10941 10944 10947 10949 10951 10954 10957 10960 10963 10966 10968 10971 10974 10977 10980 10982 10985 10988 10991 10994 10997 11000 11003 11006 11008 11011 11014 11017 11020 11023 11026 11029 11031 11034 11037 11040 11043 11046 11049 11052 11055 11058 11060 11063 11066 11069 11072 11075 11078 11081 11084 11087 11090 11093 11096 11099 11102 11105 11108 11111 11114 11116 11119 11122 11125 11128 11131 11134 11137 11140 11143 11146 11149 11152 11155 11157 11160 11163 11166 11169 11172 11175 11177 11180 11183 11185 11188 11191 11193 11196 11199 11202 11205 11208 11211 11214 11217 11220 11223 11226 11229 11232 11235 11238 11241 11244 11247 11250 11253 11256 11259 11262 11265 11268 11271 11273 11276 11278 11281 11283 11285 11288 11291 11294 11296 11299 11302 11305 11308 11311 11314 11317 11320 11323 11325 11327 11330 11332 11335 11338 11341 11344 11347 11350 11353 11356 11359 11362 11365 11368 11371 11374 11376 11379 11381 11383 11386 11388 11391 11394 11397 11400 11403 11406 11409 11412 11415 11417 11419 11422 11425 11428 11431 11434 11437 11440 11443 11446 11449 11452 11455 11458 11461 11464 11467 11470 11473 11476 11479 11482 11485 11487 11490 11493 11496 11499 11502 11504 11507 11510 11513 11516 11519 11521 11524 11527 11530 11532 11535 11538 11541 11544 11547 11550 11553 11556 11559 11561 11564 11567 11570 11573 11575 11578 11581 11584 11587 11590 11593 11595 11598 11601 11604 11607 11610 11613 11616 11618 11621 11624 11627 11630 11632 11635 11638 11641 11644 11647 11650 11653 11656 11659 11662 11664 11667 11670 11673 11676 11678 11681 11684 11687 11689 11692 11695 11698 11701 11704 11706 11709 11712 11715 11718 11721 11724 11727 11730 11733 11736 11739 11742 11745 11748 11750 11752 11755 11758 11760 11763 11766 11769 11772 11775 11778 11781 11783 11786 11789 11792 11795 11798 11801 11803 11806 11809 11812 11815 11818 11821 11824 11827 11830 11833 11836 11839 11842 11845 11848 11851 11854 11857 11860 11863 11866 11869 11872 11874 11877 11880 11883 11886 11889 11892 11895 11898 11900 11903 11906 11909 11912 11914 11917 11920 11923 11926 11929 11931 11934 11936 11939 11941 11944 11947 11950 11953 11956 11959 11962 11964 11967 11970 11973 11975 11978 11981 11984 11987 11990 11992 11995 11998 12001 12004 12007 12009 12012 12014 12017 12020 12022 12025 12027 12030 12033 12036 12039 12042 12044 12047 12050 12053 12055 12058 12061 12064 12067 12070 12073 12076 12079 12082 12085 12087 12090 12093 12096 12099 12102 12105 12108 12111 12114 12117 12120 12123 12126 12129 12132 12135 12138 12141 12144 12147 12150 12153 12155 12158 12161 12164 12167 12170 12173 12176 12179 12182 12185 12188 12191 12194 12197 12200 12203 12206 12209 12211 12214 12217 12220 12222 12225 12228 12231 12234 12237 12240 12242 12245 12248 12251 12253 12255 12258 12260 12263 12265 12267 12270 12272 12275 12278 12280 12283 12286 12288 12290 12293 12296 12299 12302 12305 12308 12311 12314 12316 12319 12321 12324 12327 12330 12333 12336 12339 12342 12345 12348 12351 12354 12357 12360 12363 12366 12369 12372 12375 12378 12381 12384 12387 12389 12392 12395 12398 12401 12404 12407 12410 12413 12415 12418 12421 12423 12426 12429 12431 12433 12436 12439 12441 12444 12447 12450 12453 12456 12459 12462 12465 12468 12471 12474 12477 12480 12483 12486 12489 12492 12495 12498 12501 12504 12507 12510 12513 12516 12519 12522 12525 12528 12531 12534 12537 12540 12543 12546 12549 12552 12555 12558 12560 12563 12565 12568 12571 12574 12577 12580 12583 12586 12589 12592 12595 12598 12601 12604 12607 12610 12613 12616 12619 12622 12625 12628 12631 12634 12637 12640 12643 12646 12649 12652 12655 12658 12661 12664 12667 12670 12673 12676 12679 12682 12685 12687 12690 12693 12695 12698 12701 12704 12707 12710 12712 12715 12717 12720 12723 12725 12728 12731 12734 12737 12740 12743 12745 12748 12751 12754 12757 12760 12763 12766 12769 12772 12775 12778 12780 12783 12786 12788 12790 12793 12795 12798 12801 12803 12806 12809 12812 12815 12817 12820 12823 12826 12829 12832 12835 12838 12841 12844 12846 12849 12851 12854 12857 12860 12863 12866 12869 12872 12874 12877 12879 12882 12885 12888 12891 12894 12897 12900 12903 12906 12908 12911 12913 12916 12919 12922 12925 12928 12931 12934 12937 12940 12943 12945 12948 12951 12954 12956 12959 12962 12964 12967 12970 12972 12975 12978 12981 12984 12986 12989 12992 12995 12997 13000 13003 13006 13009 13012 13015 13018 13021 13024 13027 13030 13033 13036 13039 13041 13044 13047 13050 13053 13056 13059 13061 13064 13066 13069 13071 13074 13077 13080 13082 13085 13088 13091 13094 13097 13100 13103 13106 13108 13111 13114 13117 13120 13123 13125 13128 13131 13133 13136 13139 13142 13145 13148 13151 13154 13157 13160 13162 13165 13168 13171 13173 13176 13179 13182 13185 13188 13191 13193 13196 13199 13202 13205 13208 13211 13214 13217 13220 13223 13226 13229 13232 13235 13238 13241 13244 13247 13250 13253 13256 13259 13262 13265 13268 13271 13274 13277 13280 13283 13286 13288 13291 13294 13297 13300 13303 13305 13308 13311 13313 13315 13318 13321 13324 13327 13329 13332 13335 13338 13341 13344 13346 13349 13352 13355 13358 13361 13364 13367 13370 13373 13376 13379 13382 13385 13388 13391 13394 13396 13399 13402 13405 13408 13411 13414 13417 13420 13422 13424 13427 13430 13433 13436 13439 13442 13444 13447 13450 13453 13456 13458 13461 13464 13467 13470 13473 13476 13479 13482 13485 13488 13491 13494 13497 13500 13503 13506 13509 13512 13515 13518 13521 13524 13527 13530 13532 13535 13538 13540 13543 13546 13549 13552 13555 13558 13561 13564 13567 13570 13573 13576 13579 13582 13585 13588 13591 13594 13597 13600 13603 13606 13609 13612 13615 13618 13621 13623 13626 13628 13631 13634 13637 13640 13643 13645 13648 13651 13654 13657 13660 13663 13666 13669 13672 13675 13678 13681 13684 13687 13690 13693 13696 13699 13702 13705 13707 13709 13712 13714 13717 13720 13723 13726 13729 13732 13735 13738 13741 13744 13747 13750 13753 13756 13759 13762 13764 13767 13770 13773 13775 13778 13781 13784 13787 13790 13793 13796 13799 13802 13805 13808 13811 13814 13816 13819 13822 13825 13828 13831 13834 13837 13840 13843 13846 13849 13852 13855 13858 13861 13864 13867 13870 13873 13876 13879 13882 13884 13887 13890 13893 13896 13899 13902 13905 13908 13911 13914 13917 13920 13923 13925 13928 13930 13933 13936 13938 13940 13943 13946 13949 13952 13955 13958 13961 13964 13967 13970 13973 13976 13979 13982 13985 13988 13991 13994 13997 14000 14002 14005 14008 14010 14013 14016 14019 14021 14024 14027 14030 14033 14036 14039 14041 14044 14047 14050 14052 14055 14058 14061 14064 14067 14070 14073 14076 14078 14081 14084 14086 14089 14092 14094 14097 14099 14102 14105 14108 14111 14113 14115 14118 14121 14123 14125 14128 14131 14133 14136 14139 14142 14145 14147 14150 14153 14155 14157 14160 14162 14165 14168 14171 14174 14177 14180 14183 14186 14189 14192 14195 14198 14201 14204 14207 14210 14213 14216 14219 14222 14224 14227 14230 14233 14236 14238 14241 14244 14247 14250 14252 14254 14257 14260 14263 14266 14269 14272 14275 14278 14281 14284 14287 14290 14292 14295 14298 14301 14303 14306 14309 14312 14315 14318 14321 14324 14326 14329 14332 14335 14337 14340 14343 14345 14347 14350 14353 14356 14358 14361 14364 14367 14369 14372 14375 14378 14381 14384 14387 14390 14393 14396 14399 14402 14405 14408 14411 14414 14417 14420 14423 14425 14428 14431 14434 14437 14440 14443 14446 14449 14452 14455 14458 14461 14464 14467 14470 14473 14476 14479 14481 14483 14486 14489 14492 14495 14498 14500 14502 14505 14507 14510 14513 14516 14519 14522 14525 14528 14531 14534 14536 14539 14542 14545 14547 14550 14553 14556 14559 14562 14565 14568 14571 14574 14577 14580 14583 14586 14589 14591 14594 14597 14600 14603 14606 14609 14612 14614 14617 14620 14622 14625 14628 14631 14634 14637 14640 14642 14645 14648 14651 14654 14656 14659 14662 14665 14668 14671 14674 14676 14679 14682 14685 14688 14691 14694 14697 14700 14702 14704 14707 14710 14713 14715 14717 14720 14723 14726 14729 14732 14734 14737 14740 14743 14746 14749 14752 14754 14757 14760 14763 14766 14768 14771 14774 14777 14780 14783 14785 14788 14791 14794 14797 14799 14802 14805 14808 14811 14814 14817 14820 14823 14826 14829 14832 14835 14838 14841 14844 14847 14850 14853 14856 14859 14862 14865 14868 14871 14874 14876 14879 14882 14885 14888 14890 14893 14895 14898 14900 14903 14906 14908 14911 14914 14916 14919 14922 14924 14927 14930 14933 14936 14939 14942 14944 14947 14950 14952 14955 14957 14959 14961 14964 14967 14969 14972 14974 14976 14979 14982 14985 14987 14990 14992 14995 14998 15001 15004 15007 15010 15012 15015 15018 15021 15023 15026 15029 15032 15035 15038 15041 15044 15046 15049 15052 15055 15057 15060 15062 15064 15067 15070 15073 15076 15079 15082 15085 15087 15090 15093 15096 15099 15102 15105 15108 15111 15113 15115 15118 15121 15124 15127 15129 15132 15135 15137 15140 15143 15146 15148 15151 15154 15157 15159 15161 15164 15167 15170 15173 15175 15178 15181 15184 15187 15190 15192 15194 15197 15200 15203 15206 15209 15212 15215 15218 15221 15224 15227 15230 15233 15236 15239 15242 15245 15248 15251 15254 15257 15260 15263 15266 15269 15272 15275 15278 15281 15284 15287 15289 15292 15295 15298 15300 15303 15306 15309 15312 15315 15318 15321 15324 15327 15330 15333 15336 15339 15342 15345 15347 15350 15352 15354 15357 15360 15362 15365 15368 15371 15374 15377 15380 15383 15386 15389 15392 15395 15398 15401 15404 15407 15410 15413 15416 15419 15422 15425 15428 15431 15433 15436 15439 15441 15443 15446 15449 15452 15455 15458 15461 15464 15466 15469 15472 15475 15477 15480 15483 15486 15489 15491 15493 15496 15499 15502 15505 15508 15511 15514 15516 15519 15522 15525 15528 15530 15533 15536 15539 15542 15544 15547 15550 15553 15556 15559 15562 15565 15568 15571 15574 15577 15580 15583 15586 15589 15592 15595 15598 15601 15603 15606 15609 15612 15615 15618 15621 15624 15627 15630 15633 15636 15639 15642 15645 15648 15651 15653 15656 15659 15662 15664 15667 15670 15673 15676 15679 15682 15685 15688 15691 15693 15696 15699 15702 15705 15708 15711 15714 15717 15720 15723 15726 15729 15732 15735 15738 15741 15744 15747 15750 15753 15756 15758 15761 15764 15767 15770 15773 15776 15779 15782 15785 15788 15791 15794 15797 15800 15803 15806 15809 15811 15814 15817 15820 15823 15826 15828 15831 15834 15837 15840 15843 15846 15849 15852 15855 15858 15861 15864 15867 15870 15873 15876 15879 15882 15885 15888 15891 15894 15897 15900 15903 15906 15909 15911 15914 15917 15919 15922 15925 15928 15930 15933 15936 15939 15942 15945 15948 15951 15954 15957 15960 15963 15966 15969 15972 15975 15977 15980 15982 15985 15988 15991 15994 15997 16000 16003 16006 16009 16011 16014 16017 16020 16023 16026 16029 16032 16035 16038 16040 16042 16045 16048 16051 16054 16057 16060 16063 16066 16069 16072 16075 16078 16081 16084 16087 16090 16093 16096 16099 16102 16105 16108 16111 16114 16117 16120 16123 16126 16129 16132 16135 16138 16141 16144 16147 16150 16153 16156 16159 16162 16165 16168 16171 16174 16177 16180 16183 16186 16189 16192 16195 16198 16201 16204 16207 16210 16213 16216 16219 16222 16225 16228 16231 16234 16237 16240 16243 16246 16249 16252 16255 16257 16260 16263 16266 16269 16272 16275 16277 16280 16283 16286 16289 16292 16295 16298 16301 16304 16306 16309 16311 16314 16317 16320 16323 16326 16329 16332 16335 16338 16341 16344 16347 16350 16353 16356 16359 16362 16365 16368 16371 16374 16377 16380 16383 16386 16389 16392 16395 16398 16401 16404 16407 16410 16413 16415 16418 16421 16424 16426 16428 16431 16434 16437 16440 16443 16446 16449 16452 16455 16458 16461 16464 16467 16470 16473 16476 16479 16482 16485 16488 16491 16494 16496 16498 16501 16504 16507 16510 16513 16516 16519 16522 16524 16527 16530 16533 16536 16539 16542 16544 16547 16550 16553 16556 16559 16561 16564 16567 16570 16573 16575 16578 16581 16584 16586 16589 16592 16595 16597 16600 16603 16605 16608 16611 16614 16617 16620 16623 16626 16629 16632 16635 16638 16641 16644 16646 16649 16652 16655 16658 16661 16664 16667 16670 16672 16675 16678 16681 16684 16687 16690 16693 16696 16699 16702 16705 16707 16710 16713 16716 16718 16721 16724 16727 16730 16732 16735 16738 16741 16744 16747 16750 16753 16756 16758 16761 16763 16766 16769 16771 16774 16777 16780 16783 16786 16788 16791 16794 16797 16800 16803 16806 16809 16812 16815 16818 16821 16824 16826 16829 16832 16835 16838 16841 16844 16847 16850 16853 16855 16858 16861 16864 16867 16870 16873 16875 16878 16881 16884 16887 16890 16893 16896 16898 16901 16904 16907 16910 16913 16915 16918 16921 16924 16927 16930 16933 16936 16939 16942 16945 16948 16951 16954 16957 16960 16963 16966 16969 16972 16975 16978 16981 16984 16987 16990 16993 16996 16999 17002 17005 17008 17011 17014 17017 17020 17023 17026 17029 17032 17035 17038 17041 17044 17047 17050 17053 17056 17058 17061 17063 17066 17069 17072 17075 17078 17081 17084 17087 17090 17093 17096 17099 17102 17105 17107 17110 17113 17116 17119 17122 17125 17128 17131 17134 17137 17140 17143 17146 17149 17152 17154 17157 17160 17162 17165 17167 17170 17173 17176 17179 17182 17184 17187 17190 17193 17196 17199 17202 17205 17208 17211 17214 17217 17220 17223 17226 17229 17232 17235 17238 17241 17244 17246 17249 17252 17255 17258 17261 17264 17267 17270 17273 17276 17279 17281 17284 17286 17289 17292 17294 17297 17299 17302 17305 17308 17311 17314 17317 17320 17322 17325 17327 17330 17333 17336 17339 17341 17344 17347 17350 17353 17355 17357 17360 17363 17365 17368 17371 17374 17377 17380 17383 17386 17389 17392 17395 17398 17401 17404 17407 17410 17413 17415 17418 17421 17424 17427 17430 17433 17436 17439 17442 17445 17448 17451 17454 17457 17459 17462 17464 17467 17470 17473 17476 17479 17482 17485 17487 17490 17492 17495 17498 17501 17504 17507 17510 17513 17516 17519 17521 17523 17526 17529 17532 17534 17537 17540 17543 17546 17548 17551 17553 17556 17559 17561 17564 17566 17568 17570 17573 17576 17578 17581 17584 17587 17589 17591 17593 17596 17599 17602 17605 17608 17611 17614 17617 17620 17623 17626 17628 17631 17634 17637 17640 17643 17646 17648 17651 17654 17657 17659 17662 17665 17668 17671 17674 17677 17680 17683 17685 17688 17691 17694 17696 17699 17702 17705 17708 17711 17714 17717 17720 17723 17726 17729 17732 17735 17738 17741 17744 17747 17750 17753 17756 17759 17762 17765 17768 17771 17774 17777 17780 17783 17786 17789 17792 17795 17798 17801 17804 17807 17810 17813 17816 17819 17822 17825 17828 17831 17834 17837 17840 17843 17846 17849 17852 17855 17858 17861 17864 17867 17870 17873 17876 17878 17881 17884 17887 17890 17893 17895 17898 17901 17904 17907 17909 17912 17915 17918 17920 17923 17926 17929 17932 17935 17938 17941 17944 17947 17950 17953 17956 17959 17962 17965 17968 17971 17974 17977 17980 17983 17986 17989 17992 17995 17998 18001 18004 18007 18010 18013 18016 18019 18022 18025 18028 18031 18034 18037 18040 18042 18045 18048 18050 18053 18056 18059 18062 18065 18068 18071 18073 18076 18079 18082 18085 18088 18091 18094 18097 18100 18103 18106 18108 18111 18114 18116 18119 18121 18124 18127 18130 18132 18135 18138 18141 18144 18147 18150 18153 18156 18158 18161 18164 18167 18170 18172 18175 18178 18181 18184 18186 18189 18191 18194 18197 18200 18203 18206 18209 18212 18215 18218 18221 18224 18227 18229 18232 18234 18237 18240 18243 18246 18249 18252 18255 18258 18261 18264 18267 18270 18273 18275 18278 18281 18284 18287 18290 18293 18296 18299 18302 18304 18307 18310 18313 18315 18318 18321 18324 18327 18330 18333 18336 18339 18342 18345 18348 18351 18354 18357 18360 18363 18366 18369 18372 18375 18378 18381 18384 18387 18390 18393 18396 18399 18402 18405 18408 18411 18414 18417 18420 18422 18425 18428 18430 18433 18436 18439 18442 18444 18447 18450 18453 18456 18459 18462 18465 18468 18471 18474 18477 18480 18483 18486 18489 18491 18494 18497 18500 18503 18506 18509 18512 18515 18518 18520 18523 18525 18528 18531 18534 18537 18540 18543 18546 18548 18551 18554 18557 18560 18563 18566 18569 18572 18575 18578 18581 18584 18587 18590 18592 18595 18598 18601 18604 18607 18610 18613 18616 18619 18622 18625 18627 18630 18633 18636 18639 18642 18645 18648 18651 18654 18657 18660 18663 18666 18669 18672 18675 18678 18681 18684 18687 18690 18693 18696 18698 18701 18703 18706 18709 18712 18715 18718 18721 18723 18726 18728 18731 18734 18737 18739 18742 18745 18748 18750 18753 18756 18759 18761 18764 18767 18769 18772 18775 18778 18781 18784 18787 18790 18792 18795 18798 18801 18804 18807 18810 18813 18815 18818 18821 18824 18827 18830 18833 18836 18839 18842 18845 18848 18851 18854 18856 18859 18862 18865 18868 18871 18874 18877 18880 18882 18885 18888 18891 18894 18897 18900 18903 18906 18909 18912 18915 18918 18921 18924 18927 18930 18933 18936 18939 18942 18944 18947 18950 18953 18956 18959 18962 18965 18968 18971 18974 18977 18980 18983 18986 18989 18992 18995 18998 19001 19004 19007 19010 19013 19016 19019 19022 19025 19028 19031 19034 19037 19040 19043 19046 19049 19052 19055 19058 19061 19064 19067 19070 19073 19076 19079 19082 19085 19088 19091 19094 19096 19099 19101 19104 19107 19110 19112 19115 19118 19120 19122 19125 19127 19130 19133 19136 19139 19142 19145 19148 19151 19154 19157 19160 19163 19166 19169 19172 19175 19178 19181 19184 19187 19190 19193 19196 19199 19202 19205 19208 19211 19214 19217 19220 19223 19226 19229 19232 19234 19237 19240 19243 19246 19248 19251 19254 19256 19259 19262 19265 19267 19270 19273 19276 19279 19281 19284 19286 19288 19291 19294 19297 19300 19302 19305 19308 19311 19313 19316 19319 19322 19324 19327 19330 19333 19336 19339 19342 19344 19347 19350 19353 19356 19359 19362 19365 19368 19371 19374 19377 19380 19383 19386 19389 19392 19395 19398 19401 19404 19406 19409 19412 19415 19418 19421 19424 19427 19430 19433 19436 19439 19442 19445 19448 19451 19454 19457 19460 19462 19465 19468 19470 19473 19476 19478 19481 19484 19487 19490 19493 19496 19499 19502 19505 19508 19511 19513 19516 19519 19522 19525 19527 19530 19533 19536 19539 19541 19544 19547 19550 19552 19555 19558 19561 19564 19567 19570 19573 19576 19579 19582 19585 19588 19591 19594 19597 19600 19603 19606 19609 19612 19615 19618 19621 19624 19627 19629 19632 19635 19638 19641 19644 19647 19650 19653 19655 19658 19661 19664 19666 19669 19672 19675 19678 19681 19684 19687 19690 19693 19696 19699 19702 19705 19708 19711 19714 19717 19720 19723 19726 19729 19732 19735 19738 19740 19743 19746 19749 19751 19754 19757 19760 19763 19766 19769 19772 19775 19777 19780 19783 19785 19788 19791 19794 19797 19799 19802 19805 19808 19811 19814 19817 19820 19822 19825 19827 19830 19833 19835 19838 19841 19843 19845 19848 19851 19854 19857 19860 19863 19866 19869 19872 19875 19878 19881 19884 19887 19890 19893 19896 19899 19902 19905 19908 19910 19913 19916 19919 19922 19924 19927 19930 19933 19936 19939 19942 19945 19948 19951 19954 19957 19960 19963 19965 19968 19971 19973 19976 19979 19982 19985 19988 19991 19994 19997 20000 20003 20006 20009 20012 20015 20018 20021 20024 20027 20030 20033 20036 20039 20042 20045 20048 20051 20054 20057 20060 20063 20066 20069 20072 20075 20078 20081 20084 20087 20090 20093 20096 20099 20102 20105 20108 20111 20114 20117 20120 20123 20126 20129 20132 20135 20138 20141 20144 20147 20150 20153 20156 20159 20162 20165 20168 20171 20174 20177 20180 20183 20186 20189 20192 20195 20198 20201 20204 20207 20210 20213 20216 20219 20222 20225 20228 20231 20234 20237 20240 20243 20246 20249 20252 20255 20258 20261 20264 20267 20270 20273 20276 20279 20282 20285 20288 20291 20294 20297 20300 20303 20306 20309 20312 20315 20318 20321 20324 20327 20330 20333 20336 20339 20342 20345 20348 20351 20354 20357 20359 20362 20365 20368 20371 20374 20377 20380 20382 20385 20388 20391 20394 20397 20400 20403 20406 20409 20411 20414 20416 20419 20422 20425 20427 20430 20433 20435 20438 20441 20444 20447 20450 20453 20456 20459 20462 20465 20468 20471 20474 20477 20480 20483 20486 20489 20492 20495 20498 20501 20504 20507 20510 20513 20516 20519 20522 20525 20528 20531 20534 20537 20540 20543 20546 20548 20551 20554 20556 20558 20561 20564 20566 20569 20572 20574 20577 20580 20583 20585 20588 20591 20594 20597 20600 20603 20606 20609 20612 20614 20617 20620 20623 20626 20629 20632 20634 20637 20640 20643 20646 20649 20652 20655 20658 20661 20664 20667 20670 20673 20676 20679 20682 20685 20688 20691 20694 20697 20700 20703 20706 20709 20712 20715 20718 20721 20724 20727 20729 20732 20735 20738 20741 20744 20747 20750 20753 20756 20759 20762 20765 20768 20771 20774 20777 20780 20783 20786 20789 20792 20795 20798 20801 20804 20807 20810 20813 20816 20819 20822 20825 20828 20831 20834 20837 20840 20843 20846 20849 20852 20855 20858 20861 20864 20867 20869 20872 20874 20877 20880 20883 20886 20888 20891 20894 20897 20900 20902 20905 20908 20911 20914 20916 20919 20922 20925 20928 20931 20934 20937 20940 20942 20945 20948 20950 20953 20955 20958 20961 20964 20967 20969 20972 20975 20977 20979 20982 20985 20988 20991 20994 20997 20999 21002 21005 21008 21011 21014 21017 21020 21023 21026 21029 21031 21033 21036 21039 21042 21045 21048 21050 21053 21056 21058 21061 21064 21067 21070 21072 21075 21078 21080 21083 21086 21089 21092 21095 21098 21101 21104 21107 21110 21113 21116 21119 21122 21125 21128 21131 21134 21137 21140 21143 21146 21149 21152 21155 21158 21161 21164 21167 21169 21172 21174 21177 21180 21183 21186 21189 21192 21195 21198 21201 21204 21207 21210 21213 21215 21218 21221 21224 21227 21229 21231 21234 21237 21240 21243 21246 21249 21252 21255 21258 21261 21264 21267 21270 21273 21276 21279 21282 21285 21288 21291 21294 21297 21300 21303 21306 21309 21312 21315 21318 21321 21324 21327 21330 21333 21336 21339 21342 21345 21348 21351 21354 21357 21359 21362 21365 21368 21370 21373 21376 21379 21382 21385 21388 21391 21394 21397 21400 21403 21406 21409 21412 21415 21418 21421 21424 21427 21430 21432 21435 21438 21440 21443 21446 21449 21452 21455 21458 21461 21464 21467 21469 21472 21475 21478 21481 21484 21486 21489 21492 21495 21498 21501 21503 21506 21508 21511 21514 21517 21520 21523 21526 21529 21532 21535 21538 21541 21544 21547 21549 21552 21555 21558 21560 21562 21565 21568 21571 21574 21577 21580 21583 21586 21588 21591 21594 21596 21599 21602 21604 21606 21609 21612 21615 21618 21621 21623 21626 21629 21632 21635 21638 21641 21644 21646 21649 21652 21654 21656 21659 21662 21665 21668 21671 21674 21676 21678 21681 21684 21687 21689 21692 21695 21698 21701 21704 21707 21710 21712 21715 21718 21721 21724 21727 21730 21733 21736 21739 21742 21745 21748 21751 21754 21757 21760 21763 21766 21769 21772 21775 21778 21781 21784 21787 21790 21792 21795 21798 21801 21804 21807 21810 21813 21815 21818 21821 21824 21827 21830 21833 21836 21839 21842 21845 21848 21850 21853 21856 21859 21862 21865 21868 21871 21874 21876 21879 21882 21885 21888 21891 21894 21897 21900 21903 21906 21909 21912 21915 21918 21921 21924 21926 21929 21932 21935 21937 21940 21943 21946 21949 21952 21954 21957 21960 21963 21966 21969 21972 21975 21978 21981 21984 21987 21990 21993 21996 21998 22001 22004 22007 22010 22012 22015 22018 22020 22023 22026 22029 22032 22035 22037 22040 22043 22046 22049 22052 22055 22058 22061 22064 22067 22070 22073 22076 22079 22081 22084 22086 22089 22092 22095 22097 22100 22102 22105 22107 22110 22113 22116 22119 22122 22125 22127 22129 22132 22135 22138 22141 22144 22147 22149 22152 22154 22157 22160 22163 22166 22169 22172 22175 22178 22181 22184 22187 22190 22193 22196 22199 22202 22205 22207 22210 22213 22216 22218 22220 22223 22226 22229 22232 22235 22237 22240 22243 22245 22247 22250 22253 22256 22259 22262 22265 22268 22271 22274 22277 22280 22283 22286 22289 22292 22295 22298 22301 22304 22307 22310 22313 22316 22319 22322 22325 22328 22331 22334 22337 22340 22343 22346 22349 22352 22355 22358 22361 22364 22367 22370 22373 22376 22379 22381 22384 22387 22389 22391 22393 22396 22399 22402 22405 22408 22411 22413 22416 22419 22422 22425 22428 22431 22434 22437 22440 22442 22445 22448 22451 22453 22456 22459 22462 22465 22468 22471 22474 22477 22480 22483 22486 22489 22492 22495 22498 22501 22504 22507 22510 22513 22515 22518 22521 22524 22527 22529 22532 22535 22538 22541 22544 22547 22550 22553 22556 22559 22562 22565 22568 22571 22574 22577 22580 22583 22586 22589 22592 22595 22598 22601 22604 22607 22610 22613 22616 22619 22622 22625 22628 22631 22633 22636 22638 22641 22644 22647 22650 22653 22656 22659 22662 22664 22667 22670 22673 22675 22678 22680 22683 22686 22689 22692 22695 22698 22701 22704 22706 22709 22712 22715 22718 22720 22723 22726 22729 22732 22734 22737 22740 22743 22746 22749 22752 22755 22757 22760 22763 22766 22769 22771 22774 22777 22780 22783 22786 22789 22792 22795 22798 22801 22804 22807 22810 22813 22816 22819 22822 22825 22828 22831 22834 22837 22840 22843 22846 22849 22852 22855 22858 22861 22864 22867 22870 22873 22876 22879 22882 22885 22888 22891 22894 22897 22900 22903 22906 22909 22911 22914 22917 22920 22923 22925 22927 22930 22933 22935 22937 22940 22943 22946 22949 22952 22955 22958 22961 22964 22967 22970 22973 22976 22979 22982 22985 22988 22991 22994 22996 22999 23002 23005 23007 23009 23012 23015 23018 23021 23024 23027 23030 23033 23036 23039 23042 23045 23048 23051 23054 23057 23060 23063 23066 23069 23072 23075 23078 23081 23084 23087 23090 23092 23095 23098 23101 23104 23107 23110 23113 23115 23118 23121 23124 23127 23130 23133 23136 23139 23142 23145 23148 23151 23154 23157 23160 23162 23165 23168 23171 23174 23177 23180 23183 23186 23188 23191 23193 23195 23198 23201 23204 23207 23210 23213 23216 23219 23222 23225 23228 23231 23233 23236 23239 23242 23245 23248 23251 23254 23257 23260 23263 23266 23269 23272 23275 23278 23281 23284 23287 23289 23292 23295 23298 23300 23303 23306 23309 23312 23315 23318 23321 23324 23326 23329 23332 23335 23338 23341 23344 23347 23350 23353 23356 23359 23362 23365 23368 23371 23373 23376 23379 23382 23384 23387 23390 23393 23396 23399 23402 23405 23408 23411 23414 23417 23420 23423 23426 23429 23432 23435 23438 23441 23444 23447 23450 23453 23456 23459 23462 23465 23468 23471 23474 23477 23480 23483 23485 23488 23490 23493 23496 23499 23502 23505 23508 23511 23514 23516 23519 23522 23525 23528 23531 23534 23537 23540 23543 23545 23548 23551 23553 23556 23559 23562 23565 23568 23570 23573 23576 23579 23582 23584 23587 23590 23593 23596 23598 23601 23604 23607 23609 23612 23614 23617 23620 23622 23625 23628 23631 23634 23637 23640 23643 23646 23649 23652 23655 23658 23661 23664 23666 23669 23672 23674 23677 23679 23682 23685 23688 23690 23693 23696 23698 23701 23704 23707 23710 23712 23715 23717 23720 23723 23726 23729 23732 23735 23737 23740 23742 23745 23748 23751 23754 23757 23759 23762 23765 23768 23771 23773 23776 23779 23782 23785 23788 23791 23793 23796 23799 23802 23805 23808 23811 23814 23817 23820 23823 23826 23829 23832 23835 23838 23841 23844 23847 23850 23853 23856 23859 23862 23865 23868 23871 23874 23877 23880 23883 23886 23889 23892 23894 23896 23899 23902 23905 23908 23911 23914 23917 23920 23923 23926 23928 23931 23934 23936 23938 23941 23943 23946 23949 23952 23955 23958 23961 23964 23966 23969 23972 23975 23978 23981 23984 23987 23990 23993 23996 23999 24002 24004 24007 24010 24013 24016 24018 24021 24024 24027 24030 24033 24036 24039 24042 24045 24048 24051 24054 24056 24059 24062 24065 24068 24071 24074 24077 24080 24083 24086 24089 24092 24095 24098 24101 24104 24107 24109 24112 24115 24118 24121 24124 24126 24129 24132 24135 24137 24140 24143 24146 24149 24152 24155 24157 24160 24162 24165 24168 24171 24173 24176 24179 24182 24185 24188 24191 24194 24197 24200 24202 24205 24208 24210 24213 24216 24219 24222 24225 24228 24231 24233 24236 24239 24242 24245 24248 24251 24254 24257 24260 24263 24266 24269 24272 24274 24277 24280 24282 24285 24288 24291 24294 24297 24300 24302 24305 24308 24311 24314 24317 24320 24322 24325 24328 24331 24334 24337 24340 24343 24345 24348 24351 24354 24357 24360 24363 24366 24369 24372 24375 24378 24381 24384 24387 24390 24393 24396 24399 24402 24405 24408 24411 24413 24416 24419 24422 24425 24428 24431 24434 24437 24440 24443 24445 24448 24451 24454 24457 24459 24461 24464 24467 24470 24473 24475 24478 24481 24484 24487 24490 24493 24496 24499 24502 24504 24507 24510 24513 24516 24519 24522 24525 24528 24531 24534 24537 24539 24542 24545 24548 24550 24553 24556 24559 24561 24564 24567 24570 24573 24576 24579 24582 24585 24588 24591 24594 24597 24599 24602 24605 24608 24611 24614 24616 24619 24622 24624 24627 24630 24633 24636 24639 24642 24645 24648 24651 24654 24657 24660 24663 24666 24668 24671 24674 24677 24680 24683 24686 24689 24691 24694 24697 24700 24702 24705 24708 24711 24714 24717 24719 24722 24725 24728 24731 24734 24737 24740 24743 24746 24748 24751 24754 24757 24760 24763 24766 24769 24772 24774 24777 24780 24783 24786 24789 24791 24794 24797 24800 24803 24806 24809 24812 24814 24817 24820 24823 24826 24829 24832 24835 24838 24841 24844 24847 24850 24853 24856 24859 24862 24865 24868 24871 24874 24877 24880 24883 24886 24889 24892 24895 24898 24901 24904 24907 24910 24913 24916 24919 24922 24925 24928 24931 24934 24937 24940 24943 24946 24949 24952 24955 24958 24960 24963 24966 24969 24972 24975 24978 24981 24983 24986 24989 24992 24995 24998 25001 25004 25007 25010 25013 25016 25019 25022 25025 25028 25031 25034 25037 25040 25043 25046 25049 25051 25053 25056 25059 25061 25063 25066 25069 25072 25075 25078 25081 25084 25086 25089 25092 25095 25098 25101 25104 25107 25110 25113 25116 25119 25122 25125 25128 25130 25133 25136 25139 25142 25145 25148 25151 25154 25156 25159 25162 25164 25167 25170 25173 25175 25178 25181 25184 25187 25190 25193 25196 25199 25202 25205 25208 25211 25214 25217 25220 25223 25226 25229 25232 25235 25238 25241 25244 25247 25250 25253 25256 25259 25261 25264 25267 25270 25273 25276 25279 25282 25285 25287 25290 25293 25296 25299 25302 25305 25307 25309 25312 25315 25318 25321 25323 25326 25329 25331 25334 25337 25339 25342 25345 25348 25351 25354 25357 25359 25362 25365 25368 25371 25374 25377 25380 25383 25385 25388 25391 25394 25397 25400 25403 25406 25409 25412 25415 25418 25420 25423 25426 25428 25431 25434 25437 25440 25443 25446 25449 25451 25454 25457 25460 25462 25465 25467 25470 25472 25475 25478 25481 25484 25487 25490 25493 25496 25499 25502 25505 25508 25511 25514 25517 25520 25523 25525 25528 25530 25533 25536 25539 25542 25545 25548 25551 25554 25557 25560 25562 25565 25568 25571 25574 25577 25580 25583 25585 25588 25591 25594 25596 25599 25601 25603 25606 25609 25611 25614 25617 25620 25623 25625 25628 25631 25634 25636 25639 25642 25645 25647 25650 25652 25654 25657 25660 25663 25666 25669 25672 25674 25677 25680 25683 25686 25689 25692 25695 25698 25700 25702 25704 25707 25709 25712 25715 25717 25719 25722 25725 25727 25730 25733 25736 25739 25742 25745 25748 25751 25754 25757 25760 25762 25765 25768 25771 25774 25777 25780 25783 25786 25789 25792 25795 25798 25801 25803 25805 25808 25811 25814 25817 25819 25822 25825 25828 25830 25833 25836 25839 25842 25845 25847 25849 25852 25855 25858 25860 25863 25866 25869 25872 25875 25878 25881 25884 25887 25890 25893 25896 25899 25902 25905 25907 25910 25913 25916 25918 25921 25924 25927 25929 25932 25935 25938 25941 25944 25947 25949 25952 25955 25958 25961 25964 25966 25969 25972 25975 25978 25981 25984 25987 25990 25992 25995 25998 26001 26004 26007 26010 26013 26016 26019 26021 26024 26027 26030 26033 26035 26038 26040 26043 26046 26048 26051 26053 26056 26059 26062 26065 26068 26071 26073 26076 26078 26080 26083 26086 26089 26092 26095 26098 26101 26104 26106 26109 26111 26114 26116 26119 26121 26124 26127 26130 26133 26136 26139 26142 26145 26148 26151 26154 26156 26159 26162 26165 26167 26170 26173 26176 26179 26182 26185 26188 26191 26193 26196 26199 26202 26205 26208 26211 26214 26217 26220 26222 26225 26228 26231 26234 26236 26239 26242 26244 26247 26250 26253 26256 26259 26262 26265 26268 26271 26273 26276 26279 26282 26284 26287 26290 26293 26296 26299 26302 26305 26308 26311 26314 26317 26320 26323 26326 26329 26332 26335 26338 26341 26343 26346 26349 26352 26355 26358 26361 26364 26367 26370 26373 26375 26378 26381 26384 26387 26390 26393 26396 26399 26402 26405 26408 26411 26414 26417 26420 26423 26426 26429 26432 26435 26438 26441 26444 26447 26450 26453 26456 26459 26462 26465 26468 26471 26474 26477 26480 26483 26486 26489 26492 26495 26498 26501 26504 26507 26510 26512 26514 26517 26520 26523 26526 26529 26532 26535 26538 26541 26544 26547 26550 26553 26555 26557 26560 26563 26566 26568 26571 26574 26576 26579 26582 26585 26587 26590 26593 26596 26598 26601 26604 26607 26610 26613 26616 26619 26622 26624 26627 26630 26632 26635 26637 26639 26642 26645 26648 26651 26654 26657 26659 26662 26664 26666 26668 26671 26674 26676 26679 26682 26684 26686 26689 26692 26695 26698 26701 26704 26707 26710 26713 26716 26719 26722 26725 26728 26731 26734 26737 26740 26743 26746 26749 26751 26754 26757 26760 26763 26766 26769 26772 26775 26778 26780 26783 26786 26789 26792 26795 26798 26801 26803 26805 26808 26811 26814 26817 26820 26823 26826 26829 26832 26835 26838 26841 26844 26847 26850 26853 26856 26859 26862 26865 26868 26871 26874 26876 26879 26881 26884 26887 26890 26893 26896 26899 26902 26904 26907 26910 26913 26915 26917 26920 26923 26925 26928 26931 26934 26937 26939 26942 26945 26948 26950 26953 26956 26959 26961 26964 26967 26970 26973 26976 26979 26982 26985 26988 26990 26992 26995 26998 27001 27004 27007 27009 27012 27015 27017 27019 27021 27024 27027 27030 27033 27036 27038 27041 27044 27047 27050 27053 27056 27059 27062 27065 27067 27070 27072 27075 27078 27081 27084 27087 27090 27093 27096 27099 27102 27105 27108 27111 27114 27117 27120 27123 27126 27129 27132 27135 27138 27141 27144 27146 27149 27152 27155 27158 27160 27162 27165 27168 27171 27173 27176 27179 27182 27185 27188 27191 27194 27197 27200 27203 27206 27209 27212 27215 27218 27221 27223 27226 27229 27232 27234 27237 27240 27242 27245 27248 27251 27254 27257 27260 27263 27266 27269 27272 27275 27278 27281 27283 27286 27289 27291 27294 27297 27300 27302 27305 27307 27310 27312 27315 27317 27319 27321 27324 27327 27330 27333 27336 27339 27342 27345 27347 27350 27353 27356 27359 27362 27365 27368 27371 27373 27376 27379 27381 27384 27387 27390 27393 27396 27399 27402 27405 27408 27411 27414 27417 27420 27423 27426 27429 27432 27435 27438 27441 27444 27446 27449 27452 27455 27458 27461 27464 27467 27470 27473 27476 27478 27481 27483 27486 27489 27491 27494 27496 27499 27501 27504 27507 27509 27512 27514 27517 27520 27522 27525 27528 27531 27533 27536 27539 27542 27545 27548 27551 27554 27557 27560 27563 27566 27569 27572 27575 27578 27581 27584 27587 27590 27593 27596 27599 27602 27605 27608 27611 27614 27617 27620 27623 27626 27629 27632 27635 27638 27641 27644 27647 27650 27653 27656 27659 27662 27665 27668 27671 27674 27677 27680 27683 27686 27689 27692 27695 27698 27701 27704 27707 27710 27713 27716 27718 27721 27724 27726 27729 27732 27735 27738 27741 27744 27746 27748 27751 27754 27757 27760 27763 27766 27769 27772 27775 27778 27781 27784 27787 27790 27793 27796 27799 27802 27804 27807 27810 27813 27815 27818 27821 27824 27827 27830 27833 27836 27839 27842 27845 27848 27851 27854 27857 27860 27863 27865 27868 27871 27874 27877 27880 27883 27886 27888 27891 27894 27897 27900 27903 27906 27909 27912 27914 27917 27919 27922 27925 27928 27931 27934 27937 27940 27943 27946 27949 27952 27955 27958 27961 27964 27967 27969 27972 27975 27978 27981 27984 27987 27990 27992 27995 27998 28001 28004 28006 28009 28012 28015 28018 28021 28024 28027 28029 28032 28035 28037 28039 28042 28045 28047 28050 28053 28056 28059 28062 28065 28067 28070 28073 28076 28079 28082 28085 28088 28091 28094 28096 28099 28102 28104 28107 28110 28112 28115 28118 28120 28123 28126 28129 28132 28135 28137 28140 28143 28146 28149 28152 28155 28158 28161 28163 28166 28169 28172 28175 28178 28181 28184 28186 28189 28192 28195 28198 28201 28204 28207 28210 28213 28216 28219 28222 28224 28227 28230 28233 28236 28239 28242 28245 28247 28249 28252 28254 28257 28259 28262 28265 28268 28271 28274 28277 28280 28283 28286 28289 28292 28295 28298 28301 28304 28306 28309 28311 28314 28317 28320 28323 28326 28329 28332 28335 28337 28340 28342 28345 28347 28350 28352 28355 28357 28360 28363 28365 28368 28371 28374 28377 28380 28382 28385 28388 28391 28394 28397 28400 28403 28406 28408 28411 28414 28417 28420 28423 28425 28428 28431 28433 28436 28438 28440 28443 28446 28449 28452 28455 28458 28461 28464 28466 28469 28472 28475 28478 28481 28484 28487 28490 28493 28496 28499 28502 28505 28507 28510 28513 28516 28519 28522 28525 28528 28530 28533 28536 28539 28541 28544 28547 28550 28553 28556 28559 28562 28565 28568 28571 28574 28577 28580 28583 28586 28589 28592 28594 28597 28600 28603 28606 28609 28612 28615 28617 28620 28623 28625 28628 28631 28634 28637 28640 28643 28646 28649 28652 28655 28658 28661 28664 28667 28670 28672 28675 28678 28681 28684 28686 28689 28692 28695 28698 28701 28704 28707 28710 28713 28716 28719 28722 28725 28728 28731 28734 28737 28740 28743 28746 28749 28752 28755 28758 28761 28763 28766 28769 28772 28775 28778 28781 28783 28786 28789 28792 28795 28798 28801 28804 28807 28810 28812 28814 28817 28820 28823 28825 28828 28830 28833 28836 28839 28842 28845 28848 28851 28854 28857 28860 28863 28866 28869 28872 28875 28877 28880 28883 28886 28889 28892 28895 28898 28901 28904 28907 28910 28913 28915 28917 28920 28923 28926 28929 28932 28935 28938 28941 28943 28946 28949 28951 28954 28957 28959 28961 28964 28967 28970 28973 28976 28979 28982 28984 28987 28990 28993 28996 28999 29002 29005 29008 29011 29013 29016 29019 29022 29024 29027 29030 29033 29036 29039 29041 29044 29047 29050 29053 29056 29059 29062 29065 29068 29071 29074 29077 29079 29082 29085 29088 29090 29093 29096 29099 29101 29104 29107 29110 29113 29116 29119 29122 29125 29128 29131 29134 29137 29140 29143 29146 29149 29152 29155 29158 29161 29164 29167 29170 29173 29176 29179 29182 29185 29188 29191 29194 29197 29199 29202 29205 29208 29211 29214 29217 29220 29223 29226 29229 29232 29235 29238 29241 29244 29247 29250 29253 29256 29259 29262 29265 29268 29271 29273 29276 29278 29281 29284 29286 29289 29292 29295 29298 29301 29304 29307 29310 29313 29315 29318 29321 29324 29327 29330 29333 29336 29339 29342 29345 29348 29351 29354 29357 29359 29362 29365 29368 29371 29373 29376 29379 29382 29384 29387 29390 29393 29396 29399 29402 29405 29408 29411 29414 29417 29420 29423 29426 29429 29432 29435 29438 29441 29444 29447 29450 29453 29456 29459 29462 29465 29468 29471 29474 29477 29480 29483 29486 29489 29492 29495 29498 29501 29504 29507 29510 29513 29516 29519 29522 29525 29528 29531 29534 29537 29540 29543 29546 29549 29552 29555 29558 29561 29564 29567 29570 29573 29576 29579 29582 29585 29588 29591 29594 29597 29600 29603 29606 29609 29612 29615 29618 29621 29624 29627 29630 29633 29636 29639 29642 29645 29648 29651 29654 29657 29660 29663 29666 29669 29672 29675 29678 29681 29684 29687 29690 29693 29696 29699 29702 29705 29708 29711 29714 29717 29720 29723 29726 29729 29732 29735 29738 29741 29744 29747 29750 29753 29756 29759 29762 29765 29768 29771 29774 29777 29780 29783 29786 29789 29792 29795 29798 29801 29804 29807 29810 29813 29816 29819 29822 29825 29828 29831 29834 29837 29840 29843 29846 29849 29852 29855 29858 29861 29864 29867 29870 29873 29876 29879 29882 29885 29888 29891 29894 29897 29900 29903 29906 29909 29912 29915 29918 29921 29924 29927 29930 29933 29936 29939 29942 29945 29948 29951 29953 29956 29959 29962 29965 29968 29971 29974 29977 29980 29983 29986 29989 29992 29995 29998 30001 30003 30006 30009 30012 30015 30018 30021 30024 30027 30029 30032 30035 30038 30041 30043 30046 30049 30052 30055 30058 30061 30064 30067 30070 30073 30076 30079 30082 30085 30088 30091 30094 30097 30100 30103 30106 30109 30111 30114 30117 30120 30123 30126 30129 30132 30135 30138 30141 30144 30147 30150 30152 30154 30157 30160 30163 30166 30169 30171 30174 30176 30179 30182 30185 30188 30191 30194 30197 30200 30203 30206 30209 30211 30214 30217 30220 30223 30226 30229 30232 30234 30237 30240 30243 30246 30249 30252 30255 30258 30261 30264 30267 30270 30273 30276 30279 30281 30283 30286 30289 30292 30295 30298 30301 30304 30307 30310 30313 30316 30319 30321 30324 30327 30330 30333 30336 30339 30342 30345 30348 30351 30354 30357 30360 30363 30366 30369 30371 30374 30377 30380 30383 30386 30389 30392 30394 30397 30400 30403 30406 30409 30412 30415 30418 30421 30424 30426 30428 30431 30434 30437 30440 30443 30446 30449 30452 30455 30458 30461 30464 30467 30470 30473 30476 30479 30482 30485 30488 30491 30494 30497 30500 30503 30506 30509 30512 30515 30518 30520 30523 30526 30529 30532 30535 30537 30540 30543 30546 30549 30552 30555 30558 30561 30564 30567 30569 30572 30575 30578 30581 30583 30586 30589 30592 30595 30598 30601 30604 30607 30610 30613 30615 30618 30620 30623 30626 30629 30632 30635 30638 30641 30644 30647 30650 30653 30656 30659 30662 30665 30668 30671 30674 30677 30680 30683 30686 30689 30692 30695 30698 30701 30704 30707 30710 30713 30715 30718 30721 30724 30727 30730 30732 30735 30738 30741 30744 30747 30750 30753 30756 30759 30762 30765 30768 30771 30774 30777 30780 30783 30786 30788 30791 30794 30796 30799 30802 30805 30807 30810 30813 30816 30819 30822 30824 30827 30830 30833 30836 30839 30842 30845 30848 30851 30854 30856 30859 30862 30865 30868 30871 30874 30876 30879 30882 30885 30888 30891 30893 30895 30898 30901 30903 30906 30909 30911 30914 30917 30920 30923 30926 30929 30932 30935 30938 30941 30943 30946 30949 30951 30954 30957 30959 30962 30965 30967 30970 30973 30975 30978 30981 30983 30986 30989 30992 30995 30998 31001 31003 31006 31009 31012 31015 31018 31021 31024 31027 31030 31033 31036 31038 31041 31044 31047 31050 31053 31056 31059 31061 31064 31067 31070 31073 31075 31078 31081 31084 31086 31089 31092 31095 31098 31101 31104 31107 31110 31113 31116 31119 31121 31124 31127 31130 31133 31136 31139 31142 31145 31148 31151 31154 31157 31160 31163 31166 31169 31172 31175 31178 31181 31184 31187 31190 31193 31195 31198 31201 31204 31207 31210 31212 31215 31218 31221 31224 31227 31230 31233 31236 31239 31242 31245 31248 31251 31254 31256 31259 31262 31264 31267 31269 31272 31275 31278 31281 31283 31286 31288 31290 31293 31295 31298 31301 31304 31307 31310 31313 31316 31318 31321 31323 31326 31329 31332 31335 31338 31341 31343 31346 31349 31352 31355 31358 31361 31363 31366 31369 31372 31375 31377 31380 31383 31386 31389 31392 31394 31397 31400 31402 31405 31408 31411 31414 31416 31419 31422 31425 31428 31430 31433 31436 31439 31442 31445 31448 31450 31453 31456 31459 31462 31465 31468 31471 31474 31477 31479 31482 31485 31488 31491 31494 31497 31499 31502 31505 31508 31511 31513 31516 31519 31522 31525 31528 31531 31534 31537 31540 31543 31546 31549 31552 31555 31558 31561 31563 31566 31569 31572 31574 31577 31580 31582 31585 31588 31591 31594 31597 31600 31603 31606 31609 31612 31615 31618 31621 31624 31627 31630 31632 31635 31637 31640 31643 31646 31649 31652 31655 31658 31661 31664 31667 31670 31673 31676 31679 31682 31685 31688 31691 31694 31697 31700 31703 31706 31709 31712 31715 31717 31720 31723 31725 31728 31731 31734 31737 31740 31743 31746 31749 31752 31755 31757 31760 31763 31766 31769 31771 31774 31777 31780 31783 31785 31788 31791 31794 31797 31800 31803 31806 31809 31812 31814 31817 31820 31823 31826 31829 31832 31835 31838 31841 31844 31847 31850 31853 31856 31859 31862 31865 31868 31871 31874 31877 31880 31883 31886 31889 31892 31895 31898 
</DataArray>
<DataArray type="UInt32" Name="types" format="ascii">
5 5 5 5 5 3 5 5 5 5 5 5 5 3 5 5 5 5 3 5 5 3 5 5 5 5 3 5 5 5 5 3 5 5 5 5 5 5 5 5 5 5 5 5 5 3 5 5 3 5 5 5 5 5 3 5 5 5 5 5 5 5 3 5 5 5 5 3 5 5 5 5 5 5 5 5 5 3 5 5 3 5 5 3 5 5 5 5 3 5 5 5 5 5 5 5 3 3 3 5 5 3 5 5 5 5 5 3 5 5 5 5 5 5 5 5 5 5 5 5 5 3 5 5 5 3 5 5 5 5 5 5 3 5 5 5 5 5 5 5 5 5 5 5 5 5 5 5 5 5 5 5 5 5 5 5 5 5 3 5 5 5 3 5 5 3 5 5 5 5 5 5 5 5 5 5 5 3 5 5 5 5 5 5 5 5 3 5 5 5 5 5 5 5 5 3 5 5 5 5 5 5 5 5 5 3 5 5 5 5 5 5 5 5 5 5 5 5 5 5 5 5 5 5 5 5 5 5 5 3 5 5 5 3 5 3 5 3 5 5 3 5 5 5 3 5 3 5 3 5 3 3 5 3 5 5 3 5 3 5 5 5 3 5 3 3 5 5 3 5 5 5 3 5 3 3 3 5 3 5 5 5 3 5 3 3 3 5 5 3 3 5 5 5 5 3 5 3 5 5 3 5 5 5 3 5 3 3 3 5 5 5 3 5 3 3 3 3 5 5 5 3 3 5 5 3 3 3 5 3 5 5 5 5 3 5 5 5 5 5 5 5 3 5 5 5 5 5 5 3 3 5 5 5 3 5 5 5 3 5 3 5 3 3 5 5 5 5 3 5 5 3 5 5 5 5 3 5 3 5 5 5 5 5 3 3 5 5 5 5 5 5 5 5 3 5 5 5 3 5 5 3 5 3 5 5 5 5 5 5 5 5 5 5 5 3 5 3 5 3 5 5 5 3 5 3 5 3 5 5 5 5 5 5 3 5 3 5 5 5 3 5 5 5 3 5 3 3 5 5 5 5 3 5 5 5 5 3 3 5 5 3 5 3 5 3 3 5 5 5 3 5 5 5 5 3 5 5 5 5 5 5 5 5 5 5 5 3 5 5 5 5 3 5 5 5 3 5 3 3 3 5 5 5 3 3 5 3 5 5 3 5 5 5 5 3 5 5 5 5 5 5 5 5 5 5 5 3 3 5 5 3 5 5 5 3 5 5 5 5 5 5 3 5 5 5 3 5 5 5 3 5 5 5 5 5 5 5 5 5 5 5 3 5 5 5 3 5 5 5 5 5 5 5 3 5 5 5 5 5 3 5 5 5 5 5 5 5 5 5 5 5 5 5 5 5 5 5 5 5 3 5 5 5 5 3 5 5 3 5 5 5 5 5 5 5 3 5 5 5 5 5 5 5 5 3 5 3 5 5 3 5 5 5 3 5 5 3 5 5 5 3 5 3 5 5 3 5 3 5 5 5 5 5 5 5 5 5 5 5 5 5 5 5 5 5 5 5 5 5 5 3 5 3 5 3 5 5 5 5 5 5 5 5 5 5 5 5 5 5 5 3 5 5 5 5 5 5 5 5 5 3 5 5 5 5 5 5 5 5 5 5 5 5 5 5 5 5 5 5 5 5 5 5 5 5 5 5 5 5 5 3 5 5 3 5 5 5 3 3 5 3 5 5 5 5 5 3 5 5 5 5 5 3 5 5 5 5 5 5 5 5 5 5 5 5 5 5 5 5 5 5 5 5 5 5 5 5 5 5 5 5 5 5 5 5 5 5 5 5 5 5 5 5 5 5 5 5 5 5 5 5 5 3 5 5 5 5 5 5 5 5 5 5 5 5 5 5 5 3 5 5 5 5 3 5 5 5 5 5 5 5 5 5 5 5 5 5 5 5 5 5 5 5 5 5 5 5 5 5 5 5 3 5 5 3 5 3 3 3 3 5 5 3 5 5 5 5 5 5 5 5 5 5 5 5 5 5 5 5 5 3 5 5 3 5 3 5 5 5 5 3 5 3 5 5 5 5 3 5 5 5 3 5 5 5 5 5 3 5 3 5 5 3 3 5 3 5 5 5 5 5 5 5 5 5 5 5 3 5 5 5 3 5 5 5 3 5 5 3 3 3 5 5 5 5 5 5 5 5 5 5 5 3 5 5 5 5 5 5 5 5 3 3 3 5 5 5 5 5 5 5 5 3 3 5 5 5 3 5 5 3 5 5 5 5 5 5 5 5 5 5 5 3 5 5 5 5 5 5 5 5 3 5 5 5 5 5 5 5 5 5 5 3 5 3 3 3 5 5 5 5 5 5 5 3 3 5 3 5 5 5 5 5 3 5 3 3 5 5 5 3 5 3 5 5 5 5 3 5 5 5 5 5 5 5 5 5 5 5 5 5 5 5 5 5 3 5 5 5 3 5 5 5 5 5 3 5 5 5 5 5 5 3 5 3 5 5 5 5 5 5 5 5 3 5 5 5 3 5 5 5 5 5 5 5 5 5 5 5 5 5 5 5 5 5 5 5 5 5 5 5 5 5 3 3 3 5 5 5 5 3 5 5 5 5 3 5 5 5 5 5 5 5 3 5 5 5 5 5 5 5 5 3 5 5 5 5 5 5 5 5 5 5 5 5 3 5 5 5 5 5 5 3 5 5 5 5 5 5 5 5 3 5 5 5 3 5 5 5 5 5 5 5 5 5 5 5 5 3 5 5 5 5 5 5 5 5 5 5 5 5 5 5 5 5 5 5 5 5 5 5 5 5 5 5 5 5 5 5 5 5 5 5 5 5 5 5 5 5 5 5 5 5 5 5 5 3 5 5 5 5 5 5 5 5 5 5 5 5 5 5 5 5 5 5 5 5 5 5 5 5 3 5 5 5 5 5 5 5 5 5 5 3 5 5 3 5 5 5 5 5 5 5 5 5 3 5 3 5 5 5 5 3 5 5 3 5 3 5 5 5 5 5 3 5 5 5 5 5 5 5 5 3 5 5 5 5 5 5 5 5 5 5 5 5 5 5 3 5 3 3 5 5 5 5 5 3 5 5 5 5 5 5 5 5 5 5 5 5 5 5 5 3 5 5 5 5 5 5 5 5 5 5 5 5 5 5 5 5 3 5 5 5 5 5 3 3 5 5 3 5 5 5 5 5 5 5 5 5 5 3 5 5 5 5 5 5 5 5 5 3 5 3 5 5 5 5 5 3 5 5 5 5 3 5 5 5 3 5 5 5 3 5 5 3 5 5 5 5 5 5 5 5 5 5 5 5 5 5 5 5 3 5 5 5 5 5 5 5 3 5 5 5 5 5 5 5 5 5 5 5 5 5 5 5 5 5 5 5 5 5 5 5 5 5 5 5 3 5 5 5 5 3 5 5 5 3 5 5 5 5 5 5 5 5 5 3 5 3 5 5 5 5 5 5 5 5 5 5 5 5 5 5 5 5 5 5 3 3 5 5 5 3 5 5 3 5 5 3 5 5 5 3 5 5 3 5 5 5 5 5 5 5 5 5 5 5 5 5 5 5 5 5 5 5 5 3 5 3 5 5 5 5 5 5 5 5 5 5 5 3 5 3 5 5 5 3 5 5 5 5 5 3 5 5 5 5 5 5 3 5 5 5 5 5 5 5 5 5 5 5 3 5 5 5 5 5 5 5 5 3 5 5 5 3 5 5 3 5 5 5 5 5 3 5 5 5 5 5 5 5 5 5 3 5 5 3 5 3 5 3 3 3 5 3 5 5 5 5 5 5 3 5 5 5 5 5 5 3 5 5 5 5 5 5 5 3 5 5 5 5 3 5 5 5 5 5 3 5 3 5 5 5 5 5 5 5 5 5 5 3 5 5 5 5 5 5 5 3 5 5 5 5 5 5 5 3 5 3 5 5 5 5 5 5 5 5 3 5 5 5 3 3 5 5 5 5 5 3 3 5 3 5 5 3 5 5 3 5 5 5 5 5 5 5 5 3 5 5 5 5 5 3 5 5 5 5 3 5 5 3 5 5 5 5 5 5 5 5 5 5 5 5 5 5 5 5 5 5 5 5 5 5 5 5 5 5 5 5 5 5 5 5 5 5 5 5 5 5 5 5 5 3 5 5 3 5 5 5 5 5 3 5 5 5 5 3 5 5 5 5 5 5 5 5 5 5 5 5 5 5 5 5 5 5 5 5 5 5 5 5 3 5 5 5 3 5 5 5 5 5 5 3 5 5 5 5 5 5 5 5 5 5 5 3 5 3 3 5 5 3 5 5 5 5 5 5 5 5 5 5 5 3 5 5 3 5 5 5 5 5 5 5 5 5 5 5 5 5 5 5 3 5 5 5 5 5 5 5 3 5 3 5 5 5 5 3 5 3 5 5 5 5 5 5 5 5 5 3 5 5 5 5 5 5 5 5 5 5 5 5 5 5 5 5 5 3 5 5 5 5 5 5 5 5 5 5 5 5 5 5 5 5 5 5 5 5 5 5 5 5 5 3 3 5 5 5 5 5 5 5 5 5 5 5 3 5 5 5 5 3 5 5 5 5 3 5 5 5 5 5 5 5 5 3 5 5 5 5 5 5 5 5 5 3 5 5 5 5 5 5 5 5 5 5 5 5 5 5 5 5 5 5 5 5 3 5 5 5 5 5 5 5 5 5 5 5 5 5 5 3 5 3 5 5 5 5 5 5 5 5 3 5 5 3 5 5 5 5 5 5 5 5 5 5 5 5 5 5 5 5 5 5 5 5 5 5 5 5 5 5 5 5 5 5 5 5 5 5 5 5 3 5 5 3 5 5 5 5 3 5 3 5 5 3 5 3 5 5 5 5 5 3 5 5 5 5 5 5 5 5 5 5 5 5 3 5 5 5 3 5 5 5 5 5 5 5 5 5 3 5 5 5 5 3 3 5 5 5 5 5 5 5 5 3 5 5 5 5 5 3 5 5 5 3 5 5 5 3 5 5 5 5 3 5 5 5 5 5 5 5 5 5 5 5 5 5 5 3 5 5 5 5 5 5 3 5 3 3 5 3 5 3 5 5 5 5 3 5 5 5 5 3 5 5 5 5 5 5 5 5 5 3 5 5 5 5 5 5 5 5 5 5 5 5 5 5 3 5 5 5 3 5 5 5 3 5 3 5 5 5 5 5 5 5 5 5 5 5 5 5 5 5 5 3 5 5 5 5 5 5 3 5 5 5 5 5 5 5 5 5 5 5 5 5 5 5 5 5 5 3 5 5 5 5 5 5 5 5 5 5 5 5 5 5 5 5 5 5 5 5 5 5 5 5 5 5 5 5 5 5 5 5 5 5 3 5 5 5 5 3 5 5 5 5 5 5 5 3 5 5 5 5 5 5 5 5 5 3 5 5 3 5 5 5 5 5 3 5 5 5 3 5 5 3 5 5 5 5 5 5 5 5 5 5 5 5 5 5 5 5 5 5 5 5 3 5 5 5 5 5 5 5 5 5 5 3 3 5 3 5 5 5 5 5 3 5 5 5 5 3 5 5 5 5 5 3 5 3 5 5 3 5 5 5 5 5 5 5 5 3 5 5 5 5 5 5 3 5 5 5 5 5 5 3 5 5 5 5 3 5 5 3 5 3 5 5 3 5 5 5 5 5 5 3 5 5 5 5 3 5 5 5 5 5 5 5 5 3 3 5 5 5 5 5 5 5 5 3 5 5 5 5 5 5 3 5 5 5 5 5 5 5 3 5 5 5 3 5 5 5 5 5 5 5 5 5 5 5 5 3 5 5 5 5 3 5 5 3 5 5 5 5 3 5 5 5 3 3 5 5 5 3 5 5 5 3 5 5 5 5 5 5 5 5 5 3 5 5 5 3 5 5 5 5 5 5 5 5 5 5 5 5 3 5 3 5 5 3 5 5 3 5 5 5 5 5 5 5 3 5 5 5 5 5 3 5 3 5 5 5 3 3 5 3 3 5 3 5 5 5 5 5 5 3 5 3 5 5 5 5 5 5 5 5 5 5 5 5 5 3 5 5 3 5 3 5 5 3 5 5 5 3 3 5 5 3 5 5 5 5 5 5 5 5 5 5 5 5 5 5 5 5 5 5 5 5 5 5 5 3 3 5 3 5 3 5 5 3 3 5 5 3 5 5 3 5 5 3 5 3 5 5 5 5 3 5 5 5 5 3 5 3 3 5 3 5 5 3 3 5 5 5 3 5 5 5 5 3 3 5 5 5 5 5 3 5 5 5 5 5 5 5 5 5 5 5 3 5 3 5 3 5 5 3 5 3 5 5 5 5 5 5 5 5 3 5 5 3 5 5 5 5 3 5 5 5 5 5 5 5 5 5 5 5 5 3 5 5 5 5 5 5 5 5 5 5 5 3 5 5 5 5 5 5 3 5 3 5 5 3 5 5 5 5 5 5 5 5 5 5 5 5 5 5 5 5 5 3 3 5 5 5 3 5 5 3 5 5 5 5 5 5 5 5 5 5 5 5 5 5 5 5 5 5 5 5 5 5 5 5 5 3 3 5 5 5 5 5 5 5 5 5 5 5 3 5 5 5 5 5 5 5 5 5 5 5 5 5 5 5 5 5 5 5 5 5 5 5 5 5 5 5 5 5 5 5 5 5 3 5 5 5 5 5 3 5 5 3 5 5 3 3 5 5 5 5 5 5 5 5 5 5 5 5 5 3 5 5 3 5 5 5 5 5 5 3 5 5 3 5 5 5 5 5 5 5 5 5 5 5 5 5 3 5 5 5 5 5 5 5 3 5 5 5 5 5 5 5 5 5 5 5 5 3 5 5 3 5 5 5 5 5 5 5 5 5 5 5 5 5 5 5 5 5 5 5 5 3 5 5 3 5 3 5 5 5 3 5 5 3 5 3 5 5 5 3 5 5 5 5 3 5 5 5 5 5 5 5 3 5 5 5 3 5 5 5 5 5 5 5 5 5 5 5 5 3 5 5 5 5 5 5 5 5 3 5 5 5 5 5 5 5 5 5 5 5 3 5 5 5 5 5 5 5 5 5 5 5 5 5 5 5 5 5 5 5 3 3 5 5 5 3 5 5 5 5 5 5 5 5 5 5 5 5 3 5 5 5 5 5 5 5 5 5 3 5 5 5 5 5 5 5 5 5 5 5 5 5 5 5 5 3 5 3 5 5 5 5 5 3 5 5 5 5 3 5 5 5 3 5 5 5 3 5 5 5 5 5 5 5 5 5 3 5 5 5 3 5 5 3 5 5 5 5 5 5 3 5 5 5 5 5 5 5 5 3 5 5 5 3 5 5 5 5 5 5 5 5 5 5 5 5 5 5 5 5 5 5 5 5 5 5 5 5 5 5 5 3 5 5 5 5 5 5 5 3 5 5 5 5 5 5 5 5 5 5 5 5 5 5 5 5 5 5 5 5 5 5 5 5 5 3 5 3 5 5 5 5 5 5 3 5 5 5 3 5 5 3 5 5 5 5 5 5 5 5 5 5 5 5 3 5 5 5 5 5 3 5 5 5 5 5 5 5 5 5 5 5 5 5 3 5 5 5 3 5 5 5 5 5 5 5 5 5 5 5 5 3 3 5 5 5 5 3 5 5 5 5 5 5 5 5 5 3 3 5 5 5 5 5 3 5 5 5 5 5 3 5 5 5 5 5 3 5 3 5 5 5 5 3 5 3 5 3 3 5 5 5 5 5 5 5 3 3 5 5 5 5 5 5 3 3 3 5 3 3 5 5 5 3 5 5 5 5 5 3 3 3 5 3 5 5 5 3 5 3 3 5 5 5 5 5 5 5 3 3 5 5 3 3 3 5 5 5 5 5 5 5 5 5 5 5 5 5 5 5 5 5 5 5 5 5 5 5 5 5 5 5 5 5 5 5 5 5 5 5 5 5 5 5 5 3 5 5 5 5 5 5 5 5 5 5 3 5 5 5 5 5 5 3 5 5 3 5 5 5 5 5 5 5 5 5 5 5 5 5 3 5 3 5 5 5 5 3 5 5 5 3 5 5 3 5 5 5 3 5 5 3 5 5 5 5 5 3 5 5 5 5 5 5 5 3 5 5 5 5 5 5 5 3 5 5 3 5 5 5 5 3 5 3 5 5 5 5 5 3 5 5 5 5 3 5 5 5 5 5 5 3 3 5 5 5 5 5 3 5 5 3 5 5 5 5 5 5 5 5 5 5 3 5 5 5 5 5 5 5 5 5 5 5 5 5 5 5 5 5 5 3 5 5 5 5 5 5 3 5 5 5 5 5 5 5 3 3 5 5 5 5 3 5 5 5 5 5 5 5 3 5 5 3 5 3 3 3 5 5 5 5 5 5 3 5 5 5 5 5 3 5 5 5 5 3 5 5 5 3 5 5 5 3 5 5 5 5 5 5 5 5 5 5 5 5 5 5 5 5 5 5 5 5 5 5 5 5 5 3 5 5 5 5 5 5 5 3 5 3 5 5 5 5 5 5 3 5 5 3 5 5 5 3 5 5 3 5 5 5 5 5 3 5 5 5 3 3 5 5 5 5 5 5 5 5 5 5 5 5 3 5 5 5 5 5 5 5 5 5 3 5 5 5 5 5 3 3 5 5 5 5 5 5 5 5 5 3 5 5 5 5 5 5 5 5 3 5 5 5 5 5 5 5 5 5 5 5 5 5 5 5 5 5 5 3 5 5 5 5 3 5 3 5 3 5 5 5 5 5 5 5 5 5 5 5 5 5 5 5 5 5 3 5 5 5 5 5 3 5 5 5 3 3 5 5 5 5 5 3 5 5 5 5 3 5 5 5 5 5 5 5 5 3 5 5 5 5 5 5 5 3 5 5 5 5 5 5 5 5 5 3 5 5 5 5 5 5 5 5 5 5 5 5 5 5 5 5 5 5 3 5 5 5 5 5 5 5 5 5 5 5 5 5 3 5 5 5 5 5 5 3 5 5 3 5 5 3 5 5 5 5 5 5 5 5 5 5 5 5 5 5 5 5 5 5 5 5 5 5 5 5 5 5 3 5 3 5 3 3 5 5 5 3 5 5 5 5 5 5 5 5 5 3 3 5 3 5 5 5 5 5 5 5 5 5 5 5 5 5 5 3 5 3 3 5 3 5 5 5 5 5 5 5 5 5 3 3 5 5 5 5 5 5 5 5 5 5 5 5 5 5 5 5 5 5 5 5 5 5 3 5 5 5 5 5 3 5 5 5 5 5 3 5 5 5 3 5 5 5 5 5 5 5 5 5 3 5 5 5 5 3 5 5 5 5 5 5 3 5 5 5 5 5 5 5 3 5 5 5 5 3 5 5 5 5 5 5 5 5 5 5 3 5 5 5 5 3 5 5 5 3 5 5 5 5 5 3 5 5 5 5 5 5 5 5 5 5 5 5 5 5 3 3 5 5 3 5 5 5 5 5 5 5 3 5 5 5 5 5 5 3 5 5 5 5 5 5 5 5 5 5 5 5 5 5 5 5 5 5 5 5 5 5 5 3 5 5 5 5 5 5 5 5 3 5 5 5 5 3 5 5 5 5 5 3 5 3 5 3 5 5 5 5 5 5 5 3 5 5 5 3 5 5 5 5 5 3 5 5 5 5 5 3 5 3 5 5 3 5 3 5 5 5 5 5 3 5 5 5 3 5 5 5 5 5 5 5 5 5 5 3 5 5 5 5 5 5 5 5 5 5 5 5 5 5 5 5 5 5 5 5 5 5 3 5 5 5 5 5 5 5 5 5 5 5 5 5 5 5 5 5 5 3 5 5 5 3 5 5 5 5 5 5 3 5 5 5 3 3 5 3 5 3 3 5 3 5 5 3 5 5 3 3 5 5 5 5 5 5 5 5 3 5 3 5 5 5 5 5 5 5 5 5 5 5 5 5 5 5 5 5 5 5 5 5 5 3 5 5 5 5 5 5 5 5 3 5 5 3 5 5 3 3 5 5 3 5 5 5 5 5 5 5 5 5 5 5 5 5 5 5 5 5 5 5 5 5 5 5 5 5 5 5 5 5 5 5 5 5 5 5 5 5 5 5 3 5 3 5 5 5 5 5 5 5 5 5 5 5 5 5 5 5 5 5 5 5 5 5 5 5 5 5 5 5 5 5 5 5 5 5 5 5 5 5 5 5 5 3 5 5 3 5 5 5 5 5 3 5 3 5 5 3 5 5 5 5 5 5 3 5 5 5 5 5 5 5 5 5 5 5 3 5 5 3 3 5 3 5 5 3 5 5 5 5 3 5 5 5 5 5 5 5 5 5 3 5 3 5 5 5 5 5 5 5 3 5 3 5 5 5 5 5 5 5 5 5 3 5 3 5 5 5 5 5 5 5 5 5 5 3 5 5 5 3 5 5 3 5 5 3 5 5 5 5 3 5 5 5 3 5 5 5 5 5 5 5 5 5 5 5 5 5 5 3 5 5 5 5 5 5 3 5 3 5 3 5 5 5 3 5 5 5 5 5 5 5 5 3 5 5 5 5 5 3 5 5 3 5 5 5 5 5 5 5 5 5 3 5 5 5 3 5 5 5 5 5 5 3 5 5 5 5 5 5 5 5 5 5 5 5 5 5 5 5 5 5 5 5 5 5 5 5 5 5 5 5 5 5 5 3 5 5 5 5 5 3 5 5 3 3 5 5 5 5 3 5 5 5 5 5 3 5 5 5 5 5 5 5 5 5 5 5 5 5 5 5 5 3 5 5 5 5 5 5 5 5 3 3 5 5 5 5 5 5 3 5 5 5 5 3 5 5 5 5 5 5 5 5 5 5 5 5 5 5 5 5 5 5 5 5 5 5 5 5 3 5 5 3 5 5 5 5 5 5 5 5 5 5 5 5 5 5 5 5 5 5 5 5 5 5 5 5 5 5 5 3 5 3 5 5 5 5 5 3 5 5 5 5 5 5 5 5 5 5 5 5 5 5 5 5 5 5 5 5 3 3 5 3 5 5 5 5 5 5 5 5 5 5 5 5 5 5 5 5 3 5 5 5 3 5 5 5 5 5 5 5 5 5 5 5 5 5 3 5 5 5 5 5 5 5 5 5 5 5 5 5 5 5 5 5 5 5 5 5 5 3 5 5 5 5 5 5 5 5 5 5 5 5 5 3 5 3 5 5 3 3 5 5 5 5 5 5 5 5 5 5 5 5 5 5 5 5 5 5 5 5 3 5 5 3 5 5 5 3 5 5 5 5 5 5 3 5 5 5 3 5 5 5 5 5 5 5 5 3 5 5 3 5 5 3 5 3 5 5 5 5 3 3 5 5 3 3 5 5 3 5 5 5 5 3 5 5 3 3 5 3 5 5 5 5 5 5 5 5 5 5 5 5 5 5 5 5 5 5 5 5 3 5 5 5 5 3 5 5 5 5 3 3 5 5 5 5 5 5 5 5 5 5 5 5 3 5 5 5 3 5 5 5 5 5 5 5 3 5 5 5 3 5 5 3 3 5 5 5 3 5 5 5 3 5 5 5 5 5 5 5 5 5 5 5 5 5 5 5 5 5 5 3 5 5 5 5 5 5 5 5 5 5 5 5 5 5 5 5 5 5 3 3 5 5 5 5 5 3 3 5 3 5 5 5 5 5 5 5 5 5 3 5 5 5 3 5 5 5 5 5 5 5 5 5 5 5 5 5 5 3 5 5 5 5 5 5 5 3 5 5 3 5 5 5 5 5 5 3 5 5 5 5 3 5 5 5 5 5 5 3 5 5 5 5 5 5 5 5 3 3 5 5 5 3 3 5 5 5 5 5 3 5 5 5 5 5 5 3 5 5 5 5 3 5 5 5 5 5 3 5 5 5 5 3 5 5 5 5 5 5 5 5 5 5 5 5 5 5 5 5 5 5 5 5 5 5 5 5 5 3 5 5 5 5 3 5 3 5 3 5 5 3 5 5 3 5 5 3 5 5 5 5 5 5 3 5 5 3 5 3 3 3 5 5 3 5 3 3 5 5 5 3 5 3 5 5 5 5 5 5 3 5 5 5 3 5 5 5 5 5 5 5 3 5 5 5 3 5 3 3 5 5 5 5 5 5 5 3 5 5 5 5 5 5 5 5 3 3 5 5 5 5 3 5 5 3 5 5 5 3 5 5 5 3 3 5 5 5 5 3 5 5 5 5 5 3 3 5 5 5 5 5 5 5 5 5 5 5 5 5 5 5 5 5 5 5 5 5 5 5 5 5 5 5 5 5 5 5 3 5 5 5 3 5 5 5 5 5 5 5 5 5 5 5 5 5 5 5 3 5 3 3 5 5 3 5 5 5 5 5 5 5 5 5 5 5 5 5 5 5 5 5 5 5 5 5 5 5 3 5 5 3 3 5 5 5 5 5 5 5 3 5 5 5 3 5 5 5 5 3 3 5 5 5 5 5 5 5 3 5 5 5 5 3 5 5 5 5 3 5 5 5 5 5 5 5 5 5 5 5 5 5 5 5 5 5 5 5 3 5 5 5 5 5 5 5 5 5 5 5 5 5 5 5 5 3 5 5 5 3 5 5 5 5 5 5 5 5 5 3 5 5 5 5 5 5 5 5 5 5 5 5 5 5 5 5 5 5 5 5 5 3 5 5 5 5 5 5 5 5 5 5 5 5 5 5 5 5 5 3 5 5 5 5 5 3 5 5 5 5 5 5 5 5 5 5 5 5 5 5 5 5 5 5 5 5 5 5 5 5 5 5 5 3 5 5 3 5 5 5 3 5 5 5 5 5 5 5 5 5 5 5 5 5 5 5 3 5 3 5 5 5 5 5 5 5 5 5 3 5 5 5 5 5 5 5 5 5 3 3 5 5 5 5 5 5 5 5 5 5 5 5 5 5 5 5 5 5 5 5 5 5 5 5 5 5 5 5 5 5 5 5 5 5 5 5 5 5 5 5 5 5 5 5 5 5 5 5 5 5 5 5 5 5 5 5 5 5 5 5 5 5 5 5 5 5 5 5 5 5 5 3 5 5 5 5 5 5 3 5 5 5 5 5 5 5 5 5 3 5 3 5 5 5 5 5 5 5 5 5 5 5 5 5 5 5 5 5 5 5 5 5 5 5 5 5 5 5 5 5 5 5 5 5 5 3 5 5 5 3 3 5 5 5 5 5 5 5 5 5 5 5 5 5 5 5 5 5 5 5 5 5 5 3 3 5 5 5 5 5 5 5 5 3 5 5 5 5 5 5 3 5 5 5 5 5 3 5 5 5 5 3 5 5 5 3 5 5 5 3 5 5 3 5 5 5 5 5 5 5 5 5 5 5 5 5 3 5 5 5 5 5 5 5 5 3 5 5 5 5 5 5 5 5 5 5 5 3 5 5 5 3 5 5 5 5 3 5 5 5 5 5 5 5 5 3 5 3 5 5 3 5 5 5 5 5 3 5 5 5 5 5 5 5 5 5 5 5 5 3 5 5 5 5 5 5 5 5 5 3 5 5 5 5 5 5 3 5 5 5 5 5 5 5 3 5 5 5 5 5 3 5 5 5 5 5 5 5 5 5 5 5 5 5 5 5 5 5 5 5 5 5 5 5 5 5 5 5 5 5 5 5 5 5 5 5 5 5 5 5 5 5 5 5 5 5 5 5 3 5 3 5 5 5 5 5 5 5 5 5 5 5 5 5 5 3 5 5 5 5 5 5 5 5 5 5 5 5 5 5 5 3 5 5 3 5 3 5 5 5 5 5 3 5 5 5 5 5 5 5 5 5 5 5 5 5 5 5 5 5 5 5 5 3 5 5 5 5 5 5 5 5 5 5 5 3 5 3 5 5 3 5 3 5 5 5 5 5 5 5 3 5 3 5 5 5 5 3 5 5 5 5 3 3 5 5 3 5 5 5 5 5 5 5 5 5 5 5 5 5 5 5 5 3 5 5 5 5 5 5 5 5 5 5 5 5 5 5 3 5 3 5 5 5 5 5 5 5 3 5 3 5 5 5 5 5 5 5 5 5 3 3 5 5 5 3 5 5 5 5 3 5 3 5 5 3 5 3 3 3 5 5 3 5 5 5 3 3 3 5 5 5 5 5 5 5 5 5 5 5 3 5 5 5 5 5 5 3 5 5 5 3 5 5 5 5 5 5 5 5 3 5 5 5 3 5 5 5 5 5 5 5 5 5 5 5 5 5 5 5 5 5 5 5 5 5 5 5 5 5 5 5 5 5 5 5 5 5 5 5 5 5 5 5 5 5 5 5 5 5 5 5 5 5 5 5 5 5 5 5 5 5 5 5 5 3 5 5 5 5 5 3 5 5 5 5 3 5 5 5 3 5 5 5 5 5 5 5 5 5 5 5 5 5 5 5 5 5 5 5 5 5 5 5 5 5 5 5 5 5 5 5 5 5 5 5 5 5 5 5 5 3 5 5 3 5 5 5 5 5 5 5 3 5 5 5 5 5 5 5 5 5 5 5 3 5 5 3 5 3 5 5 5 3 5 5 5 5 5 5 5 5 3 5 5 5 5 3 5 5 5 5 3 5 3 5 5 5 5 5 5 5 5 5 5 5 5 3 5 3 5 5 5 5 5 5 5 5 5 5 5 5 5 3 5 5 5 5 5 5 5 5 5 3 5 5 5 3 5 5 5 5 5 5 5 5 5 5 5 5 5 5 5 5 5 5 5 5 5 5 5 5 5 5 5 5 5 5 5 5 5 5 5 3 5 5 3 5 5 5 5 3 5 5 5 5 5 5 5 5 5 5 5 5 5 5 5 3 5 5 5 5 5 5 5 5 5 3 5 3 5 5 5 5 5 5 5 3 5 5 5 5 5 5 5 5 5 5 5 5 5 5 3 5 5 5 5 5 5 5 5 5 5 5 3 5 5 5 5 5 5 5 5 5 5 5 5 5 5 5 5 5 5 5 5 5 5 5 3 5 3 5 5 5 5 5 5 3 5 3 5 5 5 3 5 5 5 3 5 5 5 3 5 5 3 5 5 5 5 5 5 5 3 5 5 5 5 5 5 5 3 5 5 5 5 5 5 5 5 5 5 5 5 5 3 5 5 5 5 5 5 5 5 3 5 5 5 5 5 5 5 5 5 5 5 5 5 5 5 5 5 5 5 5 3 5 5 5 5 5 5 5 5 5 5 5 5 5 5 5 5 5 5 5 5 5 5 5 5 5 5 5 5 5 5 5 5 5 5 5 5 5 5 5 5 5 5 5 5 5 5 5 5 5 5 3 5 3 5 5 5 3 5 5 3 3 5 3 5 5 5 5 5 5 5 5 5 5 5 5 5 5 5 5 5 5 5 5 5 5 5 5 5 5 5 5 5 5 5 5 5 5 5 3 5 5 5 5 3 5 5 3 5 5 5 3 5 5 5 5 3 5 3 3 5 5 5 5 3 5 5 5 3 5 5 5 3 5 5 5 5 5 5 3 5 5 5 5 5 5 5 5 5 5 5 5 5 5 5 5 5 5 5 5 3 5 5 5 5 5 5 5 5 5 5 5 5 5 5 5 5 5 5 3 5 5 3 5 5 3 5 5 5 5 5 5 5 5 5 5 5 3 5 5 5 5 3 5 5 5 5 3 5 5 5 3 5 5 5 5 5 5 5 5 5 5 5 5 5 5 5 5 5 5 5 5 5 5 5 5 5 3 5 5 5 5 5 5 5 5 3 5 5 5 3 5 5 5 5 5 5 5 5 5 5 5 5 5 5 5 5 5 5 5 5 5 5 5 5 3 5 5 5 3 5 5 5 5 5 5 5 5 3 5 5 3 5 5 5 5 3 5 5 5 5 5 5 5 3 5 3 5 5 3 5 5 3 3 5 5 5 5 5 5 5 5 5 5 5 5 5 5 5 5 5 5 5 5 5 3 5 5 5 5 3 5 5 5 5 5 5 5 5 5 5 5 5 5 3 5 5 3 5 5 5 5 5 5 5 5 5 5 5 5 5 5 5 5 5 5 5 5 5 5 5 5 5 5 5 5 5 5 5 5 5 5 5 5 5 5 5 5 5 5 5 5 5 5 5 5 5 5 5 5 5 5 5 5 5 5 5 5 5 5 5 5 5 5 5 5 5 5 5 5 5 5 5 5 5 5 5 5 5 5 5 5 5 5 5 5 5 5 5 5 5 5 5 5 5 5 5 5 5 5 5 5 5 5 5 5 5 5 5 5 5 5 5 5 5 5 5 5 5 5 5 5 5 5 5 5 3 5 5 5 5 5 5 5 3 5 5 5 5 5 5 5 5 5 3 5 3 5 5 5 3 5 5 3 5 5 5 5 5 5 5 5 5 5 5 5 5 5 5 5 5 5 5 5 5 5 5 5 5 5 5 5 5 5 5 5 5 5 5 5 5 3 5 5 3 3 5 5 3 5 5 3 5 5 5 3 5 5 5 5 5 5 5 5 5 3 5 5 5 5 5 5 3 5 5 5 5 5 5 5 5 5 5 5 5 5 5 5 5 5 5 5 5 5 5 5 5 5 5 5 5 5 5 5 3 5 5 5 5 5 5 5 5 5 5 5 5 5 5 5 5 5 5 5 5 5 5 5 5 5 5 5 5 5 5 5 5 5 5 5 5 5 5 5 5 5 5 5 5 5 5 3 5 3 5 5 5 5 3 5 5 5 5 3 5 5 5 5 3 5 5 5 5 5 5 5 5 3 5 5 3 5 3 5 5 5 5 3 5 5 3 3 5 5 5 5 5 5 3 5 5 5 5 5 5 5 5 5 5 3 3 5 5 5 5 5 3 5 5 3 5 5 5 5 3 5 5 3 5 5 5 5 5 5 5 5 5 5 5 5 5 5 5 5 5 5 5 5 5 5 5 5 5 5 5 5 5 3 5 3 5 5 5 5 5 5 5 5 5 5 5 5 5 3 5 5 5 5 3 3 5 5 5 5 5 5 5 5 5 5 5 5 5 5 5 5 5 5 5 5 5 5 5 5 5 5 5 5 5 5 5 5 5 5 5 5 5 5 5 5 5 5 3 5 5 5 3 5 5 5 5 5 5 5 5 5 5 5 5 5 5 5 5 5 5 5 5 3 5 5 3 5 5 5 5 5 5 5 5 5 3 5 5 5 5 5 3 5 5 5 5 5 3 5 3 5 5 5 5 5 5 5 5 5 5 5 5 5 3 5 5 5 3 3 5 5 5 5 5 5 5 5 3 5 5 3 5 5 3 3 5 5 5 5 5 3 5 5 5 5 5 5 5 3 5 5 3 3 5 5 5 5 5 5 3 3 5 5 5 3 5 5 5 5 5 5 5 3 5 5 5 5 5 5 5 5 5 5 5 5 5 5 5 5 5 5 5 5 5 5 5 5 5 5 3 5 5 5 5 5 5 5 3 5 5 5 5 5 5 5 5 5 5 5 3 5 5 5 5 5 5 5 5 3 5 5 5 5 5 5 5 5 5 5 5 5 5 5 5 5 3 5 5 5 3 5 5 5 5 5 3 5 5 5 5 5 5 5 5 5 5 5 5 5 5 3 5 5 5 5 3 5 5 3 5 5 5 5 5 3 5 5 5 5 5 5 5 5 5 5 5 5 5 5 3 5 3 5 5 5 3 5 3 5 3 5 5 5 5 5 5 3 3 5 5 5 5 5 5 3 5 3 5 5 5 5 5 5 5 5 5 5 5 5 5 5 5 5 5 3 5 5 5 3 3 5 5 5 5 5 3 5 5 3 3 5 5 5 5 5 5 5 5 5 5 5 5 5 5 5 5 5 5 5 5 5 5 5 5 5 5 5 5 5 5 5 5 5 5 5 5 5 5 5 5 5 5 5 5 3 5 5 3 3 3 5 5 5 5 5 5 3 5 5 5 5 5 5 5 5 5 3 5 5 5 3 5 5 5 5 5 5 5 5 5 5 5 5 5 5 5 5 5 5 5 5 3 5 5 5 5 3 5 5 5 5 5 5 5 5 5 5 5 5 5 5 5 5 5 5 5 5 5 5 5 5 5 5 5 5 5 5 5 5 5 5 3 5 3 5 5 5 5 5 5 5 5 3 5 5 5 3 5 3 5 5 5 5 5 5 5 5 3 5 5 5 5 3 5 5 5 5 3 5 5 5 5 5 5 5 3 5 5 5 5 3 5 5 5 5 5 5 5 5 5 5 5 5 5 5 5 5 5 5 5 5 5 5 5 5 5 5 5 5 5 5 5 5 5 5 5 5 5 5 5 5 5 5 5 5 5 5 3 5 5 5 5 3 3 5 5 3 3 5 5 5 5 5 5 5 5 5 5 5 5 5 5 5 5 5 5 5 3 5 5 5 3 3 5 5 5 5 5 5 5 5 5 5 5 5 5 5 5 5 5 5 5 5 5 5 5 5 5 5 5 3 5 5 5 5 5 5 5 3 5 5 5 5 5 5 5 5 5 5 5 5 5 5 5 3 5 5 5 5 5 5 5 5 3 5 3 3 5 5 5 5 5 5 5 5 5 5 5 5 3 5 5 5 5 5 5 5 5 5 5 5 5 5 5 5 5 5 5 3 5 5 5 3 5 5 5 5 5 5 5 5 3 5 5 5 5 5 5 5 5 5 5 5 5 5 5 5 3 5 5 5 3 5 5 5 5 5 5 5 5 5 5 5 5 5 5 5 5 5 5 5 5 5 5 5 5 5 5 5 5 5 5 5 5 5 3 5 3 5 5 5 5 5 5 5 5 3 5 5 5 5 5 5 5 5 5 3 5 5 3 5 5 5 5 5 3 5 5 5 5 3 5 5 5 5 3 5 5 5 3 5 3 5 5 3 5 5 5 5 5 5 5 5 5 5 5 5 5 5 3 5 5 3 5 3 5 5 5 3 5 5 3 5 5 5 5 3 5 3 5 5 5 5 5 5 3 5 3 5 5 5 5 5 3 5 5 5 5 3 5 5 5 5 5 5 3 5 5 5 5 5 5 5 5 5 5 5 5 5 5 5 5 5 5 5 5 5 5 5 5 5 5 5 5 5 5 5 5 5 3 3 5 5 5 5 5 5 5 5 5 5 3 5 5 3 3 5 3 5 5 5 5 5 5 5 3 5 5 5 5 5 5 5 5 5 5 5 5 3 5 5 5 5 3 5 5 5 5 5 5 5 5 5 5 5 5 3 5 5 5 5 5 5 5 5 5 5 5 5 5 5 5 5 5 3 5 5 5 5 5 3 5 5 5 3 5 5 5 5 5 5 3 5 3 5 5 5 3 5 5 5 5 5 5 5 5 5 3 5 5 3 5 5 5 5 5 5 5 3 5 5 5 5 5 5 5 5 5 5 5 5 5 3 5 5 3 5 5 5 5 5 5 3 5 5 5 5 5 5 3 5 5 5 5 5 5 5 3 5 5 5 5 5 5 5 5 5 5 5 5 5 5 5 5 5 5 5 5 5 5 3 5 5 5 5 5 5 5 5 5 5 3 5 5 5 5 3 3 5 5 5 5 3 5 5 5 5 5 5 5 5 5 3 5 5 5 5 5 5 5 5 5 5 5 3 5 5 5 3 5 5 5 3 5 5 5 5 5 5 5 5 5 5 5 5 3 5 5 5 5 5 3 5 5 3 5 5 5 5 5 5 5 5 5 5 5 5 5 5 3 5 5 5 5 5 5 5 3 5 5 5 3 5 5 5 5 5 3 5 5 5 5 5 5 5 5 5 3 5 5 5 5 5 5 5 5 3 5 5 5 5 5 3 5 5 5 5 5 5 5 3 5 5 5 5 5 5 5 5 5 5 5 5 5 5 5 5 5 5 5 5 5 5 5 5 5 5 5 5 5 5 5 5 5 5 5 5 5 5 5 5 5 5 5 5 5 5 5 5 3 5 5 5 5 5 5 5 3 5 5 5 5 5 5 5 5 5 5 5 5 5 5 5 5 5 5 5 5 5 5 3 3 5 5 3 3 5 5 5 5 5 5 5 3 5 5 5 5 5 5 5 5 5 5 5 5 5 5 3 5 5 5 5 5 5 5 5 3 5 5 3 5 5 5 3 5 5 5 5 5 5 5 5 5 5 5 5 5 5 5 5 5 5 5 5 5 5 5 5 5 5 5 5 3 5 5 5 5 5 5 5 5 3 5 5 5 5 5 5 3 3 5 5 5 5 3 5 5 3 5 5 3 5 5 5 5 5 5 3 5 5 5 5 5 5 5 5 3 5 5 5 5 5 5 5 5 5 5 5 3 5 5 3 5 5 5 5 5 5 5 3 5 5 5 3 5 3 5 3 5 5 5 5 5 5 5 5 5 5 5 5 5 5 5 5 5 3 5 3 5 5 5 5 5 5 5 5 5 5 3 5 5 5 5 5 5 5 3 5 5 5 3 5 3 3 5 5 3 5 5 5 5 3 5 5 5 3 5 5 5 3 5 3 3 5 5 5 5 5 5 3 5 5 5 5 5 5 5 5 3 3 3 5 3 5 5 3 3 5 5 3 5 5 5 5 5 5 5 5 5 5 5 3 5 5 5 5 5 5 5 5 5 5 5 5 5 3 3 5 5 5 5 3 5 5 5 3 5 5 5 5 5 3 3 5 5 5 3 5 5 5 5 5 5 5 5 5 5 5 5 5 5 5 3 5 5 5 3 5 5 5 3 5 5 5 5 5 5 3 5 5 5 5 5 3 5 5 5 5 5 5 5 5 3 5 5 5 5 5 5 5 5 5 3 5 5 5 5 3 5 3 5 5 3 5 3 5 5 5 5 5 5 3 5 3 3 5 5 5 5 5 5 5 5 3 5 3 5 3 5 3 5 5 5 5 5 5 5 5 5 5 5 3 5 5 5 3 5 5 5 5 5 5 5 5 3 5 5 5 5 5 5 5 5 5 3 5 5 5 5 3 5 5 3 5 5 5 5 5 5 5 5 5 3 5 5 5 3 5 5 5 5 5 5 5 5 5 5 5 5 5 5 5 5 5 5 5 3 5 5 5 5 5 5 5 5 5 5 3 5 5 5 5 5 5 5 5 5 5 5 5 5 5 5 5 5 5 5 5 5 5 5 5 5 5 5 5 5 5 5 5 5 5 5 5 5 5 5 5 5 5 5 5 5 3 3 5 5 5 5 5 5 5 5 5 5 5 5 5 3 3 5 5 5 3 5 5 3 5 5 5 3 5 5 5 3 5 5 5 5 5 5 5 5 3 5 5 3 5 3 3 5 5 5 5 5 5 3 5 3 3 3 5 5 3 5 5 3 3 5 5 5 5 5 5 5 5 5 5 5 5 5 5 5 5 5 5 5 5 5 3 5 5 5 5 5 5 5 5 5 3 5 5 5 5 5 5 5 3 3 5 5 5 5 5 5 5 5 5 5 5 5 5 5 5 5 5 5 5 5 5 5 5 3 5 3 5 5 5 5 5 5 5 3 5 5 5 3 3 5 5 3 5 5 5 5 3 5 5 5 3 5 5 5 3 5 5 5 5 5 5 5 5 5 3 3 5 5 5 5 5 3 5 5 3 3 3 5 5 5 5 5 3 5 5 5 5 5 5 5 5 5 3 5 3 5 5 5 5 5 5 5 5 5 5 5 5 5 5 5 5 5 5 5 5 5 5 5 5 3 5 5 5 5 3 3 5 5 5 3 5 5 5 5 5 5 5 5 5 5 5 5 5 5 5 5 3 5 5 5 3 5 5 3 5 5 5 5 5 5 5 5 5 5 5 5 5 3 5 5 3 5 5 5 3 5 3 5 3 5 3 3 3 5 5 5 5 5 5 5 5 3 5 5 5 5 5 5 5 5 3 5 5 3 5 5 5 5 5 5 5 5 5 5 5 5 5 5 5 5 5 5 5 5 5 3 5 5 5 5 5 5 5 5 5 5 3 5 3 5 5 3 5 3 5 3 5 5 3 5 3 5 5 3 5 5 5 3 5 5 5 5 5 5 5 5 5 5 5 5 5 5 5 5 5 5 5 5 5 5 5 5 5 5 5 5 5 5 5 5 5 5 5 5 5 5 5 5 5 5 5 5 5 5 5 5 5 5 5 5 5 5 5 5 5 5 5 5 5 3 5 5 3 5 5 5 5 5 5 3 3 5 5 5 5 5 5 5 5 5 5 5 5 5 5 5 5 5 5 3 5 5 5 3 5 5 5 5 5 5 5 5 5 5 5 5 5 5 5 5 3 5 5 5 5 5 5 5 3 5 5 5 5 5 5 5 5 3 5 3 5 5 5 5 5 5 5 5 5 5 5 5 5 5 5 5 3 5 5 5 5 5 5 5 3 5 5 5 5 3 5 5 5 5 5 5 5 3 5 5 3 3 5 5 3 5 5 5 5 5 5 3 5 5 5 5 5 5 5 5 5 3 5 5 3 5 5 3 5 5 3 5 5 5 5 5 3 5 5 5 5 5 5 5 5 3 5 5 5 5 5 5 5 3 5 5 5 5 5 5 5 5 5 5 5 5 3 5 5 5 5 5 5 5 3 3 5 3 5 3 5 5 5 5 5 5 5 5 5 5 5 5 5 5 5 3 5 3 5 5 5 5 5 5 5 5 3 5 3 5 3 5 3 5 3 5 5 3 5 5 5 5 5 3 5 5 5 5 5 5 5 5 3 5 5 5 5 5 3 5 5 3 5 3 3 5 5 5 5 5 5 5 5 3 5 5 5 5 5 5 5 5 5 5 5 5 5 3 5 5 5 5 5 5 5 3 5 5 5 3 5 5 5 5 5 5 5 5 5 5 5 5 5 5 5 5 5 3 5 5 5 5 5 5 5 3 5 5 3 5 5 5 5 5 5 5 5 5 5 5 5 5 5 5 3 5 5 5 5 3 5 5 5 5 5 5 5 5 5 5 5 5 5 5 5 5 5 5 5 5 5 5 5 5 5 3 5 5 5 5 5 5 3 5 5 5 5 5 5 5 5 5 3 3 5 5 5 3 5 3 5 5 5 5 5 5 5 5 5 5 5 5 5 5 5 3 5 5 5 5 5 5 5 5 5 5 5 5 3 3 5 5 5 5 5 5 5 5 3 5 5 3 5 5 3 3 5 5 5 5 5 5 5 3 5 5 5 5 5 5 5 5 5 3 5 5 5 3 5 5 5 5 5 3 5 5 5 5 5 5 5 5 5 5 5 5 3 5 5 5 3 5 5 5 3 5 5 5 5 5 5 5 5 5 5 5 5 5 5 5 5 5 5 5 5 5 5 5 5 5 5 5 5 5 5 5 5 3 5 5 5 5 5 5 5 5 5 5 5 5 5 5 5 5 5 5 5 5 5 5 5 5 3 5 3 5 5 3 5 5 5 5 5 5 5 5 5 3 5 5 5 5 5 5 5 5 5 5 5 5 5 5 3 5 5 5 5 3 5 5 5 3 5 5 5 5 5 5 5 5 5 5 5 5 5 5 5 5 5 5 5 5 5 5 5 5 5 5 5 5 5 5 5 5 5 5 5 5 5 5 5 5 5 5 5 5 5 5 5 5 5 5 5 5 5 5 5 5 5 5 5 5 5 5 5 5 5 5 5 5 5 5 5 5 5 5 5 5 5 5 5 5 5 5 5 5 5 5 5 5 5 5 5 5 5 5 5 5 5 5 5 5 5 5 5 5 5 5 5 5 5 5 5 5 5 5 5 5 5 5 5 5 5 5 5 5 5 5 5 5 5 5 5 5 5 5 5 5 5 5 5 5 5 5 5 5 5 5 5 5 5 5 5 5 5 5 5 5 5 5 5 5 5 5 5 5 5 5 5 5 5 5 5 5 5 5 5 5 5 5 5 5 5 5 5 5 5 5 5 5 5 3 5 5 5 5 5 5 5 5 5 5 5 5 5 5 5 5 3 5 5 5 5 5 5 5 5 3 5 5 5 5 3 5 5 5 5 5 5 5 5 5 5 5 5 5 5 5 5 5 5 5 5 5 5 3 5 5 5 5 5 5 5 5 5 5 5 5 5 3 3 5 5 5 5 5 3 5 3 5 5 5 5 5 5 5 5 5 5 5 3 5 5 5 5 5 5 5 3 5 5 5 5 5 5 5 5 5 5 5 5 5 5 5 3 3 5 5 5 5 5 5 5 5 5 5 5 5 3 5 5 5 5 5 5 5 5 5 5 5 5 5 5 5 5 3 5 5 5 5 5 5 5 3 5 5 5 5 5 5 5 5 5 5 3 3 5 5 5 5 5 5 5 5 5 5 5 5 5 5 5 5 5 5 5 5 5 5 5 5 5 5 5 5 5 5 3 5 5 5 5 5 3 5 5 5 5 5 5 5 5 5 5 3 5 5 5 5 3 5 5 5 5 5 5 5 5 5 5 3 5 3 5 5 5 5 5 5 5 5 5 5 5 5 5 5 5 5 5 5 5 5 5 5 5 5 5 5 5 5 5 5 5 3 5 5 5 5 5 3 5 5 5 5 5 5 5 5 5 5 5 5 5 5 5 5 5 5 3 5 5 3 5 5 5 3 5 5 5 5 5 3 5 5 5 5 5 5 5 5 5 5 3 5 5 5 5 5 5 3 5 5 5 5 5 3 3 5 5 3 5 5 3 5 5 5 5 5 5 5 5 5 5 3 5 5 3 5 5 3 5 5 3 5 5 3 5 5 3 5 5 5 5 5 5 3 5 5 5 5 5 5 5 5 5 5 5 3 5 5 5 5 5 5 5 3 5 5 5 5 3 5 5 5 3 5 5 5 5 5 5 5 5 5 5 5 3 5 5 5 5 5 5 5 5 5 5 5 5 5 5 5 5 5 5 5 5 5 5 5 5 3 5 5 5 5 5 3 5 5 5 5 5 5 5 5 5 5 5 5 5 5 3 5 5 3 5 3 5 5 5 5 3 5 3 3 5 3 5 5 5 5 5 5 5 3 5 3 5 5 5 5 5 5 3 5 5 5 5 5 5 3 5 5 5 5 3 5 5 5 5 5 3 5 5 3 5 5 5 5 3 5 5 5 5 3 5 5 5 5 5 5 3 5 5 5 5 5 5 5 5 5 3 5 5 5 5 5 5 3 5 5 5 5 3 5 5 5 5 5 5 5 5 5 5 5 5 5 5 5 5 3 5 5 5 3 5 5 3 5 5 5 5 5 5 5 5 5 5 5 5 5 5 5 5 3 5 3 5 5 5 5 5 5 5 5 5 5 5 5 5 5 5 5 5 5 5 5 5 5 5 5 5 5 3 5 5 3 5 5 5 5 5 5 5 5 5 5 3 5 5 5 5 3 5 5 5 5 3 5 5 5 5 5 5 5 5 5 3 5 5 5 5 5 5 5 5 5 5 5 5 5 5 5 5 5 5 5 5 5 5 5 5 5 5 5 5 
</DataArray>
</Cells>
<PointData Scalars="" Vectors="displacement," Tensors="">
<DataArray type="Float64" Name="displacement" NumberOfComponents="3" format="ascii">
-0.034997483020688114 -0.034998031538911532 0 -0.03263108633898882 -0.034378635831265263 0 -0.029503265787910654 -0.034995338324795747 0 -0.034997483020688114 -0.034998031538911532 0 -0.034444111726088064 -0.033726535126814838 0 -0.03263108633898882 -0.034378635831265263 0 -0.034997483020688114 -0.034998031538911532 0 -0.034444111726088064 -0.033726535126814838 0 -0.034998038612006011 -0.031405308644340255 0 -0.034444111726088064 -0.033726535126814838 0 -0.034998038612006011 -0.031405308644340255 0 -0.03465998220074025 -0.033248213592670113 0 -0.034998038612006011 -0.031405308644340255 0 -0.03465998220074025 -0.033248213592670113 0 -0.035113987220195743 -0.030758377656839156 0 -0.033723712855041825 -0.034247480617155386 0 -0.033466113858226912 -0.034423524406663485 0 -0.03465998220074025 -0.033248213592670113 0 -0.037714008520109372 -0.033589360949064791 0 -0.037951397694802783 -0.032055524050841437 0 -0.03465998220074025 -0.033248213592670113 0 -0.037951397694802783 -0.032055524050841437 0 -0.036664078076992727 -0.030885474561682846 0 -0.034444111726088064 -0.033726535126814838 0 -0.03465998220074025 -0.033248213592670113 0 -0.03263108633898882 -0.034378635831265263 0 -0.03465998220074025 -0.033248213592670113 0 -0.03263108633898882 -0.034378635831265263 0 -0.031841790100423054 -0.034986780084675755 0 -0.03263108633898882 -0.034378635831265263 0 -0.030363110450411734 -0.034628644236072217 0 -0.031841790100423054 -0.034986780084675755 0 -0.03263108633898882 -0.034378635831265263 0 -0.029503265787910654 -0.034995338324795747 0 -0.030363110450411734 -0.034628644236072217 0 -0.029492669257169625 -0.034999996317229179 0 -0.028747897921619636 -0.036320950529585484 0 -0.027572040984782959 -0.034999994869822706 0 -0.029493784167169305 -0.035000267879066134 0 -0.029952209078317298 -0.035005178769592596 0 -0.027572040984782959 -0.034999994869822706 0 -0.02728720208218844 -0.036492355911687369 0 -0.02599322245638808 -0.036097396892813848 0 -0.027572040984782959 -0.034999994869822706 0 -0.025651398569079498 -0.034999993973773978 0 -0.02599322245638808 -0.036097396892813848 0 -0.028747897921619636 -0.036320950529585484 0 -0.027572040984782959 -0.034999994869822706 0 -0.02728720208218844 -0.036492355911687369 0 -0.028747897921619636 -0.036320950529585484 0 -0.02728720208218844 -0.036492355911687369 0 -0.028008360553119518 -0.037638583208582863 0 -0.029952209078317298 -0.035005178769592596 0 -0.030814340040278845 -0.034375412594255687 0 -0.02728720208218844 -0.036492355911687369 0 -0.026366225501368201 -0.03727844162511719 0 -0.028008360553119518 -0.037638583208582863 0 -0.02728720208218844 -0.036492355911687369 0 -0.026366225501368201 -0.03727844162511719 0 -0.02599322245638808 -0.036097396892813848 0 -0.026806609295429766 -0.035160415477922514 0 -0.030814340040278845 -0.034375412594255687 0 -0.02412676203080398 -0.036982781539661821 0 -0.024040717158357691 -0.036937055076411755 0 -0.023964678032215563 -0.036970856558515008 0 -0.02412676203080398 -0.036982781539661821 0 -0.024040717158357691 -0.036937055076411755 0 -0.02407895432701283 -0.036942501413319846 0 -0.024040717158357691 -0.036937055076411755 0 -0.023964678032215563 -0.036970856558515008 0 -0.024002524735348345 -0.036852032013399968 0 -0.039903895194666389 -0.033793034317455256 0 -0.040543906101330462 -0.032334951507177211 0 -0.039136253256065817 -0.032745996186691113 0 -0.030814340040278845 -0.034375412594255687 0 -0.030936585219208567 -0.033686846764901787 0 -0.040543906101330462 -0.032334951507177211 0 -0.039136253256065817 -0.032745996186691113 0 -0.039587335608175733 -0.031811899402753099 0 -0.024002524735348345 -0.036852032013399968 0 -0.02407895432701283 -0.036942501413319846 0 -0.024088619244772635 -0.036847559171823287 0 -0.024040717158357691 -0.036937055076411755 0 -0.024002524735348345 -0.036852032013399968 0 -0.02407895432701283 -0.036942501413319846 0 -0.039903895194666389 -0.033793034317455256 0 -0.037714008520109372 -0.033589360949064791 0 -0.039136253256065817 -0.032745996186691113 0 -0.030814340040278845 -0.034375412594255687 0 -0.033466113858226912 -0.034423524406663485 0 -0.030363110450411734 -0.034628644236072217 0 -0.030207642167199917 -0.035155204205487768 0 -0.031841790100423054 -0.034986780084675755 0 -0.039136253256065817 -0.032745996186691113 0 -0.037951397694802783 -0.032055524050841437 0 -0.038903641528786385 -0.031933871392709062 0 -0.039136253256065817 -0.032745996186691113 0 -0.038903641528786385 -0.031933871392709062 0 -0.039587335608175733 -0.031811899402753099 0 -0.037714008520109372 -0.033589360949064791 0 -0.039136253256065817 -0.032745996186691113 0 -0.037951397694802783 -0.032055524050841437 0 -0.037951397694802783 -0.032055524050841437 0 -0.037919726739251661 -0.031050293168774928 0 -0.036664078076992727 -0.030885474561682846 0 -0.037919726739251661 -0.031050293168774928 0 -0.037699336495553216 -0.030112033306050955 0 -0.036664078076992727 -0.030885474561682846 0 -0.037919726739251661 -0.031050293168774928 0 -0.03841319467532172 -0.031043723575256105 0 -0.038362258277315799 -0.030584057656830865 0 -0.037919726739251661 -0.031050293168774928 0 -0.038527408424832772 -0.031456541088106492 0 -0.03841319467532172 -0.031043723575256105 0 -0.037951397694802783 -0.032055524050841437 0 -0.037919726739251661 -0.031050293168774928 0 -0.038527408424832772 -0.031456541088106492 0 -0.037951397694802783 -0.032055524050841437 0 -0.038903641528786385 -0.031933871392709062 0 -0.038527408424832772 -0.031456541088106492 0 -0.038903641528786385 -0.031933871392709062 0 -0.038527408424832772 -0.031456541088106492 0 -0.03903934220793033 -0.031368224504227958 0 -0.038903641528786385 -0.031933871392709062 0 -0.03903934220793033 -0.031368224504227958 0 -0.039587335608175733 -0.031811899402753099 0 -0.03903934220793033 -0.031368224504227958 0 -0.039587335608175733 -0.031811899402753099 0 -0.039577617266998141 -0.031173749066464664 0 -0.037233188875936241 -0.028800157727920016 0 -0.037210994976215363 -0.028594807284269361 0 -0.03903934220793033 -0.031368224504227958 0 -0.038844367425517917 -0.031085903234725647 0 -0.03920803550287049 -0.030457842291986829 0 -0.03903934220793033 -0.031368224504227958 0 -0.039161352590505141 -0.030909880773706405 0 -0.039577617266998141 -0.031173749066464664 0 -0.037212213361793832 -0.02867184280483082 0 -0.037210994976215363 -0.028594807284269361 0 -0.038844367425517917 -0.031085903234725647 0 -0.038362258277315799 -0.030584057656830865 0 -0.0391450557824784 -0.030515550300621478 0 -0.038527408424832772 -0.031456541088106492 0 -0.03841319467532172 -0.031043723575256105 0 -0.038844367425517917 -0.031085903234725647 0 -0.038527408424832772 -0.031456541088106492 0 -0.03903934220793033 -0.031368224504227958 0 -0.038844367425517917 -0.031085903234725647 0 -0.03841319467532172 -0.031043723575256105 0 -0.038844367425517917 -0.031085903234725647 0 -0.038362258277315799 -0.030584057656830865 0 -0.038362258277315799 -0.030584057656830865 0 -0.0391450557824784 -0.030515550300621478 0 -0.038469710372671502 -0.029701404841918761 0 -0.037210994976215363 -0.028594807284269361 0 -0.037455769635989261 -0.027536230239671378 0 -0.0391450557824784 -0.030515550300621478 0 -0.038469710372671502 -0.029701404841918761 0 -0.039368202477031343 -0.028729915773324673 0 -0.038469710372671502 -0.029701404841918761 0 -0.037699336495553216 -0.030112033306050955 0 -0.037790288732224432 -0.028605968734660182 0 -0.037699336495553216 -0.030112033306050955 0 -0.037790288732224432 -0.028605968734660182 0 -0.036678201901322351 -0.029812486240816845 0 -0.038362258277315799 -0.030584057656830865 0 -0.038469710372671502 -0.029701404841918761 0 -0.037699336495553216 -0.030112033306050955 0 -0.037919726739251661 -0.031050293168774928 0 -0.038362258277315799 -0.030584057656830865 0 -0.037699336495553216 -0.030112033306050955 0 -0.040543906101330462 -0.032334951507177211 0 -0.040995069476642547 -0.031109062233081023 0 -0.040184253380122423 -0.031274313770370481 0 -0.024002524735348345 -0.036852032013399968 0 -0.024036124144877553 -0.036687580243056003 0 -0.024088619244772635 -0.036847559171823287 0 -0.030936585219208567 -0.033686846764901787 0 -0.030791093954104204 -0.032526638810566694 0 -0.040995069476642547 -0.031109062233081023 0 -0.040184253380122423 -0.031274313770370481 0 -0.040464334144611376 -0.030754264383007421 0 -0.040543906101330462 -0.032334951507177211 0 -0.040184253380122423 -0.031274313770370481 0 -0.039587335608175733 -0.031811899402753099 0 -0.040184253380122423 -0.031274313770370481 0 -0.039587335608175733 -0.031811899402753099 0 -0.039577617266998141 -0.031173749066464664 0 -0.039161352590505141 -0.030909880773706405 0 -0.039920135030691029 -0.030568095738376003 0 -0.039889526178664481 -0.029779754084537619 0 -0.037210994976215363 -0.028594807284269361 0 -0.036905468398870954 -0.027499576984619745 0 -0.040184253380122423 -0.031274313770370481 0 -0.039577617266998141 -0.031173749066464664 0 -0.039920135030691029 -0.030568095738376003 0 -0.039161352590505141 -0.030909880773706405 0 -0.039577617266998141 -0.031173749066464664 0 -0.039920135030691029 -0.030568095738376003 0 -0.040184253380122423 -0.031274313770370481 0 -0.039920135030691029 -0.030568095738376003 0 -0.040464334144611376 -0.030754264383007421 0 -0.039920135030691029 -0.030568095738376003 0 -0.040464334144611376 -0.030754264383007421 0 -0.040753178129725447 -0.030080437071325381 0 -0.040995069476642547 -0.031109062233081023 0 -0.040753178129725447 -0.030080437071325381 0 -0.041489806801503659 -0.030062596874897391 0 -0.040995069476642547 -0.031109062233081023 0 -0.040464334144611376 -0.030754264383007421 0 -0.040753178129725447 -0.030080437071325381 0 -0.040753178129725447 -0.030080437071325381 0 -0.04053173335220589 -0.029535020413299567 0 -0.039889526178664481 -0.029779754084537619 0 -0.040753178129725447 -0.030080437071325381 0 -0.04053173335220589 -0.029535020413299567 0 -0.040986686370040736 -0.029478484942713823 0 -0.039920135030691029 -0.030568095738376003 0 -0.040753178129725447 -0.030080437071325381 0 -0.039889526178664481 -0.029779754084537619 0 -0.036905468398870954 -0.027499576984619745 0 -0.035992778779321666 -0.025981649848403555 0 -0.037221531105918686 -0.027094662042044363 0 -0.036965830206018901 -0.026168545746839703 0 -0.037738189664040481 -0.026179095561126679 0 -0.037221531105918686 -0.027094662042044363 0 -0.036965830206018901 -0.026168545746839703 0 -0.036834087450148073 -0.027089566689755984 0 -0.037552861250483821 -0.026047088650339546 0 -0.035992778779321666 -0.025981649848403555 0 -0.040485692824722003 -0.028822662098374502 0 -0.040986686370040736 -0.029478484942713823 0 -0.041202996777786681 -0.028858506794120106 0 -0.04053173335220589 -0.029535020413299567 0 -0.040485692824722003 -0.028822662098374502 0 -0.040986686370040736 -0.029478484942713823 0 -0.035992778779321666 -0.025981649848403555 0 -0.033805849585654975 -0.026675731519782135 0 -0.04053173335220589 -0.029535020413299567 0 -0.039889526178664481 -0.029779754084537619 0 -0.040485692824722003 -0.028822662098374502 0 -0.036703516475831047 -0.028013374992570443 0 -0.037221531105918686 -0.027094662042044363 0 -0.036834087450148073 -0.027089566689755984 0 -0.038469710372671502 -0.029701404841918761 0 -0.037790288732224432 -0.028605968734660182 0 -0.039368202477031343 -0.028729915773324673 0 -0.039611060070904654 -0.02699703262436692 0 -0.037790288732224432 -0.028605968734660182 0 -0.039368202477031343 -0.028729915773324673 0 -0.037552861250483821 -0.026047088650339546 0 -0.037455769635989261 -0.027536230239671378 0 -0.039611060070904654 -0.02699703262436692 0 -0.037790288732224432 -0.028605968734660182 0 -0.037285276780210048 -0.026972565804505612 0 -0.037790288732224432 -0.028605968734660182 0 -0.036435145586657808 -0.028380433244120838 0 -0.037285276780210048 -0.026972565804505612 0 -0.036435145586657808 -0.028380433244120838 0 -0.034979048038897759 -0.026942292533212949 0 -0.037285276780210048 -0.026972565804505612 0 -0.037790288732224432 -0.028605968734660182 0 -0.036435145586657808 -0.028380433244120838 0 -0.036678201901322351 -0.029812486240816845 0 -0.036435145586657808 -0.028380433244120838 0 -0.035593843744518766 -0.029220434134737294 0 -0.036678201901322351 -0.029812486240816845 0 -0.036047818618185623 -0.02931129572315571 0 -0.03560232879662889 -0.02816748576326342 0 -0.035584041766494608 -0.029619016089016972 0 -0.037906550041150788 -0.028214586642084448 0 -0.037635630732515017 -0.02721155742488883 0 -0.036467875560114861 -0.027441690179007702 0 -0.036657963425407412 -0.027624428260561235 0 -0.035868786918089368 -0.02724403737319412 0 -0.036657963425407412 -0.027624428260561235 0 -0.036658891989507364 -0.027635651156190055 0 -0.036657963425407412 -0.027624428260561235 0 -0.036681173376067591 -0.027127007643930331 0 -0.036435145586657808 -0.028380433244120838 0 -0.035593843744518766 -0.029220434134737294 0 -0.035286757985219061 -0.028080670146643283 0 -0.036435145586657808 -0.028380433244120838 0 -0.035286757985219061 -0.028080670146643283 0 -0.034979048038897759 -0.026942292533212949 0 -0.036681173376067591 -0.027127007643930331 0 -0.03668274251820778 -0.026371449217021913 0 -0.037635630732515017 -0.02721155742488883 0 -0.036955480311122543 -0.026848241366135325 0 -0.037364556433656111 -0.026201282233777878 0 -0.036955480311122543 -0.026848241366135325 0 -0.036467875560114861 -0.027441690179007702 0 -0.036566496468833462 -0.026185708544309155 0 -0.036467875560114861 -0.027441690179007702 0 -0.035710220951641745 -0.026067142574286082 0 -0.036566496468833462 -0.026185708544309155 0 -0.036955480311122543 -0.026848241366135325 0 -0.036566496468833462 -0.026185708544309155 0 -0.037364556433656111 -0.026201282233777878 0 -0.037635630732515017 -0.02721155742488883 0 -0.036955480311122543 -0.026848241366135325 0 -0.036467875560114861 -0.027441690179007702 0 -0.035000861691498013 -0.026667092781653499 0 -0.035868786918089368 -0.02724403737319412 0 -0.035000003317286608 -0.026666260465041794 0 -0.036467875560114861 -0.027441690179007702 0 -0.035710220951641745 -0.026067142574286082 0 -0.034999885233734339 -0.026667492284540819 0 -0.03560232879662889 -0.02816748576326342 0 -0.034999132809689817 -0.028699069953474141 0 -0.03560232879662889 -0.02816748576326342 0 -0.035584041766494608 -0.029619016089016972 0 -0.034999132809689817 -0.028699069953474141 0 -0.035584041766494608 -0.029619016089016972 0 -0.034999132809689817 -0.028699069953474141 0 -0.035113987220195743 -0.030758377656839156 0 -0.034998038612006011 -0.031405308644340255 0 -0.034999132809689817 -0.028699069953474141 0 -0.035113987220195743 -0.030758377656839156 0 -0.035584041766494608 -0.029619016089016972 0 -0.035113987220195743 -0.030758377656839156 0 -0.035523356171993391 -0.030835302761511512 0 -0.03465998220074025 -0.033248213592670113 0 -0.035113987220195743 -0.030758377656839156 0 -0.035523356171993391 -0.030835302761511512 0 -0.03465998220074025 -0.033248213592670113 0 -0.035523356171993391 -0.030835302761511512 0 -0.036664078076992727 -0.030885474561682846 0 -0.035523356171993391 -0.030835302761511512 0 -0.036664078076992727 -0.030885474561682846 0 -0.036057425454107214 -0.030093833459900819 0 -0.036664078076992727 -0.030885474561682846 0 -0.036678201901322351 -0.029812486240816845 0 -0.036057425454107214 -0.030093833459900819 0 -0.037699336495553216 -0.030112033306050955 0 -0.036664078076992727 -0.030885474561682846 0 -0.036678201901322351 -0.029812486240816845 0 -0.036009989240960126 -0.029316623875314335 0 -0.036678201901322351 -0.029812486240816845 0 -0.036040482565899382 -0.02945531076836061 0 -0.036678201901322351 -0.029812486240816845 0 -0.036040482565899382 -0.02945531076836061 0 -0.036057425454107214 -0.030093833459900819 0 -0.036657963425407412 -0.027624428260561235 0 -0.036736684749270922 -0.02781433934192365 0 -0.035584041766494608 -0.029619016089016972 0 -0.036040482565899382 -0.02945531076836061 0 -0.036057425454107214 -0.030093833459900819 0 -0.036047818618185623 -0.02931129572315571 0 -0.035584041766494608 -0.029619016089016972 0 -0.036040482565899382 -0.02945531076836061 0 -0.035584041766494608 -0.029619016089016972 0 -0.035523356171993391 -0.030835302761511512 0 -0.036057425454107214 -0.030093833459900819 0 -0.014799849558099348 -0.036241219226388136 0 -0.013664914163674959 -0.034256655942244807 0 -0.017634648276155497 -0.037809686816731934 0 -0.017538874902488722 -0.039927893701231405 0 -0.016415301370831092 -0.038314502777379966 0 -0.019239921446666225 -0.038268120339516147 0 -0.017926997475724335 -0.037833294159763796 0 -0.017816490002536888 -0.039313387984591525 0 -0.019239921446666225 -0.038268120339516147 0 -0.019168892856278354 -0.039555272243486143 0 -0.017816490002536888 -0.039313387984591525 0 -0.019239921446666225 -0.038268120339516147 0 -0.020436823278770666 -0.038822635141699077 0 -0.019168892856278354 -0.039555272243486143 0 -0.019239921446666225 -0.038268120339516147 0 -0.018738683930825339 -0.037128352891163764 0 -0.01977990607114135 -0.036998333874454531 0 -0.019239921446666225 -0.038268120339516147 0 -0.018738683930825339 -0.037128352891163764 0 -0.017926997475724335 -0.037833294159763796 0 -0.014799849558099348 -0.036241219226388136 0 -0.015185963050477754 -0.036356201387851471 0 -0.018738683930825339 -0.037128352891163764 0 -0.017926997475724335 -0.037833294159763796 0 -0.0179554215515727 -0.036286651494308084 0 -0.017634648276155497 -0.037809686816731934 0 -0.0179554215515727 -0.036286651494308084 0 -0.016170807814451616 -0.036667927144289486 0 -0.0179554215515727 -0.036286651494308084 0 -0.017968686564713902 -0.034999694525785038 0 -0.019154159483202947 -0.036025590147342496 0 -0.0179554215515727 -0.036286651494308084 0 -0.017968686564713902 -0.034999694525785038 0 -0.016802075780784305 -0.035681778878881881 0 -0.017968686564713902 -0.034999694525785038 0 -0.019154159483202947 -0.036025590147342496 0 -0.019889420523484774 -0.03499996112200246 0 -0.018738683930825339 -0.037128352891163764 0 -0.0179554215515727 -0.036286651494308084 0 -0.019154159483202947 -0.036025590147342496 0 -0.018738683930825339 -0.037128352891163764 0 -0.019154159483202947 -0.036025590147342496 0 -0.01977990607114135 -0.036998333874454531 0 -0.01977990607114135 -0.036998333874454531 0 -0.020406172616125609 -0.035919386419665598 0 -0.020848442940603014 -0.036836296575418842 0 -0.019154159483202947 -0.036025590147342496 0 -0.01977990607114135 -0.036998333874454531 0 -0.020406172616125609 -0.035919386419665598 0 -0.019889420523484774 -0.03499996112200246 0 -0.020406172616125609 -0.035919386419665598 0 -0.021810034095548155 -0.034999944368582309 0 -0.019154159483202947 -0.036025590147342496 0 -0.019889420523484774 -0.03499996112200246 0 -0.020406172616125609 -0.035919386419665598 0 -0.020406172616125609 -0.035919386419665598 0 -0.021810034095548155 -0.034999944368582309 0 -0.021389050783001535 -0.03612900579323234 0 -0.021389050783001535 -0.03612900579323234 0 -0.020848442940603014 -0.036836296575418842 0 -0.021944907437158174 -0.036796048031910361 0 -0.020406172616125609 -0.035919386419665598 0 -0.021389050783001535 -0.03612900579323234 0 -0.020848442940603014 -0.036836296575418842 0 -0.020848442940603014 -0.036836296575418842 0 -0.021386838656407031 -0.03750806872597192 0 -0.021944907437158174 -0.036796048031910361 0 -0.021386838656407031 -0.03750806872597192 0 -0.021170098464024605 -0.038405384902186847 0 -0.021868671853998444 -0.038057277147851391 0 -0.021386838656407031 -0.03750806872597192 0 -0.020456382663671956 -0.037800242639409412 0 -0.021170098464024605 -0.038405384902186847 0 -0.020848442940603014 -0.036836296575418842 0 -0.021386838656407031 -0.03750806872597192 0 -0.020456382663671956 -0.037800242639409412 0 -0.019239921446666225 -0.038268120339516147 0 -0.01977990607114135 -0.036998333874454531 0 -0.020456382663671956 -0.037800242639409412 0 -0.01977990607114135 -0.036998333874454531 0 -0.020848442940603014 -0.036836296575418842 0 -0.020456382663671956 -0.037800242639409412 0 -0.019239921446666225 -0.038268120339516147 0 -0.020456382663671956 -0.037800242639409412 0 -0.020436823278770666 -0.038822635141699077 0 -0.020456382663671956 -0.037800242639409412 0 -0.020436823278770666 -0.038822635141699077 0 -0.021170098464024605 -0.038405384902186847 0 -0.020436823278770666 -0.038822635141699077 0 -0.021170098464024605 -0.038405384902186847 0 -0.021211056650909117 -0.039208755504815659 0 -0.021170098464024605 -0.038405384902186847 0 -0.022161613451877914 -0.038870282777829189 0 -0.021211056650909117 -0.039208755504815659 0 -0.021170098464024605 -0.038405384902186847 0 -0.021868671853998444 -0.038057277147851391 0 -0.022161613451877914 -0.038870282777829189 0 -0.019839872712456599 -0.035581747965863129 0 -0.019963449228143589 -0.036011095876505694 0 -0.022193721620344997 -0.038730134420253845 0 -0.023211998285362051 -0.038799998002119383 0 -0.022652622569695746 -0.037732466899272038 0 -0.021868671853998444 -0.038057277147851391 0 -0.022161613451877914 -0.038870282777829189 0 -0.022652622569695746 -0.037732466899272038 0 -0.023134120498727803 -0.038002578638257567 0 -0.023227948546778114 -0.037624868193473431 0 -0.02279545292635575 -0.036958856123434095 0 -0.022333566136043152 -0.035003197865552123 0 -0.022616567149049895 -0.035505350372531982 0 -0.023134120498727803 -0.038002578638257567 0 -0.023227948546778114 -0.037624868193473431 0 -0.023634492558426423 -0.037565150310137421 0 -0.023227948546778114 -0.037624868193473431 0 -0.02279545292635575 -0.036958856123434095 0 -0.023106245887925977 -0.037117177469821946 0 -0.022333566136043152 -0.035003197865552123 0 -0.022675488804513224 -0.03645296332040391 0 -0.023211998285362051 -0.038799998002119383 0 -0.02279545292635575 -0.036958856123434095 0 -0.022652622569695746 -0.037732466899272038 0 -0.023227948546778114 -0.037624868193473431 0 -0.023288416413351658 -0.037293733857106076 0 -0.023492963414520018 -0.037331589225110616 0 -0.023227948546778114 -0.037624868193473431 0 -0.023288416413351658 -0.037293733857106076 0 -0.023106245887925977 -0.037117177469821946 0 -0.023288416413351658 -0.037293733857106076 0 -0.023387593749409755 -0.037067819386900756 0 -0.023492963414520018 -0.037331589225110616 0 -0.023288416413351658 -0.037293733857106076 0 -0.023387593749409755 -0.037067819386900756 0 -0.023106245887925977 -0.037117177469821946 0 -0.02279545292635575 -0.036958856123434095 0 -0.022133056506132009 -0.037405880148337359 0 -0.021944907437158174 -0.036796048031910361 0 -0.02279545292635575 -0.036958856123434095 0 -0.022652622569695746 -0.037732466899272038 0 -0.022133056506132009 -0.037405880148337359 0 -0.021386838656407031 -0.03750806872597192 0 -0.021868671853998444 -0.038057277147851391 0 -0.022133056506132009 -0.037405880148337359 0 -0.021868671853998444 -0.038057277147851391 0 -0.022652622569695746 -0.037732466899272038 0 -0.022133056506132009 -0.037405880148337359 0 -0.021386838656407031 -0.03750806872597192 0 -0.022133056506132009 -0.037405880148337359 0 -0.021944907437158174 -0.036796048031910361 0 -0.021389050783001535 -0.03612900579323234 0 -0.021944907437158174 -0.036796048031910361 0 -0.022843001693441216 -0.036488228064379014 0 -0.022831311074305621 -0.035723580388390103 0 -0.023478425787101756 -0.035741965834887354 0 -0.021389050783001535 -0.03612900579323234 0 -0.022371501137485119 -0.035837317216390635 0 -0.02307174194132702 -0.036551966981491733 0 -0.02279545292635575 -0.036958856123434095 0 -0.021944907437158174 -0.036796048031910361 0 -0.022843001693441216 -0.036488228064379014 0 -0.021810034095548155 -0.034999944368582309 0 -0.023730758263116887 -0.034999990311077714 0 -0.023065659327199339 -0.035651497256487225 0 -0.021810034095548155 -0.034999944368582309 0 -0.022371501137485119 -0.035837317216390635 0 -0.023065659327199339 -0.035651497256487225 0 -0.021810034095548155 -0.034999944368582309 0 -0.021389050783001535 -0.03612900579323234 0 -0.022371501137485119 -0.035837317216390635 0 -0.022371501137485119 -0.035837317216390635 0 -0.023065659327199339 -0.035651497256487225 0 -0.02307174194132702 -0.036551966981491733 0 -0.023065659327199339 -0.035651497256487225 0 -0.02307174194132702 -0.036551966981491733 0 -0.024358189273200135 -0.035897202622844682 0 -0.023730758263116887 -0.034999990311077714 0 -0.023065659327199339 -0.035651497256487225 0 -0.024358189273200135 -0.035897202622844682 0 -0.023478425787101756 -0.035741965834887354 0 -0.024816670477371607 -0.035610735483789326 0 -0.02307174194132702 -0.036551966981491733 0 -0.024721155225326745 -0.036917228649553824 0 -0.024358189273200135 -0.035897202622844682 0 -0.023387593749409755 -0.037067819386900756 0 -0.022843001693441216 -0.036488228064379014 0 -0.023838343710004428 -0.036792993884622684 0 -0.02279545292635575 -0.036958856123434095 0 -0.023106245887925977 -0.037117177469821946 0 -0.022843001693441216 -0.036488228064379014 0 -0.023387593749409755 -0.037067819386900756 0 -0.023106245887925977 -0.037117177469821946 0 -0.022843001693441216 -0.036488228064379014 0 -0.024721155225326745 -0.036917228649553824 0 -0.024358189273200135 -0.035897202622844682 0 -0.02599322245638808 -0.036097396892813848 0 -0.023730758263116887 -0.034999990311077714 0 -0.024358189273200135 -0.035897202622844682 0 -0.025651398569079498 -0.034999993973773978 0 -0.024358189273200135 -0.035897202622844682 0 -0.025651398569079498 -0.034999993973773978 0 -0.02599322245638808 -0.036097396892813848 0 -0.026366225501368201 -0.03727844162511719 0 -0.024721155225326745 -0.036917228649553824 0 -0.02599322245638808 -0.036097396892813848 0 -0.026806609295429766 -0.035160415477922514 0 -0.024816670477371607 -0.035610735483789326 0 -0.02412676203080398 -0.036982781539661821 0 -0.02407895432701283 -0.036942501413319846 0 -0.02404337134808893 -0.037017970849219206 0 -0.02412676203080398 -0.036982781539661821 0 -0.023838343710004428 -0.036792993884622684 0 -0.02404337134808893 -0.037017970849219206 0 -0.02407895432701283 -0.036942501413319846 0 -0.02404337134808893 -0.037017970849219206 0 -0.024099279591888713 -0.036929661994090111 0 -0.023838343710004428 -0.036792993884622684 0 -0.02404337134808893 -0.037017970849219206 0 -0.023708365523874717 -0.037147759741223016 0 -0.023387593749409755 -0.037067819386900756 0 -0.023838343710004428 -0.036792993884622684 0 -0.023708365523874717 -0.037147759741223016 0 -0.023387593749409755 -0.037067819386900756 0 -0.023708365523874717 -0.037147759741223016 0 -0.023492963414520018 -0.037331589225110616 0 -0.023708365523874717 -0.037147759741223016 0 -0.023492963414520018 -0.037331589225110616 0 -0.023634492558426423 -0.037565150310137421 0 -0.02404337134808893 -0.037017970849219206 0 -0.02424575418534989 -0.036923411215427186 0 -0.024099279591888713 -0.036929661994090111 0 -0.02404337134808893 -0.037017970849219206 0 -0.023708365523874717 -0.037147759741223016 0 -0.023634492558426423 -0.037565150310137421 0 -0.022728934897973251 -0.035639426380815784 0 -0.022616567149049895 -0.035505350372531982 0 -0.02424575418534989 -0.036923411215427186 0 -0.024166528724055347 -0.036865453713727174 0 -0.024099279591888713 -0.036929661994090111 0 -0.023227948546778114 -0.037624868193473431 0 -0.023492963414520018 -0.037331589225110616 0 -0.023634492558426423 -0.037565150310137421 0 -0.02424575418534989 -0.036923411215427186 0 -0.024266832223411125 -0.036848753787500924 0 -0.024166528724055347 -0.036865453713727174 0 -0.024407588134085497 -0.036786198846111243 0 -0.02424575418534989 -0.036923411215427186 0 -0.024266832223411125 -0.036848753787500924 0 -0.024266832223411125 -0.036848753787500924 0 -0.02421233116383684 -0.036803740601765444 0 -0.024247375096018074 -0.036740216977672491 0 -0.024266832223411125 -0.036848753787500924 0 -0.02421233116383684 -0.036803740601765444 0 -0.024166528724055347 -0.036865453713727174 0 -0.02421233116383684 -0.036803740601765444 0 -0.024166528724055347 -0.036865453713727174 0 -0.024150146058024961 -0.036762360695525527 0 -0.024166528724055347 -0.036865453713727174 0 -0.024088619244772635 -0.036847559171823287 0 -0.024150146058024961 -0.036762360695525527 0 -0.02407895432701283 -0.036942501413319846 0 -0.024088619244772635 -0.036847559171823287 0 -0.024099279591888713 -0.036929661994090111 0 -0.024166528724055347 -0.036865453713727174 0 -0.024088619244772635 -0.036847559171823287 0 -0.024099279591888713 -0.036929661994090111 0 -0.024036124144877553 -0.036687580243056003 0 -0.024088619244772635 -0.036847559171823287 0 -0.024150146058024961 -0.036762360695525527 0 -0.024036124144877553 -0.036687580243056003 0 -0.024150146058024961 -0.036762360695525527 0 -0.024146250279800312 -0.036637317560143504 0 -0.024150146058024961 -0.036762360695525527 0 -0.024219582472624488 -0.036663624856641014 0 -0.024146250279800312 -0.036637317560143504 0 -0.024266832223411125 -0.036848753787500924 0 -0.024247375096018074 -0.036740216977672491 0 -0.0243509176864397 -0.036679385184067902 0 -0.02421233116383684 -0.036803740601765444 0 -0.024150146058024961 -0.036762360695525527 0 -0.024247375096018074 -0.036740216977672491 0 -0.024247375096018074 -0.036740216977672491 0 -0.024287533019662143 -0.036664899086884965 0 -0.024219582472624488 -0.036663624856641014 0 -0.024247375096018074 -0.036740216977672491 0 -0.024287533019662143 -0.036664899086884965 0 -0.0243509176864397 -0.036679385184067902 0 -0.024150146058024961 -0.036762360695525527 0 -0.024247375096018074 -0.036740216977672491 0 -0.024219582472624488 -0.036663624856641014 0 -0.024219582472624488 -0.036663624856641014 0 -0.024212035225576488 -0.036574877978025395 0 -0.024146250279800312 -0.036637317560143504 0 -0.024212035225576488 -0.036574877978025395 0 -0.024119020468880502 -0.036494266433370476 0 -0.024318715171914231 -0.036482622973844712 0 -0.024219582472624488 -0.036663624856641014 0 -0.024279917106149327 -0.036615140487348478 0 -0.024212035225576488 -0.036574877978025395 0 -0.024287533019662143 -0.036664899086884965 0 -0.024219582472624488 -0.036663624856641014 0 -0.024279917106149327 -0.036615140487348478 0 -0.024287533019662143 -0.036664899086884965 0 -0.024279917106149327 -0.036615140487348478 0 -0.024339778304230227 -0.036627460584291088 0 -0.023499445211766508 -0.032738932707663149 0 -0.023413556829593438 -0.032662503771552609 0 -0.024279917106149327 -0.036615140487348478 0 -0.024212035225576488 -0.036574877978025395 0 -0.024318715171914231 -0.036482622973844712 0 -0.024279917106149327 -0.036615140487348478 0 -0.024318715171914231 -0.036482622973844712 0 -0.024346783975626757 -0.036624862543265073 0 -0.024036124144877553 -0.036687580243056003 0 -0.024146250279800312 -0.036637317560143504 0 -0.024119020468880502 -0.036494266433370476 0 -0.030791093954104204 -0.032526638810566694 0 -0.030355839297563511 -0.030587412179213642 0 -0.024212035225576488 -0.036574877978025395 0 -0.024146250279800312 -0.036637317560143504 0 -0.024119020468880502 -0.036494266433370476 0 -0.032352230778814113 -0.030521287437610522 0 -0.030355839297563511 -0.030587412179213642 0 -0.040753178129725447 -0.030080437071325381 0 -0.041285631508459354 -0.030033712664607998 0 -0.040986686370040736 -0.029478484942713823 0 -0.030355839297563511 -0.030587412179213642 0 -0.030208808160177358 -0.02868849601787422 0 -0.041285631508459354 -0.030033712664607998 0 -0.040986686370040736 -0.029478484942713823 0 -0.041588577156774567 -0.029444959706702752 0 -0.040986686370040736 -0.029478484942713823 0 -0.041588577156774567 -0.029444959706702752 0 -0.041202996777786681 -0.028858506794120106 0 -0.033805849585654975 -0.026675731519782135 0 -0.029075291962783023 -0.027210119893603838 0 -0.041588577156774567 -0.029444959706702752 0 -0.041202996777786681 -0.028858506794120106 0 -0.041883483930661443 -0.028874299152977869 0 -0.028149863945390048 -0.029979367089206836 0 -0.028719586666980237 -0.029131705321209182 0 -0.029100243588849668 -0.03078754419368988 0 -0.024843968378156521 -0.027037119798685876 0 -0.025038000641135705 -0.02790139605560019 0 -0.025242109367604279 -0.02743480356354492 0 -0.028567557438535646 -0.027165474112217217 0 -0.025496816696125219 -0.030298882676527607 0 -0.028897272190079811 -0.026629596036765985 0 -0.028381714468812047 -0.026622836020092456 0 -0.028927038749726252 -0.026755373230753301 0 -0.028567557438535646 -0.027165474112217217 0 -0.026514293980964766 -0.02654575433277475 0 -0.029613661958910305 -0.029978330317854362 0 -0.027246768395296054 -0.0299440768183592 0 -0.028912519222402584 -0.026966429303430534 0 -0.028567557438535646 -0.027165474112217217 0 -0.029075291962783023 -0.027210119893603838 0 -0.028149863945390048 -0.029979367089206836 0 -0.028719586666980237 -0.029131705321209182 0 -0.028621505826791568 -0.029130223128632927 0 -0.030208808160177358 -0.02868849601787422 0 -0.029075291962783023 -0.027210119893603838 0 -0.030355839297563511 -0.030587412179213642 0 -0.025496816696125219 -0.030298882676527607 0 -0.027680411308134211 -0.030826852413398803 0 -0.028149863945390048 -0.029979367089206836 0 -0.029100243588849668 -0.03078754419368988 0 -0.025496816696125219 -0.030298882676527607 0 -0.022805886673338476 -0.029842788125933915 0 -0.025488520360510449 -0.027888139230266118 0 -0.025242109367604279 -0.02743480356354492 0 -0.025734013410350649 -0.027306723083634094 0 -0.025038000641135705 -0.02790139605560019 0 -0.025488520360510449 -0.027888139230266118 0 -0.025242109367604279 -0.02743480356354492 0 -0.026514293980964766 -0.02654575433277475 0 -0.021548803029887754 -0.025075191955354143 0 -0.025242109367604279 -0.02743480356354492 0 -0.025105453631007232 -0.027041234199642501 0 -0.025734013410350649 -0.027306723083634094 0 -0.026514293980964766 -0.02654575433277475 0 -0.021992950666494791 -0.026803552982618488 0 -0.024843968378156521 -0.027037119798685876 0 -0.025242109367604279 -0.02743480356354492 0 -0.025105453631007232 -0.027041234199642501 0 -0.024847884762677425 -0.025848474329035746 0 -0.021483913510742705 -0.025796946569219072 0 -0.021973755469731081 -0.024654467280691428 0 -0.019294620960436885 -0.026204257498649974 0 -0.01954781039284529 -0.025616216514652176 0 -0.018027023993002954 -0.025633959919680999 0 -0.021548803029887754 -0.025075191955354143 0 -0.021992950666494791 -0.026803552982618488 0 -0.022177522745570978 -0.028599587298301293 0 -0.021668270442936583 -0.029783715541921107 0 -0.020298233215322384 -0.02864773987807219 0 -0.022805886673338476 -0.029842788125933915 0 -0.021992950666494791 -0.026803552982618488 0 -0.022805886673338476 -0.029842788125933915 0 -0.018846337750359168 -0.029727310075028254 0 -0.021406901226624555 -0.031311347997001117 0 -0.020994807155788119 -0.030962237703076545 0 -0.020376027550837093 -0.031335068463816222 0 -0.020994807155788119 -0.030962237703076545 0 -0.021660910357857839 -0.030724079652162322 0 -0.020926024437724514 -0.03058621315621244 0 -0.022924085229750989 -0.03259214901819181 0 -0.020411713605958063 -0.033159870125077387 0 -0.020994807155788119 -0.030962237703076545 0 -0.020926024437724514 -0.03058621315621244 0 -0.020603662071712707 -0.030854891845394944 0 -0.023070952447308397 -0.029591410658627287 0 -0.023495629358164363 -0.03055151491824476 0 -0.023282866962467026 -0.03051188179388694 0 -0.023070952447308397 -0.029591410658627287 0 -0.02391405265762735 -0.029567696933950869 0 -0.023495629358164363 -0.03055151491824476 0 -0.022805886673338476 -0.029842788125933915 0 -0.022924085229750989 -0.03259214901819181 0 -0.021406901226624555 -0.031311347997001117 0 -0.020994807155788119 -0.030962237703076545 0 -0.021660910357857839 -0.030724079652162322 0 -0.025496816696125219 -0.030298882676527607 0 -0.023413556829593438 -0.032662503771552609 0 -0.023413556829593438 -0.032662503771552609 0 -0.023005032804205131 -0.03331005824099223 0 -0.022924085229750989 -0.03259214901819181 0 -0.023005032804205131 -0.03331005824099223 0 -0.023242929161976063 -0.031875701405986404 0 -0.023095252307354635 -0.031848163499697872 0 -0.023151127734465416 -0.032090905798865491 0 -0.022924085229750989 -0.03259214901819181 0 -0.023413556829593438 -0.032662503771552609 0 -0.024407588134085497 -0.036786198846111243 0 -0.024266832223411125 -0.036848753787500924 0 -0.024360429864786055 -0.036592690220403463 0 -0.022615546484719633 -0.032892798486649909 0 -0.022691467374704229 -0.0332156996208113 0 -0.022191847028018838 -0.033245407555953177 0 -0.022642367593475609 -0.033329269639179621 0 -0.022691467374704229 -0.0332156996208113 0 -0.022191847028018838 -0.033245407555953177 0 -0.022880994227457985 -0.034358743193920752 0 -0.023005032804205131 -0.03331005824099223 0 -0.024287533019662143 -0.036664899086884965 0 -0.024339778304230227 -0.036627460584291088 0 -0.0243509176864397 -0.036679385184067902 0 -0.022333566136043152 -0.035003197865552123 0 -0.023005032804205131 -0.03331005824099223 0 -0.022333566136043152 -0.035003197865552123 0 -0.020411713605958063 -0.033159870125077387 0 -0.019839872712456599 -0.035581747965863129 0 -0.019798583349121955 -0.0334542838147295 0 -0.022193721620344997 -0.038730134420253845 0 -0.023211998285362051 -0.038799998002119383 0 -0.022035121277229484 -0.039751703597338005 0 -0.022193721620344997 -0.038730134420253845 0 -0.022035121277229484 -0.039751703597338005 0 -0.021735927404376004 -0.039693979940811371 0 -0.020411713605958063 -0.033159870125077387 0 -0.019798583349121955 -0.0334542838147295 0 -0.019798583349121955 -0.0334542838147295 0 -0.018444295991671061 -0.033824927946275014 0 -0.022161613451877914 -0.038870282777829189 0 -0.021649585545951935 -0.039952239821822548 0 -0.021211056650909117 -0.039208755504815659 0 -0.018516563844545947 -0.033005935288500043 0 -0.018353907749786302 -0.032976432173077545 0 -0.018477864291633228 -0.03308569570788341 0 -0.021649585545951935 -0.039952239821822548 0 -0.021211056650909117 -0.039208755504815659 0 -0.020532220239285311 -0.039744004420293674 0 -0.020436823278770666 -0.038822635141699077 0 -0.021211056650909117 -0.039208755504815659 0 -0.020532220239285311 -0.039744004420293674 0 -0.018444295991671061 -0.033824927946275014 0 -0.016417466253836208 -0.034187146952056872 0 -0.015936571416897759 -0.030586007759611223 0 -0.015353249498098676 -0.031141815334687281 0 -0.014849998729788375 -0.030386368726300721 0 -0.018629970152646454 -0.034897021961394194 0 -0.018444295991671061 -0.033824927946275014 0 -0.020436823278770666 -0.038822635141699077 0 -0.020525474184382032 -0.039793121315036858 0 -0.019168892856278354 -0.039555272243486143 0 -0.015936571416897759 -0.030586007759611223 0 -0.015353249498098676 -0.031141815334687281 0 -0.016046922547663222 -0.031719675646818456 0 -0.018444295991671061 -0.033824927946275014 0 -0.018442151349199597 -0.031047032279877398 0 -0.015353249498098676 -0.031141815334687281 0 -0.015416115488230671 -0.0316808317226853 0 -0.016046922547663222 -0.031719675646818456 0 -0.019327921059778777 -0.030845934865506509 0 -0.019054853417334261 -0.031421461819026289 0 -0.018858117264201363 -0.031236745122198512 0 -0.018353907749786302 -0.032976432173077545 0 -0.018477864291633228 -0.03308569570788341 0 -0.018372653267048827 -0.033171040136069037 0 -0.019463035447346063 -0.032106912304633091 0 -0.018442151349199597 -0.031047032279877398 0 -0.020994807155788119 -0.030962237703076545 0 -0.020603662071712707 -0.030854891845394944 0 -0.020376027550837093 -0.031335068463816222 0 -0.019463035447346063 -0.032106912304633091 0 -0.018846337750359168 -0.029727310075028254 0 -0.020411713605958063 -0.033159870125077387 0 -0.019463035447346063 -0.032106912304633091 0 -0.019798583349121955 -0.0334542838147295 0 -0.019463035447346063 -0.032106912304633091 0 -0.018916776722667915 -0.032772008588218542 0 -0.019072671810243802 -0.032800648299295354 0 -0.019195935119904271 -0.032532341111703958 0 -0.021668270442936583 -0.029783715541921107 0 -0.020298233215322384 -0.02864773987807219 0 -0.020072009894862519 -0.02912752837135453 0 -0.019054853417334261 -0.031421461819026289 0 -0.018875618142458552 -0.031426038759892042 0 -0.018858117264201363 -0.031236745122198512 0 -0.018846337750359168 -0.029727310075028254 0 -0.018161680189847984 -0.029731857395755189 0 -0.018111080633736641 -0.030289129906667201 0 -0.018186738302190125 -0.030124314422926238 0 -0.018202596782370087 -0.030286378973010522 0 -0.018846337750359168 -0.029727310075028254 0 -0.018410685415298653 -0.028316181018370062 0 -0.018410685415298653 -0.028316181018370062 0 -0.018161680189847984 -0.029731857395755189 0 -0.021548803029887754 -0.025075191955354143 0 -0.016569618558747078 -0.024169798188130955 0 -0.021992950666494791 -0.026803552982618488 0 -0.018410685415298653 -0.028316181018370062 0 -0.01954781039284529 -0.025616216514652176 0 -0.017746252683669164 -0.024879047111137503 0 -0.018027023993002954 -0.025633959919680999 0 -0.019294620960436885 -0.026204257498649974 0 -0.018027023993002954 -0.025633959919680999 0 -0.017871398470910047 -0.026182291998454357 0 -0.017746252683669164 -0.024879047111137503 0 -0.018027023993002954 -0.025633959919680999 0 -0.01785108731523135 -0.025994289588469648 0 -0.018410685415298653 -0.028316181018370062 0 -0.016512730909485261 -0.024443810144520933 0 -0.016518962569644659 -0.024466342884794694 0 -0.016512730909485261 -0.024443810144520933 0 -0.018027023993002954 -0.025633959919680999 0 -0.017853347262616094 -0.025992623461252039 0 -0.017871398470910047 -0.026182291998454357 0 -0.016517969494802612 -0.024406099225976963 0 -0.016288158938090627 -0.021998814827463322 0 -0.017668600380976986 -0.022018771861994874 0 -0.016512730909485261 -0.024443810144520933 0 -0.016135333160131802 -0.024130960338171258 0 -0.016512730909485261 -0.024443810144520933 0 -0.016569618558747078 -0.024169798188130955 0 -0.016569618558747078 -0.024169798188130955 0 -0.016135333160131802 -0.024130960338171258 0 -0.014910469718669255 -0.027072181646161906 0 -0.014234357387619504 -0.026454672202158604 0 -0.013812074282043698 -0.026536174953801103 0 -0.016135333160131802 -0.024130960338171258 0 -0.010595469344876268 -0.023326397605176363 0 -0.014910469718669255 -0.027072181646161906 0 -0.013812074282043698 -0.026536174953801103 0 -0.013422928011763788 -0.027046652606102967 0 -0.014993667261460645 -0.026902835314137799 0 -0.014910469718669255 -0.027072181646161906 0 -0.014595098702246451 -0.026547136467583016 0 -0.014910469718669255 -0.027072181646161906 0 -0.014595098702246451 -0.026547136467583016 0 -0.014234357387619504 -0.026454672202158604 0 -0.014908087289073429 -0.025894892597789151 0 -0.014993667261460645 -0.026902835314137799 0 -0.014595098702246451 -0.026547136467583016 0 -0.018410685415298653 -0.028316181018370062 0 -0.018301129731626543 -0.028234460760087132 0 -0.014896632942796004 -0.025903388820739039 0 -0.014595098702246451 -0.026547136467583016 0 -0.014387819161034167 -0.02605410043168202 0 -0.014595098702246451 -0.026547136467583016 0 -0.014234357387619504 -0.026454672202158604 0 -0.014387819161034167 -0.02605410043168202 0 -0.014234357387619504 -0.026454672202158604 0 -0.014004944453343491 -0.026164344581326628 0 -0.014387819161034167 -0.02605410043168202 0 -0.014004944453343491 -0.026164344581326628 0 -0.013628572408621621 -0.025920452952556038 0 -0.013812074282043698 -0.026536174953801103 0 -0.014234357387619504 -0.026454672202158604 0 -0.014004944453343491 -0.026164344581326628 0 -0.013812074282043698 -0.026536174953801103 0 -0.014095947537812068 -0.025803561694096831 0 -0.014851483950880706 -0.025424684302631593 0 -0.013605493574984813 -0.025454419450001091 0 -0.014004944453343491 -0.026164344581326628 0 -0.014095947537812068 -0.025803561694096831 0 -0.013628572408621621 -0.025920452952556038 0 -0.018161680189847984 -0.029731857395755189 0 -0.014209403023617576 -0.02897591452218844 0 -0.016073206489065392 -0.03196002641903678 0 -0.015856128002382973 -0.031879608803980539 0 -0.015045330370298553 -0.031989277981725267 0 -0.014004944453343491 -0.026164344581326628 0 -0.014095947537812068 -0.025803561694096831 0 -0.014387819161034167 -0.02605410043168202 0 -0.014095947537812068 -0.025803561694096831 0 -0.014387819161034167 -0.02605410043168202 0 -0.014851483950880706 -0.025424684302631593 0 -0.014896632942796004 -0.025903388820739039 0 -0.014387819161034167 -0.02605410043168202 0 -0.014851483950880706 -0.025424684302631593 0 -0.015416115488230671 -0.0316808317226853 0 -0.015856128002382973 -0.031879608803980539 0 -0.016046922547663222 -0.031719675646818456 0 -0.016073206489065392 -0.03196002641903678 0 -0.015856128002382973 -0.031879608803980539 0 -0.016052333119783425 -0.031713411765601433 0 -0.018161680189847984 -0.029731857395755189 0 -0.018442151349199597 -0.031047032279877398 0 -0.018395631734002795 -0.031078499485279153 0 -0.018442151349199597 -0.031047032279877398 0 -0.015416115488230671 -0.0316808317226853 0 -0.015856128002382973 -0.031879608803980539 0 -0.015045330370298553 -0.031989277981725267 0 -0.013628572408621621 -0.025920452952556038 0 -0.013125161184829927 -0.027055793470631227 0 -0.01235551412443848 -0.025491754311555943 0 -0.013605493574984813 -0.025454419450001091 0 -0.013628572408621621 -0.025920452952556038 0 -0.01235551412443848 -0.025491754311555943 0 -0.014209403023617576 -0.02897591452218844 0 -0.01014985850313453 -0.02827282851398406 0 -0.015045330370298553 -0.031989277981725267 0 -0.014021907171932708 -0.032016193109045653 0 -0.014638834624328877 -0.031328116589937047 0 -0.014095947537812068 -0.025803561694096831 0 -0.013605493574984813 -0.025454419450001091 0 -0.013628572408621621 -0.025920452952556038 0 -0.013628572408621621 -0.025920452952556038 0 -0.013125161184829927 -0.027055793470631227 0 -0.013408479059664207 -0.02705901444129806 0 -0.010748065194998671 -0.024022588650124212 0 -0.010595469344876268 -0.023326397605176363 0 -0.013628572408621621 -0.025920452952556038 0 -0.013812074282043698 -0.026536174953801103 0 -0.013422928011763788 -0.027046652606102967 0 -0.0098087503102754405 -0.02337257614944763 0 -0.010595469344876268 -0.023326397605176363 0 0.0033428288429297169 -0.021308560494780662 0 -9.5473130006217135e-05 -0.023537423013183765 0 0.00026536987554961734 -0.02764031629097545 0 -0.0098087503102754405 -0.02337257614944763 0 -0.007375775701617176 -0.022483013382467616 0 -0.0098087503102754405 -0.02337257614944763 0 -0.01014985850313453 -0.02827282851398406 0 0.0033428288429297169 -0.021308560494780662 0 -9.5473130006217135e-05 -0.023537423013183765 0 -0.0036157379054640383 -0.021371346451289977 0 -9.5473130006217135e-05 -0.023537423013183765 0 -0.0021821253034616083 -0.025799601381257243 0 -0.0036157379054640383 -0.021371346451289977 0 -9.5473130006217135e-05 -0.023537423013183765 0 -0.0021821253034616083 -0.025799601381257243 0 0.00026536987554961734 -0.02764031629097545 0 6.4771100703759547e-05 -0.028152788861421366 0 -0.0019485498958240429 -0.028729498590603985 0 -0.005098417325030598 -0.028007189164677735 0 -0.01014985850313453 -0.02827282851398406 0 -0.0078522247667662508 -0.028190493504965181 0 -0.0021821253034616083 -0.025799601381257243 0 0.00026536987554961734 -0.02764031629097545 0 -0.0047305888612267782 -0.027581601270557494 0 6.4771100703759547e-05 -0.028152788861421366 0 -0.0019485498958240429 -0.028729498590603985 0 -0.0017209707299993898 -0.031764409142916061 0 -0.01014985850313453 -0.02827282851398406 0 -0.010658739441358919 -0.030991215511320752 0 -0.014021907171932708 -0.032016193109045653 0 -0.013672957603664009 -0.031305174079190201 0 -0.014638834624328877 -0.031328116589937047 0 -0.013672957603664009 -0.031305174079190201 0 -0.014638834624328877 -0.031328116589937047 0 -0.014231652928348201 -0.030802366841031509 0 -0.001630253123497821 -0.031814833021370489 0 -0.0020469996579945433 -0.032675646303100554 0 -0.0011250554055605795 -0.037857103561514206 0 -0.0019485498958240429 -0.028729498590603985 0 -0.0016494207368946774 -0.031831797469230469 0 -0.0031713842559130123 -0.030357914715050779 0 -0.01036949208855926 -0.030907246958753055 0 -0.010658739441358919 -0.030991215511320752 0 -0.0016494207368946774 -0.031831797469230469 0 -0.0020469996579945433 -0.032675646303100554 0 -0.0035558281732953599 -0.032529501975124636 0 -0.010658739441358919 -0.030991215511320752 0 -0.010622963614231769 -0.030975137344986386 0 -0.015353249498098676 -0.031141815334687281 0 -0.014638834624328877 -0.031328116589937047 0 -0.014849998729788375 -0.030386368726300721 0 -0.015416115488230671 -0.0316808317226853 0 -0.015045330370298553 -0.031989277981725267 0 -0.014638834624328877 -0.031328116589937047 0 -0.015353249498098676 -0.031141815334687281 0 -0.015416115488230671 -0.0316808317226853 0 -0.014638834624328877 -0.031328116589937047 0 -0.014638834624328877 -0.031328116589937047 0 -0.014849998729788375 -0.030386368726300721 0 -0.014231652928348201 -0.030802366841031509 0 -0.014849998729788375 -0.030386368726300721 0 -0.014231652928348201 -0.030802366841031509 0 -0.0137654475229267 -0.030189890210768809 0 -0.010658739441358919 -0.030991215511320752 0 -0.013664914163674959 -0.034256655942244807 0 -0.016417466253836208 -0.034187146952056872 0 -0.013664914163674959 -0.034256655942244807 0 -0.013672957603664009 -0.031305174079190201 0 -0.014231652928348201 -0.030802366841031509 0 -0.0137654475229267 -0.030189890210768809 0 -0.0020469996579945433 -0.032675646303100554 0 -0.0011250554055605795 -0.037857103561514206 0 -0.0028424429483778686 -0.034596336976664782 0 -0.006350162993279204 -0.015332151260836684 0 -0.0053855327515131201 -0.016438385559973491 0 -0.0066509077029211763 -0.01442951004586231 0 -0.006350162993279204 -0.015332151260836684 0 -0.0068445349206931018 -0.015799482142435654 0 -0.0073087195258257354 -0.014866402555239964 0 -0.006350162993279204 -0.015332151260836684 0 -0.0068597031560287203 -0.014695802648149753 0 -0.0073087195258257354 -0.014866402555239964 0 -0.0068597031560287203 -0.014695802648149753 0 -0.0071054143634231813 -0.014264376721408342 0 -0.0073087195258257354 -0.014866402555239964 0 -0.006350162993279204 -0.015332151260836684 0 -0.0068597031560287203 -0.014695802648149753 0 -0.0066509077029211763 -0.01442951004586231 0 -0.0064275279807150852 -0.014800301571855821 0 -0.0062053833471482807 -0.01447898941614977 0 -0.0064183002406265604 -0.014271615097211384 0 -0.0086850342224137986 -0.018017707867789719 0 -0.0083453924845601993 -0.016585932836660076 0 -0.0058597640320156479 -0.015654150378398523 0 -0.0066509077029211763 -0.01442951004586231 0 -0.0067047608359830022 -0.014123718936933136 0 -0.0064275279807150852 -0.014800301571855821 0 -0.0064183002406265604 -0.014271615097211384 0 -0.0067047608359830022 -0.014123718936933136 0 -0.0059837261597448371 -0.015683420934839987 0 -0.0058597640320156479 -0.015654150378398523 0 -0.0066509077029211763 -0.01442951004586231 0 -0.012143196039239912 -0.019161208024986418 0 -0.011289540757170766 -0.017651232657007611 0 -0.0059837261597448371 -0.015683420934839987 0 -0.0063468463743441041 -0.016247192599255496 0 -0.0066509077029211763 -0.01442951004586231 0 -0.0058572907063296157 -0.015657884457897373 0 -0.0063468463743441041 -0.016247192599255496 0 -0.0052934941727270238 -0.01680634837954962 0 -0.012143196039239912 -0.019161208024986418 0 -0.01276636579769428 -0.021021080177894901 0 -0.0059837261597448371 -0.015683420934839987 0 -0.0058572907063296157 -0.015657884457897373 0 -0.0063468463743441041 -0.016247192599255496 0 -0.01211477007544603 -0.01915332993222026 0 -0.012143196039239912 -0.019161208024986418 0 -0.0053855327515131201 -0.016438385559973491 0 -0.0062336823799400221 -0.016058651814912037 0 -0.0063758115216381471 -0.016771874479324312 0 -0.006350162993279204 -0.015332151260836684 0 -0.0053855327515131201 -0.016438385559973491 0 -0.0062336823799400221 -0.016058651814912037 0 -0.006350162993279204 -0.015332151260836684 0 -0.0062336823799400221 -0.016058651814912037 0 -0.0068445349206931018 -0.015799482142435654 0 -0.0062336823799400221 -0.016058651814912037 0 -0.0068445349206931018 -0.015799482142435654 0 -0.0063758115216381471 -0.016771874479324312 0 -0.0068445349206931018 -0.015799482142435654 0 -0.0063758115216381471 -0.016771874479324312 0 -0.0075359882255772222 -0.016635491435125126 0 -0.0053855327515131201 -0.016438385559973491 0 -0.0063758115216381471 -0.016771874479324312 0 -0.0057643943844983368 -0.018077979014577784 0 -0.0063758115216381471 -0.016771874479324312 0 -0.006861144596109898 -0.01821147561694985 0 -0.0075359882255772222 -0.016635491435125126 0 -0.0063758115216381471 -0.016771874479324312 0 -0.0057643943844983368 -0.018077979014577784 0 -0.006861144596109898 -0.01821147561694985 0 -0.0048625423166079353 -0.02008318859054679 0 -0.0058689106512106381 -0.019235794513076325 0 -0.007315687779447533 -0.020336682015442472 0 -0.006861144596109898 -0.01821147561694985 0 -0.0058689106512106381 -0.019235794513076325 0 -0.007315687779447533 -0.020336682015442472 0 -0.0057643943844983368 -0.018077979014577784 0 -0.006861144596109898 -0.01821147561694985 0 -0.0058689106512106381 -0.019235794513076325 0 -0.010154191878620551 -0.022333526143962886 0 -0.01276636579769428 -0.021021080177894901 0 -0.010480388125909613 -0.02440199945732931 0 -0.010142231249071409 -0.024396923961722938 0 -0.010234376864722831 -0.023896723953665287 0 -0.010595469344876268 -0.023326397605176363 0 -0.010154191878620551 -0.022333526143962886 0 -0.0048625423166079353 -0.02008318859054679 0 -0.0058689106512106381 -0.019235794513076325 0 -0.0045480718155615166 -0.01946285879664102 0 -0.0098087503102754405 -0.02337257614944763 0 -0.010154191878620551 -0.022333526143962886 0 -0.0057643943844983368 -0.018077979014577784 0 -0.0058689106512106381 -0.019235794513076325 0 -0.0045480718155615166 -0.01946285879664102 0 -0.0053855327515131201 -0.016438385559973491 0 -0.0057643943844983368 -0.018077979014577784 0 -0.0045480718155615166 -0.01946285879664102 0 -0.0063468463743441041 -0.016247192599255496 0 -0.0060061871231366637 -0.018264527914492703 0 -0.0052934941727270238 -0.01680634837954962 0 -0.0086850342224137986 -0.018017707867789719 0 -0.010154191878620551 -0.022333526143962886 0 -0.015519027590147427 -0.020704576655851122 0 -0.01455202290317318 -0.021221133940779926 0 -0.015242457655069449 -0.020143491922122215 0 -0.01276636579769428 -0.021021080177894901 0 -0.012861612693369972 -0.021038311319858012 0 -0.012474893679947084 -0.024180962032924736 0 -0.013669040442218982 -0.02387475235807144 0 -0.013140638635570523 -0.022786525577030484 0 -0.016135333160131802 -0.024130960338171258 0 -0.01276636579769428 -0.021021080177894901 0 -0.012474893679947084 -0.024180962032924736 0 -0.013609796029191427 -0.024195912535819646 0 -0.013669040442218982 -0.02387475235807144 0 -0.014748996066709291 -0.022328530521078273 0 -0.015519027590147427 -0.020704576655851122 0 -0.01455202290317318 -0.021221133940779926 0 -0.01466064699029301 -0.022327398076386985 0 -0.014748996066709291 -0.022328530521078273 0 -0.01455202290317318 -0.021221133940779926 0 -0.017341728193172971 -0.025270439436718785 0 -0.019270976591783354 -0.025297317519898877 0 -0.018596688153759425 -0.024421033625875759 0 -0.017341728193172971 -0.025270439436718785 0 -0.018596688153759425 -0.024421033625875759 0 -0.018126243649770956 -0.023417465381386393 0 -0.019270976591783354 -0.025297317519898877 0 -0.018596688153759425 -0.024421033625875759 0 -0.01909462265347054 -0.023430996695217716 0 -0.016569618558747078 -0.024169798188130955 0 -0.017079882705116258 -0.022238304464666687 0 -0.018596688153759425 -0.024421033625875759 0 -0.018126243649770956 -0.023417465381386393 0 -0.01909462265347054 -0.023430996695217716 0 -0.019869502639183925 -0.022472989457755079 0 -0.017637025194202766 -0.020246658538397258 0 -0.024916925940653173 -0.021762900547633437 0 -0.024585237438127731 -0.022502165633345679 0 -0.025011355343325947 -0.022282394716377281 0 -0.01455202290317318 -0.021221133940779926 0 -0.014448637080030063 -0.020119177067395345 0 -0.015242457655069449 -0.020143491922122215 0 -0.018126243649770956 -0.023417465381386393 0 -0.01909462265347054 -0.023430996695217716 0 -0.018913526377645856 -0.02155960335579906 0 -0.017079882705116258 -0.022238304464666687 0 -0.017637025194202766 -0.020246658538397258 0 -0.024948250866755527 -0.02262063896417614 0 -0.024585237438127731 -0.022502165633345679 0 -0.025011355343325947 -0.022282394716377281 0 -0.024948250866755527 -0.02262063896417614 0 -0.024585237438127731 -0.022502165633345679 0 -0.024628803553004345 -0.023012642146285525 0 -0.024948250866755527 -0.02262063896417614 0 -0.024867663114852515 -0.023058374629091206 0 -0.024628803553004345 -0.023012642146285525 0 -0.017637025194202766 -0.020246658538397258 0 -0.017963625665574783 -0.018741302051808691 0 -0.018743962627781063 -0.017134169995103577 0 -0.017628732341448905 -0.019745131017496934 0 -0.017355093684838317 -0.016873488040065089 0 -0.01616931633095612 -0.018591022908584658 0 -0.017637025194202766 -0.020246658538397258 0 -0.012143196039239912 -0.019161208024986418 0 -0.01616931633095612 -0.018591022908584658 0 -0.015989919338841838 -0.0196840322262395 0 -0.014739278319260751 -0.019445322949959709 0 -0.015242457655069449 -0.020143491922122215 0 -0.015989919338841838 -0.0196840322262395 0 -0.015505265566313734 -0.02068779062078201 0 -0.015242457655069449 -0.020143491922122215 0 -0.014739278319260751 -0.019445322949959709 0 -0.014448637080030063 -0.020119177067395345 0 -0.015242457655069449 -0.020143491922122215 0 -0.0058733918968236444 -0.014703554204737703 0 -0.0062053833471482807 -0.01447898941614977 0 -0.0060214769669842448 -0.014314440336106592 0 -0.01616931633095612 -0.018591022908584658 0 -0.014737255345497906 -0.017702311075837265 0 -0.0064275279807150852 -0.014800301571855821 0 -0.0058733918968236444 -0.014703554204737703 0 -0.0062053833471482807 -0.01447898941614977 0 -0.0062053833471482807 -0.01447898941614977 0 -0.0060214769669842448 -0.014314440336106592 0 -0.0062223686561164041 -0.014204494455101635 0 -0.0062053833471482807 -0.01447898941614977 0 -0.0062223686561164041 -0.014204494455101635 0 -0.0064183002406265604 -0.014271615097211384 0 -0.026096071300863315 -0.018240814113427178 0 -0.025986847218000458 -0.018368766435817526 0 -0.025806554732087254 -0.018095547397842988 0 -0.017828641311554705 -0.017910054673598592 0 -0.01964745047784467 -0.018537659188261908 0 -0.01964745047784467 -0.018537659188261908 0 -0.017963625665574783 -0.018741302051808691 0 -0.017539868787618124 -0.017889884529825126 0 -0.015722226603010234 -0.020011197231519652 0 -0.017779546745566033 -0.020397492776630926 0 -0.015323872477465696 -0.018236520914808839 0 -0.015495189955836515 -0.017820924811018414 0 -0.015135390518485154 -0.018005725054926518 0 -0.01616931633095612 -0.018591022908584658 0 -0.017963625665574783 -0.018741302051808691 0 -0.015323872477465696 -0.018236520914808839 0 -0.015135390518485154 -0.018005725054926518 0 -0.015154834164743888 -0.018205080534799373 0 -0.017828641311554705 -0.017910054673598592 0 -0.017963625665574783 -0.018741302051808691 0 -0.025986847218000458 -0.018368766435817526 0 -0.025806554732087254 -0.018095547397842988 0 -0.025538535969612509 -0.018283251733046582 0 -0.01964745047784467 -0.018537659188261908 0 -0.026203754521046643 -0.019520647107978826 0 -0.026203754521046643 -0.019520647107978826 0 -0.033228152375757915 -0.020207305141763637 0 -0.02579116926470015 -0.023219122365915789 0 -0.026372729305056145 -0.022303013515000653 0 -0.02669397841364372 -0.023388598429446877 0 -0.02579116926470015 -0.023219122365915789 0 -0.0255971535871851 -0.022243771218492071 0 -0.026372729305056145 -0.022303013515000653 0 -0.024948250866755527 -0.02262063896417614 0 -0.024867663114852515 -0.023058374629091206 0 -0.0255971535871851 -0.022243771218492071 0 -0.01964745047784467 -0.018537659188261908 0 -0.020796211425601497 -0.019044454220129209 0 -0.024895060395354864 -0.023044194198850745 0 -0.02579116926470015 -0.023219122365915789 0 -0.0255971535871851 -0.022243771218492071 0 -0.024948250866755527 -0.02262063896417614 0 -0.025011355343325947 -0.022282394716377281 0 -0.0255971535871851 -0.022243771218492071 0 -0.024916925940653173 -0.021762900547633437 0 -0.025011355343325947 -0.022282394716377281 0 -0.0255971535871851 -0.022243771218492071 0 -0.024916925940653173 -0.021762900547633437 0 -0.0255971535871851 -0.022243771218492071 0 -0.025849805549793808 -0.021848499096298945 0 -0.021548803029887754 -0.025075191955354143 0 -0.019869502639183925 -0.022472989457755079 0 -0.025241713402736277 -0.021027680001140674 0 -0.024916925940653173 -0.021762900547633437 0 -0.025719159413836928 -0.021399221760358418 0 -0.024916925940653173 -0.021762900547633437 0 -0.025719159413836928 -0.021399221760358418 0 -0.025849805549793808 -0.021848499096298945 0 -0.026205371591386254 -0.021047305234639397 0 -0.025241713402736277 -0.021027680001140674 0 -0.025719159413836928 -0.021399221760358418 0 -0.026205371591386254 -0.021047305234639397 0 -0.026252385288360595 -0.021335798345696266 0 -0.025719159413836928 -0.021399221760358418 0 -0.025719159413836928 -0.021399221760358418 0 -0.026278228379998339 -0.021642285831744372 0 -0.025849805549793808 -0.021848499096298945 0 -0.026252385288360595 -0.021335798345696266 0 -0.025719159413836928 -0.021399221760358418 0 -0.026278228379998339 -0.021642285831744372 0 -0.0255971535871851 -0.022243771218492071 0 -0.025849805549793808 -0.021848499096298945 0 -0.026372729305056145 -0.022303013515000653 0 -0.026278228379998339 -0.021642285831744372 0 -0.025849805549793808 -0.021848499096298945 0 -0.026372729305056145 -0.022303013515000653 0 -0.026278228379998339 -0.021642285831744372 0 -0.026372729305056145 -0.022303013515000653 0 -0.026598385307684363 -0.021721069545651867 0 -0.026372729305056145 -0.022303013515000653 0 -0.026922895721905742 -0.021900885729341488 0 -0.027196385293594822 -0.022522919571379314 0 -0.026372729305056145 -0.022303013515000653 0 -0.026922895721905742 -0.021900885729341488 0 -0.026598385307684363 -0.021721069545651867 0 -0.028750175357941322 -0.025968931352099607 0 -0.028654551927477335 -0.026512578825369264 0 -0.026278228379998339 -0.021642285831744372 0 -0.026598385307684363 -0.021721069545651867 0 -0.026615987658279036 -0.021293404482182483 0 -0.033245630300262889 -0.026038255973042729 0 -0.031517531578360708 -0.026015212601808783 0 -0.031442875541968812 -0.026381132962581131 0 -0.026922895721905742 -0.021900885729341488 0 -0.026598385307684363 -0.021721069545651867 0 -0.026615987658279036 -0.021293404482182483 0 -0.026205371591386254 -0.021047305234639397 0 -0.026252385288360595 -0.021335798345696266 0 -0.026574740545973433 -0.021204856711064871 0 -0.026514293980964766 -0.02654575433277475 0 -0.028654551927477335 -0.026512578825369264 0 -0.028381714468812047 -0.026622836020092456 0 -0.028927038749726252 -0.026755373230753301 0 -0.028951077913743257 -0.026856737981568738 0 -0.031517531578360708 -0.026015212601808783 0 -0.031404326401711188 -0.026216829857328313 0 -0.031442875541968812 -0.026381132962581131 0 -0.026252385288360595 -0.021335798345696266 0 -0.026278228379998339 -0.021642285831744372 0 -0.026574740545973433 -0.021204856711064871 0 -0.029075291962783023 -0.027210119893603838 0 -0.028760895729135458 -0.026980957734247295 0 -0.026278228379998339 -0.021642285831744372 0 -0.026615987658279036 -0.021293404482182483 0 -0.026594304606971018 -0.021196830063487514 0 -0.028567557438535646 -0.027165474112217217 0 -0.028760895729135458 -0.026980957734247295 0 -0.028760895729135458 -0.026980957734247295 0 -0.028654551927477335 -0.026512578825369264 0 -0.028644750770979943 -0.026476428858412334 0 -0.028654551927477335 -0.026512578825369264 0 -0.033245630300262889 -0.026038255973042729 0 -0.031442875541968812 -0.026381132962581131 0 -0.034150623043647195 -0.027498919906496121 0 -0.026922895721905742 -0.021900885729341488 0 -0.026615987658279036 -0.021293404482182483 0 -0.027706496662932924 -0.021654079329289627 0 -0.026615987658279036 -0.021293404482182483 0 -0.026593262682309892 -0.021196491249110685 0 -0.027706496662932924 -0.021654079329289627 0 -0.028654551927477335 -0.026512578825369264 0 -0.034910124973886444 -0.024536517950981666 0 -0.034130884072269968 -0.022378209198335681 0 -0.034910124973886444 -0.024536517950981666 0 -0.026922895721905742 -0.021900885729341488 0 -0.027196385293594822 -0.022522919571379314 0 -0.027706496662932924 -0.021654079329289627 0 -0.034130884072269968 -0.022378209198335681 0 -0.033228152375757915 -0.020207305141763637 0 -0.04163489541279973 -0.022491460449885387 0 -0.042169651261952136 -0.021517679402446373 0 -0.04125675606216421 -0.021980889160144103 0 -0.026372729305056145 -0.022303013515000653 0 -0.027196385293594822 -0.022522919571379314 0 -0.02669397841364372 -0.023388598429446877 0 -0.033228152375757915 -0.020207305141763637 0 -0.038394205221898889 -0.021017919134512619 0 -0.042169651261952136 -0.021517679402446373 0 -0.041257349112564852 -0.021341900716776822 0 -0.04125675606216421 -0.021980889160144103 0 -0.042185453145469856 -0.021378576921255575 0 -0.043059286840304717 -0.020365368810649227 0 -0.041654221174354265 -0.019922461931684107 0 -0.043577443650816089 -0.021641324787369673 0 -0.042185453145469856 -0.021378576921255575 0 -0.043059286840304717 -0.020365368810649227 0 -0.043577443650816089 -0.021641324787369673 0 -0.043059286840304717 -0.020365368810649227 0 -0.044543411935750114 -0.019961835505272911 0 -0.033228152375757915 -0.020207305141763637 0 -0.032424312989602216 -0.017874416162067166 0 -0.043059286840304717 -0.020365368810649227 0 -0.042715567704939165 -0.01888819453068331 0 -0.044543411935750114 -0.019961835505272911 0 -0.043059286840304717 -0.020365368810649227 0 -0.042715567704939165 -0.01888819453068331 0 -0.041654221174354265 -0.019922461931684107 0 -0.042715567704939165 -0.01888819453068331 0 -0.042911459448284929 -0.017583613186310194 0 -0.043954912996393251 -0.018111321221452915 0 -0.042715567704939165 -0.01888819453068331 0 -0.042911459448284929 -0.017583613186310194 0 -0.042089283535965027 -0.017627300269041905 0 -0.042911459448284929 -0.017583613186310194 0 -0.042313074014895063 -0.016949966457382473 0 -0.04289220957833343 -0.016732198299506444 0 -0.042911459448284929 -0.017583613186310194 0 -0.042089283535965027 -0.017627300269041905 0 -0.042313074014895063 -0.016949966457382473 0 -0.042911459448284929 -0.017583613186310194 0 -0.043954912996393251 -0.018111321221452915 0 -0.043427797460519599 -0.016824804056445913 0 -0.043954912996393251 -0.018111321221452915 0 -0.043427797460519599 -0.016824804056445913 0 -0.044625502414330456 -0.016985530401172868 0 -0.042715567704939165 -0.01888819453068331 0 -0.043954912996393251 -0.018111321221452915 0 -0.044543411935750114 -0.019961835505272911 0 -0.025672657163530174 -0.017112246672477502 0 -0.025781466075957153 -0.017274869268787928 0 -0.025377416383101526 -0.017662729434431129 0 -0.043954912996393251 -0.018111321221452915 0 -0.045495708023726343 -0.018273255203479871 0 -0.044543411935750114 -0.019961835505272911 0 -0.029894637868293973 -0.015908084262197683 0 -0.032424312989602216 -0.017874416162067166 0 -0.029894637868293973 -0.015908084262197683 0 -0.034313094885982089 -0.015411011287430445 0 -0.043954912996393251 -0.018111321221452915 0 -0.045495708023726343 -0.018273255203479871 0 -0.044625502414330456 -0.016985530401172868 0 -0.029376401899669877 -0.012770179424445419 0 -0.029666452483641751 -0.013174885906721803 0 -0.029344236319493362 -0.01327550280860465 0 -0.029894637868293973 -0.015908084262197683 0 -0.023786388516384139 -0.015134446646308437 0 -0.025654025410013555 -0.017096365659066894 0 -0.026018593698035899 -0.017138357477452106 0 -0.025957812159538914 -0.016536162633324834 0 -0.029376401899669877 -0.012770179424445419 0 -0.029344236319493362 -0.01327550280860465 0 -0.029079578095570588 -0.013266561337256722 0 -0.025654025410013555 -0.017096365659066894 0 -0.025781466075957153 -0.017274869268787928 0 -0.026018593698035899 -0.017138357477452106 0 -0.029894637868293973 -0.015908084262197683 0 -0.029751839963483635 -0.015869267708775094 0 -0.025781466075957153 -0.017274869268787928 0 -0.025755100953077571 -0.01768527551728603 0 -0.026056668588899313 -0.017701832853952697 0 -0.025781466075957153 -0.017274869268787928 0 -0.025755100953077571 -0.01768527551728603 0 -0.025377416383101526 -0.017662729434431129 0 -0.025806554732087254 -0.018095547397842988 0 -0.025538535969612509 -0.018283251733046582 0 -0.025377416383101526 -0.017662729434431129 0 -0.025538535969612509 -0.018283251733046582 0 -0.025093048755106984 -0.018198873221144465 0 -0.025377416383101526 -0.017662729434431129 0 -0.025806554732087254 -0.018095547397842988 0 -0.025755100953077571 -0.01768527551728603 0 -0.025377416383101526 -0.017662729434431129 0 -0.025806554732087254 -0.018095547397842988 0 -0.025755100953077571 -0.01768527551728603 0 -0.026056668588899313 -0.017701832853952697 0 -0.017828641311554705 -0.017910054673598592 0 -0.01885087580236262 -0.015684267601254909 0 -0.026096071300863315 -0.018240814113427178 0 -0.025806554732087254 -0.018095547397842988 0 -0.026056668588899313 -0.017701832853952697 0 -0.0082882100607498607 -0.012150340817288973 0 -0.0082309246623168113 -0.01221815124585298 0 -0.0082819711088542407 -0.012286380247639941 0 -0.0082309246623168113 -0.01221815124585298 0 -0.0082074778549158182 -0.012265048435101613 0 -0.0082819711088542407 -0.012286380247639941 0 -0.017828641311554705 -0.017910054673598592 0 -0.013905883178752181 -0.017038225909461486 0 -0.0082882100607498607 -0.012150340817288973 0 -0.0082309246623168113 -0.01221815124585298 0 -0.0081399884429208345 -0.012258718375825969 0 -0.015495189955836515 -0.017820924811018414 0 -0.015135390518485154 -0.018005725054926518 0 -0.015665718449022054 -0.017406345603181855 0 -0.0060214769669842448 -0.014314440336106592 0 -0.0062223686561164041 -0.014204494455101635 0 -0.0061408592939559518 -0.013891040677834652 0 -0.014737255345497906 -0.017702311075837265 0 -0.013905883178752181 -0.017038225909461486 0 -0.0062223686561164041 -0.014204494455101635 0 -0.0061408592939559518 -0.013891040677834652 0 -0.0063174708893024723 -0.014040533786879604 0 -0.0082309246623168113 -0.01221815124585298 0 -0.0081892571572322308 -0.012256246445689851 0 -0.0082074778549158182 -0.012265048435101613 0 -0.0082309246623168113 -0.01221815124585298 0 -0.0081399884429208345 -0.012258718375825969 0 -0.0081892571572322308 -0.012256246445689851 0 -0.0081892571572322308 -0.012256246445689851 0 -0.0082074778549158182 -0.012265048435101613 0 -0.0081739042427095288 -0.012281293616879059 0 -0.0081399884429208345 -0.012258718375825969 0 -0.0081892571572322308 -0.012256246445689851 0 -0.0081739042427095288 -0.012281293616879059 0 -0.0081739042427095288 -0.012281293616879059 0 -0.0081970346988638927 -0.012303287703628209 0 -0.008129582680337432 -0.012334008548621468 0 -0.0082074778549158182 -0.012265048435101613 0 -0.0081739042427095288 -0.012281293616879059 0 -0.0081970346988638927 -0.012303287703628209 0 -0.0081399884429208345 -0.012258718375825969 0 -0.0081739042427095288 -0.012281293616879059 0 -0.008129582680337432 -0.012334008548621468 0 -0.0081970346988638927 -0.012303287703628209 0 -0.008129582680337432 -0.012334008548621468 0 -0.0081918704941896462 -0.012375143554549547 0 -0.0081970346988638927 -0.012303287703628209 0 -0.0082819711088542407 -0.012286380247639941 0 -0.0081918704941896462 -0.012375143554549547 0 -0.0082819711088542407 -0.012286380247639941 0 -0.0082857534184001009 -0.012443110642202016 0 -0.0081918704941896462 -0.012375143554549547 0 -0.01885087580236262 -0.015684267601254909 0 -0.020626643430364511 -0.014981841781872668 0 -0.0082074778549158182 -0.012265048435101613 0 -0.0081970346988638927 -0.012303287703628209 0 -0.0082819711088542407 -0.012286380247639941 0 -0.025781466075957153 -0.017274869268787928 0 -0.026056668588899313 -0.017701832853952697 0 -0.026018593698035899 -0.017138357477452106 0 -0.0082857534184001009 -0.012443110642202016 0 -0.0081684631793537618 -0.012499015666661608 0 -0.0081918704941896462 -0.012375143554549547 0 -0.020626643430364511 -0.014981841781872668 0 -0.023786388516384139 -0.015134446646308437 0 -0.0082857534184001009 -0.012443110642202016 0 -0.0081684631793537618 -0.012499015666661608 0 -0.0082876337717707714 -0.012595681709857792 0 -0.0081684631793537618 -0.012499015666661608 0 -0.008099893783810869 -0.012428340842454779 0 -0.0080269455880902108 -0.012559572624603272 0 -0.0081684631793537618 -0.012499015666661608 0 -0.0080269455880902108 -0.012559572624603272 0 -0.0081685138479768663 -0.012599251237769988 0 -0.0081684631793537618 -0.012499015666661608 0 -0.008099893783810869 -0.012428340842454779 0 -0.0081918704941896462 -0.012375143554549547 0 -0.008129582680337432 -0.012334008548621468 0 -0.008099893783810869 -0.012428340842454779 0 -0.0081918704941896462 -0.012375143554549547 0 -0.008099893783810869 -0.012428340842454779 0 -0.0079703045853309357 -0.012383752286045749 0 -0.0080269455880902108 -0.012559572624603272 0 -0.008129582680337432 -0.012334008548621468 0 -0.008099893783810869 -0.012428340842454779 0 -0.0079703045853309357 -0.012383752286045749 0 -0.011055006389142157 -0.01554997687613644 0 -0.010327035809538402 -0.015021909741353956 0 -0.0079703045853309357 -0.012383752286045749 0 -0.0080269455880902108 -0.012559572624603272 0 -0.0077482509061456576 -0.012602506768808518 0 -0.006836406230314401 -0.013116227820740241 0 -0.0077663911876073681 -0.013010934509086535 0 -0.0077482509061456576 -0.012602506768808518 0 -0.006836406230314401 -0.013116227820740241 0 -0.0073339596887514492 -0.013605604537655519 0 -0.0077663911876073681 -0.013010934509086535 0 -0.006836406230314401 -0.013116227820740241 0 -0.0073339596887514492 -0.013605604537655519 0 -0.0068689151986984012 -0.013751066347627983 0 -0.0081399884429208345 -0.012258718375825969 0 -0.008129582680337432 -0.012334008548621468 0 -0.0079703045853309357 -0.012383752286045749 0 -0.013905883178752181 -0.017038225909461486 0 -0.011055006389142157 -0.01554997687613644 0 -0.006836406230314401 -0.013116227820740241 0 -0.0068689151986984012 -0.013751066347627983 0 -0.00651452448281295 -0.013917420518788071 0 -0.0061408592939559518 -0.013891040677834652 0 -0.006836406230314401 -0.013116227820740241 0 -0.00651452448281295 -0.013917420518788071 0 -0.0068689151986984012 -0.013751066347627983 0 -0.00651452448281295 -0.013917420518788071 0 -0.0066621984909902166 -0.013980945053638411 0 -0.0066621984909902166 -0.013980945053638411 0 -0.0064637475292501313 -0.014057028491423243 0 -0.0065599298555089978 -0.014112078386440522 0 -0.00651452448281295 -0.013917420518788071 0 -0.0066621984909902166 -0.013980945053638411 0 -0.0064637475292501313 -0.014057028491423243 0 -0.0066621984909902166 -0.013980945053638411 0 -0.0065599298555089978 -0.014112078386440522 0 -0.0067047608359830022 -0.014123718936933136 0 -0.0061408592939559518 -0.013891040677834652 0 -0.00651452448281295 -0.013917420518788071 0 -0.0063174708893024723 -0.014040533786879604 0 -0.00651452448281295 -0.013917420518788071 0 -0.0064637475292501313 -0.014057028491423243 0 -0.0063174708893024723 -0.014040533786879604 0 -0.0062223686561164041 -0.014204494455101635 0 -0.0063174708893024723 -0.014040533786879604 0 -0.0064183002406265604 -0.014271615097211384 0 -0.0064637475292501313 -0.014057028491423243 0 -0.0063174708893024723 -0.014040533786879604 0 -0.0064183002406265604 -0.014271615097211384 0 -0.0064637475292501313 -0.014057028491423243 0 -0.0064183002406265604 -0.014271615097211384 0 -0.0065599298555089978 -0.014112078386440522 0 -0.0064183002406265604 -0.014271615097211384 0 -0.0065599298555089978 -0.014112078386440522 0 -0.0067047608359830022 -0.014123718936933136 0 -0.0068597031560287203 -0.014695802648149753 0 -0.0066509077029211763 -0.01442951004586231 0 -0.0071054143634231813 -0.014264376721408342 0 -0.0073339596887514492 -0.013605604537655519 0 -0.0068689151986984012 -0.013751066347627983 0 -0.0071054143634231813 -0.014264376721408342 0 -0.0066509077029211763 -0.01442951004586231 0 -0.0067047608359830022 -0.014123718936933136 0 -0.0071054143634231813 -0.014264376721408342 0 -0.0068689151986984012 -0.013751066347627983 0 -0.0066621984909902166 -0.013980945053638411 0 -0.0067047608359830022 -0.014123718936933136 0 -0.0068689151986984012 -0.013751066347627983 0 -0.0067047608359830022 -0.014123718936933136 0 -0.0071054143634231813 -0.014264376721408342 0 -0.037167204959646143 -0.023414239444141061 0 -0.037827879968313764 -0.023117022944564539 0 -0.037958332969775292 -0.024165408991001069 0 -0.037167204959646143 -0.023414239444141061 0 -0.037827879968313764 -0.023117022944564539 0 -0.036653424826159783 -0.022522882733700473 0 -0.037331287307377274 -0.023127930947738105 0 -0.038011310543455148 -0.02395978938207656 0 -0.037827879968313764 -0.023117022944564539 0 -0.037958332969775292 -0.024165408991001069 0 -0.038943166360994333 -0.023610816103501481 0 -0.037720075379459622 -0.022207165060455801 0 -0.037823100386637415 -0.021724140373940645 0 -0.038603985893120314 -0.021674508826938957 0 -0.037720075379459622 -0.022207165060455801 0 -0.037823100386637415 -0.021724140373940645 0 -0.037401285477321349 -0.021517062804495026 0 -0.037823100386637415 -0.021724140373940645 0 -0.037401285477321349 -0.021517062804495026 0 -0.037807760445133433 -0.020999983659824667 0 -0.037331287307377274 -0.023127930947738105 0 -0.03623952341427767 -0.022394802938457966 0 -0.037720075379459622 -0.022207165060455801 0 -0.037401285477321349 -0.021517062804495026 0 -0.036449473494436592 -0.021901984931091117 0 -0.036653424826159783 -0.022522882733700473 0 -0.035827531420326013 -0.022931576895138122 0 -0.03651250196953737 -0.023035876851922949 0 -0.03623952341427767 -0.022394802938457966 0 -0.035001296599965752 -0.021724879219180274 0 -0.035827531420326013 -0.022931576895138122 0 -0.034999980396872056 -0.023371440249105219 0 -0.03500002916440717 -0.021724112844077225 0 -0.036653424826159783 -0.022522882733700473 0 -0.035827531420326013 -0.022931576895138122 0 -0.03500002916440717 -0.021724112844077225 0 -0.035827531420326013 -0.022931576895138122 0 -0.03591431007725554 -0.024032769537858531 0 -0.034999980396872056 -0.023371440249105219 0 -0.037167204959646143 -0.023414239444141061 0 -0.03651250196953737 -0.023035876851922949 0 -0.036840758056323954 -0.024114400682348873 0 -0.03591431007725554 -0.024032769537858531 0 -0.03651250196953737 -0.023035876851922949 0 -0.03696551642465893 -0.024624544912521109 0 -0.035827531420326013 -0.022931576895138122 0 -0.03591431007725554 -0.024032769537858531 0 -0.03651250196953737 -0.023035876851922949 0 -0.037167204959646143 -0.023414239444141061 0 -0.036653424826159783 -0.022522882733700473 0 -0.03651250196953737 -0.023035876851922949 0 -0.036445584841172246 -0.024372717352598508 0 -0.036541441507769119 -0.024982468436026795 0 -0.03591431007725554 -0.024032769537858531 0 -0.03696551642465893 -0.024624544912521109 0 -0.036023683218234903 -0.025184711642381629 0 -0.03591431007725554 -0.024032769537858531 0 -0.034999985020517738 -0.02501888149008729 0 -0.036023683218234903 -0.025184711642381629 0 -0.03591431007725554 -0.024032769537858531 0 -0.034999980396872056 -0.023371440249105219 0 -0.034999985020517738 -0.02501888149008729 0 -0.035000003317286608 -0.026666260465041794 0 -0.034999985020517738 -0.02501888149008729 0 -0.035710220951641745 -0.026067142574286082 0 -0.034999985020517738 -0.02501888149008729 0 -0.036023683218234903 -0.025184711642381629 0 -0.035710220951641745 -0.026067142574286082 0 -0.03696551642465893 -0.024624544912521109 0 -0.036023683218234903 -0.025184711642381629 0 -0.036566496468833462 -0.026185708544309155 0 -0.03696551642465893 -0.024624544912521109 0 -0.036566496468833462 -0.026185708544309155 0 -0.037388428425359957 -0.026197822664329903 0 -0.036023683218234903 -0.025184711642381629 0 -0.035710220951641745 -0.026067142574286082 0 -0.036566496468833462 -0.026185708544309155 0 -0.036703571059750237 -0.026364880762215617 0 -0.03668274251820778 -0.026371449217021913 0 -0.036840758056323954 -0.024114400682348873 0 -0.037131456376105106 -0.025155491106846475 0 -0.037958332969775292 -0.024165408991001069 0 -0.036541441507769119 -0.024982468436026795 0 -0.03668274251820778 -0.026371449217021913 0 -0.037167204959646143 -0.023414239444141061 0 -0.036840758056323954 -0.024114400682348873 0 -0.037958332969775292 -0.024165408991001069 0 -0.037131456376105106 -0.025155491106846475 0 -0.037958332969775292 -0.024165408991001069 0 -0.038525728605293311 -0.025164839100497646 0 -0.03668274251820778 -0.026371449217021913 0 -0.037591349182543816 -0.026183332195963485 0 -0.037958332969775292 -0.024165408991001069 0 -0.038525728605293311 -0.025164839100497646 0 -0.039223436653958742 -0.024522428646593691 0 -0.039896865241106909 -0.025179513532999104 0 -0.038525728605293311 -0.025164839100497646 0 -0.039223436653958742 -0.024522428646593691 0 -0.039896865241106909 -0.025179513532999104 0 -0.039223436653958742 -0.024522428646593691 0 -0.040054987682015986 -0.024084897664067708 0 -0.037552861250483821 -0.026047088650339546 0 -0.037591349182543816 -0.026183332195963485 0 -0.039223436653958742 -0.024522428646593691 0 -0.040054987682015986 -0.024084897664067708 0 -0.038943166360994333 -0.023610816103501481 0 -0.04005284697077012 -0.022910685083895436 0 -0.040032471696662117 -0.023050140743351759 0 -0.038880785644060632 -0.022619851726812391 0 -0.037558286726014994 -0.024831724770901911 0 -0.038011310543455148 -0.02395978938207656 0 -0.037958332969775292 -0.024165408991001069 0 -0.039223436653958742 -0.024522428646593691 0 -0.038943166360994333 -0.023610816103501481 0 -0.036878166681865734 -0.025173094685641117 0 -0.036941115509090898 -0.025059220600473203 0 -0.036760808209937365 -0.024983033662028895 0 -0.034971354409702796 -0.026062476506063321 0 -0.033245630300262889 -0.026038255973042729 0 -0.034150623043647195 -0.027498919906496121 0 -0.035992778779321666 -0.025981649848403555 0 -0.034910124973886444 -0.024536517950981666 0 -0.036733504197001207 -0.025171997013696577 0 -0.036878166681865734 -0.025173094685641117 0 -0.036760808209937365 -0.024983033662028895 0 -0.037552861250483821 -0.026047088650339546 0 -0.037558286726014994 -0.024831724770901911 0 -0.040031426183762812 -0.023043044523715233 0 -0.040771541519152459 -0.022819914681095982 0 -0.040394704024322832 -0.022676109846984292 0 -0.04005284697077012 -0.022910685083895436 0 -0.040031426183762812 -0.023043044523715233 0 -0.040394704024322832 -0.022676109846984292 0 -0.037567060616334295 -0.024810265501777416 0 -0.037558286726014994 -0.024831724770901911 0 -0.04163489541279973 -0.022491460449885387 0 -0.041083269920130491 -0.023470759140513345 0 -0.040771541519152459 -0.022819914681095982 0 -0.034910124973886444 -0.024536517950981666 0 -0.037558286726014994 -0.024831724770901911 0 -0.041083269920130491 -0.023470759140513345 0 -0.040031426183762812 -0.023043044523715233 0 -0.040771541519152459 -0.022819914681095982 0 -0.04163489541279973 -0.022491460449885387 0 -0.04125675606216421 -0.021980889160144103 0 -0.040771541519152459 -0.022819914681095982 0 -0.04125675606216421 -0.021980889160144103 0 -0.040771541519152459 -0.022819914681095982 0 -0.040631673624143334 -0.022039604013266836 0 -0.040771541519152459 -0.022819914681095982 0 -0.040631673624143334 -0.022039604013266836 0 -0.040394704024322832 -0.022676109846984292 0 -0.04005284697077012 -0.022910685083895436 0 -0.040174462435491859 -0.022300484445386085 0 -0.039579879819014063 -0.02206304877919538 0 -0.040631673624143334 -0.022039604013266836 0 -0.040394704024322832 -0.022676109846984292 0 -0.040174462435491859 -0.022300484445386085 0 -0.040631673624143334 -0.022039604013266836 0 -0.040174462435491859 -0.022300484445386085 0 -0.040159367092400762 -0.021776603145474471 0 -0.04005284697077012 -0.022910685083895436 0 -0.040394704024322832 -0.022676109846984292 0 -0.040174462435491859 -0.022300484445386085 0 -0.040174462435491859 -0.022300484445386085 0 -0.040159367092400762 -0.021776603145474471 0 -0.039579879819014063 -0.02206304877919538 0 -0.040631673624143334 -0.022039604013266836 0 -0.040159367092400762 -0.021776603145474471 0 -0.040341296946834915 -0.021140427155391227 0 -0.040159367092400762 -0.021776603145474471 0 -0.039414945453095644 -0.020878575786520321 0 -0.040341296946834915 -0.021140427155391227 0 -0.041257349112564852 -0.021341900716776822 0 -0.040631673624143334 -0.022039604013266836 0 -0.040341296946834915 -0.021140427155391227 0 -0.041257349112564852 -0.021341900716776822 0 -0.04125675606216421 -0.021980889160144103 0 -0.040631673624143334 -0.022039604013266836 0 -0.038880785644060632 -0.022619851726812391 0 -0.039579879819014063 -0.02206304877919538 0 -0.038603985893120314 -0.021674508826938957 0 -0.037720075379459622 -0.022207165060455801 0 -0.038880785644060632 -0.022619851726812391 0 -0.038603985893120314 -0.021674508826938957 0 -0.04005284697077012 -0.022910685083895436 0 -0.038880785644060632 -0.022619851726812391 0 -0.039579879819014063 -0.02206304877919538 0 -0.039579879819014063 -0.02206304877919538 0 -0.038603985893120314 -0.021674508826938957 0 -0.039414945453095644 -0.020878575786520321 0 -0.040159367092400762 -0.021776603145474471 0 -0.039579879819014063 -0.02206304877919538 0 -0.039414945453095644 -0.020878575786520321 0 -0.038603985893120314 -0.021674508826938957 0 -0.039414945453095644 -0.020878575786520321 0 -0.038189677697891319 -0.020281307593674844 0 -0.039414945453095644 -0.020878575786520321 0 -0.039538551785961551 -0.019613056494695833 0 -0.04042479076359802 -0.020138374325681 0 -0.039414945453095644 -0.020878575786520321 0 -0.039538551785961551 -0.019613056494695833 0 -0.038189677697891319 -0.020281307593674844 0 -0.039538551785961551 -0.019613056494695833 0 -0.038189677697891319 -0.020281307593674844 0 -0.038779624742577561 -0.018579810617059354 0 -0.038477090662504612 -0.019956566506950112 0 -0.038924009056895761 -0.018856178400721013 0 -0.038622710227793018 -0.020326186190055148 0 -0.039236095659361946 -0.018600781939511396 0 -0.038057317215934701 -0.019209401130641388 0 -0.038394205221898889 -0.021017919134512619 0 -0.039582717888344901 -0.021156973180714203 0 -0.042185453145469856 -0.021378576921255575 0 -0.040799330941279258 -0.021121562443372044 0 -0.041654221174354265 -0.019922461931684107 0 -0.03964017245239717 -0.02114041977839393 0 -0.039582717888344901 -0.021156973180714203 0 -0.039414945453095644 -0.020878575786520321 0 -0.040799330941279258 -0.021121562443372044 0 -0.04042479076359802 -0.020138374325681 0 -0.040799330941279258 -0.021121562443372044 0 -0.04042479076359802 -0.020138374325681 0 -0.041654221174354265 -0.019922461931684107 0 -0.039538551785961551 -0.019613056494695833 0 -0.04042479076359802 -0.020138374325681 0 -0.040730808658729516 -0.019168661772401851 0 -0.04042479076359802 -0.020138374325681 0 -0.041654221174354265 -0.019922461931684107 0 -0.040730808658729516 -0.019168661772401851 0 -0.042715567704939165 -0.01888819453068331 0 -0.041654221174354265 -0.019922461931684107 0 -0.041596501420501315 -0.018385419277835702 0 -0.041654221174354265 -0.019922461931684107 0 -0.041596501420501315 -0.018385419277835702 0 -0.040730808658729516 -0.019168661772401851 0 -0.042715567704939165 -0.01888819453068331 0 -0.041596501420501315 -0.018385419277835702 0 -0.042089283535965027 -0.017627300269041905 0 -0.039538551785961551 -0.019613056494695833 0 -0.040730808658729516 -0.019168661772401851 0 -0.040300907822582326 -0.017973317146214286 0 -0.041596501420501315 -0.018385419277835702 0 -0.040730808658729516 -0.019168661772401851 0 -0.040300907822582326 -0.017973317146214286 0 -0.040300907822582326 -0.017973317146214286 0 -0.041426074330601137 -0.017103725987192842 0 -0.040466988993506092 -0.016650871818387886 0 -0.040300907822582326 -0.017973317146214286 0 -0.039565545674630644 -0.016874175482276613 0 -0.040466988993506092 -0.016650871818387886 0 -0.041596501420501315 -0.018385419277835702 0 -0.040300907822582326 -0.017973317146214286 0 -0.041426074330601137 -0.017103725987192842 0 -0.041596501420501315 -0.018385419277835702 0 -0.041426074330601137 -0.017103725987192842 0 -0.042089283535965027 -0.017627300269041905 0 -0.041426074330601137 -0.017103725987192842 0 -0.042089283535965027 -0.017627300269041905 0 -0.042313074014895063 -0.016949966457382473 0 -0.039538551785961551 -0.019613056494695833 0 -0.040300907822582326 -0.017973317146214286 0 -0.038779624742577561 -0.018579810617059354 0 -0.038924009056895761 -0.018856178400721013 0 -0.039189859420889039 -0.018197557011833398 0 -0.040300907822582326 -0.017973317146214286 0 -0.038779624742577561 -0.018579810617059354 0 -0.039565545674630644 -0.016874175482276613 0 -0.039236095659361946 -0.018600781939511396 0 -0.038077497340597968 -0.017698759104491823 0 -0.039565545674630644 -0.016874175482276613 0 -0.038077497340597968 -0.017698759104491823 0 -0.036943931542448766 -0.019117712972962102 0 -0.036611416727420958 -0.017666214755226825 0 -0.038077497340597968 -0.017698759104491823 0 -0.036943931542448766 -0.019117712972962102 0 -0.038057317215934701 -0.019209401130641388 0 -0.039236095659361946 -0.018600781939511396 0 -0.038077497340597968 -0.017698759104491823 0 -0.038057317215934701 -0.019209401130641388 0 -0.038622710227793018 -0.020326186190055148 0 -0.038057317215934701 -0.019209401130641388 0 -0.037172554384371746 -0.020624807112626996 0 -0.036943931542448766 -0.019117712972962102 0 -0.038057317215934701 -0.019209401130641388 0 -0.037172554384371746 -0.020624807112626996 0 -0.037401285477321349 -0.021517062804495026 0 -0.037172554384371746 -0.020624807112626996 0 -0.037807760445133433 -0.020999983659824667 0 -0.037401285477321349 -0.021517062804495026 0 -0.036449473494436592 -0.021901984931091117 0 -0.037172554384371746 -0.020624807112626996 0 -0.038224695529201956 -0.020563355369342291 0 -0.038477090662504612 -0.019956566506950112 0 -0.037823100386637415 -0.021724140373940645 0 -0.038603985893120314 -0.021674508826938957 0 -0.038189677697891319 -0.020281307593674844 0 -0.037823100386637415 -0.021724140373940645 0 -0.038622710227793018 -0.020326186190055148 0 -0.037807760445133433 -0.020999983659824667 0 -0.038622710227793018 -0.020326186190055148 0 -0.037172554384371746 -0.020624807112626996 0 -0.037807760445133433 -0.020999983659824667 0 -0.036449473494436592 -0.021901984931091117 0 -0.03499998266735433 -0.02172304570591272 0 -0.036075528574750514 -0.020431524982639001 0 -0.036449473494436592 -0.021901984931091117 0 -0.037172554384371746 -0.020624807112626996 0 -0.036075528574750514 -0.020431524982639001 0 -0.036943931542448766 -0.019117712972962102 0 -0.037172554384371746 -0.020624807112626996 0 -0.036075528574750514 -0.020431524982639001 0 -0.036075528574750514 -0.020431524982639001 0 -0.034999837061332383 -0.019773759181433117 0 -0.035912969525432062 -0.018840558761101526 0 -0.03499998266735433 -0.02172304570591272 0 -0.036075528574750514 -0.020431524982639001 0 -0.034999837061332383 -0.019773759181433117 0 -0.034999837061332383 -0.019773759181433117 0 -0.035912969525432062 -0.018840558761101526 0 -0.034999879066181315 -0.017823337647996491 0 -0.036943931542448766 -0.019117712972962102 0 -0.036075528574750514 -0.020431524982639001 0 -0.035912969525432062 -0.018840558761101526 0 -0.036943931542448766 -0.019117712972962102 0 -0.035912969525432062 -0.018840558761101526 0 -0.036611416727420958 -0.017666214755226825 0 -0.035912969525432062 -0.018840558761101526 0 -0.036611416727420958 -0.017666214755226825 0 -0.034999879066181315 -0.017823337647996491 0 -0.034999879066181315 -0.017823337647996491 0 -0.036245484569967318 -0.016172649513979093 0 -0.03499989057560985 -0.015873253376796917 0 -0.036611416727420958 -0.017666214755226825 0 -0.034999879066181315 -0.017823337647996491 0 -0.036245484569967318 -0.016172649513979093 0 -0.036611416727420958 -0.017666214755226825 0 -0.036245484569967318 -0.016172649513979093 0 -0.037382977427776347 -0.016350490060446872 0 -0.036245484569967318 -0.016172649513979093 0 -0.037382977427776347 -0.016350490060446872 0 -0.036590991114539832 -0.014628089848088176 0 -0.036245484569967318 -0.016172649513979093 0 -0.03499989057560985 -0.015873253376796917 0 -0.036590991114539832 -0.014628089848088176 0 -0.038077497340597968 -0.017698759104491823 0 -0.037382977427776347 -0.016350490060446872 0 -0.038670402414770821 -0.016029246574797301 0 -0.038077497340597968 -0.017698759104491823 0 -0.036611416727420958 -0.017666214755226825 0 -0.037382977427776347 -0.016350490060446872 0 -0.037382977427776347 -0.016350490060446872 0 -0.037977687922087791 -0.015154291872408078 0 -0.036590991114539832 -0.014628089848088176 0 -0.037382977427776347 -0.016350490060446872 0 -0.037977687922087791 -0.015154291872408078 0 -0.038670402414770821 -0.016029246574797301 0 -0.037977687922087791 -0.015154291872408078 0 -0.03810748381811465 -0.01387823166305148 0 -0.039108786889363673 -0.014815707641633554 0 -0.037977687922087791 -0.015154291872408078 0 -0.03810748381811465 -0.01387823166305148 0 -0.036590991114539832 -0.014628089848088176 0 -0.03810748381811465 -0.01387823166305148 0 -0.036590991114539832 -0.014628089848088176 0 -0.036900576979727109 -0.01277605077300706 0 -0.03499989057560985 -0.015873253376796917 0 -0.036590991114539832 -0.014628089848088176 0 -0.034999908538844576 -0.01392306213371497 0 -0.036590991114539832 -0.014628089848088176 0 -0.035847634701689723 -0.01284029263952279 0 -0.036900576979727109 -0.01277605077300706 0 -0.036590991114539832 -0.014628089848088176 0 -0.034999908538844576 -0.01392306213371497 0 -0.035847634701689723 -0.01284029263952279 0 -0.034999908538844576 -0.01392306213371497 0 -0.035847634701689723 -0.01284029263952279 0 -0.034999911251837219 -0.01197314088491919 0 -0.035847634701689723 -0.01284029263952279 0 -0.034999911251837219 -0.01197314088491919 0 -0.03556046777533365 -0.01164201787279179 0 -0.035000151617650771 -0.011969799841578728 0 -0.03528873378535622 -0.011261006890761644 0 -0.034999999047645419 -0.011972725199286769 0 -0.035614010548244625 -0.011546258892196492 0 -0.034999999491231615 -0.011133607308466652 0 -0.03560073290496827 -0.011527951570667206 0 -0.034999963213522153 -0.011133503172398952 0 -0.035640762027828711 -0.010809255163573037 0 -0.03528873378535622 -0.011261006890761644 0 -0.03500093963841374 -0.011133864887952146 0 -0.032430008342546307 -0.0096285101170197913 0 -0.033952658472189555 -0.0096538749904827789 0 -0.034117714058393825 -0.010780146515995112 0 -0.032430008342546307 -0.0096285101170197913 0 -0.033952658472189555 -0.0096538749904827789 0 -0.034017857029653951 -0.0085269718682482645 0 -0.03560073290496827 -0.011527951570667206 0 -0.035640762027828711 -0.010809255163573037 0 -0.037000500178325062 -0.010531238876780218 0 -0.03528873378535622 -0.011261006890761644 0 -0.036033502570689234 -0.0099968685977130257 0 -0.03528873378535622 -0.011261006890761644 0 -0.035809485551735784 -0.011860961271493097 0 -0.035847634701689723 -0.01284029263952279 0 -0.03556046777533365 -0.01164201787279179 0 -0.036900576979727109 -0.01277605077300706 0 -0.036972740860329624 -0.012838179766693455 0 -0.035809485551735784 -0.011860961271493097 0 -0.035748076936896966 -0.011976797731233562 0 -0.034117714058393825 -0.010780146515995112 0 -0.035249575338924137 -0.0096814922005181107 0 -0.035748076936896966 -0.011976797731233562 0 -0.035249575338924137 -0.0096814922005181107 0 -0.036809500070174604 -0.010429197598163254 0 -0.035249575338924137 -0.0096814922005181107 0 -0.036768891726129904 -0.0090236874724392742 0 -0.036809500070174604 -0.010429197598163254 0 -0.033952658472189555 -0.0096538749904827789 0 -0.035249575338924137 -0.0096814922005181107 0 -0.034017857029653951 -0.0085269718682482645 0 -0.033952658472189555 -0.0096538749904827789 0 -0.034117714058393825 -0.010780146515995112 0 -0.035249575338924137 -0.0096814922005181107 0 -0.037172798139315046 -0.0087593202077722015 0 -0.036033502570689234 -0.0099968685977130257 0 -0.03838515937230795 -0.0095376018587871626 0 -0.036934429026373339 -0.009392901246760359 0 -0.037000500178325062 -0.010531238876780218 0 -0.035249575338924137 -0.0096814922005181107 0 -0.035664659977375647 -0.0074290122414737182 0 -0.034017857029653951 -0.0085269718682482645 0 -0.035664659977375647 -0.0074290122414737182 0 -0.03707273504146183 -0.0075616681937817612 0 -0.036768891726129904 -0.0090236874724392742 0 -0.035249575338924137 -0.0096814922005181107 0 -0.035664659977375647 -0.0074290122414737182 0 -0.036768891726129904 -0.0090236874724392742 0 -0.035664659977375647 -0.0074290122414737182 0 -0.03707273504146183 -0.0075616681937817612 0 -0.03730582110138863 -0.0064526299181517565 0 -0.037172798139315046 -0.0087593202077722015 0 -0.038384771480753782 -0.0076045973807919685 0 -0.03838515937230795 -0.0095376018587871626 0 -0.036934429026373339 -0.009392901246760359 0 -0.03765430479786714 -0.0084209454708722709 0 -0.036934429026373339 -0.009392901246760359 0 -0.035865296598919703 -0.0087981423723752002 0 -0.035743354448263764 -0.010089872909494152 0 -0.036934429026373339 -0.009392901246760359 0 -0.035865296598919703 -0.0087981423723752002 0 -0.03765430479786714 -0.0084209454708722709 0 -0.034999999472479414 -0.0090677868398826508 0 -0.035865296598919703 -0.0087981423723752002 0 -0.035743354448263764 -0.010089872909494152 0 -0.034999963213522153 -0.011133503172398952 0 -0.034999999472479414 -0.0090677868398826508 0 -0.035743354448263764 -0.010089872909494152 0 -0.034999963213522153 -0.011133503172398952 0 -0.035743354448263764 -0.010089872909494152 0 -0.035640762027828711 -0.010809255163573037 0 -0.035743354448263764 -0.010089872909494152 0 -0.035640762027828711 -0.010809255163573037 0 -0.037000500178325062 -0.010531238876780218 0 -0.036934429026373339 -0.009392901246760359 0 -0.035743354448263764 -0.010089872909494152 0 -0.037000500178325062 -0.010531238876780218 0 -0.039123205385489593 -0.0085973425085170193 0 -0.040207099512615266 -0.008356444120496017 0 -0.039525484335561412 -0.0076667940522017874 0 -0.040207099512615266 -0.008356444120496017 0 -0.040240985387879263 -0.0074899758921789595 0 -0.039525484335561412 -0.0076667940522017874 0 -0.039123205385489593 -0.0085973425085170193 0 -0.039525484335561412 -0.0076667940522017874 0 -0.038720930067295781 -0.0076766464716221889 0 -0.040207099512615266 -0.008356444120496017 0 -0.040240985387879263 -0.0074899758921789595 0 -0.041072168966362538 -0.0076248790900423349 0 -0.040207099512615266 -0.008356444120496017 0 -0.040984958285292236 -0.0087590773758178045 0 -0.041072168966362538 -0.0076248790900423349 0 -0.040240985387879263 -0.0074899758921789595 0 -0.040568006565803061 -0.0068977373226138368 0 -0.041072168966362538 -0.0076248790900423349 0 -0.040240985387879263 -0.0074899758921789595 0 -0.040568006565803061 -0.0068977373226138368 0 -0.039719817918070666 -0.0068995150222970819 0 -0.040240985387879263 -0.0074899758921789595 0 -0.039719817918070666 -0.0068995150222970819 0 -0.039525484335561412 -0.0076667940522017874 0 -0.039525484335561412 -0.0076667940522017874 0 -0.039140358673714015 -0.0070129761944212332 0 -0.038720930067295781 -0.0076766464716221889 0 -0.039719817918070666 -0.0068995150222970819 0 -0.039525484335561412 -0.0076667940522017874 0 -0.039140358673714015 -0.0070129761944212332 0 -0.039719817918070666 -0.0068995150222970819 0 -0.039140358673714015 -0.0070129761944212332 0 -0.039171282876284491 -0.0065303981821876111 0 -0.039140358673714015 -0.0070129761944212332 0 -0.038462032688465583 -0.0069924961839742325 0 -0.038763462278999718 -0.0065442379848176975 0 -0.038462032688465583 -0.0069924961839742325 0 -0.0382235614334221 -0.0065526364210061125 0 -0.038763462278999718 -0.0065442379848176975 0 -0.038462032688465583 -0.0069924961839742325 0 -0.038002120443887781 -0.0074948831863853116 0 -0.037859040893915043 -0.0069336495944448242 0 -0.038462032688465583 -0.0069924961839742325 0 -0.037859040893915043 -0.0069336495944448242 0 -0.0382235614334221 -0.0065526364210061125 0 -0.038462032688465583 -0.0069924961839742325 0 -0.038002120443887781 -0.0074948831863853116 0 -0.038720930067295781 -0.0076766464716221889 0 -0.039140358673714015 -0.0070129761944212332 0 -0.038462032688465583 -0.0069924961839742325 0 -0.038720930067295781 -0.0076766464716221889 0 -0.037859040893915043 -0.0069336495944448242 0 -0.03707273504146183 -0.0075616681937817612 0 -0.03730582110138863 -0.0064526299181517565 0 -0.038002120443887781 -0.0074948831863853116 0 -0.037859040893915043 -0.0069336495944448242 0 -0.03707273504146183 -0.0075616681937817612 0 -0.03707273504146183 -0.0075616681937817612 0 -0.038016366377860961 -0.0083510436740328754 0 -0.036768891726129904 -0.0090236874724392742 0 -0.038002120443887781 -0.0074948831863853116 0 -0.03707273504146183 -0.0075616681937817612 0 -0.038016366377860961 -0.0083510436740328754 0 -0.039123205385489593 -0.0085973425085170193 0 -0.038720930067295781 -0.0076766464716221889 0 -0.038016366377860961 -0.0083510436740328754 0 -0.038002120443887781 -0.0074948831863853116 0 -0.038720930067295781 -0.0076766464716221889 0 -0.038016366377860961 -0.0083510436740328754 0 -0.039123205385489593 -0.0085973425085170193 0 -0.038016366377860961 -0.0083510436740328754 0 -0.038304227066965603 -0.0099171370818506507 0 -0.038016366377860961 -0.0083510436740328754 0 -0.038304227066965603 -0.0099171370818506507 0 -0.036768891726129904 -0.0090236874724392742 0 -0.038304227066965603 -0.0099171370818506507 0 -0.036768891726129904 -0.0090236874724392742 0 -0.036809500070174604 -0.010429197598163254 0 -0.035748076936896966 -0.011976797731233562 0 -0.036809500070174604 -0.010429197598163254 0 -0.037800847738544578 -0.011589115316417719 0 -0.038304227066965603 -0.0099171370818506507 0 -0.036809500070174604 -0.010429197598163254 0 -0.037800847738544578 -0.011589115316417719 0 -0.038304227066965603 -0.0099171370818506507 0 -0.039528479713818843 -0.011180198766464427 0 -0.037800847738544578 -0.011589115316417719 0 -0.039528479713818843 -0.011180198766464427 0 -0.04003316683604366 -0.0096489486035841385 0 -0.040460712405266615 -0.010817828848291904 0 -0.038304227066965603 -0.0099171370818506507 0 -0.039528479713818843 -0.011180198766464427 0 -0.04003316683604366 -0.0096489486035841385 0 -0.039528479713818843 -0.011180198766464427 0 -0.040460712405266615 -0.010817828848291904 0 -0.040473640053459117 -0.011938707174213397 0 -0.039123205385489593 -0.0085973425085170193 0 -0.038304227066965603 -0.0099171370818506507 0 -0.04003316683604366 -0.0096489486035841385 0 -0.039123205385489593 -0.0085973425085170193 0 -0.040207099512615266 -0.008356444120496017 0 -0.04003316683604366 -0.0096489486035841385 0 -0.040984958285292236 -0.0087590773758178045 0 -0.040957253193533411 -0.010168071481868419 0 -0.041543280594769513 -0.009035675093946512 0 -0.04003316683604366 -0.0096489486035841385 0 -0.040984958285292236 -0.0087590773758178045 0 -0.040957253193533411 -0.010168071481868419 0 -0.040207099512615266 -0.008356444120496017 0 -0.04003316683604366 -0.0096489486035841385 0 -0.040984958285292236 -0.0087590773758178045 0 -0.040957253193533411 -0.010168071481868419 0 -0.041543280594769513 -0.009035675093946512 0 -0.041723585323219126 -0.011096651063903321 0 -0.04003316683604366 -0.0096489486035841385 0 -0.040957253193533411 -0.010168071481868419 0 -0.040460712405266615 -0.010817828848291904 0 -0.040957253193533411 -0.010168071481868419 0 -0.040460712405266615 -0.010817828848291904 0 -0.041368676157289681 -0.011339029079209218 0 -0.040957253193533411 -0.010168071481868419 0 -0.041368676157289681 -0.011339029079209218 0 -0.041723585323219126 -0.011096651063903321 0 -0.039268685405632935 -0.013120328269266955 0 -0.039068693831475765 -0.013166943660249446 0 -0.041368676157289681 -0.011339029079209218 0 -0.041880873512753866 -0.012079186839144277 0 -0.041723585323219126 -0.011096651063903321 0 -0.041368676157289681 -0.011339029079209218 0 -0.041362264316938985 -0.012513251299065825 0 -0.042543920563266044 -0.012823294097617878 0 -0.041362264316938985 -0.012513251299065825 0 -0.041550460448608981 -0.013383547456060178 0 -0.042543920563266044 -0.012823294097617878 0 -0.041362264316938985 -0.012513251299065825 0 -0.040473640053459117 -0.011938707174213397 0 -0.040612067104656632 -0.013281368623127766 0 -0.041368676157289681 -0.011339029079209218 0 -0.041362264316938985 -0.012513251299065825 0 -0.040473640053459117 -0.011938707174213397 0 -0.040460712405266615 -0.010817828848291904 0 -0.041368676157289681 -0.011339029079209218 0 -0.040473640053459117 -0.011938707174213397 0 -0.039528479713818843 -0.011180198766464427 0 -0.040473640053459117 -0.011938707174213397 0 -0.039198324939250954 -0.01279029772863923 0 -0.040473640053459117 -0.011938707174213397 0 -0.040612067104656632 -0.013281368623127766 0 -0.039198324939250954 -0.01279029772863923 0 -0.040612067104656632 -0.013281368623127766 0 -0.041174304804616639 -0.014191071148139441 0 -0.039889528805839111 -0.015240176431144213 0 -0.040612067104656632 -0.013281368623127766 0 -0.039198324939250954 -0.01279029772863923 0 -0.039889528805839111 -0.015240176431144213 0 -0.041174304804616639 -0.014191071148139441 0 -0.041550460448608981 -0.013383547456060178 0 -0.042180853763909544 -0.014045633335252963 0 -0.041174304804616639 -0.014191071148139441 0 -0.041556584291329218 -0.0150564713972171 0 -0.042180853763909544 -0.014045633335252963 0 -0.041550460448608981 -0.013383547456060178 0 -0.042543920563266044 -0.012823294097617878 0 -0.042180853763909544 -0.014045633335252963 0 -0.040612067104656632 -0.013281368623127766 0 -0.041174304804616639 -0.014191071148139441 0 -0.041550460448608981 -0.013383547456060178 0 -0.041362264316938985 -0.012513251299065825 0 -0.040612067104656632 -0.013281368623127766 0 -0.041550460448608981 -0.013383547456060178 0 -0.036972740860329624 -0.012838179766693455 0 -0.038180844904237565 -0.013790139980675437 0 -0.035748076936896966 -0.011976797731233562 0 -0.037800847738544578 -0.011589115316417719 0 -0.037454560515714885 -0.013421075166882714 0 -0.037800847738544578 -0.011589115316417719 0 -0.039198324939250954 -0.01279029772863923 0 -0.037454560515714885 -0.013421075166882714 0 -0.039528479713818843 -0.011180198766464427 0 -0.037800847738544578 -0.011589115316417719 0 -0.039198324939250954 -0.01279029772863923 0 -0.039198324939250954 -0.01279029772863923 0 -0.037454560515714885 -0.013421075166882714 0 -0.039889528805839111 -0.015240176431144213 0 -0.038180844904237565 -0.013790139980675437 0 -0.038853827330071915 -0.01429147870309022 0 -0.037977687922087791 -0.015154291872408078 0 -0.039108786889363673 -0.014815707641633554 0 -0.038670402414770821 -0.016029246574797301 0 -0.039108786889363673 -0.014815707641633554 0 -0.038670402414770821 -0.016029246574797301 0 -0.039889528805839111 -0.015240176431144213 0 -0.038670402414770821 -0.016029246574797301 0 -0.039565545674630644 -0.016874175482276613 0 -0.039889528805839111 -0.015240176431144213 0 -0.038077497340597968 -0.017698759104491823 0 -0.038670402414770821 -0.016029246574797301 0 -0.039565545674630644 -0.016874175482276613 0 -0.041556584291329218 -0.0150564713972171 0 -0.041234575982701437 -0.015990917457914318 0 -0.042313154590650451 -0.015494616764391837 0 -0.041556584291329218 -0.0150564713972171 0 -0.042531895321398776 -0.014827387348000837 0 -0.042180853763909544 -0.014045633335252963 0 -0.041556584291329218 -0.0150564713972171 0 -0.042313154590650451 -0.015494616764391837 0 -0.042531895321398776 -0.014827387348000837 0 -0.039889528805839111 -0.015240176431144213 0 -0.040466988993506092 -0.016650871818387886 0 -0.041234575982701437 -0.015990917457914318 0 -0.041174304804616639 -0.014191071148139441 0 -0.041556584291329218 -0.0150564713972171 0 -0.039889528805839111 -0.015240176431144213 0 -0.041556584291329218 -0.0150564713972171 0 -0.039889528805839111 -0.015240176431144213 0 -0.041234575982701437 -0.015990917457914318 0 -0.039565545674630644 -0.016874175482276613 0 -0.039889528805839111 -0.015240176431144213 0 -0.040466988993506092 -0.016650871818387886 0 -0.041426074330601137 -0.017103725987192842 0 -0.040466988993506092 -0.016650871818387886 0 -0.041234575982701437 -0.015990917457914318 0 -0.041426074330601137 -0.017103725987192842 0 -0.041234575982701437 -0.015990917457914318 0 -0.041954417550245184 -0.016364993697705946 0 -0.041234575982701437 -0.015990917457914318 0 -0.041954417550245184 -0.016364993697705946 0 -0.042313154590650451 -0.015494616764391837 0 -0.041426074330601137 -0.017103725987192842 0 -0.041954417550245184 -0.016364993697705946 0 -0.042313074014895063 -0.016949966457382473 0 -0.042313074014895063 -0.016949966457382473 0 -0.04289220957833343 -0.016732198299506444 0 -0.042574888887036713 -0.016227896407309889 0 -0.041954417550245184 -0.016364993697705946 0 -0.042313074014895063 -0.016949966457382473 0 -0.042574888887036713 -0.016227896407309889 0 -0.042911459448284929 -0.017583613186310194 0 -0.04289220957833343 -0.016732198299506444 0 -0.043427797460519599 -0.016824804056445913 0 -0.04289220957833343 -0.016732198299506444 0 -0.043153408988955602 -0.016517371889801225 0 -0.043427797460519599 -0.016824804056445913 0 -0.04289220957833343 -0.016732198299506444 0 -0.043153408988955602 -0.016517371889801225 0 -0.042950457454566215 -0.016282360190900898 0 -0.043153408988955602 -0.016517371889801225 0 -0.042950457454566215 -0.016282360190900898 0 -0.043432667912470795 -0.016114237727088622 0 -0.04289220957833343 -0.016732198299506444 0 -0.042950457454566215 -0.016282360190900898 0 -0.042574888887036713 -0.016227896407309889 0 -0.042950457454566215 -0.016282360190900898 0 -0.042574888887036713 -0.016227896407309889 0 -0.043014503951471279 -0.015815508621684276 0 -0.042950457454566215 -0.016282360190900898 0 -0.043014503951471279 -0.015815508621684276 0 -0.043432667912470795 -0.016114237727088622 0 -0.041954417550245184 -0.016364993697705946 0 -0.042574888887036713 -0.016227896407309889 0 -0.042313154590650451 -0.015494616764391837 0 -0.043014503951471279 -0.015815508621684276 0 -0.042531895321398776 -0.014827387348000837 0 -0.043302459741345244 -0.014145171816173996 0 -0.042313154590650451 -0.015494616764391837 0 -0.043014503951471279 -0.015815508621684276 0 -0.042531895321398776 -0.014827387348000837 0 -0.037704385847307606 -0.013799171235721988 0 -0.0383580739563349 -0.013310254471532272 0 -0.042574888887036713 -0.016227896407309889 0 -0.042313154590650451 -0.015494616764391837 0 -0.043014503951471279 -0.015815508621684276 0 -0.043014503951471279 -0.015815508621684276 0 -0.043432667912470795 -0.016114237727088622 0 -0.043302459741345244 -0.014145171816173996 0 -0.036994642411614161 -0.013641376714504255 0 -0.036822785455182389 -0.012470299314158488 0 -0.038422501683169075 -0.013606079961485008 0 -0.038236289200554024 -0.013829192683305154 0 -0.038130275634827668 -0.013181982340083982 0 -0.036994642411614161 -0.013641376714504255 0 -0.034908117476259375 -0.01316724983310303 0 -0.036994642411614161 -0.013641376714504255 0 -0.0383580739563349 -0.013310254471532272 0 -0.036994642411614161 -0.013641376714504255 0 -0.037704385847307606 -0.013799171235721988 0 -0.036994642411614161 -0.013641376714504255 0 -0.034313094885982089 -0.015411011287430445 0 -0.043737888090537809 -0.01569320908983134 0 -0.043317228777907314 -0.016203028739914881 0 -0.043427797460519599 -0.016824804056445913 0 -0.043737888090537809 -0.01569320908983134 0 -0.043427797460519599 -0.016824804056445913 0 -0.044625502414330456 -0.016985530401172868 0 -0.037704385847307606 -0.013799171235721988 0 -0.037891526463169255 -0.014122126839618316 0 -0.043153408988955602 -0.016517371889801225 0 -0.043432667912470795 -0.016114237727088622 0 -0.043427797460519599 -0.016824804056445913 0 -0.029977309326367302 -0.013600357853658394 0 -0.029666452483641751 -0.013174885906721803 0 -0.029583614782354085 -0.013525664700791296 0 -0.029666452483641751 -0.013174885906721803 0 -0.029344236319493362 -0.01327550280860465 0 -0.029583614782354085 -0.013525664700791296 0 -0.029234461033692288 -0.013446949749086244 0 -0.029111009673015963 -0.013624222931948517 0 -0.029079578095570588 -0.013266561337256722 0 -0.029344236319493362 -0.01327550280860465 0 -0.02937890057657561 -0.013472548439807842 0 -0.029234461033692288 -0.013446949749086244 0 -0.029344236319493362 -0.01327550280860465 0 -0.02937890057657561 -0.013472548439807842 0 -0.029583614782354085 -0.013525664700791296 0 -0.029344236319493362 -0.01327550280860465 0 -0.029234461033692288 -0.013446949749086244 0 -0.029079578095570588 -0.013266561337256722 0 -0.029111009673015963 -0.013624222931948517 0 -0.029252034998676658 -0.01381268513947545 0 -0.029041059658809616 -0.013988462166038737 0 -0.029234461033692288 -0.013446949749086244 0 -0.029111009673015963 -0.013624222931948517 0 -0.029324182117198342 -0.013617278983834261 0 -0.02937890057657561 -0.013472548439807842 0 -0.029324182117198342 -0.013617278983834261 0 -0.029583614782354085 -0.013525664700791296 0 -0.02937890057657561 -0.013472548439807842 0 -0.029234461033692288 -0.013446949749086244 0 -0.029324182117198342 -0.013617278983834261 0 -0.029324182117198342 -0.013617278983834261 0 -0.029252034998676658 -0.01381268513947545 0 -0.029458018741669235 -0.013753541330359172 0 -0.029111009673015963 -0.013624222931948517 0 -0.029324182117198342 -0.013617278983834261 0 -0.029252034998676658 -0.01381268513947545 0 -0.029977309326367302 -0.013600357853658394 0 -0.029583614782354085 -0.013525664700791296 0 -0.029698862470018034 -0.013800698937312533 0 -0.035650835539518026 -0.013160551030189399 0 -0.036241049443791855 -0.012713747077844076 0 -0.036418403033149797 -0.012216882679989546 0 -0.029324182117198342 -0.013617278983834261 0 -0.029583614782354085 -0.013525664700791296 0 -0.029458018741669235 -0.013753541330359172 0 -0.029583614782354085 -0.013525664700791296 0 -0.029458018741669235 -0.013753541330359172 0 -0.029698862470018034 -0.013800698937312533 0 -0.034908117476259375 -0.01316724983310303 0 -0.03367083343423153 -0.012274514243366884 0 -0.029458018741669235 -0.013753541330359172 0 -0.029698862470018034 -0.013800698937312533 0 -0.02943027061579917 -0.014012561619552111 0 -0.036241049443791855 -0.012713747077844076 0 -0.036418403033149797 -0.012216882679989546 0 -0.036812305498849257 -0.01223943258557857 0 -0.036822785455182389 -0.012470299314158488 0 -0.03367083343423153 -0.012274514243366884 0 -0.02624233412867364 -0.010580486944283901 0 -0.025902872197911261 -0.010551521090312018 0 -0.025805538591574341 -0.010887921909179832 0 -0.03367083343423153 -0.012274514243366884 0 -0.027003139085094233 -0.012661892603761774 0 -0.038967136841596701 -0.012624409753341398 0 -0.039782086919611173 -0.01267390126749623 0 -0.04053476684176105 -0.010928780509841748 0 -0.029252034998676658 -0.01381268513947545 0 -0.02943027061579917 -0.014012561619552111 0 -0.029041059658809616 -0.013988462166038737 0 -0.029252034998676658 -0.01381268513947545 0 -0.029458018741669235 -0.013753541330359172 0 -0.02943027061579917 -0.014012561619552111 0 -0.038685245718758442 -0.011952982979725028 0 -0.038913329067279616 -0.011720340461667082 0 -0.038964227634157342 -0.011693742597558825 0 -0.03367083343423153 -0.012274514243366884 0 -0.032405900194890626 -0.0099352098627051438 0 -0.039782086919611173 -0.01267390126749623 0 -0.04053476684176105 -0.010928780509841748 0 -0.041902531458641215 -0.010933678254953295 0 -0.036822785455182389 -0.012470299314158488 0 -0.039252388046632572 -0.011101098598944233 0 -0.038945067481858803 -0.011703417838154474 0 -0.038846310649059149 -0.011611308416924862 0 -0.038956556902101681 -0.011575428938768458 0 -0.038913329067279616 -0.011720340461667082 0 -0.038964227634157342 -0.011693742597558825 0 -0.039125825373132771 -0.011492962856133474 0 -0.038780834780780642 -0.01189514127851393 0 -0.038752259064896689 -0.011705817234579452 0 -0.038592103066800082 -0.011718862870497122 0 -0.038780834780780642 -0.01189514127851393 0 -0.038945067481858803 -0.011703417838154474 0 -0.038752259064896689 -0.011705817234579452 0 -0.036822785455182389 -0.012470299314158488 0 -0.03777808801271916 -0.011770243103949149 0 -0.038945067481858803 -0.011703417838154474 0 -0.038752259064896689 -0.011705817234579452 0 -0.038846310649059149 -0.011611308416924862 0 -0.038752259064896689 -0.011705817234579452 0 -0.038654484212233643 -0.011543836864536052 0 -0.038846310649059149 -0.011611308416924862 0 -0.038752259064896689 -0.011705817234579452 0 -0.038592103066800082 -0.011718862870497122 0 -0.038654484212233643 -0.011543836864536052 0 -0.038587497075369619 -0.012929566750113601 0 -0.039624486173749376 -0.011436837251227808 0 -0.038592103066800082 -0.011718862870497122 0 -0.038443344513969642 -0.011872741151992966 0 -0.038398149415621786 -0.011585428354449319 0 -0.041880873512753866 -0.012079186839144277 0 -0.042134059000947383 -0.011035790327052942 0 -0.041723585323219126 -0.011096651063903321 0 -0.041880873512753866 -0.012079186839144277 0 -0.042367436130804334 -0.01249223124216413 0 -0.042134059000947383 -0.011035790327052942 0 -0.041880873512753866 -0.012079186839144277 0 -0.042367436130804334 -0.01249223124216413 0 -0.042163985442230684 -0.012494010585461708 0 -0.038085931250683623 -0.013147702049944096 0 -0.03806755242958073 -0.013147845622832688 0 -0.038091478656473061 -0.013183524141878776 0 -0.038587497075369619 -0.012929566750113601 0 -0.038716285866499313 -0.013106148678507592 0 -0.042543920563266044 -0.012823294097617878 0 -0.042953464444044659 -0.013522637434679907 0 -0.042180853763909544 -0.014045633335252963 0 -0.039068693831475765 -0.013166943660249446 0 -0.038716285866499313 -0.013106148678507592 0 -0.042953464444044659 -0.013522637434679907 0 -0.042180853763909544 -0.014045633335252963 0 -0.043302459741345244 -0.014145171816173996 0 -0.042531895321398776 -0.014827387348000837 0 -0.042180853763909544 -0.014045633335252963 0 -0.043302459741345244 -0.014145171816173996 0 -0.038587497075369619 -0.012929566750113601 0 -0.0383580739563349 -0.013310254471532272 0 -0.038716285866499313 -0.013106148678507592 0 -0.0383580739563349 -0.013310254471532272 0 -0.038780834780780642 -0.01189514127851393 0 -0.038592103066800082 -0.011718862870497122 0 -0.038443344513969642 -0.011872741151992966 0 -0.036822785455182389 -0.012470299314158488 0 -0.038587497075369619 -0.012929566750113601 0 -0.037304222020940109 -0.012649933283972657 0 -0.037458978280500509 -0.012660816423062143 0 -0.037452811732195064 -0.012626488592538345 0 -0.037394281464494458 -0.012544713162698081 0 -0.037304222020940109 -0.012649933283972657 0 -0.037452811732195064 -0.012626488592538345 0 -0.0079285544651127946 -0.012642020385797061 0 -0.0079762239509234192 -0.012658647091653031 0 -0.0078903173303394476 -0.012595580971520949 0 -0.0079285544651127946 -0.012642020385797061 0 -0.0080384589388929669 -0.012723008546977617 0 -0.0079762239509234192 -0.012658647091653031 0 -0.0080269455880902108 -0.012559572624603272 0 -0.0079285544651127946 -0.012642020385797061 0 -0.0077482509061456576 -0.012602506768808518 0 -0.0080269455880902108 -0.012559572624603272 0 -0.0079285544651127946 -0.012642020385797061 0 -0.0080860086219903416 -0.012658020931399533 0 -0.0079285544651127946 -0.012642020385797061 0 -0.0080860086219903416 -0.012658020931399533 0 -0.0080384589388929669 -0.012723008546977617 0 -0.0080860086219903416 -0.012658020931399533 0 -0.0081573041156677295 -0.01275021080547315 0 -0.0080384589388929669 -0.012723008546977617 0 -0.0080860086219903416 -0.012658020931399533 0 -0.0081685138479768663 -0.012599251237769988 0 -0.0082171532394878961 -0.012677514369890685 0 -0.0080860086219903416 -0.012658020931399533 0 -0.0082171532394878961 -0.012677514369890685 0 -0.0081573041156677295 -0.01275021080547315 0 -0.0080269455880902108 -0.012559572624603272 0 -0.0080860086219903416 -0.012658020931399533 0 -0.0081685138479768663 -0.012599251237769988 0 -0.023786388516384139 -0.015134446646308437 0 -0.021513948196124635 -0.014181117987290239 0 -0.0081685138479768663 -0.012599251237769988 0 -0.0082876337717707714 -0.012595681709857792 0 -0.0082171532394878961 -0.012677514369890685 0 -0.0081684631793537618 -0.012499015666661608 0 -0.0081685138479768663 -0.012599251237769988 0 -0.0082876337717707714 -0.012595681709857792 0 -0.029111009673015963 -0.013624222931948517 0 -0.029079578095570588 -0.013266561337256722 0 -0.028863833815434059 -0.013610361290470597 0 -0.021513948196124635 -0.014181117987290239 0 -0.020011582472821126 -0.013098567888020475 0 -0.029111009673015963 -0.013624222931948517 0 -0.028863833815434059 -0.013610361290470597 0 -0.029041059658809616 -0.013988462166038737 0 -0.028863833815434059 -0.013610361290470597 0 -0.029041059658809616 -0.013988462166038737 0 -0.028645418442508938 -0.013963433968687879 0 -0.025902872197911261 -0.010551521090312018 0 -0.025805538591574341 -0.010887921909179832 0 -0.025578163810243863 -0.010532711667417599 0 -0.027003139085094233 -0.012661892603761774 0 -0.020011582472821126 -0.013098567888020475 0 -0.025805538591574341 -0.010887921909179832 0 -0.025387457502718133 -0.01085151515106612 0 -0.025578163810243863 -0.010532711667417599 0 -0.0082034987481401592 -0.01276478409458378 0 -0.0082989428882514239 -0.012641273495752623 0 -0.0081430320014524542 -0.012637272622033589 0 -0.019224422070841015 -0.012215001641630946 0 -0.020011582472821126 -0.013098567888020475 0 -0.020011582472821126 -0.013098567888020475 0 -0.013694380067839814 -0.012770517259113949 0 -0.013694380067839814 -0.012770517259113949 0 -0.012033172019262892 -0.012687396314085806 0 -0.0082034987481401592 -0.01276478409458378 0 -0.0081430320014524542 -0.012637272622033589 0 -0.0080417285875580089 -0.012746076882690324 0 -0.0082034987481401592 -0.01276478409458378 0 -0.0080417285875580089 -0.012746076882690324 0 -0.0081303864331069581 -0.012865011880727745 0 -0.0080417285875580089 -0.012746076882690324 0 -0.0079253116166808409 -0.012684892083447216 0 -0.0079591510607575858 -0.012779439481963202 0 -0.0080417285875580089 -0.012746076882690324 0 -0.0080209878005939265 -0.012814419085853663 0 -0.0079591510607575858 -0.012779439481963202 0 -0.0080417285875580089 -0.012746076882690324 0 -0.0079762239509234192 -0.012658647091653031 0 -0.0079253116166808409 -0.012684892083447216 0 -0.0081430320014524542 -0.012637272622033589 0 -0.0080417285875580089 -0.012746076882690324 0 -0.0079762239509234192 -0.012658647091653031 0 -0.008082339819057368 -0.012937820675716754 0 -0.008064609560253011 -0.012921506535466021 0 -0.0081303864331069581 -0.012865011880727745 0 -0.0080126121011160761 -0.012958277131982705 0 -0.008064609560253011 -0.012921506535466021 0 -0.0080515708460378362 -0.013000720945394421 0 -0.0080126121011160761 -0.012958277131982705 0 -0.008064609560253011 -0.012921506535466021 0 -0.0080032087573831401 -0.012907150274534795 0 -0.0080126121011160761 -0.012958277131982705 0 -0.0080032087573831401 -0.012907150274534795 0 -0.0079552066028112066 -0.012957603021799019 0 -0.008082339819057368 -0.012937820675716754 0 -0.008064609560253011 -0.012921506535466021 0 -0.0080837988700376718 -0.012937681309071435 0 -0.019284624687183824 -0.0075242863222942519 0 -0.019758687848510873 -0.006683906599018837 0 -0.008064609560253011 -0.012921506535466021 0 -0.0080540895500669629 -0.012869369053815007 0 -0.0081303864331069581 -0.012865011880727745 0 -0.008064609560253011 -0.012921506535466021 0 -0.0080032087573831401 -0.012907150274534795 0 -0.0080540895500669629 -0.012869369053815007 0 -0.0080032087573831401 -0.012907150274534795 0 -0.0079865350230876909 -0.012850637288925023 0 -0.0080540895500669629 -0.012869369053815007 0 -0.0080417285875580089 -0.012746076882690324 0 -0.0080209878005939265 -0.012814419085853663 0 -0.0081303864331069581 -0.012865011880727745 0 -0.0079865350230876909 -0.012850637288925023 0 -0.0080209878005939265 -0.012814419085853663 0 -0.0080540895500669629 -0.012869369053815007 0 -0.0080209878005939265 -0.012814419085853663 0 -0.0080540895500669629 -0.012869369053815007 0 -0.0081303864331069581 -0.012865011880727745 0 -0.0079865350230876909 -0.012850637288925023 0 -0.0080209878005939265 -0.012814419085853663 0 -0.0079591510607575858 -0.012779439481963202 0 -0.025387457502718133 -0.01085151515106612 0 -0.025201024785613646 -0.011141983213887735 0 -0.025396608968754512 -0.011161526728729332 0 -0.019224422070841015 -0.012215001641630946 0 -0.019447407478334004 -0.010760959436768981 0 -0.021512393134084269 -0.0070116299825962033 0 -0.029718999052161837 -0.00774301562473384 0 -0.021512393134084269 -0.0070116299825962033 0 -0.019447407478334004 -0.010760959436768981 0 -0.025006230170740332 -0.01140688549772868 0 -0.025201024785613646 -0.011141983213887735 0 -0.025396608968754512 -0.011161526728729332 0 -0.044853164299180473 -0.0080862824105842508 0 -0.044081363595966476 -0.0082696046675251218 0 -0.043773419435496265 -0.0092632907523147213 0 -0.044081363595966476 -0.0082696046675251218 0 -0.043140930274872098 -0.0084036197266843544 0 -0.044042309373681303 -0.0077121173777328512 0 -0.043716120266460122 -0.0082336333726660237 0 -0.043265009613025519 -0.008165257351708196 0 -0.043708892501825088 -0.0078013456512345068 0 -0.043140930274872098 -0.0084036197266843544 0 -0.043773419435496265 -0.0092632907523147213 0 -0.042891173172318324 -0.00921381234129332 0 -0.044081363595966476 -0.0082696046675251218 0 -0.043140930274872098 -0.0084036197266843544 0 -0.043773419435496265 -0.0092632907523147213 0 -0.025805538591574341 -0.010887921909179832 0 -0.025387457502718133 -0.01085151515106612 0 -0.025396608968754512 -0.011161526728729332 0 -0.041902531458641215 -0.010933678254953295 0 -0.043773419435496265 -0.0092632907523147213 0 -0.042891173172318324 -0.00921381234129332 0 -0.032405900194890626 -0.0099352098627051438 0 -0.029718999052161837 -0.00774301562473384 0 -0.041489720124934584 -0.0097888608113944845 0 -0.041367721795553959 -0.0098164486626871657 0 -0.04053476684176105 -0.010928780509841748 0 -0.041902531458641215 -0.010933678254953295 0 -0.042037829038238626 -0.0093335969213803934 0 -0.041902531458641215 -0.010933678254953295 0 -0.042891173172318324 -0.00921381234129332 0 -0.042037829038238626 -0.0093335969213803934 0 -0.038964227634157342 -0.011693742597558825 0 -0.039214080340406049 -0.011437993270229785 0 -0.039125825373132771 -0.011492962856133474 0 -0.039252388046632572 -0.011101098598944233 0 -0.041367721795553959 -0.0098164486626871657 0 -0.043289188409510411 -0.008750364491523048 0 -0.043265009613025519 -0.008165257351708196 0 -0.042862789338651418 -0.008429159413152712 0 -0.043716120266460122 -0.0082336333726660237 0 -0.043289188409510411 -0.008750364491523048 0 -0.043265009613025519 -0.008165257351708196 0 -0.042316843213241612 -0.0089339461357726326 0 -0.041367721795553959 -0.0098164486626871657 0 -0.043140930274872098 -0.0084036197266843544 0 -0.042891173172318324 -0.00921381234129332 0 -0.042196752017123348 -0.0093117838280855122 0 -0.043348352929232052 -0.0075596010799402445 0 -0.042833539331434897 -0.0079304960247299858 0 -0.04286730248547492 -0.0070799410819135586 0 -0.043265009613025519 -0.008165257351708196 0 -0.043348352929232052 -0.0075596010799402445 0 -0.042833539331434897 -0.0079304960247299858 0 -0.043265009613025519 -0.008165257351708196 0 -0.043348352929232052 -0.0075596010799402445 0 -0.043708892501825088 -0.0078013456512345068 0 -0.043348352929232052 -0.0075596010799402445 0 -0.043424255246919466 -0.0069141141848159463 0 -0.04286730248547492 -0.0070799410819135586 0 -0.043424255246919466 -0.0069141141848159463 0 -0.04286730248547492 -0.0070799410819135586 0 -0.043084391103442705 -0.0061734379815861313 0 -0.043424255246919466 -0.0069141141848159463 0 -0.043978813214079072 -0.007235522256113393 0 -0.043800471135290481 -0.0061948487323269848 0 -0.043348352929232052 -0.0075596010799402445 0 -0.043424255246919466 -0.0069141141848159463 0 -0.043978813214079072 -0.007235522256113393 0 -0.043978813214079072 -0.007235522256113393 0 -0.043708892501825088 -0.0078013456512345068 0 -0.044042309373681303 -0.0077121173777328512 0 -0.043348352929232052 -0.0075596010799402445 0 -0.043978813214079072 -0.007235522256113393 0 -0.043708892501825088 -0.0078013456512345068 0 -0.043716120266460122 -0.0082336333726660237 0 -0.043708892501825088 -0.0078013456512345068 0 -0.044042309373681303 -0.0077121173777328512 0 -0.042316843213241612 -0.0089339461357726326 0 -0.042649846941109237 -0.0086208272425686659 0 -0.044853164299180473 -0.0080862824105842508 0 -0.044081363595966476 -0.0082696046675251218 0 -0.04440705598423466 -0.0077671916695800005 0 -0.044081363595966476 -0.0082696046675251218 0 -0.044042309373681303 -0.0077121173777328512 0 -0.04440705598423466 -0.0077671916695800005 0 -0.044853164299180473 -0.0080862824105842508 0 -0.04440705598423466 -0.0077671916695800005 0 -0.044723800587273425 -0.0076306079856688011 0 -0.04440705598423466 -0.0077671916695800005 0 -0.044520057848929699 -0.0073481746203536832 0 -0.044723800587273425 -0.0076306079856688011 0 -0.04440705598423466 -0.0077671916695800005 0 -0.044246774104618483 -0.0074068184574764516 0 -0.044520057848929699 -0.0073481746203536832 0 -0.044042309373681303 -0.0077121173777328512 0 -0.04440705598423466 -0.0077671916695800005 0 -0.044246774104618483 -0.0074068184574764516 0 -0.043978813214079072 -0.007235522256113393 0 -0.044042309373681303 -0.0077121173777328512 0 -0.044246774104618483 -0.0074068184574764516 0 -0.043978813214079072 -0.007235522256113393 0 -0.044246774104618483 -0.0074068184574764516 0 -0.044421167684145002 -0.0070932637753524132 0 -0.041158944686347072 -0.0044727451548054568 0 -0.040765119643209557 -0.0038874988192355007 0 -0.043978813214079072 -0.007235522256113393 0 -0.044421167684145002 -0.0070932637753524132 0 -0.044383266078337452 -0.0066319901775068598 0 -0.044421167684145002 -0.0070932637753524132 0 -0.044661175122556775 -0.0071311827143221082 0 -0.044668532734360986 -0.0068957312475671981 0 -0.044421167684145002 -0.0070932637753524132 0 -0.044668532734360986 -0.0068957312475671981 0 -0.044383266078337452 -0.0066319901775068598 0 -0.044421167684145002 -0.0070932637753524132 0 -0.044520057848929699 -0.0073481746203536832 0 -0.044661175122556775 -0.0071311827143221082 0 -0.044246774104618483 -0.0074068184574764516 0 -0.044421167684145002 -0.0070932637753524132 0 -0.044520057848929699 -0.0073481746203536832 0 -0.044520057848929699 -0.0073481746203536832 0 -0.044809858671641813 -0.0072978623823181611 0 -0.044661175122556775 -0.0071311827143221082 0 -0.044809858671641813 -0.0072978623823181611 0 -0.044661175122556775 -0.0071311827143221082 0 -0.044877125280900473 -0.0070373394930545357 0 -0.044668532734360986 -0.0068957312475671981 0 -0.044877125280900473 -0.0070373394930545357 0 -0.044798246356516094 -0.0066743462314583024 0 -0.044661175122556775 -0.0071311827143221082 0 -0.044668532734360986 -0.0068957312475671981 0 -0.044877125280900473 -0.0070373394930545357 0 -0.044877125280900473 -0.0070373394930545357 0 -0.04497747598228042 -0.0070799251320362864 0 -0.044798246356516094 -0.0066743462314583024 0 -0.023259917480355882 -0.0039969487565402473 0 -0.022889939560899401 -0.0038771610573175757 0 -0.022179116548465033 0.00049695852060203927 0 -0.020777178284967012 -0.0060939652543903992 0 -0.02410381706517719 -0.000253348732099584 0 -0.022889939560899401 -0.0038771610573175757 0 -0.021050173140250896 -0.0050912592331145059 0 -0.022889939560899401 -0.0038771610573175757 0 -0.020048991560355913 -0.0030054751425948371 0 -0.021050173140250896 -0.0050912592331145059 0 -0.020048991560355913 -0.0030054751425948371 0 -0.044809858671641813 -0.0072978623823181611 0 -0.045013754063880425 -0.0070880297888051792 0 -0.044987137215718766 -0.007582420522063509 0 -0.044809858671641813 -0.0072978623823181611 0 -0.044877125280900473 -0.0070373394930545357 0 -0.045013754063880425 -0.0070880297888051792 0 -0.019320898484559344 -0.0046961903965503553 0 -0.019134740407708368 -0.0055842950426367114 0 -0.021371649505279915 -0.0037492978523605779 0 -0.044520057848929699 -0.0073481746203536832 0 -0.044809858671641813 -0.0072978623823181611 0 -0.044723800587273425 -0.0076306079856688011 0 -0.044809858671641813 -0.0072978623823181611 0 -0.044987137215718766 -0.007582420522063509 0 -0.044723800587273425 -0.0076306079856688011 0 -0.021055839520566656 -0.007374537414187793 0 -0.021476631233911844 -0.0066175779049796202 0 -0.021376288833607718 -0.0071101932652800287 0 -0.044853164299180473 -0.0080862824105842508 0 -0.044987137215718766 -0.007582420522063509 0 -0.044723800587273425 -0.0076306079856688011 0 -0.021512393134084269 -0.0070116299825962033 0 -0.021050173140250896 -0.0050912592331145059 0 -0.021512393134084269 -0.0070116299825962033 0 -0.019758687848510873 -0.006683906599018837 0 -0.0080126121011160761 -0.012958277131982705 0 -0.0080515708460378362 -0.013000720945394421 0 -0.007967362338106538 -0.013008310222514049 0 -0.021050173140250896 -0.0050912592331145059 0 -0.019758687848510873 -0.006683906599018837 0 -0.041684804404270984 -0.0089022421773940034 0 -0.041944474925088793 -0.0083296560945858647 0 -0.041574154704311327 -0.0083730870662142055 0 -0.041684804404270984 -0.0089022421773940034 0 -0.041944474925088793 -0.0083296560945858647 0 -0.041942292021855399 -0.0090688275765362716 0 -0.041684804404270984 -0.0089022421773940034 0 -0.041543280594769513 -0.009035675093946512 0 -0.041574154704311327 -0.0083730870662142055 0 -0.040984958285292236 -0.0087590773758178045 0 -0.041543280594769513 -0.009035675093946512 0 -0.041574154704311327 -0.0083730870662142055 0 -0.041684804404270984 -0.0089022421773940034 0 -0.041543280594769513 -0.009035675093946512 0 -0.041565371298010238 -0.009099915250823775 0 -0.039760260842330454 -0.01093812831164169 0 -0.039624486173749376 -0.011436837251227808 0 -0.041543280594769513 -0.009035675093946512 0 -0.042329538910041833 -0.010985751715713792 0 -0.041723585323219126 -0.011096651063903321 0 -0.039624486173749376 -0.011436837251227808 0 -0.039732300250948697 -0.01142026689428567 0 -0.039624486173749376 -0.011436837251227808 0 -0.040268760510879055 -0.010792516431016037 0 -0.038592103066800082 -0.011718862870497122 0 -0.038398149415621786 -0.011585428354449319 0 -0.038654484212233643 -0.011543836864536052 0 -0.041684804404270984 -0.0089022421773940034 0 -0.041565371298010238 -0.009099915250823775 0 -0.041942292021855399 -0.0090688275765362716 0 -0.041942292021855399 -0.0090688275765362716 0 -0.04257158847364189 -0.0088910155142671865 0 -0.042393059643383885 -0.0083883147591219329 0 -0.040268760510879055 -0.010792516431016037 0 -0.040792625657067795 -0.01029455030276445 0 -0.038654484212233643 -0.011543836864536052 0 -0.038846310649059149 -0.011611308416924862 0 -0.038915418197837302 -0.011492655083548256 0 -0.041367721795553959 -0.0098164486626871657 0 -0.040792625657067795 -0.01029455030276445 0 -0.039214080340406049 -0.011437993270229785 0 -0.039125825373132771 -0.011492962856133474 0 -0.038915418197837302 -0.011492655083548256 0 -0.043289188409510411 -0.008750364491523048 0 -0.04257158847364189 -0.0088910155142671865 0 -0.042862789338651418 -0.008429159413152712 0 -0.038945067481858803 -0.011703417838154474 0 -0.039125825373132771 -0.011492962856133474 0 -0.038956556902101681 -0.011575428938768458 0 -0.039125825373132771 -0.011492962856133474 0 -0.038956556902101681 -0.011575428938768458 0 -0.038915418197837302 -0.011492655083548256 0 -0.03777808801271916 -0.011770243103949149 0 -0.038060784041193153 -0.011569944579146176 0 -0.038846310649059149 -0.011611308416924862 0 -0.038956556902101681 -0.011575428938768458 0 -0.038915418197837302 -0.011492655083548256 0 -0.04257158847364189 -0.0088910155142671865 0 -0.042862789338651418 -0.008429159413152712 0 -0.042393059643383885 -0.0083883147591219329 0 -0.042862789338651418 -0.008429159413152712 0 -0.042393059643383885 -0.0083883147591219329 0 -0.042833539331434897 -0.0079304960247299858 0 -0.043265009613025519 -0.008165257351708196 0 -0.042862789338651418 -0.008429159413152712 0 -0.042833539331434897 -0.0079304960247299858 0 -0.041944474925088793 -0.0083296560945858647 0 -0.041942292021855399 -0.0090688275765362716 0 -0.042393059643383885 -0.0083883147591219329 0 -0.041944474925088793 -0.0083296560945858647 0 -0.042393059643383885 -0.0083883147591219329 0 -0.042280821057609504 -0.0077213765332051565 0 -0.042280821057609504 -0.0077213765332051565 0 -0.042833539331434897 -0.0079304960247299858 0 -0.04286730248547492 -0.0070799410819135586 0 -0.042393059643383885 -0.0083883147591219329 0 -0.042280821057609504 -0.0077213765332051565 0 -0.042833539331434897 -0.0079304960247299858 0 -0.042280821057609504 -0.0077213765332051565 0 -0.04286730248547492 -0.0070799410819135586 0 -0.042028282904212386 -0.006932518808616981 0 -0.042280821057609504 -0.0077213765332051565 0 -0.042028282904212386 -0.006932518808616981 0 -0.041774723912491853 -0.0075928822319191866 0 -0.042028282904212386 -0.006932518808616981 0 -0.041774723912491853 -0.0075928822319191866 0 -0.0415647245159734 -0.00677005658528986 0 -0.041944474925088793 -0.0083296560945858647 0 -0.041774723912491853 -0.0075928822319191866 0 -0.041574154704311327 -0.0083730870662142055 0 -0.041944474925088793 -0.0083296560945858647 0 -0.042280821057609504 -0.0077213765332051565 0 -0.041774723912491853 -0.0075928822319191866 0 -0.041774723912491853 -0.0075928822319191866 0 -0.041574154704311327 -0.0083730870662142055 0 -0.041072168966362538 -0.0076248790900423349 0 -0.040984958285292236 -0.0087590773758178045 0 -0.041574154704311327 -0.0083730870662142055 0 -0.041072168966362538 -0.0076248790900423349 0 -0.040568006565803061 -0.0068977373226138368 0 -0.041072168966362538 -0.0076248790900423349 0 -0.0415647245159734 -0.00677005658528986 0 -0.041774723912491853 -0.0075928822319191866 0 -0.041072168966362538 -0.0076248790900423349 0 -0.0415647245159734 -0.00677005658528986 0 -0.040795132980371511 -0.006626431586489301 0 -0.040029245247519635 -0.0064435253039758483 0 -0.040679436189721266 -0.0065372797176821767 0 -0.040433649737728429 -0.0059064010182403167 0 -0.039508474131645099 -0.0061824296540185864 0 -0.040568006565803061 -0.0068977373226138368 0 -0.0415647245159734 -0.00677005658528986 0 -0.040547582750084521 -0.0061988627218132657 0 -0.040433649737728429 -0.0059064010182403167 0 -0.040913849239510115 -0.0052586435985502297 0 -0.039613342103538292 -0.0055589937140910197 0 -0.04103810764826088 -0.0053027266609173545 0 -0.040120373548418867 -0.0057755098452630009 0 -0.041039370870286085 -0.0046717418540699529 0 -0.040085406062617214 -0.0048953329525476931 0 -0.040238485291344023 -0.004257105983022794 0 -0.040913849239510115 -0.0052586435985502297 0 -0.041459155598740569 -0.0059441676232331346 0 -0.042077966427046198 -0.0049528782111845681 0 -0.040433649737728429 -0.0059064010182403167 0 -0.040913849239510115 -0.0052586435985502297 0 -0.041459155598740569 -0.0059441676232331346 0 -0.040679436189721266 -0.0065372797176821767 0 -0.040433649737728429 -0.0059064010182403167 0 -0.041459155598740569 -0.0059441676232331346 0 -0.042028282904212386 -0.006932518808616981 0 -0.040679436189721266 -0.0065372797176821767 0 -0.041459155598740569 -0.0059441676232331346 0 -0.041195043907758015 -0.0067333162455552329 0 -0.040795132980371511 -0.006626431586489301 0 -0.042028282904212386 -0.006932518808616981 0 -0.041459155598740569 -0.0059441676232331346 0 -0.042372160340295381 -0.0060129164736354469 0 -0.04286730248547492 -0.0070799410819135586 0 -0.042028282904212386 -0.006932518808616981 0 -0.042372160340295381 -0.0060129164736354469 0 -0.04286730248547492 -0.0070799410819135586 0 -0.042372160340295381 -0.0060129164736354469 0 -0.043084391103442705 -0.0061734379815861313 0 -0.042372160340295381 -0.0060129164736354469 0 -0.042805176192023515 -0.0054122461176667703 0 -0.043084391103442705 -0.0061734379815861313 0 -0.042372160340295381 -0.0060129164736354469 0 -0.042805176192023515 -0.0054122461176667703 0 -0.042077966427046198 -0.0049528782111845681 0 -0.041459155598740569 -0.0059441676232331346 0 -0.042372160340295381 -0.0060129164736354469 0 -0.042077966427046198 -0.0049528782111845681 0 -0.04103810764826088 -0.0053027266609173545 0 -0.041947805938731875 -0.0049645501462203126 0 -0.041039370870286085 -0.0046717418540699529 0 -0.042065459174583236 -0.0044753936686059573 0 -0.041835647422698165 -0.0036945506437876378 0 -0.041947805938731875 -0.0049645501462203126 0 -0.042423890483143822 -0.004813387124911259 0 -0.042065459174583236 -0.0044753936686059573 0 -0.041835647422698165 -0.0036945506437876378 0 -0.043103327456261338 -0.0044076715882385561 0 -0.042805176192023515 -0.0054122461176667703 0 -0.042077966427046198 -0.0049528782111845681 0 -0.043103327456261338 -0.0044076715882385561 0 -0.041835647422698165 -0.0036945506437876378 0 -0.043103327456261338 -0.0044076715882385561 0 -0.042404009644839966 -0.003099743948846797 0 -0.041835647422698165 -0.0036945506437876378 0 -0.040907755420335846 -0.0038504095313288138 0 -0.041133321054903582 -0.0032170896284210641 0 -0.040907755420335846 -0.0038504095313288138 0 -0.041133321054903582 -0.0032170896284210641 0 -0.040325793272878309 -0.0033926685134396161 0 -0.040907755420335846 -0.0038504095313288138 0 -0.040325793272878309 -0.0033926685134396161 0 -0.040238485291344023 -0.004257105983022794 0 -0.041039370870286085 -0.0046717418540699529 0 -0.040907755420335846 -0.0038504095313288138 0 -0.040238485291344023 -0.004257105983022794 0 -0.041039370870286085 -0.0046717418540699529 0 -0.041835647422698165 -0.0036945506437876378 0 -0.040907755420335846 -0.0038504095313288138 0 -0.039035126692054591 -0.0025434450184846011 0 -0.040765119643209557 -0.0038874988192355007 0 -0.044760245738245961 -0.0060375732421089319 0 -0.044798246356516094 -0.0066743462314583024 0 -0.04507171261135582 -0.0064035318715637878 0 -0.04497747598228042 -0.0070799251320362864 0 -0.044798246356516094 -0.0066743462314583024 0 -0.04507171261135582 -0.0064035318715637878 0 -0.044760245738245961 -0.0060375732421089319 0 -0.044798246356516094 -0.0066743462314583024 0 -0.044383266078337452 -0.0066319901775068598 0 -0.022889939560899401 -0.0038771610573175757 0 -0.028786011875235135 -0.002557700182893368 0 -0.044668532734360986 -0.0068957312475671981 0 -0.044798246356516094 -0.0066743462314583024 0 -0.044383266078337452 -0.0066319901775068598 0 -0.045256710452429565 -0.0050425091044218008 0 -0.044701010496548982 -0.0061349520089379059 0 -0.044652292256964245 -0.0047027857094784752 0 -0.044701010496548982 -0.0061349520089379059 0 -0.044079310783555425 -0.0050457891057408832 0 -0.044652292256964245 -0.0047027857094784752 0 -0.044079310783555425 -0.0050457891057408832 0 -0.043438886545872635 -0.005462339263134411 0 -0.043103327456261338 -0.0044076715882385561 0 -0.044079310783555425 -0.0050457891057408832 0 -0.043800471135290481 -0.0061948487323269848 0 -0.043438886545872635 -0.005462339263134411 0 -0.043978813214079072 -0.007235522256113393 0 -0.044701010496548982 -0.0061349520089379059 0 -0.043800471135290481 -0.0061948487323269848 0 -0.044701010496548982 -0.0061349520089379059 0 -0.044079310783555425 -0.0050457891057408832 0 -0.043800471135290481 -0.0061948487323269848 0 -0.043800471135290481 -0.0061948487323269848 0 -0.043084391103442705 -0.0061734379815861313 0 -0.043438886545872635 -0.005462339263134411 0 -0.043424255246919466 -0.0069141141848159463 0 -0.043800471135290481 -0.0061948487323269848 0 -0.043084391103442705 -0.0061734379815861313 0 -0.042805176192023515 -0.0054122461176667703 0 -0.043438886545872635 -0.005462339263134411 0 -0.043103327456261338 -0.0044076715882385561 0 -0.042805176192023515 -0.0054122461176667703 0 -0.043084391103442705 -0.0061734379815861313 0 -0.043438886545872635 -0.005462339263134411 0 -0.043103327456261338 -0.0044076715882385561 0 -0.043281590319771537 -0.0034081997068916314 0 -0.04385707365071035 -0.0040444885918350529 0 -0.043103327456261338 -0.0044076715882385561 0 -0.043281590319771537 -0.0034081997068916314 0 -0.042404009644839966 -0.003099743948846797 0 -0.043281590319771537 -0.0034081997068916314 0 -0.04385707365071035 -0.0040444885918350529 0 -0.04382012599089978 -0.0029344172952409618 0 -0.04385707365071035 -0.0040444885918350529 0 -0.044466622774577601 -0.0037513883077658302 0 -0.04382012599089978 -0.0029344172952409618 0 -0.044079310783555425 -0.0050457891057408832 0 -0.043103327456261338 -0.0044076715882385561 0 -0.04385707365071035 -0.0040444885918350529 0 -0.044079310783555425 -0.0050457891057408832 0 -0.04385707365071035 -0.0040444885918350529 0 -0.044652292256964245 -0.0047027857094784752 0 -0.04385707365071035 -0.0040444885918350529 0 -0.044652292256964245 -0.0047027857094784752 0 -0.044466622774577601 -0.0037513883077658302 0 -0.044652292256964245 -0.0047027857094784752 0 -0.044466622774577601 -0.0037513883077658302 0 -0.045053277530371874 -0.0042041292804240364 0 -0.044466622774577601 -0.0037513883077658302 0 -0.045046646371993807 -0.0034871186748958736 0 -0.044503863271809566 -0.0028713413384317613 0 -0.044466622774577601 -0.0037513883077658302 0 -0.045046646371993807 -0.0034871186748958736 0 -0.045053277530371874 -0.0042041292804240364 0 -0.045046646371993807 -0.0034871186748958736 0 -0.045053277530371874 -0.0042041292804240364 0 -0.045810621109139769 -0.0040310194710405471 0 -0.045046646371993807 -0.0034871186748958736 0 -0.04551660860469274 -0.0029781114376609581 0 -0.045810621109139769 -0.0040310194710405471 0 -0.045256710452429565 -0.0050425091044218008 0 -0.045053277530371874 -0.0042041292804240364 0 -0.045810621109139769 -0.0040310194710405471 0 -0.045256710452429565 -0.0050425091044218008 0 -0.044652292256964245 -0.0047027857094784752 0 -0.045053277530371874 -0.0042041292804240364 0 -0.039035126692054591 -0.0025434450184846011 0 -0.034593173030483391 -0.0011615935017123772 0 -0.033377656633434415 0.002200405647853025 0 -0.033166968751093817 0.0012619586293286245 0 -0.03809676733585951 0.0010401118337769895 0 -0.035414759786247259 0.00039178319529432968 0 -0.039355704916012639 0.0067648367355006653 0 -0.03894079470596979 0.0072720870696892249 0 -0.038673632399788764 0.0083553066690914089 0 -0.033761221616359173 0.0015124485318488885 0 -0.033590026260891963 0.0023797690320686458 0 -0.033944911187771563 0.0010216052781305811 0 -0.044747604137850415 -0.0016172142669355215 0 -0.044866144749331448 -0.0024856964862160625 0 -0.04551660860469274 -0.0029781114376609581 0 -0.039355704916012639 0.0067648367355006653 0 -0.03894079470596979 0.0072720870696892249 0 -0.039197114982655455 0.0061180539368252624 0 -0.034437623458677472 0.0019427016493186828 0 -0.033377656633434415 0.002200405647853025 0 -0.044747604137850415 -0.0016172142669355215 0 -0.044380091380042383 -0.0018921868558909951 0 -0.043587635994536557 -0.00071239009427447649 0 -0.044380091380042383 -0.0018921868558909951 0 -0.044866144749331448 -0.0024856964862160625 0 -0.044462320786997959 -0.0023935964219814927 0 -0.044747604137850415 -0.0016172142669355215 0 -0.044380091380042383 -0.0018921868558909951 0 -0.044866144749331448 -0.0024856964862160625 0 -0.044970514997499919 -0.0029558703371359062 0 -0.044866144749331448 -0.0024856964862160625 0 -0.04551660860469274 -0.0029781114376609581 0 -0.034437623458677472 0.0019427016493186828 0 -0.035414759786247259 0.00039178319529432968 0 -0.045046646371993807 -0.0034871186748958736 0 -0.044970514997499919 -0.0029558703371359062 0 -0.04551660860469274 -0.0029781114376609581 0 -0.045046646371993807 -0.0034871186748958736 0 -0.044970514997499919 -0.0029558703371359062 0 -0.044503863271809566 -0.0028713413384317613 0 -0.044970514997499919 -0.0029558703371359062 0 -0.044866144749331448 -0.0024856964862160625 0 -0.044503863271809566 -0.0028713413384317613 0 -0.044866144749331448 -0.0024856964862160625 0 -0.044503863271809566 -0.0028713413384317613 0 -0.044462320786997959 -0.0023935964219814927 0 -0.044503863271809566 -0.0028713413384317613 0 -0.044149177491966916 -0.0023475094653970727 0 -0.044462320786997959 -0.0023935964219814927 0 -0.044503863271809566 -0.0028713413384317613 0 -0.044149177491966916 -0.0023475094653970727 0 -0.04382012599089978 -0.0029344172952409618 0 -0.044466622774577601 -0.0037513883077658302 0 -0.044503863271809566 -0.0028713413384317613 0 -0.04382012599089978 -0.0029344172952409618 0 -0.043573826879907608 -0.0015610892784943824 0 -0.042968499366211305 -0.0014593724558281801 0 -0.044380091380042383 -0.0018921868558909951 0 -0.041797946130112944 -0.00097948647152991202 0 -0.043587635994536557 -0.00071239009427447649 0 -0.044380091380042383 -0.0018921868558909951 0 -0.044149177491966916 -0.0023475094653970727 0 -0.043751188976449272 -0.002021553538298514 0 -0.044380091380042383 -0.0018921868558909951 0 -0.044149177491966916 -0.0023475094653970727 0 -0.044462320786997959 -0.0023935964219814927 0 -0.044149177491966916 -0.0023475094653970727 0 -0.043751188976449272 -0.002021553538298514 0 -0.04382012599089978 -0.0029344172952409618 0 -0.043751188976449272 -0.002021553538298514 0 -0.04382012599089978 -0.0029344172952409618 0 -0.043188261406746295 -0.002628598064293964 0 -0.043281590319771537 -0.0034081997068916314 0 -0.043188261406746295 -0.002628598064293964 0 -0.042404009644839966 -0.003099743948846797 0 -0.043281590319771537 -0.0034081997068916314 0 -0.04382012599089978 -0.0029344172952409618 0 -0.043188261406746295 -0.002628598064293964 0 -0.043751188976449272 -0.002021553538298514 0 -0.043188261406746295 -0.002628598064293964 0 -0.042716462841894148 -0.0017182548463759956 0 -0.042968499366211305 -0.0014593724558281801 0 -0.042125663304429295 -0.0013105253568255562 0 -0.041797946130112944 -0.00097948647152991202 0 -0.041605693836352646 -0.00022680608701403242 0 -0.041431844198045645 -0.00054858497774603709 0 -0.041605693836352646 -0.00022680608701403242 0 -0.041468261612431133 7.7507001780486784e-05 0 -0.041431844198045645 -0.00054858497774603709 0 -0.041605693836352646 -0.00022680608701403242 0 -0.041468261612431133 7.7507001780486784e-05 0 -0.041668992437745182 0.00042760819407741359 0 -0.041468261612431133 7.7507001780486784e-05 0 -0.041668992437745182 0.00042760819407741359 0 -0.041495525785716129 0.00064574831020960965 0 -0.041605693836352646 -0.00022680608701403242 0 -0.041668992437745182 0.00042760819407741359 0 -0.042326385177098719 -7.300601299971007e-06 0 -0.041668992437745182 0.00042760819407741359 0 -0.041984206364239746 0.00089899035652082091 0 -0.04145978716785758 0.0011616823146319703 0 -0.041668992437745182 0.00042760819407741359 0 -0.042326385177098719 -7.300601299971007e-06 0 -0.041984206364239746 0.00089899035652082091 0 -0.041797946130112944 -0.00097948647152991202 0 -0.041605693836352646 -0.00022680608701403242 0 -0.042326385177098719 -7.300601299971007e-06 0 -0.041797946130112944 -0.00097948647152991202 0 -0.043587635994536557 -0.00071239009427447649 0 -0.042326385177098719 -7.300601299971007e-06 0 -0.043587635994536557 -0.00071239009427447649 0 -0.042946477486634937 4.0939318655419877e-05 0 -0.043374543488222631 0.00042865099196403179 0 -0.043587635994536557 -0.00071239009427447649 0 -0.042946477486634937 4.0939318655419877e-05 0 -0.042326385177098719 -7.300601299971007e-06 0 -0.042326385177098719 -7.300601299971007e-06 0 -0.042640039768859196 0.0003351692409238795 0 -0.041984206364239746 0.00089899035652082091 0 -0.039356411046513468 0.0012981989861632587 0 -0.039730970429385698 0.0012560332875591858 0 -0.041984206364239746 0.00089899035652082091 0 -0.043374543488222631 0.00042865099196403179 0 -0.041289675384287738 0.0018505420977237756 0 -0.042946477486634937 4.0939318655419877e-05 0 -0.042326385177098719 -7.300601299971007e-06 0 -0.042640039768859196 0.0003351692409238795 0 -0.042640039768859196 0.0003351692409238795 0 -0.041984206364239746 0.00089899035652082091 0 -0.043374543488222631 0.00042865099196403179 0 -0.042946477486634937 4.0939318655419877e-05 0 -0.042640039768859196 0.0003351692409238795 0 -0.043374543488222631 0.00042865099196403179 0 -0.03951306140012148 0.0053997631782945008 0 -0.039297627051072363 0.0044220128229298158 0 -0.039945078958060758 0.0028987166908897486 0 -0.040243625669679838 0.0049519385293489669 0 -0.039495410468538376 0.0050469587540830502 0 -0.039945078958060758 0.0028987166908897486 0 -0.032946868176201786 0.0019706888276489615 0 -0.033596494212859269 0.0021215340841934729 0 -0.039059589786540477 0.0039373719258310918 0 -0.039297627051072363 0.0044220128229298158 0 -0.039945078958060758 0.0028987166908897486 0 -0.03885237961788475 0.0047207275862552371 0 -0.038425963712224294 0.0051673027572302771 0 -0.038393615740910179 0.0042726594918073846 0 -0.039059589786540477 0.0039373719258310918 0 -0.03885237961788475 0.0047207275862552371 0 -0.038393615740910179 0.0042726594918073846 0 -0.039059589786540477 0.0039373719258310918 0 -0.039297627051072363 0.0044220128229298158 0 -0.03885237961788475 0.0047207275862552371 0 -0.039297627051072363 0.0044220128229298158 0 -0.03885237961788475 0.0047207275862552371 0 -0.039057061771239604 0.0049871198841642192 0 -0.03885237961788475 0.0047207275862552371 0 -0.039057061771239604 0.0049871198841642192 0 -0.038425963712224294 0.0051673027572302771 0 -0.03951306140012148 0.0053997631782945008 0 -0.039057061771239604 0.0049871198841642192 0 -0.038425963712224294 0.0051673027572302771 0 -0.03951306140012148 0.0053997631782945008 0 -0.039297627051072363 0.0044220128229298158 0 -0.039057061771239604 0.0049871198841642192 0 -0.032946868176201786 0.0019706888276489615 0 -0.033377656633434415 0.002200405647853025 0 -0.039355704916012639 0.0067648367355006653 0 -0.040243625669679838 0.0049519385293489669 0 -0.039197114982655455 0.0061180539368252624 0 -0.026574364177433911 0.0023558261449989613 0 -0.026654498186510795 0.0020148697974290801 0 -0.027085271228073683 0.0020745347667809754 0 -0.044747604137850415 -0.0016172142669355215 0 -0.043587635994536557 -0.00071239009427447649 0 -0.043374543488222631 0.00042865099196403179 0 -0.03809676733585951 0.0010401118337769895 0 -0.039356411046513468 0.0012981989861632587 0 -0.040243625669679838 0.0049519385293489669 0 -0.039495410468538376 0.0050469587540830502 0 -0.039197114982655455 0.0061180539368252624 0 -0.040833587246062168 -0.0023865725875556769 0 -0.041706878381309757 -0.0025575465021006943 0 -0.041375781372857218 -0.0011907027164805926 0 -0.040833587246062168 -0.0023865725875556769 0 -0.041375781372857218 -0.0011907027164805926 0 -0.040526906074378172 -0.0013966928769920165 0 -0.040833587246062168 -0.0023865725875556769 0 -0.040526906074378172 -0.0013966928769920165 0 -0.040137768608656671 -0.0024988236344461144 0 -0.040325793272878309 -0.0033926685134396161 0 -0.040833587246062168 -0.0023865725875556769 0 -0.040137768608656671 -0.0024988236344461144 0 -0.041133321054903582 -0.0032170896284210641 0 -0.040325793272878309 -0.0033926685134396161 0 -0.040833587246062168 -0.0023865725875556769 0 -0.041133321054903582 -0.0032170896284210641 0 -0.040833587246062168 -0.0023865725875556769 0 -0.041706878381309757 -0.0025575465021006943 0 -0.041835647422698165 -0.0036945506437876378 0 -0.041133321054903582 -0.0032170896284210641 0 -0.041706878381309757 -0.0025575465021006943 0 -0.041835647422698165 -0.0036945506437876378 0 -0.041706878381309757 -0.0025575465021006943 0 -0.042404009644839966 -0.003099743948846797 0 -0.041706878381309757 -0.0025575465021006943 0 -0.042404009644839966 -0.003099743948846797 0 -0.042716462841894148 -0.0017182548463759956 0 -0.043188261406746295 -0.002628598064293964 0 -0.042404009644839966 -0.003099743948846797 0 -0.042716462841894148 -0.0017182548463759956 0 -0.041706878381309757 -0.0025575465021006943 0 -0.042716462841894148 -0.0017182548463759956 0 -0.041375781372857218 -0.0011907027164805926 0 -0.042125663304429295 -0.0013105253568255562 0 -0.041691162678212781 -0.0012498845025201858 0 -0.041431844198045645 -0.00054858497774603709 0 -0.041532942277553525 -4.6846305515365331e-05 0 -0.041375781372857218 -0.0011907027164805926 0 -0.041468261612431133 7.7507001780486784e-05 0 -0.041431844198045645 -0.00054858497774603709 0 -0.041532942277553525 -4.6846305515365331e-05 0 -0.041468261612431133 7.7507001780486784e-05 0 -0.041532942277553525 -4.6846305515365331e-05 0 -0.041498478081558363 0.00057468977317034738 0 -0.041532942277553525 -4.6846305515365331e-05 0 -0.041054648734643887 -0.00031133880421278001 0 -0.041375781372857218 -0.0011907027164805926 0 -0.041054648734643887 -0.00031133880421278001 0 -0.041375781372857218 -0.0011907027164805926 0 -0.040526906074378172 -0.0013966928769920165 0 -0.041054648734643887 -0.00031133880421278001 0 -0.040526906074378172 -0.0013966928769920165 0 -0.040092684251522119 -0.00058734024845477823 0 -0.040092684251522119 -0.00058734024845477823 0 -0.03906413644421191 -0.00080736102873709434 0 -0.039622122091491442 -0.0015975300655002686 0 -0.040092684251522119 -0.00058734024845477823 0 -0.03906413644421191 -0.00080736102873709434 0 -0.039527963809598457 0.00012387189169306089 0 -0.03906413644421191 -0.00080736102873709434 0 -0.039622122091491442 -0.0015975300655002686 0 -0.038855722270225455 -0.0018877037108174367 0 -0.040526906074378172 -0.0013966928769920165 0 -0.040092684251522119 -0.00058734024845477823 0 -0.039622122091491442 -0.0015975300655002686 0 -0.039622122091491442 -0.0015975300655002686 0 -0.039416048680984632 -0.0026853651819750382 0 -0.040137768608656671 -0.0024988236344461144 0 -0.040526906074378172 -0.0013966928769920165 0 -0.039622122091491442 -0.0015975300655002686 0 -0.040137768608656671 -0.0024988236344461144 0 -0.039622122091491442 -0.0015975300655002686 0 -0.039416048680984632 -0.0026853651819750382 0 -0.038855722270225455 -0.0018877037108174367 0 -0.039416048680984632 -0.0026853651819750382 0 -0.039684883648334661 -0.0034511069770622065 0 -0.039122974161778214 -0.0035437665458697633 0 -0.039416048680984632 -0.0026853651819750382 0 -0.040137768608656671 -0.0024988236344461144 0 -0.039684883648334661 -0.0034511069770622065 0 -0.040325793272878309 -0.0033926685134396161 0 -0.040137768608656671 -0.0024988236344461144 0 -0.039684883648334661 -0.0034511069770622065 0 -0.038253885816004453 -0.0031302661692916593 0 -0.038041822123362171 -0.0023685618286054953 0 -0.037701753274414419 -0.0034256996014616369 0 -0.038253885816004453 -0.0031302661692916593 0 -0.038698017609231736 -0.0028238307345237069 0 -0.038567939817562513 -0.0036803311943621785 0 -0.038253885816004453 -0.0031302661692916593 0 -0.037701753274414419 -0.0034256996014616369 0 -0.038028205519592004 -0.0043772368087063619 0 -0.038698017609231736 -0.0028238307345237069 0 -0.039122974161778214 -0.0035437665458697633 0 -0.038567939817562513 -0.0036803311943621785 0 -0.039416048680984632 -0.0026853651819750382 0 -0.038698017609231736 -0.0028238307345237069 0 -0.039122974161778214 -0.0035437665458697633 0 -0.039416048680984632 -0.0026853651819750382 0 -0.038698017609231736 -0.0028238307345237069 0 -0.038855722270225455 -0.0018877037108174367 0 -0.038698017609231736 -0.0028238307345237069 0 -0.038041822123362171 -0.0023685618286054953 0 -0.038855722270225455 -0.0018877037108174367 0 -0.038253885816004453 -0.0031302661692916593 0 -0.038698017609231736 -0.0028238307345237069 0 -0.038041822123362171 -0.0023685618286054953 0 -0.038041822123362171 -0.0023685618286054953 0 -0.038300911040237889 -0.0013287013677853829 0 -0.037759549041759689 -0.0016721894687174487 0 -0.038041822123362171 -0.0023685618286054953 0 -0.038300911040237889 -0.0013287013677853829 0 -0.038855722270225455 -0.0018877037108174367 0 -0.03906413644421191 -0.00080736102873709434 0 -0.038300911040237889 -0.0013287013677853829 0 -0.038855722270225455 -0.0018877037108174367 0 -0.03906413644421191 -0.00080736102873709434 0 -0.038300911040237889 -0.0013287013677853829 0 -0.038484174427491448 -9.8248070023292698e-06 0 -0.038300911040237889 -0.0013287013677853829 0 -0.037494761642717138 -0.00097747236174393977 0 -0.038484174427491448 -9.8248070023292698e-06 0 -0.037494761642717138 -0.00097747236174393977 0 -0.036598783767857357 -0.00068485733538331648 0 -0.036770766543692469 -0.0014184926251894277 0 -0.036598783767857357 -0.00068485733538331648 0 -0.036770766543692469 -0.0014184926251894277 0 -0.036111181706211554 -0.0012668213589259599 0 -0.037494761642717138 -0.00097747236174393977 0 -0.036770766543692469 -0.0014184926251894277 0 -0.03721211118746201 -0.0020537695421112821 0 -0.036770766543692469 -0.0014184926251894277 0 -0.036701548505033023 -0.0021983814521414004 0 -0.036182015421677372 -0.0019518665431162252 0 -0.036770766543692469 -0.0014184926251894277 0 -0.036701548505033023 -0.0021983814521414004 0 -0.03721211118746201 -0.0020537695421112821 0 -0.038041822123362171 -0.0023685618286054953 0 -0.03721211118746201 -0.0020537695421112821 0 -0.037759549041759689 -0.0016721894687174487 0 -0.038300911040237889 -0.0013287013677853829 0 -0.037494761642717138 -0.00097747236174393977 0 -0.037759549041759689 -0.0016721894687174487 0 -0.037494761642717138 -0.00097747236174393977 0 -0.03721211118746201 -0.0020537695421112821 0 -0.037759549041759689 -0.0016721894687174487 0 -0.034999991330864122 -0.00080433978367961366 0 -0.035738543549149501 -0.0007099649909835077 0 -0.036041307708245728 0.00089187920141415005 0 -0.035394195710122645 -0.0011321087068384872 0 -0.035922191869865713 -0.0005855446492051043 0 -0.036111181706211554 -0.0012668213589259599 0 -0.035394195710122645 -0.0011321087068384872 0 -0.036111181706211554 -0.0012668213589259599 0 -0.035759847685652241 -0.0017944016559262735 0 -0.036598783767857357 -0.00068485733538331648 0 -0.035922191869865713 -0.0005855446492051043 0 -0.036111181706211554 -0.0012668213589259599 0 -0.036770766543692469 -0.0014184926251894277 0 -0.036111181706211554 -0.0012668213589259599 0 -0.036182015421677372 -0.0019518665431162252 0 -0.036182015421677372 -0.0019518665431162252 0 -0.035759847685652241 -0.0017944016559262735 0 -0.035818668508671422 -0.0023391170659406587 0 -0.036111181706211554 -0.0012668213589259599 0 -0.036182015421677372 -0.0019518665431162252 0 -0.035759847685652241 -0.0017944016559262735 0 -0.034999991330864122 -0.00080433978367961366 0 -0.035738543549149501 -0.0007099649909835077 0 -0.035364984908756669 -0.0023364239559965699 0 -0.035394195710122645 -0.0011321087068384872 0 -0.035759847685652241 -0.0017944016559262735 0 -0.035364984908756669 -0.0023364239559965699 0 -0.034999991330864122 -0.00080433978367961366 0 -0.034999787259934231 -0.0028701941165732154 0 -0.035364984908756669 -0.0023364239559965699 0 -0.035577446254965797 -0.00044701984411043395 0 -0.035486872541672904 -0.0010144350325316292 0 -0.035759847685652241 -0.0017944016559262735 0 -0.035364984908756669 -0.0023364239559965699 0 -0.035818668508671422 -0.0023391170659406587 0 -0.034999787259934231 -0.0028701941165732154 0 -0.035609241079925712 -0.0028171012799069911 0 -0.035609905061469264 -0.0037994176949217146 0 -0.034999787259934231 -0.0028701941165732154 0 -0.035364984908756669 -0.0023364239559965699 0 -0.035609241079925712 -0.0028171012799069911 0 -0.035364984908756669 -0.0023364239559965699 0 -0.035609241079925712 -0.0028171012799069911 0 -0.035818668508671422 -0.0023391170659406587 0 -0.035609241079925712 -0.0028171012799069911 0 -0.036204542914920645 -0.0027849215948624203 0 -0.035609905061469264 -0.0037994176949217146 0 -0.035609241079925712 -0.0028171012799069911 0 -0.036204542914920645 -0.0027849215948624203 0 -0.035818668508671422 -0.0023391170659406587 0 -0.036182015421677372 -0.0019518665431162252 0 -0.036204542914920645 -0.0027849215948624203 0 -0.035818668508671422 -0.0023391170659406587 0 -0.036701548505033023 -0.0021983814521414004 0 -0.036182015421677372 -0.0019518665431162252 0 -0.036204542914920645 -0.0027849215948624203 0 -0.036204542914920645 -0.0027849215948624203 0 -0.036552012984826424 -0.0036714412145729628 0 -0.036890945811610565 -0.0028103095673925865 0 -0.036204542914920645 -0.0027849215948624203 0 -0.036552012984826424 -0.0036714412145729628 0 -0.035609905061469264 -0.0037994176949217146 0 -0.036552012984826424 -0.0036714412145729628 0 -0.035609905061469264 -0.0037994176949217146 0 -0.036255368240158951 -0.0044868255619972645 0 -0.034999787259934231 -0.0028701941165732154 0 -0.035609905061469264 -0.0037994176949217146 0 -0.034999907981399445 -0.004935458525584943 0 -0.038041822123362171 -0.0023685618286054953 0 -0.03721211118746201 -0.0020537695421112821 0 -0.037431907838396526 -0.0027645912211522591 0 -0.038041822123362171 -0.0023685618286054953 0 -0.037431907838396526 -0.0027645912211522591 0 -0.037701753274414419 -0.0034256996014616369 0 -0.03721211118746201 -0.0020537695421112821 0 -0.037431907838396526 -0.0027645912211522591 0 -0.036890945811610565 -0.0028103095673925865 0 -0.036701548505033023 -0.0021983814521414004 0 -0.03721211118746201 -0.0020537695421112821 0 -0.036890945811610565 -0.0028103095673925865 0 -0.036701548505033023 -0.0021983814521414004 0 -0.036204542914920645 -0.0027849215948624203 0 -0.036890945811610565 -0.0028103095673925865 0 -0.037431907838396526 -0.0027645912211522591 0 -0.036890945811610565 -0.0028103095673925865 0 -0.037151845073175968 -0.003471068675402656 0 -0.036552012984826424 -0.0036714412145729628 0 -0.037151845073175968 -0.003471068675402656 0 -0.037230408204590178 -0.0044122364006512179 0 -0.036552012984826424 -0.0036714412145729628 0 -0.036890945811610565 -0.0028103095673925865 0 -0.037151845073175968 -0.003471068675402656 0 -0.037151845073175968 -0.003471068675402656 0 -0.037701753274414419 -0.0034256996014616369 0 -0.037230408204590178 -0.0044122364006512179 0 -0.037431907838396526 -0.0027645912211522591 0 -0.037151845073175968 -0.003471068675402656 0 -0.037701753274414419 -0.0034256996014616369 0 -0.037701753274414419 -0.0034256996014616369 0 -0.037230408204590178 -0.0044122364006512179 0 -0.038028205519592004 -0.0043772368087063619 0 -0.037230408204590178 -0.0044122364006512179 0 -0.036615833785731244 -0.0056380628344141941 0 -0.037435231153151387 -0.0052230301332175117 0 -0.037544422716681937 -0.0057439827718911759 0 -0.038046103613709754 -0.0058777634132051457 0 -0.037230408204590178 -0.0044122364006512179 0 -0.037435231153151387 -0.0052230301332175117 0 -0.038028205519592004 -0.0043772368087063619 0 -0.037435231153151387 -0.0052230301332175117 0 -0.038226177083832531 -0.0051654981616951383 0 -0.038028205519592004 -0.0043772368087063619 0 -0.035609905061469264 -0.0037994176949217146 0 -0.034999907981399445 -0.004935458525584943 0 -0.036255368240158951 -0.0044868255619972645 0 -0.036552012984826424 -0.0036714412145729628 0 -0.037230408204590178 -0.0044122364006512179 0 -0.036255368240158951 -0.0044868255619972645 0 -0.037230408204590178 -0.0044122364006512179 0 -0.036255368240158951 -0.0044868255619972645 0 -0.036615833785731244 -0.0056380628344141941 0 -0.034999907981399445 -0.004935458525584943 0 -0.036255368240158951 -0.0044868255619972645 0 -0.036615833785731244 -0.0056380628344141941 0 -0.034999907981399445 -0.004935458525584943 0 -0.036615833785731244 -0.0056380628344141941 0 -0.034999788500618495 -0.0070014846087373449 0 -0.036615833785731244 -0.0056380628344141941 0 -0.034999788500618495 -0.0070014846087373449 0 -0.036491229030006116 -0.0074155442917455561 0 -0.036615833785731244 -0.0056380628344141941 0 -0.036491229030006116 -0.0074155442917455561 0 -0.037569767334627399 -0.0069933576641018043 0 -0.035865296598919703 -0.0087981423723752002 0 -0.036491229030006116 -0.0074155442917455561 0 -0.037752293740175087 -0.0083464871750633766 0 -0.037097790498254533 -0.0080982572604913344 0 -0.037840036684787089 -0.0078421118151935469 0 -0.035865296598919703 -0.0087981423723752002 0 -0.034999788500618495 -0.0070014846087373449 0 -0.036491229030006116 -0.0074155442917455561 0 -0.034999999472479414 -0.0090677868398826508 0 -0.035865296598919703 -0.0087981423723752002 0 -0.034999788500618495 -0.0070014846087373449 0 -0.038046103613709754 -0.0058777634132051457 0 -0.038923355001843442 -0.0061499378597918153 0 -0.038796897887179355 -0.0072436344633756396 0 -0.039810104270188357 -0.0078673811856518547 0 -0.040276533232425374 -0.0067743158339640267 0 -0.038796897887179355 -0.0072436344633756396 0 -0.038536807672442511 -0.0062441719736626338 0 -0.040276533232425374 -0.0067743158339640267 0 -0.036615833785731244 -0.0056380628344141941 0 -0.038536807672442511 -0.0062441719736626338 0 -0.037569767334627399 -0.0069933576641018043 0 -0.038796897887179355 -0.0072436344633756396 0 -0.038536807672442511 -0.0062441719736626338 0 -0.037569767334627399 -0.0069933576641018043 0 -0.036491229030006116 -0.0074155442917455561 0 -0.037569767334627399 -0.0069933576641018043 0 -0.037752293740175087 -0.0083464871750633766 0 -0.038796897887179355 -0.0072436344633756396 0 -0.037569767334627399 -0.0069933576641018043 0 -0.037752293740175087 -0.0083464871750633766 0 -0.03838515937230795 -0.0095376018587871626 0 -0.03765430479786714 -0.0084209454708722709 0 -0.03937738567437201 -0.0080347999308200465 0 -0.038796897887179355 -0.0072436344633756396 0 -0.037752293740175087 -0.0083464871750633766 0 -0.039810104270188357 -0.0078673811856518547 0 -0.03838515937230795 -0.0095376018587871626 0 -0.03973383583408284 -0.0085810062372706289 0 -0.03937738567437201 -0.0080347999308200465 0 -0.037840036684787089 -0.0078421118151935469 0 -0.039056054464201975 -0.0072664520458538915 0 -0.03973383583408284 -0.0085810062372706289 0 -0.03937738567437201 -0.0080347999308200465 0 -0.041064088866480948 -0.0076470405142279119 0 -0.039056054464201975 -0.0072664520458538915 0 -0.039461550524472665 -0.0065397926961549193 0 -0.037859040893915043 -0.0069336495944448242 0 -0.03730582110138863 -0.0064526299181517565 0 -0.0382235614334221 -0.0065526364210061125 0 -0.039810104270188357 -0.0078673811856518547 0 -0.040276533232425374 -0.0067743158339640267 0 -0.041799711572651083 -0.0074021383876252565 0 -0.038226177083832531 -0.0051654981616951383 0 -0.038734768341611374 -0.0048507468037933986 0 -0.039053918184544137 -0.005299061349567525 0 -0.040276533232425374 -0.0067743158339640267 0 -0.041994238032398892 -0.0072671520787252102 0 -0.041799711572651083 -0.0074021383876252565 0 -0.038923355001843442 -0.0061499378597918153 0 -0.039483462448400203 -0.0064138758475577604 0 -0.038734768341611374 -0.0048507468037933986 0 -0.039053918184544137 -0.005299061349567525 0 -0.039144924838507643 -0.0047705106403307263 0 -0.038798452530078409 -0.0056235962648074423 0 -0.038991752180337617 -0.0057752468824862832 0 -0.039130988539762421 -0.0055655397009943229 0 -0.039461550524472665 -0.0065397926961549193 0 -0.039506289081685367 -0.0064101127876979398 0 -0.039523716963216569 -0.0065970396123395149 0 -0.039676020125291318 -0.0064915922781227159 0 -0.039385467630252281 -0.006557446887545366 0 -0.039483462448400203 -0.0064138758475577604 0 -0.039461550524472665 -0.0065397926961549193 0 -0.03730582110138863 -0.0064526299181517565 0 -0.038512801916805145 -0.0061211032200755092 0 -0.0382235614334221 -0.0065526364210061125 0 -0.038798452530078409 -0.0056235962648074423 0 -0.038839434833138273 -0.0058939366675130724 0 -0.038512801916805145 -0.0061211032200755092 0 -0.038839434833138273 -0.0058939366675130724 0 -0.038991752180337617 -0.0057752468824862832 0 -0.039054278344477819 -0.0060580000196229153 0 -0.03730582110138863 -0.0064526299181517565 0 -0.038798452530078409 -0.0056235962648074423 0 -0.038512801916805145 -0.0061211032200755092 0 -0.038798452530078409 -0.0056235962648074423 0 -0.038839434833138273 -0.0058939366675130724 0 -0.038991752180337617 -0.0057752468824862832 0 -0.038384771480753782 -0.0076045973807919685 0 -0.039461550524472665 -0.0065397926961549193 0 -0.038839434833138273 -0.0058939366675130724 0 -0.038512801916805145 -0.0061211032200755092 0 -0.039054278344477819 -0.0060580000196229153 0 -0.038763462278999718 -0.0065442379848176975 0 -0.039171282876284491 -0.0065303981821876111 0 -0.039054278344477819 -0.0060580000196229153 0 -0.038512801916805145 -0.0061211032200755092 0 -0.038763462278999718 -0.0065442379848176975 0 -0.039054278344477819 -0.0060580000196229153 0 -0.038512801916805145 -0.0061211032200755092 0 -0.0382235614334221 -0.0065526364210061125 0 -0.038763462278999718 -0.0065442379848176975 0 -0.039719817918070666 -0.0068995150222970819 0 -0.039171282876284491 -0.0065303981821876111 0 -0.039477213374426154 -0.0063726772226093669 0 -0.039505173405076706 -0.0059889112247635675 0 -0.040547582750084521 -0.0061988627218132657 0 -0.039130988539762421 -0.0055655397009943229 0 -0.039140358673714015 -0.0070129761944212332 0 -0.038763462278999718 -0.0065442379848176975 0 -0.039171282876284491 -0.0065303981821876111 0 -0.039923244853476092 -0.0063709200719978456 0 -0.039505173405076706 -0.0059889112247635675 0 -0.040547582750084521 -0.0061988627218132657 0 -0.040029245247519635 -0.0064435253039758483 0 -0.039506289081685367 -0.0064101127876979398 0 -0.039171282876284491 -0.0065303981821876111 0 -0.039477213374426154 -0.0063726772226093669 0 -0.039054278344477819 -0.0060580000196229153 0 -0.039719817918070666 -0.0068995150222970819 0 -0.039477213374426154 -0.0063726772226093669 0 -0.039923244853476092 -0.0063709200719978456 0 -0.039477213374426154 -0.0063726772226093669 0 -0.039923244853476092 -0.0063709200719978456 0 -0.039505173405076706 -0.0059889112247635675 0 -0.038991752180337617 -0.0057752468824862832 0 -0.039170848113198056 -0.0058481612989701535 0 -0.039130988539762421 -0.0055655397009943229 0 -0.038991752180337617 -0.0057752468824862832 0 -0.039170848113198056 -0.0058481612989701535 0 -0.039054278344477819 -0.0060580000196229153 0 -0.039505173405076706 -0.0059889112247635675 0 -0.039170848113198056 -0.0058481612989701535 0 -0.039054278344477819 -0.0060580000196229153 0 -0.039505173405076706 -0.0059889112247635675 0 -0.039170848113198056 -0.0058481612989701535 0 -0.039130988539762421 -0.0055655397009943229 0 -0.039477213374426154 -0.0063726772226093669 0 -0.039505173405076706 -0.0059889112247635675 0 -0.039054278344477819 -0.0060580000196229153 0 -0.040568006565803061 -0.0068977373226138368 0 -0.039923244853476092 -0.0063709200719978456 0 -0.040547582750084521 -0.0061988627218132657 0 -0.040568006565803061 -0.0068977373226138368 0 -0.039719817918070666 -0.0068995150222970819 0 -0.039923244853476092 -0.0063709200719978456 0 -0.039508474131645099 -0.0061824296540185864 0 -0.039613342103538292 -0.0055589937140910197 0 -0.038352446057258169 -0.0058515238934192084 0 -0.040085406062617214 -0.0048953329525476931 0 -0.039641320198805119 -0.0046744657658619607 0 -0.040238485291344023 -0.004257105983022794 0 -0.040433649737728429 -0.0059064010182403167 0 -0.039508474131645099 -0.0061824296540185864 0 -0.039613342103538292 -0.0055589937140910197 0 -0.040085406062617214 -0.0048953329525476931 0 -0.039133403874322945 -0.0051169708419068639 0 -0.039641320198805119 -0.0046744657658619607 0 -0.040120373548418867 -0.0057755098452630009 0 -0.039506289081685367 -0.0064101127876979398 0 -0.039044707883933855 -0.0050920153065222877 0 -0.039133403874322945 -0.0051169708419068639 0 -0.039641320198805119 -0.0046744657658619607 0 -0.039483462448400203 -0.0064138758475577604 0 -0.039506289081685367 -0.0064101127876979398 0 -0.039483462448400203 -0.0064138758475577604 0 -0.039847408107631474 -0.005802049999893746 0 -0.039053918184544137 -0.005299061349567525 0 -0.039657316260359753 -0.0048171705545393554 0 -0.039144924838507643 -0.0047705106403307263 0 -0.039144924838507643 -0.0047705106403307263 0 -0.03948746613727127 -0.0042085825418904333 0 -0.038887353720577812 -0.0043465343049041765 0 -0.039657316260359753 -0.0048171705545393554 0 -0.039144924838507643 -0.0047705106403307263 0 -0.03948746613727127 -0.0042085825418904333 0 -0.039657316260359753 -0.0048171705545393554 0 -0.03948746613727127 -0.0042085825418904333 0 -0.040238485291344023 -0.004257105983022794 0 -0.03948746613727127 -0.0042085825418904333 0 -0.040238485291344023 -0.004257105983022794 0 -0.039935922680000464 -0.0038266622128646259 0 -0.039847408107631474 -0.005802049999893746 0 -0.040023361944899014 -0.0055649568212620491 0 -0.03948746613727127 -0.0042085825418904333 0 -0.039684883648334661 -0.0034511069770622065 0 -0.039935922680000464 -0.0038266622128646259 0 -0.040325793272878309 -0.0033926685134396161 0 -0.040238485291344023 -0.004257105983022794 0 -0.039935922680000464 -0.0038266622128646259 0 -0.040325793272878309 -0.0033926685134396161 0 -0.039684883648334661 -0.0034511069770622065 0 -0.039935922680000464 -0.0038266622128646259 0 -0.03948746613727127 -0.0042085825418904333 0 -0.039122974161778214 -0.0035437665458697633 0 -0.038887353720577812 -0.0043465343049041765 0 -0.03948746613727127 -0.0042085825418904333 0 -0.039684883648334661 -0.0034511069770622065 0 -0.039122974161778214 -0.0035437665458697633 0 -0.038567939817562513 -0.0036803311943621785 0 -0.038452449739239884 -0.0045492264238843139 0 -0.038887353720577812 -0.0043465343049041765 0 -0.039122974161778214 -0.0035437665458697633 0 -0.038567939817562513 -0.0036803311943621785 0 -0.038887353720577812 -0.0043465343049041765 0 -0.038567939817562513 -0.0036803311943621785 0 -0.038028205519592004 -0.0043772368087063619 0 -0.038452449739239884 -0.0045492264238843139 0 -0.038253885816004453 -0.0031302661692916593 0 -0.038567939817562513 -0.0036803311943621785 0 -0.038028205519592004 -0.0043772368087063619 0 -0.038226177083832531 -0.0051654981616951383 0 -0.038028205519592004 -0.0043772368087063619 0 -0.038452449739239884 -0.0045492264238843139 0 -0.038226177083832531 -0.0051654981616951383 0 -0.038734768341611374 -0.0048507468037933986 0 -0.038452449739239884 -0.0045492264238843139 0 -0.038734768341611374 -0.0048507468037933986 0 -0.038452449739239884 -0.0045492264238843139 0 -0.038887353720577812 -0.0043465343049041765 0 -0.038734768341611374 -0.0048507468037933986 0 -0.039144924838507643 -0.0047705106403307263 0 -0.038887353720577812 -0.0043465343049041765 0 -0.004635350853136995 0.0066590757590578387 0 -0.0043391122129199551 0.0057932166991174448 0 -0.0054584625315706259 0.0055433979103670719 0 -0.004635350853136995 0.0066590757590578387 0 -0.0034584741852778183 0.0060492943558214766 0 -0.0043391122129199551 0.0057932166991174448 0 -0.006432357703973865 0.0045662760577761981 0 -0.0074678389992645765 0.0053770282112913965 0 -0.004635350853136995 0.0066590757590578387 0 -0.0060390915000022556 0.0067314306023267155 0 -0.0054584625315706259 0.0055433979103670719 0 -0.0060390915000022556 0.0067314306023267155 0 -0.0054584625315706259 0.0055433979103670719 0 -0.0070742615504104525 0.0064243331223641908 0 -0.004635350853136995 0.0066590757590578387 0 -0.005403135713821036 0.0072677085140636427 0 -0.0060390915000022556 0.0067314306023267155 0 -0.005403135713821036 0.0072677085140636427 0 -0.0060390915000022556 0.0067314306023267155 0 -0.0059868345680997867 0.0077384168324564464 0 -0.0060390915000022556 0.0067314306023267155 0 -0.0059868345680997867 0.0077384168324564464 0 -0.0071158164008571986 0.0072786813638719486 0 -0.0060390915000022556 0.0067314306023267155 0 -0.0070742615504104525 0.0064243331223641908 0 -0.0071158164008571986 0.0072786813638719486 0 -0.0059868345680997867 0.0077384168324564464 0 -0.0071158164008571986 0.0072786813638719486 0 -0.0067005298746708152 0.0083767207010376488 0 -0.005403135713821036 0.0072677085140636427 0 -0.0059868345680997867 0.0077384168324564464 0 -0.0049926616893126476 0.008124340896426295 0 -0.0059868345680997867 0.0077384168324564464 0 -0.0049926616893126476 0.008124340896426295 0 -0.0057617541690088894 0.0087168883955146929 0 -0.004635350853136995 0.0066590757590578387 0 -0.0049926616893126476 0.008124340896426295 0 -0.0033175876166172381 0.0078583066784093814 0 -0.004635350853136995 0.0066590757590578387 0 -0.005403135713821036 0.0072677085140636427 0 -0.0049926616893126476 0.008124340896426295 0 -0.0040458984105490887 0.0084969055184313108 0 -0.0028867216388559938 0.0081955783224475151 0 -0.0034584741852778183 0.0060492943558214766 0 -0.0040458984105490887 0.0084969055184313108 0 -0.0028867216388559938 0.0081955783224475151 0 -0.0029899903177500846 0.0095828424155695521 0 -0.0021927712826453698 0.00754245125598073 0 -0.0028867216388559938 0.0081955783224475151 0 -0.0018072794238285295 0.0089100055770585176 0 -0.0021927712826453698 0.00754245125598073 0 -0.0023114751545316339 0.0063544757336428271 0 -0.0034584741852778183 0.0060492943558214766 0 -0.0021927712826453698 0.00754245125598073 0 -0.0028867216388559938 0.0081955783224475151 0 -0.0034584741852778183 0.0060492943558214766 0 -0.0035413805592865019 0.0087863436570146617 0 -0.0034153082498400234 0.0077368634456375209 0 -0.004635350853136995 0.0066590757590578387 0 -0.0033175876166172381 0.0078583066784093814 0 -0.0034584741852778183 0.0060492943558214766 0 -0.0034584741852778183 0.0060492943558214766 0 -0.0022558290718896388 0.0054739258910518566 0 -0.0038609416090759573 0.0049857785972174194 0 -0.0034584741852778183 0.0060492943558214766 0 -0.0038609416090759573 0.0049857785972174194 0 -0.0043391122129199551 0.0057932166991174448 0 -0.0023114751545316339 0.0063544757336428271 0 -0.0034584741852778183 0.0060492943558214766 0 -0.0022558290718896388 0.0054739258910518566 0 -0.0022558290718896388 0.0054739258910518566 0 -0.0038609416090759573 0.0049857785972174194 0 -0.0024506998773666804 0.0040892251772909156 0 -0.0047570688518126375 0.0031503745403279608 0 -0.003261715212136594 0.0015999220809969814 0 -0.0064590913013839579 -0.00042306365263063855 0 -0.0056190860497574253 -0.001776468521086315 0 -0.0048764238280526225 0.0018077972844539618 0 -0.0068531520165832343 0.0018302323287690324 0 -0.0050277314085464637 -0.00010141132977657394 0 -0.0048764238280526225 0.0018077972844539618 0 -0.0068916696875330223 0.0036471729161993973 0 -0.0068531520165832343 0.0018302323287690324 0 -0.0047570688518126375 0.0031503745403279608 0 -0.006432357703973865 0.0045662760577761981 0 -0.0038609416090759573 0.0049857785972174194 0 -0.0043391122129199551 0.0057932166991174448 0 -0.0054584625315706259 0.0055433979103670719 0 -0.0068916696875330223 0.0036471729161993973 0 -0.0077624410188121586 0.0029763670930679372 0 -0.0068531520165832343 0.0018302323287690324 0 -0.0068916696875330223 0.0036471729161993973 0 -0.0077624410188121586 0.0029763670930679372 0 -0.0080365298384652041 0.0043819822961765377 0 -0.0077624410188121586 0.0029763670930679372 0 -0.0068531520165832343 0.0018302323287690324 0 -0.0083993645953447868 0.0015796306098629831 0 -0.0068531520165832343 0.0018302323287690324 0 -0.0083993645953447868 0.0015796306098629831 0 -0.0071632947199225736 -0.0011673365668004592 0 -0.0081129185318064689 0.00021434632953335102 0 -0.0089810720639560762 0.00041702518280107458 0 -0.0091137503368666009 0.0011100005286413344 0 -0.0081129185318064689 0.00021434632953335102 0 -0.0089810720639560762 0.00041702518280107458 0 -0.0089996062901713959 -0.00060086404369715841 0 -0.0094601688905311381 0.00030445402091292272 0 -0.0091663584006085336 -0.0002092580727850427 0 -0.0082762827343610765 -0.0004550359475232799 0 -0.0097784646541503352 0.00086883537640341179 0 -0.0089810720639560762 0.00041702518280107458 0 -0.0089996062901713959 -0.00060086404369715841 0 -0.0097784646541503352 0.00086883537640341179 0 -0.0094601688905311381 0.00030445402091292272 0 -0.0082762827343610765 -0.0004550359475232799 0 -0.009181781378173574 -0.00082635289410797411 0 -0.0088477611398119788 -0.0013854559582309413 0 -0.0094601688905311381 0.00030445402091292272 0 -0.0095333783842655399 -3.5770820123906691e-05 0 -0.0091663584006085336 -0.0002092580727850427 0 -0.0097784646541503352 0.00086883537640341179 0 -0.0089810720639560762 0.00041702518280107458 0 -0.0091137503368666009 0.0011100005286413344 0 -0.0097784646541503352 0.00086883537640341179 0 -0.0094601688905311381 0.00030445402091292272 0 -0.010851103851479292 0.0021608868288127935 0 -0.0097784646541503352 0.00086883537640341179 0 -0.0091137503368666009 0.0011100005286413344 0 -0.010851103851479292 0.0021608868288127935 0 -0.0091137503368666009 0.0011100005286413344 0 -0.0089267069319926649 0.0021558456210691917 0 -0.010851103851479292 0.0021608868288127935 0 -0.0081129185318064689 0.00021434632953335102 0 -0.0091137503368666009 0.0011100005286413344 0 -0.0089267069319926649 0.0021558456210691917 0 -0.0077624410188121586 0.0029763670930679372 0 -0.0083993645953447868 0.0015796306098629831 0 -0.0085895811848914205 0.0034137511011634088 0 -0.0083993645953447868 0.0015796306098629831 0 -0.0096968007699031605 0.0037761886797739951 0 -0.0085895811848914205 0.0034137511011634088 0 -0.0096968007699031605 0.0037761886797739951 0 -0.0085895811848914205 0.0034137511011634088 0 -0.0090407248039428567 0.004387931747112479 0 -0.0083542261777286367 0.0012710336207525852 0 -0.0095402986731951724 0.0027815099177465529 0 -0.0077624410188121586 0.0029763670930679372 0 -0.0085895811848914205 0.0034137511011634088 0 -0.0080365298384652041 0.0043819822961765377 0 0.0036883142356335255 0.0062922471845848872 0 0.0039569410875146017 0.0052359313631086353 0 -0.0099157706131958231 -0.00015031146803161867 0 -0.0097084075202737968 0.00035282372607639903 0 -0.010096696217625814 0.00061669288452105499 0 -0.0099157706131958231 -0.00015031146803161867 0 -0.010096696217625814 0.00061669288452105499 0 -0.010577940843880935 -0.00031595559347891665 0 -0.0099157706131958231 -0.00015031146803161867 0 -0.0097084075202737968 0.00035282372607639903 0 -0.0095333783842655399 -3.5770820123906691e-05 0 -0.0094601688905311381 0.00030445402091292272 0 -0.0095333783842655399 -3.5770820123906691e-05 0 -0.0095484658879046672 0.00036761133104203065 0 -0.0097084075202737968 0.00035282372607639903 0 -0.0095333783842655399 -3.5770820123906691e-05 0 -0.0095484658879046672 0.00036761133104203065 0 -0.00081984058714533307 0.005027998111704287 0 0.00010709852622115531 0.0058199042593604427 0 -0.0097084075202737968 0.00035282372607639903 0 -0.0094812335485401304 0.00075377392125295175 0 -0.010096696217625814 0.00061669288452105499 0 -0.0094601688905311381 0.00030445402091292272 0 -0.0095484658879046672 0.00036761133104203065 0 -0.0094812335485401304 0.00075377392125295175 0 -0.0097084075202737968 0.00035282372607639903 0 -0.0095484658879046672 0.00036761133104203065 0 -0.0094812335485401304 0.00075377392125295175 0 0.018699023466802505 0.011055432188063256 0 0.018691861271572113 0.010901131144571636 0 0.018492174025950769 0.010821820270648494 0 0.0036883142356335255 0.0062922471845848872 0 0.0033093356089649545 0.0078836440578681777 0 0.018699023466802505 0.011055432188063256 0 0.018691861271572113 0.010901131144571636 0 0.018839975406302324 0.010965255381168734 0 0.018691861271572113 0.010901131144571636 0 0.018646435489540068 0.010769834026879706 0 0.018756280554865456 0.01083330580161904 0 0.018691861271572113 0.010901131144571636 0 0.018492174025950769 0.010821820270648494 0 0.018646435489540068 0.010769834026879706 0 0.00010709852622115531 0.0058199042593604427 0 0.0033093356089649545 0.0078836440578681777 0 -0.010851103851479292 0.0021608868288127935 0 -0.01197276253224233 0.005644427208303493 0 -0.011564248345471826 0.005758988933306345 0 -0.0094812335485401304 0.00075377392125295175 0 -0.010096696217625814 0.00061669288452105499 0 -0.0096695352799774353 0.001381117674626215 0 0.018140031009323179 0.01144632675944126 0 0.01784093233639816 0.010824761334905716 0 0.018368429080315558 0.010904724379818364 0 0.0033093356089649545 0.0078836440578681777 0 0.0014351655467830177 0.011467158077088082 0 -0.011564248345471826 0.005758988933306345 0 -0.010618161979037867 0.0061183097584906233 0 -0.010537286154589843 0.0085394081364894188 0 -0.01197276253224233 0.005644427208303493 0 -0.011564248345471826 0.005758988933306345 0 -0.010537286154589843 0.0085394081364894188 0 0.0033093356089649545 0.0078836440578681777 0 0.0078180309423121711 0.0078868444969961531 0 0.018492174025950769 0.010821820270648494 0 0.018646435489540068 0.010769834026879706 0 0.018548789934255027 0.010585143388491671 0 0.018646435489540068 0.010769834026879706 0 0.018548789934255027 0.010585143388491671 0 0.018759415524705655 0.010711884363704753 0 0.018646435489540068 0.010769834026879706 0 0.018756280554865456 0.01083330580161904 0 0.018759415524705655 0.010711884363704753 0 -0.0068916696875330223 0.0036471729161993973 0 -0.0080365298384652041 0.0043819822961765377 0 -0.0084377482456872172 0.006138895481681725 0 -0.0054584625315706259 0.0055433979103670719 0 -0.0070742615504104525 0.0064243331223641908 0 -0.0084377482456872172 0.006138895481681725 0 -0.0084585080961315003 0.0050963240509271689 0 -0.0080365298384652041 0.0043819822961765377 0 -0.0084377482456872172 0.006138895481681725 0 -0.0084585080961315003 0.0050963240509271689 0 -0.0087539540189780878 0.0056013384965562692 0 -0.0092375079312780866 0.0053288251216599284 0 -0.0087539540189780878 0.0056013384965562692 0 -0.0088502296450440662 0.0058801864162987662 0 -0.0092375079312780866 0.0053288251216599284 0 -0.0087539540189780878 0.0056013384965562692 0 -0.0088502296450440662 0.0058801864162987662 0 -0.0084377482456872172 0.006138895481681725 0 -0.0084585080961315003 0.0050963240509271689 0 -0.0087539540189780878 0.0056013384965562692 0 -0.0084377482456872172 0.006138895481681725 0 -0.0084585080961315003 0.0050963240509271689 0 -0.0090407248039428567 0.004387931747112479 0 -0.0092375079312780866 0.0053288251216599284 0 -0.0084585080961315003 0.0050963240509271689 0 -0.0080365298384652041 0.0043819822961765377 0 -0.0090407248039428567 0.004387931747112479 0 -0.0085895811848914205 0.0034137511011634088 0 -0.0080365298384652041 0.0043819822961765377 0 -0.0090407248039428567 0.004387931747112479 0 -0.0096968007699031605 0.0037761886797739951 0 -0.0095456583323395537 0.0046583690758462302 0 -0.01020037182289261 0.0051939833899304544 0 -0.0089267069319926649 0.0021558456210691917 0 -0.010851103851479292 0.0021608868288127935 0 -0.011564248345471826 0.005758988933306345 0 -0.0096968007699031605 0.0037761886797739951 0 -0.011564248345471826 0.005758988933306345 0 -0.01020037182289261 0.0051939833899304544 0 -0.0095402986731951724 0.0027815099177465529 0 -0.010360812153237078 0.0037678665221296003 0 -0.0090407248039428567 0.004387931747112479 0 -0.0095456583323395537 0.0046583690758462302 0 -0.0092375079312780866 0.0053288251216599284 0 -0.0096968007699031605 0.0037761886797739951 0 -0.0090407248039428567 0.004387931747112479 0 -0.0095456583323395537 0.0046583690758462302 0 -0.011564248345471826 0.005758988933306345 0 -0.01020037182289261 0.0051939833899304544 0 -0.010618161979037867 0.0061183097584906233 0 -0.01020037182289261 0.0051939833899304544 0 -0.0092375079312780866 0.0053288251216599284 0 -0.0097679399020448535 0.0062565864355992474 0 -0.0095456583323395537 0.0046583690758462302 0 -0.01020037182289261 0.0051939833899304544 0 -0.0092375079312780866 0.0053288251216599284 0 -0.0092375079312780866 0.0053288251216599284 0 -0.0091540271066037973 0.005942006468290283 0 -0.0097679399020448535 0.0062565864355992474 0 -0.0088502296450440662 0.0058801864162987662 0 -0.0092375079312780866 0.0053288251216599284 0 -0.0091540271066037973 0.005942006468290283 0 -0.0009044165061881487 0.011518560723816306 0 0.0014351655467830177 0.011467158077088082 0 -0.0091540271066037973 0.005942006468290283 0 -0.0097679399020448535 0.0062565864355992474 0 -0.0087485373325084746 0.0063206765642002741 0 -0.0097679399020448535 0.0062565864355992474 0 -0.010618161979037867 0.0061183097584906233 0 -0.010537286154589843 0.0085394081364894188 0 -0.0087485373325084746 0.0063206765642002741 0 -0.0088761288155391558 0.0082330602894036976 0 -0.010449473279868771 0.0090330711387489656 0 -0.0097679399020448535 0.0062565864355992474 0 -0.0087485373325084746 0.0063206765642002741 0 -0.010537286154589843 0.0085394081364894188 0 -0.01020037182289261 0.0051939833899304544 0 -0.0097679399020448535 0.0062565864355992474 0 -0.010618161979037867 0.0061183097584906233 0 -0.0081825973482638724 0.0077251436921354699 0 -0.0087485373325084746 0.0063206765642002741 0 -0.0088761288155391558 0.0082330602894036976 0 -0.0081825973482638724 0.0077251436921354699 0 -0.0082195971669425522 0.0068016241239623474 0 -0.0078145247773243418 0.0072377697782517328 0 -0.0081825973482638724 0.0077251436921354699 0 -0.0082195971669425522 0.0068016241239623474 0 -0.0087485373325084746 0.0063206765642002741 0 -0.0082195971669425522 0.0068016241239623474 0 -0.0077325571214061604 0.0067754769463168486 0 -0.0078145247773243418 0.0072377697782517328 0 -0.0082195971669425522 0.0068016241239623474 0 -0.0084377482456872172 0.006138895481681725 0 -0.0077325571214061604 0.0067754769463168486 0 -0.0088502296450440662 0.0058801864162987662 0 -0.0084377482456872172 0.006138895481681725 0 -0.0087485373325084746 0.0063206765642002741 0 -0.0082195971669425522 0.0068016241239623474 0 -0.0084377482456872172 0.006138895481681725 0 -0.0087485373325084746 0.0063206765642002741 0 -0.0088502296450440662 0.0058801864162987662 0 -0.0091540271066037973 0.005942006468290283 0 -0.0087485373325084746 0.0063206765642002741 0 -0.0070742615504104525 0.0064243331223641908 0 -0.0077325571214061604 0.0067754769463168486 0 -0.0071158164008571986 0.0072786813638719486 0 -0.0070742615504104525 0.0064243331223641908 0 -0.0084377482456872172 0.006138895481681725 0 -0.0077325571214061604 0.0067754769463168486 0 -0.0077325571214061604 0.0067754769463168486 0 -0.0071158164008571986 0.0072786813638719486 0 -0.0078145247773243418 0.0072377697782517328 0 -0.0071158164008571986 0.0072786813638719486 0 -0.0075128096934924862 0.0079231709253543732 0 -0.0067005298746708152 0.0083767207010376488 0 -0.0071158164008571986 0.0072786813638719486 0 -0.0078145247773243418 0.0072377697782517328 0 -0.0075128096934924862 0.0079231709253543732 0 -0.0081825973482638724 0.0077251436921354699 0 -0.0078145247773243418 0.0072377697782517328 0 -0.0075128096934924862 0.0079231709253543732 0 -0.0075128096934924862 0.0079231709253543732 0 -0.0076536126511505004 0.0089085110666690028 0 -0.0067005298746708152 0.0083767207010376488 0 -0.0081825973482638724 0.0077251436921354699 0 -0.0075128096934924862 0.0079231709253543732 0 -0.0076536126511505004 0.0089085110666690028 0 -0.0076536126511505004 0.0089085110666690028 0 -0.007427000987231004 0.010598233393510121 0 -0.0063330898639006985 0.0096557332150372932 0 -0.0076536126511505004 0.0089085110666690028 0 -0.0085726088981559513 0.0096319684987000009 0 -0.007427000987231004 0.010598233393510121 0 -0.0076536126511505004 0.0089085110666690028 0 -0.0085726088981559513 0.0096319684987000009 0 -0.0088761288155391558 0.0082330602894036976 0 -0.0081825973482638724 0.0077251436921354699 0 -0.0076536126511505004 0.0089085110666690028 0 -0.0088761288155391558 0.0082330602894036976 0 -0.0085726088981559513 0.0096319684987000009 0 -0.0088761288155391558 0.0082330602894036976 0 -0.010449473279868771 0.0090330711387489656 0 -0.0085726088981559513 0.0096319684987000009 0 -0.010449473279868771 0.0090330711387489656 0 -0.0089719327602388738 0.011646161890441627 0 0.0014351655467830177 0.011467158077088082 0 -0.00019954793427793895 0.014372905802847996 0 0.0039846105482420945 0.023732299212552221 0 0.0028990891528434311 0.021670456457959928 0 0.0041756347898599059 0.021572715642464824 0 -0.0085726088981559513 0.0096319684987000009 0 -0.0089719327602388738 0.011646161890441627 0 -0.007427000987231004 0.010598233393510121 0 -0.0089719327602388738 0.011646161890441627 0 -0.007427000987231004 0.010598233393510121 0 -0.0071220383227227216 0.012269845088417372 0 0.018548789934255027 0.010585143388491671 0 0.018788640441594683 0.010577291930467313 0 0.018759103518382496 0.010408726523153337 0 0.0078180309423121711 0.0078868444969961531 0 0.0091888903961042205 0.0079124727516042045 0 0.018548789934255027 0.010585143388491671 0 0.018759415524705655 0.010711884363704753 0 0.018788640441594683 0.010577291930467313 0 0.01784093233639816 0.010824761334905716 0 0.018368429080315558 0.010904724379818364 0 0.018293138119791958 0.010331229580958761 0 0.0039846105482420945 0.023732299212552221 0 0.0053103771391726532 0.02203416267050113 0 0.0041756347898599059 0.021572715642464824 0 0.0014351655467830177 0.011467158077088082 0 0.0067857223496728377 0.012775472662052327 0 0.018368429080315558 0.010904724379818364 0 0.018293138119791958 0.010331229580958761 0 0.018593817212170738 0.010369605532663567 0 0.018548789934255027 0.010585143388491671 0 0.018593817212170738 0.010369605532663567 0 0.018759103518382496 0.010408726523153337 0 0.018293138119791958 0.010331229580958761 0 0.018593817212170738 0.010369605532663567 0 0.018581932129904517 0.010250163215347167 0 0.018593817212170738 0.010369605532663567 0 0.018687073117454128 0.010256790496799721 0 0.018581932129904517 0.010250163215347167 0 0.018593817212170738 0.010369605532663567 0 0.018687073117454128 0.010256790496799721 0 0.018713175490958332 0.010331218709425959 0 0.018593817212170738 0.010369605532663567 0 0.018713175490958332 0.010331218709425959 0 0.018759103518382496 0.010408726523153337 0 0.0053103771391726532 0.02203416267050113 0 0.0067067143723164623 0.020343603914784542 0 0.0065580939180591071 0.020418265319208814 0 0.018293138119791958 0.010331229580958761 0 0.018650427910490909 0.010105723819488252 0 0.018581932129904517 0.010250163215347167 0 0.0053103771391726532 0.02203416267050113 0 0.0065580939180591071 0.020418265319208814 0 0.0050872331295826016 0.020519861227243762 0 0.0067857223496728377 0.012775472662052327 0 0.010279924954163088 0.013228426269362024 0 0.0067178176824245327 0.020349579308281358 0 0.0065580939180591071 0.020418265319208814 0 0.006609210000311983 0.019988613372409991 0 0.010279924954163088 0.013228426269362024 0 0.010261721314963087 0.013242779804129717 0 0.018650427910490909 0.010105723819488252 0 0.01865961294369391 0.010196656321703142 0 0.018737679954447091 0.010168976784968019 0 0.01865961294369391 0.010196656321703142 0 0.018687073117454128 0.010256790496799721 0 0.018737679954447091 0.010168976784968019 0 0.018650427910490909 0.010105723819488252 0 0.01865961294369391 0.010196656321703142 0 0.018581932129904517 0.010250163215347167 0 0.01865961294369391 0.010196656321703142 0 0.018687073117454128 0.010256790496799721 0 0.018581932129904517 0.010250163215347167 0 0.0065580939180591071 0.020418265319208814 0 0.0050872331295826016 0.020519861227243762 0 0.00613803386137045 0.019737140112538871 0 0.0053103771391726532 0.02203416267050113 0 0.0050872331295826016 0.020519861227243762 0 0.0041756347898599059 0.021572715642464824 0 0.0050872331295826016 0.020519861227243762 0 0.0041756347898599059 0.021572715642464824 0 0.0036792222722415243 0.020169327301773871 0 0.0049503252387034114 0.019397322890488459 0 0.0058624066008107966 0.018770426466651512 0 0.0039463416129336933 0.018522166745958225 0 0.0049503252387034114 0.019397322890488459 0 0.0036792222722415243 0.020169327301773871 0 0.0039463416129336933 0.018522166745958225 0 0.0050872331295826016 0.020519861227243762 0 0.0049503252387034114 0.019397322890488459 0 0.0036792222722415243 0.020169327301773871 0 0.0050872331295826016 0.020519861227243762 0 0.0049503252387034114 0.019397322890488459 0 0.00613803386137045 0.019737140112538871 0 0.00613803386137045 0.019737140112538871 0 0.0058624066008107966 0.018770426466651512 0 0.0068443915420245338 0.019391106203782271 0 0.0049503252387034114 0.019397322890488459 0 0.00613803386137045 0.019737140112538871 0 0.0058624066008107966 0.018770426466651512 0 0.0058624066008107966 0.018770426466651512 0 0.0068443915420245338 0.019391106203782271 0 0.0071617327022626244 0.018553320354078445 0 0.0068443915420245338 0.019391106203782271 0 0.006609210000311983 0.019988613372409991 0 0.0070316845232718927 0.020024462014835574 0 0.00613803386137045 0.019737140112538871 0 0.0068443915420245338 0.019391106203782271 0 0.006609210000311983 0.019988613372409991 0 0.0065580939180591071 0.020418265319208814 0 0.00613803386137045 0.019737140112538871 0 0.006609210000311983 0.019988613372409991 0 0.0067178176824245327 0.020349579308281358 0 0.006609210000311983 0.019988613372409991 0 0.0070316845232718927 0.020024462014835574 0 0.010279924954163088 0.013228426269362024 0 0.010178172555167526 0.013377982402276608 0 -0.00019954793427793895 0.014372905802847996 0 -0.0012228792360345162 0.015436789561802717 0 -0.0089719327602388738 0.011646161890441627 0 -0.0071220383227227216 0.012269845088417372 0 -0.0075471444284120823 0.014347840584702216 0 0.0028990891528434311 0.021670456457959928 0 0.0041756347898599059 0.021572715642464824 0 0.0036792222722415243 0.020169327301773871 0 0.0028990891528434311 0.021670456457959928 0 0.0036792222722415243 0.020169327301773871 0 0.0017907920542753655 0.019561736083158442 0 -0.0012228792360345162 0.015436789561802717 0 0.001668847393981892 0.016006956698717777 0 0.0036792222722415243 0.020169327301773871 0 0.0017907920542753655 0.019561736083158442 0 0.0039463416129336933 0.018522166745958225 0 -0.00017082375794547238 0.020235969498683087 0 0.0031007725648720592 0.018693959289090258 0 0.00059518145560182088 0.01781482513285617 0 -0.0012228792360345162 0.015436789561802717 0 -0.0015234570952668155 0.01540986991406223 0 -0.0042840487253230659 0.01344028775260981 0 -0.003676738704230556 0.01364142602464195 0 -0.0038225206978364634 0.014101495299286731 0 -0.003676738704230556 0.01364142602464195 0 -0.0034465749749171518 0.013459622336437761 0 -0.0038903319263331854 0.013142878153783781 0 -0.0012228792360345162 0.015436789561802717 0 -0.0023052790042669699 0.015264974671052383 0 -0.0042840487253230659 0.01344028775260981 0 -0.003676738704230556 0.01364142602464195 0 -0.0038903319263331854 0.013142878153783781 0 -0.0034465749749171518 0.013459622336437761 0 -0.0029976818896158756 0.013656899457957514 0 -0.0031431370068890677 0.014042395779195185 0 -0.003676738704230556 0.01364142602464195 0 -0.0034465749749171518 0.013459622336437761 0 -0.0031431370068890677 0.014042395779195185 0 -0.0038146223347479916 0.011719189948762088 0 -0.0037334467691972286 0.010700659305068871 0 -0.0034465749749171518 0.013459622336437761 0 -0.0038502061168661315 0.01248635739166872 0 -0.0038903319263331854 0.013142878153783781 0 -0.0034465749749171518 0.013459622336437761 0 -0.0038502061168661315 0.01248635739166872 0 -0.0033465169091793302 0.011106712962880322 0 -0.0024761550451400335 0.015118650039697284 0 -0.0023052790042669699 0.015264974671052383 0 -0.0038502061168661315 0.01248635739166872 0 -0.0057948292536246756 0.013511230395008142 0 -0.0058377899564213609 0.011287159853071046 0 -0.0071220383227227216 0.012269845088417372 0 -0.0057948292536246756 0.013511230395008142 0 -0.0058377899564213609 0.011287159853071046 0 -0.0071220383227227216 0.012269845088417372 0 -0.0075471444284120823 0.014347840584702216 0 -0.0057948292536246756 0.013511230395008142 0 -0.007427000987231004 0.010598233393510121 0 -0.0071220383227227216 0.012269845088417372 0 -0.0058377899564213609 0.011287159853071046 0 -0.007427000987231004 0.010598233393510121 0 -0.0058377899564213609 0.011287159853071046 0 -0.0063330898639006985 0.0096557332150372932 0 -0.0058377899564213609 0.011287159853071046 0 -0.0048175457085289433 0.0097494259365183134 0 -0.0063330898639006985 0.0096557332150372932 0 -0.0038502061168661315 0.01248635739166872 0 -0.0058377899564213609 0.011287159853071046 0 -0.004439418263729465 0.011170211269904863 0 -0.0038502061168661315 0.01248635739166872 0 -0.004439418263729465 0.011170211269904863 0 -0.0033465169091793302 0.011106712962880322 0 -0.004439418263729465 0.011170211269904863 0 -0.0048175457085289433 0.0097494259365183134 0 -0.0033465169091793302 0.011106712962880322 0 -0.0058377899564213609 0.011287159853071046 0 -0.004439418263729465 0.011170211269904863 0 -0.0048175457085289433 0.0097494259365183134 0 -0.0049926616893126476 0.008124340896426295 0 -0.0033175876166172381 0.0078583066784093814 0 -0.0048175457085289433 0.0097494259365183134 0 -0.0033175876166172381 0.0078583066784093814 0 -0.0048175457085289433 0.0097494259365183134 0 -0.0033465169091793302 0.011106712962880322 0 -0.0049926616893126476 0.008124340896426295 0 -0.0048175457085289433 0.0097494259365183134 0 -0.0057617541690088894 0.0087168883955146929 0 -0.0076536126511505004 0.0089085110666690028 0 -0.0067005298746708152 0.0083767207010376488 0 -0.0063330898639006985 0.0096557332150372932 0 -0.0057617541690088894 0.0087168883955146929 0 -0.0067005298746708152 0.0083767207010376488 0 -0.0063330898639006985 0.0096557332150372932 0 -0.0059868345680997867 0.0077384168324564464 0 -0.0057617541690088894 0.0087168883955146929 0 -0.0067005298746708152 0.0083767207010376488 0 -0.0048175457085289433 0.0097494259365183134 0 -0.0057617541690088894 0.0087168883955146929 0 -0.0063330898639006985 0.0096557332150372932 0 -0.0028867216388559938 0.0081955783224475151 0 -0.0029899903177500846 0.0095828424155695521 0 -0.0018072794238285295 0.0089100055770585176 0 -0.0029899903177500846 0.0095828424155695521 0 -0.0018072794238285295 0.0089100055770585176 0 -0.0018823375554872374 0.010382510535003751 0 -0.0040458984105490887 0.0084969055184313108 0 -0.0029899903177500846 0.0095828424155695521 0 -0.0041645331450148506 0.011459217466586433 0 -0.0035413805592865019 0.0087863436570146617 0 -0.0037334467691972286 0.010700659305068871 0 -0.0029899903177500846 0.0095828424155695521 0 -0.0041645331450148506 0.011459217466586433 0 -0.0029564117259408365 0.01158142361044213 0 -0.0038538531370827644 0.0112834326805797 0 -0.0038631020058940506 0.011896713932209521 0 -0.0029899903177500846 0.0095828424155695521 0 -0.0029564117259408365 0.01158142361044213 0 -0.0018998627366598108 0.012061833908447638 0 -0.0028306506746619952 0.012890599545462688 0 -0.0022804922996989226 0.013046673144809125 0 -0.0018998627366598108 0.012061833908447638 0 -0.0029564117259408365 0.01158142361044213 0 -0.0028306506746619952 0.012890599545462688 0 -0.0018998627366598108 0.012061833908447638 0 -0.0034465749749171518 0.013459622336437761 0 -0.0041645331450148506 0.011459217466586433 0 -0.0028306506746619952 0.012890599545462688 0 -0.0041645331450148506 0.011459217466586433 0 -0.0029564117259408365 0.01158142361044213 0 -0.0028306506746619952 0.012890599545462688 0 -0.0028306506746619952 0.012890599545462688 0 -0.0029976818896158756 0.013656899457957514 0 -0.0026851135525233385 0.013677487731557322 0 -0.0034465749749171518 0.013459622336437761 0 -0.0028306506746619952 0.012890599545462688 0 -0.0029976818896158756 0.013656899457957514 0 -0.0028306506746619952 0.012890599545462688 0 -0.0022804922996989226 0.013046673144809125 0 -0.0026851135525233385 0.013677487731557322 0 -0.0022804922996989226 0.013046673144809125 0 -0.0023455803038606947 0.013486700568732801 0 -0.0026851135525233385 0.013677487731557322 0 -0.00083374218782046464 0.011546585753689633 0 8.9434773415263065e-05 0.010258280075501083 0 -0.0018823375554872374 0.010382510535003751 0 -0.0022804922996989226 0.013046673144809125 0 -0.0020102502757249965 0.013197778343250224 0 -0.0023455803038606947 0.013486700568732801 0 -0.0052488750537979002 0.012344411505533458 0 -0.0038631020058940506 0.011896713932209521 0 -0.0022804922996989226 0.013046673144809125 0 -0.0020102502757249965 0.013197778343250224 0 -0.0018998627366598108 0.012061833908447638 0 -0.0052488750537979002 0.012344411505533458 0 -0.011656980358766842 0.00919420934708284 0 -0.00083374218782046464 0.011546585753689633 0 0.00084257522334830689 0.011709374534635802 0 0.00021987589317320759 0.012767923812899705 0 -0.031563019771813444 0.0053419117824487347 0 -0.03288119782303691 0.0048829014085790276 0 -0.032523383086808973 0.0069585626997025873 0 -0.031563019771813444 0.0053419117824487347 0 -0.03288119782303691 0.0048829014085790276 0 -0.031498296064930188 0.004318953247687626 0 -0.01363870462483086 0.0088824295821981602 0 -0.014930162897517982 0.0082474428731598229 0 0.00084257522334830689 0.011709374534635802 0 8.9434773415263065e-05 0.010258280075501083 0 0.0014814737189164271 0.010623055090782662 0 -0.00083374218782046464 0.011546585753689633 0 0.00084257522334830689 0.011709374534635802 0 8.9434773415263065e-05 0.010258280075501083 0 8.9434773415263065e-05 0.010258280075501083 0 0.0010712831709041568 0.0097540289343761837 0 0.0014814737189164271 0.010623055090782662 0 8.9434773415263065e-05 0.010258280075501083 0 0.0010712831709041568 0.0097540289343761837 0 0.00058962080270906904 0.008606828101644478 0 0.0010712831709041568 0.0097540289343761837 0 0.00058962080270906904 0.008606828101644478 0 0.0021086215152676911 0.0095166973057297429 0 -0.0067506779594163338 0.010205042032466173 0 -0.015706153920564663 0.0068367492801769984 0 8.9434773415263065e-05 0.010258280075501083 0 0.00058962080270906904 0.008606828101644478 0 -0.00075643680858810075 0.0092284199718331138 0 0.00058962080270906904 0.008606828101644478 0 -0.00075643680858810075 0.0092284199718331138 0 -0.00070750706256968859 0.0078845785388163125 0 -0.00075643680858810075 0.0092284199718331138 0 -0.0018072794238285295 0.0089100055770585176 0 -0.00070750706256968859 0.0078845785388163125 0 8.9434773415263065e-05 0.010258280075501083 0 -0.00075643680858810075 0.0092284199718331138 0 -0.0018823375554872374 0.010382510535003751 0 -0.00075643680858810075 0.0092284199718331138 0 -0.0018072794238285295 0.0089100055770585176 0 -0.0018823375554872374 0.010382510535003751 0 -0.026654498186510795 0.0020148697974290801 0 -0.027085271228073683 0.0020745347667809754 0 -0.026952753532103399 0.0017350578142907159 0 -0.032946868176201786 0.0019706888276489615 0 -0.03027127999363511 0.0028255372522568698 0 -0.03951306140012148 0.0053997631782945008 0 -0.037340910886425174 0.0065601451075753677 0 -0.038425963712224294 0.0051673027572302771 0 -0.037340910886425174 0.0065601451075753677 0 -0.037519103964041213 0.0047860578693117604 0 -0.036536118459880806 0.0051032378410224037 0 -0.037340910886425174 0.0065601451075753677 0 -0.038425963712224294 0.0051673027572302771 0 -0.037519103964041213 0.0047860578693117604 0 -0.038425963712224294 0.0051673027572302771 0 -0.038393615740910179 0.0042726594918073846 0 -0.037519103964041213 0.0047860578693117604 0 -0.038393615740910179 0.0042726594918073846 0 -0.037519103964041213 0.0047860578693117604 0 -0.037847752599648128 0.0037650503497355606 0 -0.037519103964041213 0.0047860578693117604 0 -0.037847752599648128 0.0037650503497355606 0 -0.036933809988531525 0.0039956266780277827 0 -0.037519103964041213 0.0047860578693117604 0 -0.036536118459880806 0.0051032378410224037 0 -0.036933809988531525 0.0039956266780277827 0 -0.036536118459880806 0.0051032378410224037 0 -0.035587382865347725 0.00440752104652625 0 -0.035506144023144219 0.0060793709222337492 0 -0.036536118459880806 0.0051032378410224037 0 -0.035587382865347725 0.00440752104652625 0 -0.036933809988531525 0.0039956266780277827 0 -0.037340910886425174 0.0065601451075753677 0 -0.036536118459880806 0.0051032378410224037 0 -0.035506144023144219 0.0060793709222337492 0 -0.037340910886425174 0.0065601451075753677 0 -0.035506144023144219 0.0060793709222337492 0 -0.035387618925581781 0.0076445031461268549 0 -0.03027127999363511 0.0028255372522568698 0 -0.025998610072242297 0.0037791675274369751 0 -0.035506144023144219 0.0060793709222337492 0 -0.034102475952970855 0.0069403412664468499 0 -0.035387618925581781 0.0076445031461268549 0 -0.035506144023144219 0.0060793709222337492 0 -0.034102475952970855 0.0069403412664468499 0 -0.034211350149020325 0.0054427814033686413 0 -0.035587382865347725 0.00440752104652625 0 -0.035506144023144219 0.0060793709222337492 0 -0.034211350149020325 0.0054427814033686413 0 -0.035587382865347725 0.00440752104652625 0 -0.034211350149020325 0.0054427814033686413 0 -0.034608370261890384 0.0035358717295587987 0 -0.034211350149020325 0.0054427814033686413 0 -0.03288119782303691 0.0048829014085790276 0 -0.034608370261890384 0.0035358717295587987 0 -0.034211350149020325 0.0054427814033686413 0 -0.03288119782303691 0.0048829014085790276 0 -0.032523383086808973 0.0069585626997025873 0 -0.034102475952970855 0.0069403412664468499 0 -0.034211350149020325 0.0054427814033686413 0 -0.032523383086808973 0.0069585626997025873 0 0.0010712831709041568 0.0097540289343761837 0 0.0014814737189164271 0.010623055090782662 0 0.0021086215152676911 0.0095166973057297429 0 -0.014930162897517982 0.0082474428731598229 0 -0.015706153920564663 0.0068367492801769984 0 -0.034102475952970855 0.0069403412664468499 0 -0.032523383086808973 0.0069585626997025873 0 -0.033482743620195911 0.0086700925660753506 0 0.0020841592843923711 0.0093786028497694837 0 0.0028472987817767118 0.0080806941979051517 0 0.0018688718917809675 0.008391639538933366 0 0.00058962080270906904 0.008606828101644478 0 0.0020841592843923711 0.0093786028497694837 0 0.0018688718917809675 0.008391639538933366 0 -0.015706153920564663 0.0068367492801769984 0 -0.014606870156597861 0.0040204034399986908 0 -0.028193272262663983 0.0014965899078134238 0 -0.027583827168949304 0.0012299637780707464 0 -0.027860110839066435 0.00082909712916405824 0 -0.028193272262663983 0.0014965899078134238 0 -0.027627203998503522 0.0017931829147838179 0 -0.027583827168949304 0.0012299637780707464 0 -0.015706153920564663 0.0068367492801769984 0 -0.025998610072242297 0.0037791675274369751 0 -0.034102475952970855 0.0069403412664468499 0 -0.033482743620195911 0.0086700925660753506 0 -0.035387618925581781 0.0076445031461268549 0 -0.027627203998503522 0.0017931829147838179 0 -0.027239972147970238 0.0015208010101721223 0 -0.027583827168949304 0.0012299637780707464 0 -0.027085271228073683 0.0020745347667809754 0 -0.027627203998503522 0.0017931829147838179 0 -0.027239972147970238 0.0015208010101721223 0 -0.027239972147970238 0.0015208010101721223 0 -0.027583827168949304 0.0012299637780707464 0 -0.027206097203199244 0.0010324482152150691 0 -0.027206097203199244 0.0010324482152150691 0 -0.026802988565256012 0.0013468019404465688 0 -0.026953099823905036 0.00076337494053538573 0 -0.033166968751093817 0.0012619586293286245 0 -0.034023990321211714 -0.00023551999144719944 0 -0.033931817036050256 0.00064496590852554066 0 -0.033944911187771563 0.0010216052781305811 0 -0.034252191752598568 -0.00017323238080040621 0 -0.027239972147970238 0.0015208010101721223 0 -0.027206097203199244 0.0010324482152150691 0 -0.026802988565256012 0.0013468019404465688 0 -0.033761221616359173 0.0015124485318488885 0 -0.033931817036050256 0.00064496590852554066 0 -0.033944911187771563 0.0010216052781305811 0 -0.027239972147970238 0.0015208010101721223 0 -0.026802988565256012 0.0013468019404465688 0 -0.026952753532103399 0.0017350578142907159 0 -0.027085271228073683 0.0020745347667809754 0 -0.027239972147970238 0.0015208010101721223 0 -0.026952753532103399 0.0017350578142907159 0 -0.026654498186510795 0.0020148697974290801 0 -0.026802988565256012 0.0013468019404465688 0 -0.026952753532103399 0.0017350578142907159 0 -0.044760245738245961 -0.0060375732421089319 0 -0.045197862623116133 -0.0057290010981336089 0 -0.045131233507215589 -0.0054455042356038675 0 -0.02679320651744499 0.00011752128726764771 0 -0.026942302592885159 0.00010165406379689755 0 -0.026862442771579641 -0.00040817314098301873 0 -0.026942302592885159 0.00010165406379689755 0 -0.026844819759429182 0.00058540370941485777 0 -0.027355350647884136 0.00061669956098894991 0 -0.033509861451703565 -0.00026983566769972462 0 -0.033966400630925819 -0.00066966377623355619 0 -0.026942302592885159 0.00010165406379689755 0 -0.026737707081301666 0.00045769211181305669 0 -0.026826213521700344 0.00057932748558435184 0 -0.02679320651744499 0.00011752128726764771 0 -0.026942302592885159 0.00010165406379689755 0 -0.026737707081301666 0.00045769211181305669 0 -0.032441466228411146 -0.001273155776278394 0 -0.034593173030483391 -0.0011615935017123772 0 -0.03515054532811631 0.0001792865488557756 0 -0.035290983256727394 -0.00053957353188248684 0 -0.035347108216715738 -0.0003219618033345753 0 -0.035414759786247259 0.00039178319529432968 0 -0.034593173030483391 -0.0011615935017123772 0 -0.035290983256727394 -0.00053957353188248684 0 -0.035347108216715738 -0.0003219618033345753 0 -0.035373145555413231 -0.00042266874856091232 0 -0.034593173030483391 -0.0011615935017123772 0 -0.033966400630925819 -0.00066966377623355619 0 -0.034023990321211714 -0.00023551999144719944 0 -0.033966400630925819 -0.00066966377623355619 0 -0.035414759786247259 0.00039178319529432968 0 -0.034023990321211714 -0.00023551999144719944 0 -0.027206097203199244 0.0010324482152150691 0 -0.026953099823905036 0.00076337494053538573 0 -0.026975319332823201 0.00068675337211493871 0 -0.033220939602584335 -0.00094417614492798912 0 -0.033966400630925819 -0.00066966377623355619 0 -0.027355350647884136 0.00061669956098894991 0 -0.027499246763857225 5.1590198674017212e-05 0 -0.027860110839066435 0.00082909712916405824 0 -0.027583827168949304 0.0012299637780707464 0 -0.027206097203199244 0.0010324482152150691 0 -0.027355350647884136 0.00061669956098894991 0 -0.027583827168949304 0.0012299637780707464 0 -0.027355350647884136 0.00061669956098894991 0 -0.027860110839066435 0.00082909712916405824 0 -0.027206097203199244 0.0010324482152150691 0 -0.026844819759429182 0.00058540370941485777 0 -0.027355350647884136 0.00061669956098894991 0 -0.026942302592885159 0.00010165406379689755 0 -0.027355350647884136 0.00061669956098894991 0 -0.027499246763857225 5.1590198674017212e-05 0 -0.026942302592885159 0.00010165406379689755 0 -0.027499246763857225 5.1590198674017212e-05 0 -0.026862442771579641 -0.00040817314098301873 0 -0.014827076333517345 0.0019590653640241653 0 -0.014606870156597861 0.0040204034399986908 0 0.003638333610100361 0.0066964013933880654 0 0.0026267200592549607 0.0070643808044164686 0 0.0022162507875697207 0.0061141453075389419 0 0.003638333610100361 0.0066964013933880654 0 0.0026267200592549607 0.0070643808044164686 0 0.0028472987817767118 0.0080806941979051517 0 0.0026267200592549607 0.0070643808044164686 0 0.0028472987817767118 0.0080806941979051517 0 0.0018264900712415745 0.0073486997831947046 0 0.0028472987817767118 0.0080806941979051517 0 0.0018688718917809675 0.008391639538933366 0 0.0018264900712415745 0.0073486997831947046 0 0.0018264900712415745 0.0073486997831947046 0 0.0022162507875697207 0.0061141453075389419 0 0.00067965145834124048 0.0067466260340847198 0 0.0026267200592549607 0.0070643808044164686 0 0.0018264900712415745 0.0073486997831947046 0 0.0022162507875697207 0.0061141453075389419 0 0.0015152145210354303 0.004711736793476297 0 0.00099195879322793129 0.0041109436627331112 0 0.0024395068805399185 0.004581941694551778 0 0.00081552890698094514 0.0049612477519677496 0 0.0012802861420491479 0.0035988980909689486 0 0.0022162507875697207 0.0061141453075389419 0 0.0024395068805399185 0.004581941694551778 0 0.00081552890698094514 0.0049612477519677496 0 0.0024395068805399185 0.004581941694551778 0 0.003275096048276895 0.0055132087628191155 0 0.0034989527796682736 0.0046596470686348524 0 0.0024395068805399185 0.004581941694551778 0 0.0034989527796682736 0.0046596470686348524 0 0.0032280481301236895 0.0039057481257334238 0 0.003638333610100361 0.0066964013933880654 0 0.0022162507875697207 0.0061141453075389419 0 0.003275096048276895 0.0055132087628191155 0 0.0022162507875697207 0.0061141453075389419 0 0.0024395068805399185 0.004581941694551778 0 0.003275096048276895 0.0055132087628191155 0 -0.027499246763857225 5.1590198674017212e-05 0 -0.027025623306124499 -0.00089520452664259762 0 -0.026862442771579641 -0.00040817314098301873 0 -0.014827076333517345 0.0019590653640241653 0 -0.01633676555088755 -0.00030488703809033888 0 0.003638333610100361 0.0066964013933880654 0 0.003275096048276895 0.0055132087628191155 0 0.0044630290460635396 0.0052077871226656712 0 0.0034989527796682736 0.0046596470686348524 0 0.0044630290460635396 0.0052077871226656712 0 0.0040456015567076897 0.0041140649036546248 0 0.003275096048276895 0.0055132087628191155 0 0.0034989527796682736 0.0046596470686348524 0 0.0044630290460635396 0.0052077871226656712 0 -0.026230712730734403 -0.0018938593168456076 0 -0.026542917250613609 -0.0013940858049949971 0 -0.026484157163353627 -0.00082023371676354497 0 -0.01633676555088755 -0.00030488703809033888 0 -0.020048991560355913 -0.0030054751425948371 0 -0.027025623306124499 -0.00089520452664259762 0 -0.026542917250613609 -0.0013940858049949971 0 -0.026428645558134529 -0.0019716989844541341 0 0.0044630290460635396 0.0052077871226656712 0 0.00526518838366023 0.0037037559980046143 0 0.0040456015567076897 0.0041140649036546248 0 -0.027025623306124499 -0.00089520452664259762 0 -0.026542917250613609 -0.0013940858049949971 0 -0.026484157163353627 -0.00082023371676354497 0 -0.044760245738245961 -0.0060375732421089319 0 -0.045197862623116133 -0.0057290010981336089 0 -0.04507171261135582 -0.0064035318715637878 0 -0.026764608217675751 0.0001711111661260393 0 -0.026484157163353627 -0.00082023371676354497 0 -0.026862442771579641 -0.00040817314098301873 0 -0.032441466228411146 -0.001273155776278394 0 -0.028786011875235135 -0.002557700182893368 0 -0.027025623306124499 -0.00089520452664259762 0 -0.026484157163353627 -0.00082023371676354497 0 -0.026862442771579641 -0.00040817314098301873 0 -0.032441466228411146 -0.001273155776278394 0 -0.032119083296855332 -0.00095811997333641169 0 -0.00070750706256968859 0.0078845785388163125 0 0.00067965145834124048 0.0067466260340847198 0 -0.001116219473373796 0.0062755464669248841 0 -0.0021927712826453698 0.00754245125598073 0 -0.0023114751545316339 0.0063544757336428271 0 -0.001116219473373796 0.0062755464669248841 0 -0.0021927712826453698 0.00754245125598073 0 -0.00070750706256968859 0.0078845785388163125 0 -0.001116219473373796 0.0062755464669248841 0 -0.0021927712826453698 0.00754245125598073 0 -0.0018072794238285295 0.0089100055770585176 0 -0.00070750706256968859 0.0078845785388163125 0 0.00058962080270906904 0.008606828101644478 0 -0.00070750706256968859 0.0078845785388163125 0 0.00067965145834124048 0.0067466260340847198 0 0.00058962080270906904 0.008606828101644478 0 0.0018264900712415745 0.0073486997831947046 0 0.00067965145834124048 0.0067466260340847198 0 0.00058962080270906904 0.008606828101644478 0 0.0018688718917809675 0.008391639538933366 0 0.0018264900712415745 0.0073486997831947046 0 0.00067965145834124048 0.0067466260340847198 0 -4.8355358484421598e-05 0.0053940055227601202 0 -0.001116219473373796 0.0062755464669248841 0 0.0022162507875697207 0.0061141453075389419 0 0.00067965145834124048 0.0067466260340847198 0 0.0012080714001665852 0.0051347043756044142 0 0.00067965145834124048 0.0067466260340847198 0 0.0012080714001665852 0.0051347043756044142 0 -4.8355358484421598e-05 0.0053940055227601202 0 0.00099195879322793129 0.0041109436627331112 0 -0.0001694765556628417 0.0026171991764841495 0 0.0012080714001665852 0.0051347043756044142 0 -4.8355358484421598e-05 0.0053940055227601202 0 9.8015454744909876e-05 0.0040686096858524009 0 -4.8355358484421598e-05 0.0053940055227601202 0 -0.0011257041952100443 0.0047252438582832913 0 9.8015454744909876e-05 0.0040686096858524009 0 -4.8355358484421598e-05 0.0053940055227601202 0 -0.0011257041952100443 0.0047252438582832913 0 -0.001116219473373796 0.0062755464669248841 0 -0.0022558290718896388 0.0054739258910518566 0 -0.0011257041952100443 0.0047252438582832913 0 -0.001116219473373796 0.0062755464669248841 0 -0.0023114751545316339 0.0063544757336428271 0 -0.0022558290718896388 0.0054739258910518566 0 -0.001116219473373796 0.0062755464669248841 0 -0.0022558290718896388 0.0054739258910518566 0 -0.0011257041952100443 0.0047252438582832913 0 -0.0024506998773666804 0.0040892251772909156 0 -0.0011257041952100443 0.0047252438582832913 0 -0.0010403219633520579 0.003048740188437891 0 -0.0024506998773666804 0.0040892251772909156 0 -0.0021996102066876928 -0.0001343655465113901 0 -0.003261715212136594 0.0015999220809969814 0 -0.001224022479555692 -0.0014330155333109756 0 -0.0010463210550808095 -0.0012777992047467844 0 -0.0029210603856904454 0.00021308334488408126 0 -0.0022750397573321492 -0.0017275843165473939 0 -0.001224022479555692 -0.0014330155333109756 0 -0.0029210603856904454 0.00021308334488408126 0 -0.0022750397573321492 -0.0017275843165473939 0 -0.001224022479555692 -0.0014330155333109756 0 -0.0014471623124092496 -0.0019216315319621395 0 -0.00099510143534907816 -0.0017527338702978332 0 -0.0010541960362570365 -0.0012862313314100228 0 -0.00048833659313763191 -0.0021230256281296114 0 -0.0011767240721521129 -0.0018212880531563321 0 -0.001224022479555692 -0.0014330155333109756 0 -0.0014471623124092496 -0.0019216315319621395 0 -0.00099510143534907816 -0.0017527338702978332 0 -0.0011767240721521129 -0.0018212880531563321 0 -0.001224022479555692 -0.0014330155333109756 0 -0.00099510143534907816 -0.0017527338702978332 0 -0.001224022479555692 -0.0014330155333109756 0 -0.0010541960362570365 -0.0012862313314100228 0 -0.0021974303521819973 -0.00013749703072035374 0 -0.0021996102066876928 -0.0001343655465113901 0 -0.0011257041952100443 0.0047252438582832913 0 -0.0010403219633520579 0.003048740188437891 0 9.8015454744909876e-05 0.0040686096858524009 0 -0.0021996102066876928 -0.0001343655465113901 0 -0.0001694765556628417 0.0026171991764841495 0 -0.00052051196585051554 0.0038034569556966227 0 0.00038663937817701421 0.0027135715625277164 0 0.0012802861420491479 0.0035988980909689486 0 0.00081552890698094514 0.0049612477519677496 0 -0.00052051196585051554 0.0038034569556966227 0 0.0012802861420491479 0.0035988980909689486 0 0.00038663937817701421 0.0027135715625277164 0 -0.00027050324571063961 0.0014405230232915631 0 0.0016373335770938338 0.0022043326219641632 0 0.00038663937817701421 0.0027135715625277164 0 0.0012802861420491479 0.0035988980909689486 0 0.0016373335770938338 0.0022043326219641632 0 0.00038663937817701421 0.0027135715625277164 0 -0.00052225908283431164 0.0026362591493118695 0 -0.00027050324571063961 0.0014405230232915631 0 -0.0018473044364475007 0.0026436101934311806 0 -0.00052051196585051554 0.0038034569556966227 0 -0.00052225908283431164 0.0026362591493118695 0 -0.0018473044364475007 0.0026436101934311806 0 -0.00052225908283431164 0.0026362591493118695 0 -0.00027050324571063961 0.0014405230232915631 0 -0.00052051196585051554 0.0038034569556966227 0 0.00038663937817701421 0.0027135715625277164 0 -0.00052225908283431164 0.0026362591493118695 0 -0.0031832306219214744 -0.0049593691430015012 0 -0.0039036773281914123 -0.0065156416224988727 0 0.00071003560628694234 -0.0026552683380121115 0 -0.00048833659313763191 -0.0021230256281296114 0 -0.0005192062069424349 -0.0031360454843890684 0 -0.0073126324602160115 -0.012911723737151016 0 -0.0074175625759416389 -0.012848473925909876 0 -0.0075070432559477705 -0.01290409130540276 0 -0.0073126324602160115 -0.012911723737151016 0 -0.0075215049670470198 -0.013006185655428182 0 -0.0075070432559477705 -0.01290409130540276 0 -0.0031832306219214744 -0.0049593691430015012 0 -0.0042780556728416299 -0.0042036611650133815 0 -0.0031832306219214744 -0.0049593691430015012 0 -0.0032814487127749078 -0.00568533146926833 0 -0.0074175625759416389 -0.012848473925909876 0 -0.0073865035177411971 -0.012818056011518501 0 -0.0074326302935216219 -0.012802262399702611 0 -0.0073873091107948046 -0.012849446310994779 0 -0.0074175625759416389 -0.012848473925909876 0 -0.0073865035177411971 -0.012818056011518501 0 -0.0073873091107948046 -0.012849446310994779 0 -0.0073865035177411971 -0.012818056011518501 0 -0.0073570683554926254 -0.012832049228704033 0 -0.0073865035177411971 -0.012818056011518501 0 -0.0073570683554926254 -0.012832049228704033 0 -0.0073526460224212454 -0.012783627934919555 0 -0.0073140668374156118 -0.012810826040404042 0 -0.0073570683554926254 -0.012832049228704033 0 -0.0073526460224212454 -0.012783627934919555 0 -0.0043324627342689968 -0.0077247910476199218 0 -0.0039036773281914123 -0.0065156416224988727 0 -0.0043324627342689968 -0.0077247910476199218 0 -0.0043408015685918481 -0.0082707930281501647 0 -0.0072683147773416387 -0.01279454564917221 0 -0.007272614025044425 -0.012713861442953901 0 -0.0070482858203913361 -0.01259844269691379 0 -0.0043324627342689968 -0.0077247910476199218 0 -0.0050466176232393349 -0.0089584683125508505 0 -0.0022750397573321492 -0.0017275843165473939 0 -0.0015325641006597671 -0.002523115234789766 0 -0.0033617856927790728 -0.0018961520355472497 0 -0.0017610272571369266 -0.0036315972483062413 0 -0.0015325641006597671 -0.002523115234789766 0 -0.0033617856927790728 -0.0018961520355472497 0 -0.0043324627342689968 -0.0077247910476199218 0 -0.0043436341585603418 -0.004588826117497005 0 -0.0022750397573321492 -0.0017275843165473939 0 -0.0015325641006597671 -0.002523115234789766 0 -0.0014471623124092496 -0.0019216315319621395 0 -0.0015325641006597671 -0.002523115234789766 0 -0.0014471623124092496 -0.0019216315319621395 0 -0.0010401836175453621 -0.0021769342386290277 0 -0.0021996102066876928 -0.0001343655465113901 0 -0.0031832306219214744 -0.0049593691430015012 0 -0.0010541960362570365 -0.0012862313314100228 0 0.00071003560628694234 -0.0026552683380121115 0 -0.00048833659313763191 -0.0021230256281296114 0 -0.0011767240721521129 -0.0018212880531563321 0 -0.0014471623124092496 -0.0019216315319621395 0 -0.0010401836175453621 -0.0021769342386290277 0 -0.00099510143534907816 -0.0017527338702978332 0 -0.0011767240721521129 -0.0018212880531563321 0 -0.0010401836175453621 -0.0021769342386290277 0 -0.00099510143534907816 -0.0017527338702978332 0 -0.0010401836175453621 -0.0021769342386290277 0 -0.00048833659313763191 -0.0021230256281296114 0 -0.0010401836175453621 -0.0021769342386290277 0 -0.00048833659313763191 -0.0021230256281296114 0 -0.0005192062069424349 -0.0031360454843890684 0 -0.0017610272571369266 -0.0036315972483062413 0 -0.0015325641006597671 -0.002523115234789766 0 -0.0005192062069424349 -0.0031360454843890684 0 -0.0015325641006597671 -0.002523115234789766 0 -0.0010401836175453621 -0.0021769342386290277 0 -0.0005192062069424349 -0.0031360454843890684 0 -0.0080515708460378362 -0.013000720945394421 0 -0.007967362338106538 -0.013008310222514049 0 -0.0079016757376525228 -0.013116918798800292 0 -0.019758687848510873 -0.006683906599018837 0 -0.014178512143105443 -0.0039060072720141057 0 -0.0079053667564809235 -0.013007702552867737 0 -0.0079016757376525228 -0.013116918798800292 0 -0.0078125873339970949 -0.013007265954048795 0 -0.007967362338106538 -0.013008310222514049 0 -0.0079053667564809235 -0.013007702552867737 0 -0.0079552066028112066 -0.012957603021799019 0 -0.007967362338106538 -0.013008310222514049 0 -0.0079053667564809235 -0.013007702552867737 0 -0.0079016757376525228 -0.013116918798800292 0 -0.019320898484559344 -0.0046961903965503553 0 -0.020129833437628288 -0.0032646016089506805 0 -0.021371649505279915 -0.0037492978523605779 0 0.00526518838366023 0.0037037559980046143 0 0.0045755094916299678 0.003431592092125217 0 0.0040456015567076897 0.0041140649036546248 0 -0.020048991560355913 -0.0030054751425948371 0 -0.014178512143105443 -0.0039060072720141057 0 -0.026230712730734403 -0.0018938593168456076 0 -0.026542917250613609 -0.0013940858049949971 0 -0.026428645558134529 -0.0019716989844541341 0 0.0040456015567076897 0.0041140649036546248 0 0.0034936533099138795 0.00298031339522856 0 0.0032280481301236895 0.0039057481257334238 0 0.0045755094916299678 0.003431592092125217 0 0.0040456015567076897 0.0041140649036546248 0 0.0034936533099138795 0.00298031339522856 0 0.0034989527796682736 0.0046596470686348524 0 0.0040456015567076897 0.0041140649036546248 0 0.0032280481301236895 0.0039057481257334238 0 -0.014178512143105443 -0.0039060072720141057 0 -0.0077277513009817046 -0.0034847955718603778 0 -0.0077598420841905411 -0.013079497356658219 0 -0.0078125873339970949 -0.013007265954048795 0 -0.0076978849872961505 -0.012944157331912934 0 -0.0079016757376525228 -0.013116918798800292 0 -0.0077598420841905411 -0.013079497356658219 0 -0.0078125873339970949 -0.013007265954048795 0 -0.0077277513009817046 -0.0034847955718603778 0 -0.0042780556728416299 -0.0042036611650133815 0 0.0034936533099138795 0.00298031339522856 0 0.0024249906391290771 0.0034486082979394927 0 0.0016373335770938338 0.0022043326219641632 0 -0.0077598420841905411 -0.013079497356658219 0 -0.0075215049670470198 -0.013006185655428182 0 -0.0076978849872961505 -0.012944157331912934 0 0.0034936533099138795 0.00298031339522856 0 0.0024249906391290771 0.0034486082979394927 0 0.0032280481301236895 0.0039057481257334238 0 0.0024395068805399185 0.004581941694551778 0 0.0024249906391290771 0.0034486082979394927 0 0.0032280481301236895 0.0039057481257334238 0 0.0024395068805399185 0.004581941694551778 0 0.0024249906391290771 0.0034486082979394927 0 0.0012802861420491479 0.0035988980909689486 0 0.0024249906391290771 0.0034486082979394927 0 0.0012802861420491479 0.0035988980909689486 0 0.0016373335770938338 0.0022043326219641632 0 -0.0075070432559477705 -0.01290409130540276 0 -0.0075622519058615089 -0.012845750318478124 0 -0.0076978849872961505 -0.012944157331912934 0 -0.0075215049670470198 -0.013006185655428182 0 -0.0075070432559477705 -0.01290409130540276 0 -0.0076978849872961505 -0.012944157331912934 0 -0.0074175625759416389 -0.012848473925909876 0 -0.0075070432559477705 -0.01290409130540276 0 -0.0075622519058615089 -0.012845750318478124 0 -0.0074175625759416389 -0.012848473925909876 0 -0.0075622519058615089 -0.012845750318478124 0 -0.0074326302935216219 -0.012802262399702611 0 -0.0075622519058615089 -0.012845750318478124 0 -0.0077153285825969972 -0.012853327932342257 0 -0.0076978849872961505 -0.012944157331912934 0 -0.0075622519058615089 -0.012845750318478124 0 -0.0076212703355855388 -0.012791917284811525 0 -0.0075237372335476881 -0.012786649489434651 0 -0.0075622519058615089 -0.012845750318478124 0 -0.0077153285825969972 -0.012853327932342257 0 -0.0076212703355855388 -0.012791917284811525 0 -0.0077153285825969972 -0.012853327932342257 0 -0.0077693709220238265 -0.012750179530320434 0 -0.0076212703355855388 -0.012791917284811525 0 -0.0078125873339970949 -0.013007265954048795 0 -0.0076978849872961505 -0.012944157331912934 0 -0.0077912349586508603 -0.01291019951685604 0 -0.0078125873339970949 -0.013007265954048795 0 -0.0077912349586508603 -0.01291019951685604 0 -0.0078768316257032799 -0.01294222887362843 0 -0.0079053667564809235 -0.013007702552867737 0 -0.0078125873339970949 -0.013007265954048795 0 -0.0078768316257032799 -0.01294222887362843 0 -0.0077912349586508603 -0.01291019951685604 0 -0.007842339795247762 -0.012846440147020279 0 -0.0078768316257032799 -0.01294222887362843 0 -0.0077153285825969972 -0.012853327932342257 0 -0.0076978849872961505 -0.012944157331912934 0 -0.0077912349586508603 -0.01291019951685604 0 -0.0077153285825969972 -0.012853327932342257 0 -0.0077912349586508603 -0.01291019951685604 0 -0.007842339795247762 -0.012846440147020279 0 -0.0077153285825969972 -0.012853327932342257 0 -0.007842339795247762 -0.012846440147020279 0 -0.0077693709220238265 -0.012750179530320434 0 -0.007842339795247762 -0.012846440147020279 0 -0.0079203376877963506 -0.012826999297806705 0 -0.0078707735792796565 -0.01273743342727152 0 -0.007842339795247762 -0.012846440147020279 0 -0.0079203376877963506 -0.012826999297806705 0 -0.0079348946873548775 -0.012896257307038859 0 -0.0079865350230876909 -0.012850637288925023 0 -0.0079203376877963506 -0.012826999297806705 0 -0.0079591510607575858 -0.012779439481963202 0 -0.0079865350230876909 -0.012850637288925023 0 -0.0079203376877963506 -0.012826999297806705 0 -0.0079348946873548775 -0.012896257307038859 0 -0.0080032087573831401 -0.012907150274534795 0 -0.0079865350230876909 -0.012850637288925023 0 -0.0079348946873548775 -0.012896257307038859 0 -0.0080032087573831401 -0.012907150274534795 0 -0.0079348946873548775 -0.012896257307038859 0 -0.0079552066028112066 -0.012957603021799019 0 -0.007842339795247762 -0.012846440147020279 0 -0.0079348946873548775 -0.012896257307038859 0 -0.0078768316257032799 -0.01294222887362843 0 -0.0079348946873548775 -0.012896257307038859 0 -0.0078768316257032799 -0.01294222887362843 0 -0.0079552066028112066 -0.012957603021799019 0 -0.0079053667564809235 -0.013007702552867737 0 -0.0078768316257032799 -0.01294222887362843 0 -0.0079552066028112066 -0.012957603021799019 0 -0.0080126121011160761 -0.012958277131982705 0 -0.007967362338106538 -0.013008310222514049 0 -0.0079552066028112066 -0.012957603021799019 0 -0.0079253116166808409 -0.012684892083447216 0 -0.0078707735792796565 -0.01273743342727152 0 -0.0078708156225114276 -0.012647663751356017 0 -0.0079762239509234192 -0.012658647091653031 0 -0.0079253116166808409 -0.012684892083447216 0 -0.0078903173303394476 -0.012595580971520949 0 -0.0079253116166808409 -0.012684892083447216 0 -0.0078708156225114276 -0.012647663751356017 0 -0.0078903173303394476 -0.012595580971520949 0 -0.0079253116166808409 -0.012684892083447216 0 -0.0079591510607575858 -0.012779439481963202 0 -0.0078707735792796565 -0.01273743342727152 0 -0.0079203376877963506 -0.012826999297806705 0 -0.0079591510607575858 -0.012779439481963202 0 -0.0078707735792796565 -0.01273743342727152 0 -0.007842339795247762 -0.012846440147020279 0 -0.0078707735792796565 -0.01273743342727152 0 -0.0077693709220238265 -0.012750179530320434 0 -0.0078707735792796565 -0.01273743342727152 0 -0.0077693709220238265 -0.012750179530320434 0 -0.0078238404963251081 -0.012678124230805355 0 -0.0078708156225114276 -0.012647663751356017 0 -0.0078238404963251081 -0.012678124230805355 0 -0.0079030478383813781 -0.012610773673230031 0 -0.0078707735792796565 -0.01273743342727152 0 -0.0078708156225114276 -0.012647663751356017 0 -0.0078238404963251081 -0.012678124230805355 0 -0.0084320439466629826 -0.013920989646500896 0 -0.008317114311367035 -0.013832312564157486 0 -0.0084632175410819504 -0.013744133789528049 0 -0.0079550587342087902 -0.013049229325045439 0 -0.0080748780621737407 -0.013192764531434241 0 -0.0078238404963251081 -0.012678124230805355 0 -0.0077839330988828592 -0.012689067374460145 0 -0.0079030478383813781 -0.012610773673230031 0 -0.0077693709220238265 -0.012750179530320434 0 -0.0078238404963251081 -0.012678124230805355 0 -0.0077839330988828592 -0.012689067374460145 0 -0.0079082564498477569 -0.013002161502866864 0 -0.0079550587342087902 -0.013049229325045439 0 -0.0077693709220238265 -0.012750179530320434 0 -0.0076212703355855388 -0.012791917284811525 0 -0.0075746502525605589 -0.012719391507764273 0 -0.0076212703355855388 -0.012791917284811525 0 -0.0075746502525605589 -0.012719391507764273 0 -0.0075237372335476881 -0.012786649489434651 0 -0.0075622519058615089 -0.012845750318478124 0 -0.0075237372335476881 -0.012786649489434651 0 -0.0074326302935216219 -0.012802262399702611 0 -0.0075746502525605589 -0.012719391507764273 0 -0.0075237372335476881 -0.012786649489434651 0 -0.0074711638868847248 -0.012767966760042227 0 -0.0075237372335476881 -0.012786649489434651 0 -0.0074711638868847248 -0.012767966760042227 0 -0.0074326302935216219 -0.012802262399702611 0 -0.0079550587342087902 -0.013049229325045439 0 -0.0079466320945102559 -0.013196081387905892 0 -0.0074711638868847248 -0.012767966760042227 0 -0.0073930369414215739 -0.012793753137172324 0 -0.0074072445893553661 -0.012792549526355583 0 -0.0075746502525605589 -0.012719391507764273 0 -0.0074711638868847248 -0.012767966760042227 0 -0.0073930369414215739 -0.012793753137172324 0 -0.008317114311367035 -0.013832312564157486 0 -0.0083740089915979327 -0.013686077621604198 0 -0.0084632175410819504 -0.013744133789528049 0 -0.0083740089915979327 -0.013686077621604198 0 -0.0084553576278376969 -0.013608133240034471 0 -0.0083693640629929206 -0.013573089493279641 0 -0.0080748780621737407 -0.013192764531434241 0 -0.0081628828204385571 -0.013290847375442599 0 -0.0083740089915979327 -0.013686077621604198 0 -0.0084632175410819504 -0.013744133789528049 0 -0.0084553576278376969 -0.013608133240034471 0 -0.0078708156225114276 -0.012647663751356017 0 -0.0079030478383813781 -0.012610773673230031 0 -0.0078903173303394476 -0.012595580971520949 0 -0.0079030478383813781 -0.012610773673230031 0 -0.0078903173303394476 -0.012595580971520949 0 -0.0080763412160096155 -0.01262144903275636 0 -0.0078903173303394476 -0.012595580971520949 0 -0.0077482509061456576 -0.012602506768808518 0 -0.0080763412160096155 -0.01262144903275636 0 -0.0079285544651127946 -0.012642020385797061 0 -0.0078903173303394476 -0.012595580971520949 0 -0.0077482509061456576 -0.012602506768808518 0 -0.0074117206410489276 -0.01281447710002603 0 -0.0075277374618704226 -0.013010655527946861 0 -0.0073972277390470208 -0.012869017457701476 0 -0.0074117206410489276 -0.01281447710002603 0 -0.007272614025044425 -0.012713861442953901 0 -0.0073972277390470208 -0.012869017457701476 0 -0.007272614025044425 -0.012713861442953901 0 -0.0073972277390470208 -0.012869017457701476 0 -0.0070866405580196652 -0.012602852455474513 0 -0.0072683147773416387 -0.01279454564917221 0 -0.007272614025044425 -0.012713861442953901 0 -0.0073526460224212454 -0.012783627934919555 0 -0.0074117206410489276 -0.01281447710002603 0 -0.0073526460224212454 -0.012783627934919555 0 -0.007383590585579033 -0.01279670259127005 0 -0.0074117206410489276 -0.01281447710002603 0 -0.007272614025044425 -0.012713861442953901 0 -0.0073526460224212454 -0.012783627934919555 0 -0.0074117206410489276 -0.01281447710002603 0 -0.007383590585579033 -0.01279670259127005 0 -0.007393241292162781 -0.012798717416007391 0 -0.0073865035177411971 -0.012818056011518501 0 -0.0073526460224212454 -0.012783627934919555 0 -0.007383590585579033 -0.01279670259127005 0 -0.0073865035177411971 -0.012818056011518501 0 -0.007383590585579033 -0.01279670259127005 0 -0.007393241292162781 -0.012798717416007391 0 -0.0073865035177411971 -0.012818056011518501 0 -0.007393241292162781 -0.012798717416007391 0 -0.0074326302935216219 -0.012802262399702611 0 -0.007393241292162781 -0.012798717416007391 0 -0.0074326302935216219 -0.012802262399702611 0 -0.0074072445893553661 -0.012792549526355583 0 -0.0074711638868847248 -0.012767966760042227 0 -0.0074326302935216219 -0.012802262399702611 0 -0.0074072445893553661 -0.012792549526355583 0 -0.0073930369414215739 -0.012793753137172324 0 -0.0074072445893553661 -0.012792549526355583 0 -0.0073868958652646881 -0.012845704880965042 0 -0.007393241292162781 -0.012798717416007391 0 -0.0074072445893553661 -0.012792549526355583 0 -0.0073868958652646881 -0.012845704880965042 0 -0.0074117206410489276 -0.01281447710002603 0 -0.0073868958652646881 -0.012845704880965042 0 -0.0075277374618704226 -0.013010655527946861 0 -0.0074117206410489276 -0.01281447710002603 0 -0.007393241292162781 -0.012798717416007391 0 -0.0073868958652646881 -0.012845704880965042 0 -0.0073488332157292512 -0.012994652867489994 0 -0.0077000734231799772 -0.013400281201666583 0 -0.0075277374618704226 -0.013010655527946861 0 -0.0073868958652646881 -0.012845704880965042 0 -0.0073488332157292512 -0.012994652867489994 0 -0.0075277374618704226 -0.013010655527946861 0 -0.0073930369414215739 -0.012793753137172324 0 -0.0073868958652646881 -0.012845704880965042 0 -0.0073488332157292512 -0.012994652867489994 0 -0.0079466320945102559 -0.013196081387905892 0 -0.0078937243426131735 -0.013250899134627394 0 -0.008317114311367035 -0.013832312564157486 0 -0.0083740089915979327 -0.013686077621604198 0 -0.008152350717808593 -0.013734641785333016 0 -0.0083740089915979327 -0.013686077621604198 0 -0.008152350717808593 -0.013734641785333016 0 -0.0083693640629929206 -0.013573089493279641 0 -0.008152350717808593 -0.013734641785333016 0 -0.0083693640629929206 -0.013573089493279641 0 -0.0081169669272141958 -0.013474367015423951 0 -0.0078937243426131735 -0.013250899134627394 0 -0.0078678597516292238 -0.013264933716434881 0 -0.008152350717808593 -0.013734641785333016 0 -0.0077000734231799772 -0.013400281201666583 0 -0.0081169669272141958 -0.013474367015423951 0 -0.0077000734231799772 -0.013400281201666583 0 -0.0075277374618704226 -0.013010655527946861 0 -0.0075601711758023311 -0.013202983472702885 0 -0.0075277374618704226 -0.013010655527946861 0 -0.0073972277390470208 -0.012869017457701476 0 -0.0075601711758023311 -0.013202983472702885 0 -0.0073972277390470208 -0.012869017457701476 0 -0.0075601711758023311 -0.013202983472702885 0 -0.0074059564634036106 -0.012974438165659971 0 -0.0075601711758023311 -0.013202983472702885 0 -0.0075482891213525232 -0.013159250825280777 0 -0.0074059564634036106 -0.012974438165659971 0 -0.0075482891213525232 -0.013159250825280777 0 -0.0074284816372049726 -0.012969555090693512 0 -0.0074059564634036106 -0.012974438165659971 0 -0.0075868431270408477 -0.013090605372391822 0 -0.0076446756583686626 -0.013154996963148749 0 -0.0075482891213525232 -0.013159250825280777 0 -0.0074284816372049726 -0.012969555090693512 0 -0.007765171358485568 -0.013176509175350078 0 -0.0074284816372049726 -0.012969555090693512 0 -0.0070866405580196652 -0.012602852455474513 0 -0.0072386163818564161 -0.012763760767405078 0 -0.0074284816372049726 -0.012969555090693512 0 -0.0074713775088515351 -0.012899499943334555 0 -0.0072386163818564161 -0.012763760767405078 0 -0.0074284816372049726 -0.012969555090693512 0 -0.0074059564634036106 -0.012974438165659971 0 -0.0070866405580196652 -0.012602852455474513 0 -0.0073972277390470208 -0.012869017457701476 0 -0.0074059564634036106 -0.012974438165659971 0 -0.0070866405580196652 -0.012602852455474513 0 -0.0075461647709919068 -0.012970469041824386 0 -0.0076866791623872869 -0.013025684490071411 0 -0.0076305707472126491 -0.013114611485694193 0 -0.0075461647709919068 -0.012970469041824386 0 -0.0076305707472126491 -0.013114611485694193 0 -0.0075156081344272731 -0.013081124699196311 0 -0.0074284816372049726 -0.012969555090693512 0 -0.0075461647709919068 -0.012970469041824386 0 -0.0075156081344272731 -0.013081124699196311 0 -0.0074284816372049726 -0.012969555090693512 0 -0.0074713775088515351 -0.012899499943334555 0 -0.0075461647709919068 -0.012970469041824386 0 -0.0074713775088515351 -0.012899499943334555 0 -0.0075461647709919068 -0.012970469041824386 0 -0.007557150412864741 -0.01289562377899914 0 -0.0075461647709919068 -0.012970469041824386 0 -0.0076138093075844579 -0.012867249583327708 0 -0.0076866791623872869 -0.013025684490071411 0 -0.0069964783750204596 -0.007598524435325521 0 -0.0067806851836791256 -0.0093235476466333404 0 -0.0075461647709919068 -0.012970469041824386 0 -0.007557150412864741 -0.01289562377899914 0 -0.0076138093075844579 -0.012867249583327708 0 -0.0068808397045957079 -0.0070952438676781422 0 -0.0070397370115746379 -0.0074151246172008195 0 -0.0069964783750204596 -0.007598524435325521 0 -0.0070397370115746379 -0.0074151246172008195 0 -0.0066717435520536718 -0.0075527341107630395 0 -0.0066157176518419998 -0.0072942191159464211 0 -0.0070908817048561876 -0.0074046477391175392 0 -0.007557150412864741 -0.01289562377899914 0 -0.0076138093075844579 -0.012867249583327708 0 -0.007530697998595493 -0.012885645396690808 0 -0.0068808397045957079 -0.0070952438676781422 0 -0.0069964783750204596 -0.007598524435325521 0 -0.0033713288843369672 -0.0056980080811996183 0 -0.0035347111053359386 -0.0065651294712803657 0 -0.0041591009753977302 -0.005877778084981424 0 -0.0097020991163994392 -0.012625702028158402 0 -0.007530697998595493 -0.012885645396690808 0 -0.0077217523943678345 -0.012044693319635223 0 -0.0074713775088515351 -0.012899499943334555 0 -0.007557150412864741 -0.01289562377899914 0 -0.007530697998595493 -0.012885645396690808 0 -0.0074713775088515351 -0.012899499943334555 0 -0.007530697998595493 -0.012885645396690808 0 -0.0072386163818564161 -0.012763760767405078 0 -0.007530697998595493 -0.012885645396690808 0 -0.0077217523943678345 -0.012044693319635223 0 -0.007027116882752385 -0.0125044190128195 0 -0.007530697998595493 -0.012885645396690808 0 -0.0072386163818564161 -0.012763760767405078 0 -0.007027116882752385 -0.0125044190128195 0 -0.0077217523943678345 -0.012044693319635223 0 -0.0072363099918592412 -0.0095346196786047221 0 -0.0095257406762655188 -0.0099852423916241394 0 -0.0077217523943678345 -0.012044693319635223 0 -0.0064051701542857066 -0.011870056677582801 0 -0.0072363099918592412 -0.0095346196786047221 0 -0.0077217523943678345 -0.012044693319635223 0 -0.007027116882752385 -0.0125044190128195 0 -0.0064051701542857066 -0.011870056677582801 0 -0.0097020991163994392 -0.012625702028158402 0 -0.0077217523943678345 -0.012044693319635223 0 -0.0095257406762655188 -0.0099852423916241394 0 -0.00742528413289123 -0.0037340475727260388 0 -0.007240162449791923 -0.0028972999491205429 0 -0.0078556385824733524 -0.0030417464338480344 0 -0.0068808397045957079 -0.0070952438676781422 0 -0.0074169025279749064 -0.0059043565343093957 0 -0.0070866405580196652 -0.012602852455474513 0 -0.0072386163818564161 -0.012763760767405078 0 -0.007027116882752385 -0.0125044190128195 0 -0.0070866405580196652 -0.012602852455474513 0 -0.007027116882752385 -0.0125044190128195 0 -0.0064051701542857066 -0.011870056677582801 0 -0.0055521172891079308 -0.0094356911410862152 0 -0.0050466176232393349 -0.0089584683125508505 0 -0.0070866405580196652 -0.012602852455474513 0 -0.0064051701542857066 -0.011870056677582801 0 -0.0070482858203913361 -0.01259844269691379 0 -0.007272614025044425 -0.012713861442953901 0 -0.0070866405580196652 -0.012602852455474513 0 -0.0070482858203913361 -0.01259844269691379 0 -0.0018055321463643359 -0.01025743388663857 0 -0.0046543272127267301 -0.0080159528006065392 0 -0.0018850132395886083 -0.0044788216744513949 0 0.0020164613168404196 -0.0087564450028358547 0 -0.0018055321463643359 -0.01025743388663857 0 -0.0018850132395886083 -0.0044788216744513949 0 -0.0045642738049414076 -0.005370453228843902 0 -0.0046543272127267301 -0.0080159528006065392 0 -0.0018850132395886083 -0.0044788216744513949 0 -0.0045642738049414076 -0.005370453228843902 0 -0.0062885125299374572 -0.006743387460232883 0 -0.0062139620007852043 -0.0046568168835228992 0 -0.0045642738049414076 -0.005370453228843902 0 -0.0046543272127267301 -0.0080159528006065392 0 -0.0062885125299374572 -0.006743387460232883 0 -0.0046543272127267301 -0.0080159528006065392 0 -0.0072363099918592412 -0.0095346196786047221 0 -0.0062885125299374572 -0.006743387460232883 0 -0.0064051701542857066 -0.011870056677582801 0 -0.0018055321463643359 -0.01025743388663857 0 -0.0046543272127267301 -0.0080159528006065392 0 -0.0064051701542857066 -0.011870056677582801 0 -0.0046543272127267301 -0.0080159528006065392 0 -0.0072363099918592412 -0.0095346196786047221 0 -0.0072363099918592412 -0.0095346196786047221 0 -0.0095257406762655188 -0.0099852423916241394 0 -0.0081390783651024198 -0.007207092726608689 0 -0.0072363099918592412 -0.0095346196786047221 0 -0.0062885125299374572 -0.006743387460232883 0 -0.0081390783651024198 -0.007207092726608689 0 -0.007240162449791923 -0.0028972999491205429 0 -0.0074366464467227325 -0.0023183089229367277 0 -0.0070444985003697627 -0.0020516493274650087 0 -0.0095257406762655188 -0.0099852423916241394 0 -0.0089429338738413692 -0.0062343914930031831 0 -0.0081390783651024198 -0.007207092726608689 0 -0.007240162449791923 -0.0028972999491205429 0 -0.0078499707537339168 -0.0023895463377595857 0 -0.0078556385824733524 -0.0030417464338480344 0 -0.0074169025279749064 -0.0059043565343093957 0 -0.0076291298695528942 -0.0041801654226686731 0 -0.007240162449791923 -0.0028972999491205429 0 -0.0074366464467227325 -0.0023183089229367277 0 -0.0078499707537339168 -0.0023895463377595857 0 -0.0070444985003697627 -0.0020516493274650087 0 -0.0076141380663855987 -0.0019300160347638391 0 -0.0076466627493003833 -0.0012727369173233501 0 -0.0074366464467227325 -0.0023183089229367277 0 -0.0076141380663855987 -0.0019300160347638391 0 -0.0078499707537339168 -0.0023895463377595857 0 -0.0074366464467227325 -0.0023183089229367277 0 -0.0070444985003697627 -0.0020516493274650087 0 -0.0076141380663855987 -0.0019300160347638391 0 -0.0088905466769294283 -0.0060126742308198632 0 -0.0073678996609575047 -0.0054433706571201347 0 -0.007267710481393486 -0.0027617217830227629 0 -0.0062885125299374572 -0.006743387460232883 0 -0.0081390783651024198 -0.007207092726608689 0 -0.0073678996609575047 -0.0054433706571201347 0 -0.0088905466769294283 -0.0060126742308198632 0 -0.0081390783651024198 -0.007207092726608689 0 -0.0073678996609575047 -0.0054433706571201347 0 -0.0076291298695528942 -0.0041801654226686731 0 -0.0075949330005618517 -0.0042694143882472677 0 -0.0062885125299374572 -0.006743387460232883 0 -0.0073678996609575047 -0.0054433706571201347 0 -0.0062139620007852043 -0.0046568168835228992 0 -0.0076291298695528942 -0.0041801654226686731 0 -0.0076204440624967297 -0.0041081539558795489 0 -0.007267710481393486 -0.0027617217830227629 0 -0.0071632947199225736 -0.0011673365668004592 0 -0.0055128738005922606 -0.0031533185439341998 0 -0.0062139620007852043 -0.0046568168835228992 0 -0.007267710481393486 -0.0027617217830227629 0 -0.0055128738005922606 -0.0031533185439341998 0 -0.0073678996609575047 -0.0054433706571201347 0 -0.0062139620007852043 -0.0046568168835228992 0 -0.007267710481393486 -0.0027617217830227629 0 -0.0074810883827131705 -0.003735544420241882 0 -0.007267710481393486 -0.0027617217830227629 0 -0.0083707069177366838 -0.0022738384089954003 0 -0.0076291298695528942 -0.0041801654226686731 0 -0.008289457704939919 -0.0025408483845097167 0 -0.007267710481393486 -0.0027617217830227629 0 -0.0071632947199225736 -0.0011673365668004592 0 -0.0083707069177366838 -0.0022738384089954003 0 -0.0083542261777286367 0.0012710336207525852 0 -0.0077134720393567842 0.00044471000761752962 0 -0.0081129185318064689 0.00021434632953335102 0 -0.0071632947199225736 -0.0011673365668004592 0 -0.0081637175321493446 -0.0009278604308018088 0 -0.0071632947199225736 -0.0011673365668004592 0 -0.0081637175321493446 -0.0009278604308018088 0 -0.0083707069177366838 -0.0022738384089954003 0 -0.0068531520165832343 0.0018302323287690324 0 -0.0071632947199225736 -0.0011673365668004592 0 -0.0050895626137405893 -0.0010825840076956602 0 -0.0071632947199225736 -0.0011673365668004592 0 -0.0050895626137405893 -0.0010825840076956602 0 -0.0055128738005922606 -0.0031533185439341998 0 -0.0048764238280526225 0.0018077972844539618 0 -0.0050277314085464637 -0.00010141132977657394 0 -0.0029210603856904454 0.00021308334488408126 0 -0.0050277314085464637 -0.00010141132977657394 0 -0.0029210603856904454 0.00021308334488408126 0 -0.0033617856927790728 -0.0018961520355472497 0 -0.0022750397573321492 -0.0017275843165473939 0 -0.0029210603856904454 0.00021308334488408126 0 -0.0033617856927790728 -0.0018961520355472497 0 -0.0050895626137405893 -0.0010825840076956602 0 -0.0018850132395886083 -0.0044788216744513949 0 -0.0055128738005922606 -0.0031533185439341998 0 -0.0045642738049414076 -0.005370453228843902 0 -0.0018850132395886083 -0.0044788216744513949 0 -0.0055128738005922606 -0.0031533185439341998 0 -0.0056190860497574253 -0.001776468521086315 0 -0.0043436341585603418 -0.004588826117497005 0 -0.0045642738049414076 -0.005370453228843902 0 -0.0062139620007852043 -0.0046568168835228992 0 -0.0055128738005922606 -0.0031533185439341998 0 -0.0095057242191586584 -0.0011614035481070754 0 -0.0090206192142668028 -0.0014937158463726838 0 -0.00925260471258426 -0.0019381842761328426 0 -0.0095057242191586584 -0.0011614035481070754 0 -0.0091880047953636287 -0.00069057149994527145 0 -0.0090206192142668028 -0.0014937158463726838 0 -0.0095057242191586584 -0.0011614035481070754 0 -0.0097451947802363725 -0.0015318343637559619 0 -0.00925260471258426 -0.0019381842761328426 0 -0.010064054583029045 -0.00095448636923846993 0 -0.010179774208641032 -0.0017259294054225566 0 -0.010516298664522822 -0.001264948372778167 0 -0.0097451947802363725 -0.0015318343637559619 0 -0.010064054583029045 -0.00095448636923846993 0 -0.010179774208641032 -0.0017259294054225566 0 -0.0095057242191586584 -0.0011614035481070754 0 -0.0097451947802363725 -0.0015318343637559619 0 -0.010064054583029045 -0.00095448636923846993 0 -0.0099157706131958231 -0.00015031146803161867 0 -0.010064054583029045 -0.00095448636923846993 0 -0.010577940843880935 -0.00031595559347891665 0 -0.010064054583029045 -0.00095448636923846993 0 -0.010577940843880935 -0.00031595559347891665 0 -0.010516298664522822 -0.001264948372778167 0 -0.0099157706131958231 -0.00015031146803161867 0 -0.010064054583029045 -0.00095448636923846993 0 -0.0096222265437999905 -0.00063897077312992747 0 -0.0099157706131958231 -0.00015031146803161867 0 -0.0095333783842655399 -3.5770820123906691e-05 0 -0.0096222265437999905 -0.00063897077312992747 0 -0.0095057242191586584 -0.0011614035481070754 0 -0.010064054583029045 -0.00095448636923846993 0 -0.0096222265437999905 -0.00063897077312992747 0 -0.0095057242191586584 -0.0011614035481070754 0 -0.0096222265437999905 -0.00063897077312992747 0 -0.0091880047953636287 -0.00069057149994527145 0 -0.0095333783842655399 -3.5770820123906691e-05 0 -0.0091663584006085336 -0.0002092580727850427 0 -0.0091880047953636287 -0.00069057149994527145 0 -0.0095333783842655399 -3.5770820123906691e-05 0 -0.0096222265437999905 -0.00063897077312992747 0 -0.0091880047953636287 -0.00069057149994527145 0 -0.0091663584006085336 -0.0002092580727850427 0 -0.0091880047953636287 -0.00069057149994527145 0 -0.0082762827343610765 -0.0004550359475232799 0 -0.0091880047953636287 -0.00069057149994527145 0 -0.0082762827343610765 -0.0004550359475232799 0 -0.0085274554152087491 -0.0012791764080710756 0 -0.0088477611398119788 -0.0013854559582309413 0 -0.008289457704939919 -0.0025408483845097167 0 -0.0082762827343610765 -0.0004550359475232799 0 -0.0076466627493003833 -0.0012727369173233501 0 -0.0085274554152087491 -0.0012791764080710756 0 -0.0081637175321493446 -0.0009278604308018088 0 -0.0089996062901713959 -0.00060086404369715841 0 -0.0083707069177366838 -0.0022738384089954003 0 -0.0081129185318064689 0.00021434632953335102 0 -0.0081637175321493446 -0.0009278604308018088 0 -0.0089996062901713959 -0.00060086404369715841 0 -0.0076466627493003833 -0.0012727369173233501 0 -0.0085274554152087491 -0.0012791764080710756 0 -0.0080799651023011412 -0.0017562770419619208 0 -0.0076141380663855987 -0.0019300160347638391 0 -0.0076466627493003833 -0.0012727369173233501 0 -0.0080799651023011412 -0.0017562770419619208 0 -0.0090206192142668028 -0.0014937158463726838 0 -0.0085274554152087491 -0.0012791764080710756 0 -0.0085615389044050409 -0.002064253551650463 0 -0.0091880047953636287 -0.00069057149994527145 0 -0.0090206192142668028 -0.0014937158463726838 0 -0.0085274554152087491 -0.0012791764080710756 0 -0.0085274554152087491 -0.0012791764080710756 0 -0.0085615389044050409 -0.002064253551650463 0 -0.0080799651023011412 -0.0017562770419619208 0 -0.0090206192142668028 -0.0014937158463726838 0 -0.0085615389044050409 -0.002064253551650463 0 -0.00925260471258426 -0.0019381842761328426 0 -0.0085615389044050409 -0.002064253551650463 0 -0.0089644022578437635 -0.0025055899202025018 0 -0.00925260471258426 -0.0019381842761328426 0 -0.0085615389044050409 -0.002064253551650463 0 -0.0080799651023011412 -0.0017562770419619208 0 -0.0078499707537339168 -0.0023895463377595857 0 -0.0076141380663855987 -0.0019300160347638391 0 -0.0080799651023011412 -0.0017562770419619208 0 -0.0078499707537339168 -0.0023895463377595857 0 -0.0085615389044050409 -0.002064253551650463 0 -0.0078499707537339168 -0.0023895463377595857 0 -0.0084407332302054473 -0.00278377277725238 0 -0.0078499707537339168 -0.0023895463377595857 0 -0.0084407332302054473 -0.00278377277725238 0 -0.0078556385824733524 -0.0030417464338480344 0 -0.0084407332302054473 -0.00278377277725238 0 -0.0089644022578437635 -0.0025055899202025018 0 -0.0091406848235422913 -0.0030711996788938606 0 -0.0085615389044050409 -0.002064253551650463 0 -0.0084407332302054473 -0.00278377277725238 0 -0.0089644022578437635 -0.0025055899202025018 0 -0.0089644022578437635 -0.0025055899202025018 0 -0.0094574293545762762 -0.0026257836397202854 0 -0.0091406848235422913 -0.0030711996788938606 0 -0.00925260471258426 -0.0019381842761328426 0 -0.0097092490358244108 -0.0020180355074120213 0 -0.0094574293545762762 -0.0026257836397202854 0 -0.0089644022578437635 -0.0025055899202025018 0 -0.00925260471258426 -0.0019381842761328426 0 -0.0094574293545762762 -0.0026257836397202854 0 -0.0097451947802363725 -0.0015318343637559619 0 -0.00925260471258426 -0.0019381842761328426 0 -0.0097092490358244108 -0.0020180355074120213 0 -0.010179774208641032 -0.0017259294054225566 0 -0.010152356481829775 -0.0021769578133399902 0 -0.010650810884288609 -0.0019202590353854555 0 -0.010179774208641032 -0.0017259294054225566 0 -0.0097092490358244108 -0.0020180355074120213 0 -0.010152356481829775 -0.0021769578133399902 0 -0.0097451947802363725 -0.0015318343637559619 0 -0.010179774208641032 -0.0017259294054225566 0 -0.0097092490358244108 -0.0020180355074120213 0 -0.0097092490358244108 -0.0020180355074120213 0 -0.010152356481829775 -0.0021769578133399902 0 -0.0094574293545762762 -0.0026257836397202854 0 -0.0094574293545762762 -0.0026257836397202854 0 -0.0097843615147252764 -0.0029498227861603937 0 -0.0091406848235422913 -0.0030711996788938606 0 -0.0087578195636004493 -0.0044946837632052952 0 -0.0082189693565400436 -0.0048674820112090339 0 -0.0071501752355733863 -0.00043097954534455186 0 -0.0053535185823954745 -0.00010016079295236703 0 -0.0094574293545762762 -0.0026257836397202854 0 -0.0097843615147252764 -0.0029498227861603937 0 -0.010523817690889902 -0.0025654457376485373 0 -0.010152356481829775 -0.0021769578133399902 0 -0.0094574293545762762 -0.0026257836397202854 0 -0.010678518926440282 -0.0026039739879328764 0 -0.0097843615147252764 -0.0029498227861603937 0 -0.0095183277686856724 -0.0040806246672400338 0 -0.0067635459558651493 -0.0040386789531394315 0 -0.0097843615147252764 -0.0029498227861603937 0 -0.0095183277686856724 -0.0040806246672400338 0 -0.010583637577525415 -0.0036771382010869621 0 -0.0095183277686856724 -0.0040806246672400338 0 -0.0089474233982861258 -0.0050680181968431421 0 -0.0067635459558651493 -0.0040386789531394315 0 -0.0095183277686856724 -0.0040806246672400338 0 -0.0089474233982861258 -0.0050680181968431421 0 -0.01095937673857731 -0.004753093646909244 0 -0.0089474233982861258 -0.0050680181968431421 0 -0.0074762953805931317 -0.0053196758937664032 0 -0.0083847963332616855 -0.0059918581211007111 0 -0.0067635459558651493 -0.0040386789531394315 0 -0.0074762953805931317 -0.0053196758937664032 0 -0.0062362716573315926 -0.0063803643410241841 0 -0.0089474233982861258 -0.0050680181968431421 0 -0.0067635459558651493 -0.0040386789531394315 0 -0.0074762953805931317 -0.0053196758937664032 0 -0.0074762953805931317 -0.0053196758937664032 0 -0.0062362716573315926 -0.0063803643410241841 0 -0.0083847963332616855 -0.0059918581211007111 0 -0.0062362716573315926 -0.0063803643410241841 0 -0.0057720662229206188 -0.0069472774859156488 0 -0.0060104185488596184 -0.0066801318660016243 0 -0.0064666807793790906 -0.0061995083544086919 0 -0.0064076921176328622 -0.0061183319776186912 0 -0.0062362716573315926 -0.0063803643410241841 0 -0.0057686226161684949 -0.0069042290995522879 0 -0.0060104185488596184 -0.0066801318660016243 0 -0.0062362716573315926 -0.0063803643410241841 0 -0.0093322506687419614 -0.0071931000852956907 0 -0.0083847963332616855 -0.0059918581211007111 0 -0.0089474233982861258 -0.0050680181968431421 0 -0.0083847963332616855 -0.0059918581211007111 0 -0.0098443950601665286 -0.0060068474339643645 0 -0.0093322506687419614 -0.0071931000852956907 0 -0.0083847963332616855 -0.0059918581211007111 0 -0.0098443950601665286 -0.0060068474339643645 0 -0.0068808397045957079 -0.0070952438676781422 0 -0.0073718825142899038 -0.0057656817351421355 0 -0.00742528413289123 -0.0037340475727260388 0 -0.0078556385824733524 -0.0030417464338480344 0 -0.0083122707571021553 -0.0034039049360002705 0 -0.0033713288843369672 -0.0056980080811996183 0 -0.0048509681720646037 -0.0050788127187268517 0 -0.0041591009753977302 -0.005877778084981424 0 -0.0084407332302054473 -0.00278377277725238 0 -0.0078556385824733524 -0.0030417464338480344 0 -0.0083122707571021553 -0.0034039049360002705 0 -0.0084407332302054473 -0.00278377277725238 0 -0.0091406848235422913 -0.0030711996788938606 0 -0.0083122707571021553 -0.0034039049360002705 0 -0.0082189693565400436 -0.0048674820112090339 0 -0.0073718825142899038 -0.0057656817351421355 0 -0.0067635459558651493 -0.0040386789531394315 0 -0.0062362716573315926 -0.0063803643410241841 0 -0.0048509681720646037 -0.0050788127187268517 0 -0.0062362716573315926 -0.0063803643410241841 0 -0.0048739375207002078 -0.0062021581382300482 0 -0.0057686226161684949 -0.0069042290995522879 0 -0.0062362716573315926 -0.0063803643410241841 0 -0.0048509681720646037 -0.0050788127187268517 0 -0.0048739375207002078 -0.0062021581382300482 0 -0.0035347111053359386 -0.0065651294712803657 0 -0.0048739375207002078 -0.0062021581382300482 0 -0.0057686226161684949 -0.0069042290995522879 0 -0.0035347111053359386 -0.0065651294712803657 0 -0.0048739375207002078 -0.0062021581382300482 0 -0.0041591009753977302 -0.005877778084981424 0 -0.0048509681720646037 -0.0050788127187268517 0 -0.0048739375207002078 -0.0062021581382300482 0 -0.0041591009753977302 -0.005877778084981424 0 -0.0075893782843932762 -0.0070384728026142212 0 -0.007218269549447924 -0.0066537072056750317 0 -0.0074001053697144948 -0.0061495437854038985 0 -0.0075893782843932762 -0.0070384728026142212 0 -0.007218269549447924 -0.0066537072056750317 0 -0.0067164735973280834 -0.0068244196636812228 0 -0.0069964783750204596 -0.007598524435325521 0 -0.0061860868202750314 -0.0071631243115539995 0 -0.007218269549447924 -0.0066537072056750317 0 -0.0067164735973280834 -0.0068244196636812228 0 -0.0068955395400088987 -0.0063295779269962292 0 -0.0067164735973280834 -0.0068244196636812228 0 -0.0068955395400088987 -0.0063295779269962292 0 -0.0064035689376553901 -0.0062612653596605282 0 -0.0068955395400088987 -0.0063295779269962292 0 -0.0064035689376553901 -0.0062612653596605282 0 -0.0067509257620387694 -0.0057348795271477586 0 -0.0068955395400088987 -0.0063295779269962292 0 -0.0074001053697144948 -0.0061495437854038985 0 -0.0067509257620387694 -0.0057348795271477586 0 -0.007218269549447924 -0.0066537072056750317 0 -0.0068955395400088987 -0.0063295779269962292 0 -0.0074001053697144948 -0.0061495437854038985 0 -0.0059113940940180619 -0.0066683765408094833 0 -0.005440712080701981 -0.0067402473733983899 0 -0.0055279113400280439 -0.0063563812433939729 0 -0.0057720662229206188 -0.0069472774859156488 0 -0.0059113940940180619 -0.0066683765408094833 0 -0.005440712080701981 -0.0067402473733983899 0 -0.0057720662229206188 -0.0069472774859156488 0 -0.0059113940940180619 -0.0066683765408094833 0 -0.0060104185488596184 -0.0066801318660016243 0 -0.0057686226161684949 -0.0069042290995522879 0 -0.0059113940940180619 -0.0066683765408094833 0 -0.0060104185488596184 -0.0066801318660016243 0 -0.0061860868202750314 -0.0071631243115539995 0 -0.0060143167489629251 -0.0070421991592875136 0 -0.0067164735973280834 -0.0068244196636812228 0 -0.0059113940940180619 -0.0066683765408094833 0 -0.0064035689376553901 -0.0062612653596605282 0 -0.0059113940940180619 -0.0066683765408094833 0 -0.0064035689376553901 -0.0062612653596605282 0 -0.0059530423970774746 -0.0062010229524350124 0 -0.0064035689376553901 -0.0062612653596605282 0 -0.0059530423970774746 -0.0062010229524350124 0 -0.0061383264928146428 -0.0056503707541201856 0 -0.0059113940940180619 -0.0066683765408094833 0 -0.0059530423970774746 -0.0062010229524350124 0 -0.0055279113400280439 -0.0063563812433939729 0 -0.0059530423970774746 -0.0062010229524350124 0 -0.0056348176278231358 -0.0058768505813001169 0 -0.0055279113400280439 -0.0063563812433939729 0 -0.0056348176278231358 -0.0058768505813001169 0 -0.0061383264928146428 -0.0056503707541201856 0 -0.0055504365391120082 -0.005285878592931584 0 -0.0059530423970774746 -0.0062010229524350124 0 -0.0056348176278231358 -0.0058768505813001169 0 -0.0061383264928146428 -0.0056503707541201856 0 -0.0061383264928146428 -0.0056503707541201856 0 -0.0063669616340947211 -0.0052445851798175892 0 -0.0067509257620387694 -0.0057348795271477586 0 -0.0064035689376553901 -0.0062612653596605282 0 -0.0061383264928146428 -0.0056503707541201856 0 -0.0067509257620387694 -0.0057348795271477586 0 -0.0061383264928146428 -0.0056503707541201856 0 -0.0063669616340947211 -0.0052445851798175892 0 -0.0060210164491125802 -0.0050520002483390534 0 -0.0063669616340947211 -0.0052445851798175892 0 -0.0060210164491125802 -0.0050520002483390534 0 -0.0064855125441366322 -0.0049104584403458426 0 -0.0060210164491125802 -0.0050520002483390534 0 -0.0055504365391120082 -0.005285878592931584 0 -0.0055691452028625221 -0.004619005586755571 0 -0.0061383264928146428 -0.0056503707541201856 0 -0.0060210164491125802 -0.0050520002483390534 0 -0.0055504365391120082 -0.005285878592931584 0 -0.0060210164491125802 -0.0050520002483390534 0 -0.0055691452028625221 -0.004619005586755571 0 -0.0061559117738237646 -0.0046333704267876273 0 -0.0060210164491125802 -0.0050520002483390534 0 -0.0061559117738237646 -0.0046333704267876273 0 -0.0064855125441366322 -0.0049104584403458426 0 -0.0061559117738237646 -0.0046333704267876273 0 -0.0064975172626278209 -0.0044711550041787018 0 -0.0064855125441366322 -0.0049104584403458426 0 -0.0061559117738237646 -0.0046333704267876273 0 -0.0061963778811111852 -0.0041568950686554553 0 -0.0064975172626278209 -0.0044711550041787018 0 -0.0061963778811111852 -0.0041568950686554553 0 -0.0065776492746632944 -0.0041777131596435913 0 -0.0064975172626278209 -0.0044711550041787018 0 0.012367081205009348 -0.027850400348714374 0 0.011079967666048714 -0.026694015712276781 0 0.01271782042202804 -0.026685678722632705 0 -0.0055691452028625221 -0.004619005586755571 0 -0.0061559117738237646 -0.0046333704267876273 0 -0.0061963778811111852 -0.0041568950686554553 0 0.0024902964269999839 -0.017116240500220592 0 0.00044626125211620724 -0.017529245075859724 0 -0.0078625914654786334 -0.013421782865110912 0 -0.0078846087497003014 -0.013430598188197983 0 -0.007849452843672949 -0.013401368086178936 0 -0.0078623826067362595 -0.013406574752213166 0 -0.0078648121798561461 -0.013425177196281396 0 -0.0078661531054692001 -0.013425532952848564 0 -0.0078625914654786334 -0.013421782865110912 0 -0.0078623826067362595 -0.013406574752213166 0 -0.0078648121798561461 -0.013425177196281396 0 -0.0078625914654786334 -0.013421782865110912 0 -0.007849452843672949 -0.013401368086178936 0 -0.0078623826067362595 -0.013406574752213166 0 -0.0078648121798561461 -0.013425177196281396 0 -0.0078661531054692001 -0.013425532952848564 0 -0.0078662955954728782 -0.013435550587017559 0 -0.0078625914654786334 -0.013421782865110912 0 -0.0078846087497003014 -0.013430598188197983 0 -0.0078727102675848846 -0.013435715357581994 0 -0.0078648121798561461 -0.013425177196281396 0 -0.0078727102675848846 -0.013435715357581994 0 -0.0078662955954728782 -0.013435550587017559 0 -0.0078625914654786334 -0.013421782865110912 0 -0.0078648121798561461 -0.013425177196281396 0 -0.0078727102675848846 -0.013435715357581994 0 -0.0069051045449883275 -0.004395166892417055 0 -0.0065776492746632944 -0.0041777131596435913 0 -0.0064975172626278209 -0.0044711550041787018 0 -0.0069051045449883275 -0.004395166892417055 0 -0.0064975172626278209 -0.0044711550041787018 0 -0.0066973132172800957 -0.0046938971996318326 0 -0.0064975172626278209 -0.0044711550041787018 0 -0.0066973132172800957 -0.0046938971996318326 0 -0.0064855125441366322 -0.0049104584403458426 0 -0.0069051045449883275 -0.004395166892417055 0 -0.0066973132172800957 -0.0046938971996318326 0 -0.006829968492605149 -0.0049222942533788195 0 -0.0066973132172800957 -0.0046938971996318326 0 -0.0064855125441366322 -0.0049104584403458426 0 -0.006829968492605149 -0.0049222942533788195 0 -0.0069051045449883275 -0.004395166892417055 0 -0.006829968492605149 -0.0049222942533788195 0 -0.0071758005066505466 -0.005233304487467374 0 -0.0044682652439477248 -0.011561766096417523 0 -0.0059496852986720113 -0.0099155334994089732 0 -0.007849452843672949 -0.013401368086178936 0 -0.0077861866215638747 -0.013221503174750028 0 -0.0076487384059994168 -0.013237863338545824 0 -0.0077645886177866476 -0.013298852286379698 0 -0.007725028582294945 -0.013249819332274718 0 -0.0078846087497003014 -0.013430598188197983 0 -0.007849452843672949 -0.013401368086178936 0 -0.0077861866215638747 -0.013221503174750028 0 -0.007849452843672949 -0.013401368086178936 0 -0.0078623826067362595 -0.013406574752213166 0 -0.0078833878463645118 -0.013332669859653807 0 -0.0063669616340947211 -0.0052445851798175892 0 -0.0067351442795467341 -0.0052232881094037746 0 -0.0067509257620387694 -0.0057348795271477586 0 -0.0071758005066505466 -0.005233304487467374 0 -0.0067351442795467341 -0.0052232881094037746 0 -0.0067509257620387694 -0.0057348795271477586 0 -0.0064855125441366322 -0.0049104584403458426 0 -0.006829968492605149 -0.0049222942533788195 0 -0.0067351442795467341 -0.0052232881094037746 0 -0.0063669616340947211 -0.0052445851798175892 0 -0.0064855125441366322 -0.0049104584403458426 0 -0.0067351442795467341 -0.0052232881094037746 0 -0.006829968492605149 -0.0049222942533788195 0 -0.0071758005066505466 -0.005233304487467374 0 -0.0067351442795467341 -0.0052232881094037746 0 -0.0076866791623872869 -0.013025684490071411 0 -0.0077861866215638747 -0.013221503174750028 0 -0.0076305707472126491 -0.013114611485694193 0 -0.0067806851836791256 -0.0093235476466333404 0 -0.0059496852986720113 -0.0099155334994089732 0 -0.0074001053697144948 -0.0061495437854038985 0 -0.0071758005066505466 -0.005233304487467374 0 -0.0067509257620387694 -0.0057348795271477586 0 -0.0076305707472126491 -0.013114611485694193 0 -0.0075156081344272731 -0.013081124699196311 0 -0.0076487384059994168 -0.013237863338545824 0 -0.0076446756583686626 -0.013154996963148749 0 -0.007725028582294945 -0.013249819332274718 0 -0.007765171358485568 -0.013176509175350078 0 -0.0077955873318563667 -0.013306126140778071 0 -0.0076873723250815741 -0.0132793393667489 0 -0.0077955873318563667 -0.013306126140778071 0 -0.0076873723250815741 -0.0132793393667489 0 -0.0077916346213544518 -0.013346010050861508 0 -0.007765171358485568 -0.013176509175350078 0 -0.0077955873318563667 -0.013306126140778071 0 -0.0078833878463645118 -0.013332669859653807 0 -0.0077861866215638747 -0.013221503174750028 0 -0.0076305707472126491 -0.013114611485694193 0 -0.0076487384059994168 -0.013237863338545824 0 -0.0077955873318563667 -0.013306126140778071 0 -0.0078833878463645118 -0.013332669859653807 0 -0.0078457987189083853 -0.013364149324106957 0 -0.0075601711758023311 -0.013202983472702885 0 -0.0075482891213525232 -0.013159250825280777 0 -0.0076155475247381421 -0.013278787672444378 0 -0.0075482891213525232 -0.013159250825280777 0 -0.0076155475247381421 -0.013278787672444378 0 -0.0076873723250815741 -0.0132793393667489 0 -0.0075482891213525232 -0.013159250825280777 0 -0.007765171358485568 -0.013176509175350078 0 -0.0076873723250815741 -0.0132793393667489 0 -0.0076873723250815741 -0.0132793393667489 0 -0.0076978389974737783 -0.013322104674828066 0 -0.0077916346213544518 -0.013346010050861508 0 -0.0076155475247381421 -0.013278787672444378 0 -0.0076978389974737783 -0.013322104674828066 0 -0.0076736845842294687 -0.01329025012371852 0 -0.0076155475247381421 -0.013278787672444378 0 -0.0076873723250815741 -0.0132793393667489 0 -0.0076978389974737783 -0.013322104674828066 0 -0.0076978389974737783 -0.013322104674828066 0 -0.0076736845842294687 -0.01329025012371852 0 -0.0076391929191127082 -0.013354682311044568 0 -0.0076978389974737783 -0.013322104674828066 0 -0.0078138505822657241 -0.01338549228646364 0 -0.0077916346213544518 -0.013346010050861508 0 -0.0077689923915597201 -0.01342591569398127 0 -0.0078138505822657241 -0.01338549228646364 0 -0.0079229262932742368 -0.013451407249580757 0 -0.0077689923915597201 -0.01342591569398127 0 -0.0079229262932742368 -0.013451407249580757 0 -0.0080075019392041331 -0.013580159677944494 0 -0.0076978389974737783 -0.013322104674828066 0 -0.0077689923915597201 -0.01342591569398127 0 -0.0078138505822657241 -0.01338549228646364 0 -0.0076978389974737783 -0.013322104674828066 0 -0.0077689923915597201 -0.01342591569398127 0 -0.0076391929191127082 -0.013354682311044568 0 -0.0078623826067362595 -0.013406574752213166 0 -0.0078833878463645118 -0.013332669859653807 0 -0.0078665349071153703 -0.013400055505724387 0 -0.0078833878463645118 -0.013332669859653807 0 -0.0078665349071153703 -0.013400055505724387 0 -0.0078457987189083853 -0.013364149324106957 0 -0.0078665349071153703 -0.013400055505724387 0 -0.0078457987189083853 -0.013364149324106957 0 -0.0078718826175260322 -0.013410424093893489 0 -0.0077955873318563667 -0.013306126140778071 0 -0.0078457987189083853 -0.013364149324106957 0 -0.0077916346213544518 -0.013346010050861508 0 -0.0078138505822657241 -0.01338549228646364 0 -0.0077916346213544518 -0.013346010050861508 0 -0.0078718826175260322 -0.013410424093893489 0 -0.0078457987189083853 -0.013364149324106957 0 -0.0077916346213544518 -0.013346010050861508 0 -0.0078718826175260322 -0.013410424093893489 0 -0.0078718826175260322 -0.013410424093893489 0 -0.0079229262932742368 -0.013451407249580757 0 -0.0078736148732853062 -0.013430178814693751 0 -0.0078138505822657241 -0.01338549228646364 0 -0.0078718826175260322 -0.013410424093893489 0 -0.0079229262932742368 -0.013451407249580757 0 -0.0079229262932742368 -0.013451407249580757 0 -0.0078736148732853062 -0.013430178814693751 0 -0.0078777189258988981 -0.013433217602578262 0 -0.0078736148732853062 -0.013430178814693751 0 -0.00786966743368556 -0.013432676468410244 0 -0.0078777189258988981 -0.013433217602578262 0 -0.0078665349071153703 -0.013400055505724387 0 -0.0078718826175260322 -0.013410424093893489 0 -0.0078736148732853062 -0.013430178814693751 0 -0.0078665349071153703 -0.013400055505724387 0 -0.0078736148732853062 -0.013430178814693751 0 -0.0078661531054692001 -0.013425532952848564 0 -0.0078623826067362595 -0.013406574752213166 0 -0.0078665349071153703 -0.013400055505724387 0 -0.0078661531054692001 -0.013425532952848564 0 -0.0078736148732853062 -0.013430178814693751 0 -0.0078661531054692001 -0.013425532952848564 0 -0.00786966743368556 -0.013432676468410244 0 -0.0078661531054692001 -0.013425532952848564 0 -0.0078666239975107351 -0.013435265404016681 0 -0.00786966743368556 -0.013432676468410244 0 -0.0078666239975107351 -0.013435265404016681 0 -0.00786966743368556 -0.013432676468410244 0 -0.007867727222054666 -0.01343656801170311 0 -0.0078666239975107351 -0.013435265404016681 0 -0.007867727222054666 -0.01343656801170311 0 -0.0078645226408915591 -0.013441539743475629 0 -0.007867727222054666 -0.01343656801170311 0 -0.0078728801813491272 -0.01343420379809477 0 -0.0078777189258988981 -0.013433217602578262 0 -0.00786966743368556 -0.013432676468410244 0 -0.007867727222054666 -0.01343656801170311 0 -0.0078777189258988981 -0.013433217602578262 0 -0.0053844575573596051 -0.016313459005394715 0 -0.0052553919160900119 -0.017302145037331788 0 -0.0079229262932742368 -0.013451407249580757 0 -0.0080075019392041331 -0.013580159677944494 0 -0.0080865134953167269 -0.013641676187727336 0 -0.0079229262932742368 -0.013451407249580757 0 -0.0078777189258988981 -0.013433217602578262 0 -0.0078818639173082808 -0.013428370074892195 0 -0.0053122549668403636 -0.017194527447025772 0 -0.0052553919160900119 -0.017302145037331788 0 -0.0078728801813491272 -0.01343420379809477 0 -0.0078777189258988981 -0.013433217602578262 0 -0.0078818639173082808 -0.013428370074892195 0 -0.0080075019392041331 -0.013580159677944494 0 -0.008302073191748088 -0.013780860324438881 0 -0.0083137612304613594 -0.014134853237698506 0 -0.008302073191748088 -0.013780860324438881 0 -0.0083137612304613594 -0.014134853237698506 0 -0.0084089550020623859 -0.014229885295713207 0 -0.0053626625851137411 -0.018858274333286046 0 -0.0059025753578330281 -0.01933817815352094 0 -0.0054954838228681415 -0.019751434018753938 0 -0.0052553919160900119 -0.017302145037331788 0 -0.0056241173307960066 -0.018781129551126492 0 -0.0078650204405002339 -0.013442059471624074 0 -0.0078598745154311624 -0.013453104706268204 0 -0.007862264870707061 -0.013446699107836555 0 -0.0049753198181749121 -0.018769022791095453 0 -0.0044272312518995457 -0.02069375652037251 0 -0.007867727222054666 -0.01343656801170311 0 -0.0078650204405002339 -0.013442059471624074 0 -0.007862264870707061 -0.013446699107836555 0 -0.0078728801813491272 -0.01343420379809477 0 -0.0078818639173082808 -0.013428370074892195 0 -0.0078650204405002339 -0.013442059471624074 0 -0.0052553919160900119 -0.017302145037331788 0 -0.0049753198181749121 -0.018769022791095453 0 -0.007867727222054666 -0.01343656801170311 0 -0.0078728801813491272 -0.01343420379809477 0 -0.0078650204405002339 -0.013442059471624074 0 -0.0082812773888527556 -0.013901702484246192 0 -0.0082828269143423068 -0.013813658044077035 0 -0.0077689923915597201 -0.01342591569398127 0 -0.0077064047880347208 -0.013640119750422463 0 -0.0076391929191127082 -0.013354682311044568 0 -0.0086521748824017284 -0.014345491604204282 0 -0.0087285313093475123 -0.014273152263349803 0 -0.0088907635912876763 -0.014292631759172576 0 -0.0077689923915597201 -0.01342591569398127 0 -0.0080075019392041331 -0.013580159677944494 0 -0.0077064047880347208 -0.013640119750422463 0 -0.0083137612304613594 -0.014134853237698506 0 -0.0086521748824017284 -0.014345491604204282 0 -0.0085682939119868431 -0.01419224182661874 0 -0.0080075019392041331 -0.013580159677944494 0 -0.0083137612304613594 -0.014134853237698506 0 -0.0077064047880347208 -0.013640119750422463 0 -0.0083066256450639239 -0.013953972726350957 0 -0.0082812773888527556 -0.013901702484246192 0 -0.0086521748824017284 -0.014345491604204282 0 -0.0085682939119868431 -0.01419224182661874 0 -0.0087285313093475123 -0.014273152263349803 0 -0.0087285313093475123 -0.014273152263349803 0 -0.0087068998484746991 -0.014159382659723692 0 -0.0088420524779904038 -0.014286647510407027 0 -0.0085682939119868431 -0.01419224182661874 0 -0.0087068998484746991 -0.014159382659723692 0 -0.0085629453401215826 -0.014126007120674354 0 -0.0085682939119868431 -0.01419224182661874 0 -0.0087285313093475123 -0.014273152263349803 0 -0.0087068998484746991 -0.014159382659723692 0 -0.0085682939119868431 -0.01419224182661874 0 -0.0085629453401215826 -0.014126007120674354 0 -0.008444590750369867 -0.014160220964555714 0 -0.0083137612304613594 -0.014134853237698506 0 -0.0085682939119868431 -0.01419224182661874 0 -0.008444590750369867 -0.014160220964555714 0 -0.0085629453401215826 -0.014126007120674354 0 -0.008444590750369867 -0.014160220964555714 0 -0.008467412314326574 -0.014129270093151312 0 -0.0085629453401215826 -0.014126007120674354 0 -0.0085487163734912028 -0.014066570038113721 0 -0.0086613084716102313 -0.014074455845496645 0 -0.0085629453401215826 -0.014126007120674354 0 -0.0085487163734912028 -0.014066570038113721 0 -0.008467412314326574 -0.014129270093151312 0 -0.0087068998484746991 -0.014159382659723692 0 -0.0086613084716102313 -0.014074455845496645 0 -0.00874424158274947 -0.01408889414967807 0 -0.0087068998484746991 -0.014159382659723692 0 -0.0085629453401215826 -0.014126007120674354 0 -0.0086613084716102313 -0.014074455845496645 0 -0.0058661789731579506 -0.019886626593525171 0 -0.0054954838228681415 -0.019751434018753938 0 -0.005628192109389629 -0.02064091636818649 0 -0.0058675658849785713 -0.022332525297570963 0 -0.0044272312518995457 -0.02069375652037251 0 -0.0058661789731579506 -0.019886626593525171 0 -0.005628192109389629 -0.02064091636818649 0 -0.0064385079880519376 -0.019815385162577304 0 -0.0059025753578330281 -0.01933817815352094 0 -0.0058661789731579506 -0.019886626593525171 0 -0.0064385079880519376 -0.019815385162577304 0 -0.0059025753578330281 -0.01933817815352094 0 -0.0058661789731579506 -0.019886626593525171 0 -0.0054954838228681415 -0.019751434018753938 0 -0.0056241173307960066 -0.018781129551126492 0 -0.0058675658849785713 -0.022332525297570963 0 -0.0084089550020623859 -0.014229885295713207 0 -0.008467412314326574 -0.014129270093151312 0 -0.0083898878076335004 -0.014095591163101351 0 -0.0083137612304613594 -0.014134853237698506 0 -0.0084089550020623859 -0.014229885295713207 0 -0.008444590750369867 -0.014160220964555714 0 -0.0084089550020623859 -0.014229885295713207 0 -0.008444590750369867 -0.014160220964555714 0 -0.008467412314326574 -0.014129270093151312 0 -0.0085487163734912028 -0.014066570038113721 0 -0.008467412314326574 -0.014129270093151312 0 -0.0083898878076335004 -0.014095591163101351 0 -0.0022465195276669646 -0.028178160866457653 0 -0.0024174012000469204 -0.028178667277880477 0 -0.0024117094654782043 -0.027992161427516777 0 -0.0022465195276669646 -0.028178160866457653 0 -0.0024174012000469204 -0.028178667277880477 0 -0.0023360641556791524 -0.028274474163228227 0 -0.0024174012000469204 -0.028178667277880477 0 -0.0024117094654782043 -0.027992161427516777 0 -0.0025291505730681654 -0.02810250542677694 0 -0.0024174012000469204 -0.028178667277880477 0 -0.0025251972806012734 -0.028228763106838337 0 -0.0024547877017376818 -0.028307790524700067 0 -0.0024174012000469204 -0.028178667277880477 0 -0.0025291505730681654 -0.02810250542677694 0 -0.0025251972806012734 -0.028228763106838337 0 -0.0044272312518995457 -0.02069375652037251 0 -0.0039978193542939749 -0.022798726275216716 0 -0.0020952388096821001 -0.021589930428241921 0 -0.0026833352075697481 -0.021404551817866848 0 -0.0027326811686386224 -0.022157345908729621 0 -0.0018905966685469127 -0.025186161956439766 0 -0.0024490806897114817 -0.025294307081152725 0 -0.0017010538409920999 -0.024301123453992445 0 -0.0026833352075697481 -0.021404551817866848 0 -0.0031701648784685467 -0.0217886499846256 0 -0.0029664180873965255 -0.020854105631463848 0 -0.0026833352075697481 -0.021404551817866848 0 -0.0031701648784685467 -0.0217886499846256 0 -0.0027326811686386224 -0.022157345908729621 0 -0.0039978193542939749 -0.022798726275216716 0 -0.0035769398223564797 -0.024278116985201128 0 -0.0029637589383756532 -0.022415667061943256 0 -0.0035769398223564797 -0.024278116985201128 0 -0.0031701648784685467 -0.0217886499846256 0 -0.0027326811686386224 -0.022157345908729621 0 -0.0033738865928658861 -0.022727958453472502 0 -0.0025291505730681654 -0.02810250542677694 0 -0.0025251972806012734 -0.028228763106838337 0 -0.0026544368975432793 -0.028216591827291623 0 -0.0020918035617292254 -0.026049713034122228 0 -0.0024327497701405903 -0.026114496021318368 0 -0.0025975735380840258 -0.025847065171903317 0 -0.0020918035617292254 -0.026049713034122228 0 -0.0025975735380840258 -0.025847065171903317 0 -0.0024490806897114817 -0.025294307081152725 0 -0.0025975735380840258 -0.025847065171903317 0 -0.0030267987914252355 -0.02545471008091673 0 -0.0027169826578001318 -0.026500201579077249 0 -0.0018905966685469127 -0.025186161956439766 0 -0.0020918035617292254 -0.026049713034122228 0 -0.0024490806897114817 -0.025294307081152725 0 -0.0024327497701405903 -0.026114496021318368 0 -0.0025975735380840258 -0.025847065171903317 0 -0.0027169826578001318 -0.026500201579077249 0 -0.0025975735380840258 -0.025847065171903317 0 -0.0030267987914252355 -0.02545471008091673 0 -0.0024490806897114817 -0.025294307081152725 0 -0.0030779507126094427 -0.026299674602789994 0 -0.0030177743221633736 -0.02671038899610138 0 -0.0031661204593396997 -0.026140790537960052 0 -0.0030267987914252355 -0.02545471008091673 0 -0.0027457033590048878 -0.026629337121977445 0 -0.0034255840613013314 -0.026233542753851188 0 -0.0031661204593396997 -0.026140790537960052 0 -0.0034921766317234644 -0.025679295358236001 0 -0.0031661204593396997 -0.026140790537960052 0 -0.0034921766317234644 -0.025679295358236001 0 -0.0030267987914252355 -0.02545471008091673 0 -0.0034921766317234644 -0.025679295358236001 0 -0.0028814622178228505 -0.024925821677586849 0 -0.004102100837741496 -0.025569935639932671 0 -0.0034921766317234644 -0.025679295358236001 0 -0.0030267987914252355 -0.02545471008091673 0 -0.0028814622178228505 -0.024925821677586849 0 0.0029652897661748643 -0.023505949234335837 0 0.0061518207734903383 -0.027480119241487605 0 -0.0028814622178228505 -0.024925821677586849 0 -0.0024490806897114817 -0.025294307081152725 0 -0.0017010538409920999 -0.024301123453992445 0 -0.0030267987914252355 -0.02545471008091673 0 -0.0028814622178228505 -0.024925821677586849 0 -0.0024490806897114817 -0.025294307081152725 0 0.011519934632616021 -0.024517389436304538 0 0.010879454572393 -0.025537632844106262 0 0.0098702030184717789 -0.025320975197836847 0 0.0029652897661748643 -0.023505949234335837 0 -0.0022886407526939833 -0.019576117209047311 0 0.011519934632616021 -0.024517389436304538 0 0.012079532628336475 -0.025674780233832226 0 0.012733103690057382 -0.024934585324299218 0 0.011519934632616021 -0.024517389436304538 0 0.010879454572393 -0.025537632844106262 0 0.012079532628336475 -0.025674780233832226 0 0.011079967666048714 -0.026694015712276781 0 0.012079532628336475 -0.025674780233832226 0 0.01271782042202804 -0.026685678722632705 0 0.00044626125211620724 -0.017529245075859724 0 -0.0024120838562304461 -0.019024455360281682 0 0.011079967666048714 -0.026694015712276781 0 0.010879454572393 -0.025537632844106262 0 0.012079532628336475 -0.025674780233832226 0 0.011079967666048714 -0.026694015712276781 0 0.010879454572393 -0.025537632844106262 0 0.0098348641535757845 -0.025479996120508233 0 -0.0069051045449883275 -0.004395166892417055 0 -0.0065776492746632944 -0.0041777131596435913 0 -0.0067088378389634669 -0.0036980488647010506 0 -0.0078846087497003014 -0.013430598188197983 0 -0.0078727102675848846 -0.013435715357581994 0 -0.0078541411801079323 -0.013452264496885816 0 -0.0044682652439477248 -0.011561766096417523 0 -0.0024120838562304461 -0.019024455360281682 0 -0.0061963778811111852 -0.0041568950686554553 0 -0.0065776492746632944 -0.0041777131596435913 0 -0.0067088378389634669 -0.0036980488647010506 0 -0.0078727102675848846 -0.013435715357581994 0 -0.0078670308885896087 -0.013440636416051713 0 -0.0078541411801079323 -0.013452264496885816 0 -0.0078727102675848846 -0.013435715357581994 0 -0.0078670308885896087 -0.013440636416051713 0 -0.0078662955954728782 -0.013435550587017559 0 -0.0078670308885896087 -0.013440636416051713 0 -0.0078662955954728782 -0.013435550587017559 0 -0.0078654467934710457 -0.013440071496623176 0 -0.0078666239975107351 -0.013435265404016681 0 -0.0078654467934710457 -0.013440071496623176 0 -0.0078645226408915591 -0.013441539743475629 0 -0.0078661531054692001 -0.013425532952848564 0 -0.0078666239975107351 -0.013435265404016681 0 -0.0078662955954728782 -0.013435550587017559 0 -0.0078666239975107351 -0.013435265404016681 0 -0.0078662955954728782 -0.013435550587017559 0 -0.0078654467934710457 -0.013440071496623176 0 -0.0078670308885896087 -0.013440636416051713 0 -0.007863178863319947 -0.013444520220273691 0 -0.0078541411801079323 -0.013452264496885816 0 -0.0078654467934710457 -0.013440071496623176 0 -0.0078645226408915591 -0.013441539743475629 0 -0.007863178863319947 -0.013444520220273691 0 -0.0078670308885896087 -0.013440636416051713 0 -0.0078654467934710457 -0.013440071496623176 0 -0.007863178863319947 -0.013444520220273691 0 -0.0078645226408915591 -0.013441539743475629 0 -0.0078625513825456624 -0.013445076902460107 0 -0.007863178863319947 -0.013444520220273691 0 -0.0078625513825456624 -0.013445076902460107 0 -0.007863178863319947 -0.013444520220273691 0 -0.0078596301680573747 -0.013447998196459482 0 -0.0020952388096821001 -0.021589930428241921 0 -0.0026833352075697481 -0.021404551817866848 0 -0.0028684619785835151 -0.020803959030956144 0 -0.0078596301680573747 -0.013447998196459482 0 -0.007862264870707061 -0.013446699107836555 0 -0.0078572584224117989 -0.013450887377978008 0 -0.0044272312518995457 -0.02069375652037251 0 -0.0024865196005045822 -0.019335976114355349 0 -0.0078625513825456624 -0.013445076902460107 0 -0.0078596301680573747 -0.013447998196459482 0 -0.007862264870707061 -0.013446699107836555 0 -0.0078598745154311624 -0.013453104706268204 0 -0.007862264870707061 -0.013446699107836555 0 -0.0078572584224117989 -0.013450887377978008 0 -0.007867727222054666 -0.01343656801170311 0 -0.0078645226408915591 -0.013441539743475629 0 -0.007862264870707061 -0.013446699107836555 0 -0.0078645226408915591 -0.013441539743475629 0 -0.0078625513825456624 -0.013445076902460107 0 -0.007862264870707061 -0.013446699107836555 0 -0.0026833352075697481 -0.021404551817866848 0 -0.0029664180873965255 -0.020854105631463848 0 -0.0028684619785835151 -0.020803959030956144 0 0.010879454572393 -0.025537632844106262 0 0.0098348641535757845 -0.025479996120508233 0 0.0098702030184717789 -0.025320975197836847 0 -0.0029637589383756532 -0.022415667061943256 0 -0.0022886407526939833 -0.019576117209047311 0 -0.007863178863319947 -0.013444520220273691 0 -0.0078596301680573747 -0.013447998196459482 0 -0.0078541411801079323 -0.013452264496885816 0 -0.0024120838562304461 -0.019024455360281682 0 -0.0024865196005045822 -0.019335976114355349 0 -0.0026121397749386279 -0.019300121513273604 0 -0.0024865196005045822 -0.019335976114355349 0 -0.0078596301680573747 -0.013447998196459482 0 -0.0078541411801079323 -0.013452264496885816 0 -0.0078545180508919083 -0.013451500373900208 0 -0.0024120838562304461 -0.019024455360281682 0 -0.0022886407526939833 -0.019576117209047311 0 -0.00092453281516845264 -0.021472943776906936 0 -0.00037911942162256897 -0.018956191215494106 0 -0.0023963000991772854 -0.019985541702602902 0 -0.0022886407526939833 -0.019576117209047311 0 -0.0024865196005045822 -0.019335976114355349 0 -0.0073339596887514492 -0.013605604537655519 0 -0.0071054143634231813 -0.014264376721408342 0 -0.0076764862585540676 -0.014225693999241612 0 -0.0076764862585540676 -0.014225693999241612 0 -0.0083511720864948031 -0.01398000136365435 0 -0.0082381544045987531 -0.014780825024037388 0 -0.0073339596887514492 -0.013605604537655519 0 -0.0076764862585540676 -0.014225693999241612 0 -0.0083511720864948031 -0.01398000136365435 0 -0.0071054143634231813 -0.014264376721408342 0 -0.0076764862585540676 -0.014225693999241612 0 -0.0073087195258257354 -0.014866402555239964 0 -0.0081990449721240505 -0.013667955916772096 0 -0.0081998651033302929 -0.013498843564401366 0 -0.0083511720864948031 -0.01398000136365435 0 -0.0077663911876073681 -0.013010934509086535 0 -0.0082430457198563317 -0.013129566646216369 0 -0.0083511720864948031 -0.01398000136365435 0 -0.0084366824966746971 -0.013691391956796677 0 -0.0086310001090407311 -0.013936450268641938 0 -0.0073339596887514492 -0.013605604537655519 0 -0.0083511720864948031 -0.01398000136365435 0 -0.0077663911876073681 -0.013010934509086535 0 -0.0077663911876073681 -0.013010934509086535 0 -0.0077482509061456576 -0.012602506768808518 0 -0.0080763412160096155 -0.01262144903275636 0 -0.0081998651033302929 -0.013498843564401366 0 -0.0081628828204385571 -0.013290847375442599 0 -0.0077663911876073681 -0.013010934509086535 0 -0.0082430457198563317 -0.013129566646216369 0 -0.0080763412160096155 -0.01262144903275636 0 -0.0084366824966746971 -0.013691391956796677 0 -0.0084553576278376969 -0.013608133240034471 0 -0.0085172706400540778 -0.013681453797204375 0 -0.0084553576278376969 -0.013608133240034471 0 -0.0083693640629929206 -0.013573089493279641 0 -0.0085172706400540778 -0.013681453797204375 0 -0.0085172706400540778 -0.013681453797204375 0 -0.0086310001090407311 -0.013936450268641938 0 -0.0087264110630735012 -0.01409616020981083 0 -0.0086310001090407311 -0.013936450268641938 0 -0.0087264110630735012 -0.01409616020981083 0 -0.0092964638718295335 -0.014741349116349318 0 -0.0083511720864948031 -0.01398000136365435 0 -0.0086310001090407311 -0.013936450268641938 0 -0.0092964638718295335 -0.014741349116349318 0 -0.0084366824966746971 -0.013691391956796677 0 -0.0085172706400540778 -0.013681453797204375 0 -0.0086310001090407311 -0.013936450268641938 0 -0.0087264110630735012 -0.01409616020981083 0 -0.0087894738835983324 -0.01419139993479499 0 -0.0088674103864637942 -0.014377787893498542 0 -0.0087894738835983324 -0.01419139993479499 0 -0.0089315300538914243 -0.014034910867978515 0 -0.0088843410405651784 -0.014293097720428827 0 -0.0083154207435045917 -0.013701727740472654 0 -0.0083042428741841347 -0.01373401212110948 0 -0.0087894738835983324 -0.01419139993479499 0 -0.0084133985350854541 -0.013539554765776654 0 -0.0089315300538914243 -0.014034910867978515 0 -0.0085172706400540778 -0.013681453797204375 0 -0.0087264110630735012 -0.01409616020981083 0 -0.0084133985350854541 -0.013539554765776654 0 -0.0087264110630735012 -0.01409616020981083 0 -0.0087894738835983324 -0.01419139993479499 0 -0.0084133985350854541 -0.013539554765776654 0 -0.0083693640629929206 -0.013573089493279641 0 -0.0085172706400540778 -0.013681453797204375 0 -0.0084133985350854541 -0.013539554765776654 0 -0.0083693640629929206 -0.013573089493279641 0 -0.0081169669272141958 -0.013474367015423951 0 -0.0084133985350854541 -0.013539554765776654 0 -0.0077000734231799772 -0.013400281201666583 0 -0.0081169669272141958 -0.013474367015423951 0 -0.0077898429726444328 -0.013403691473383252 0 -0.0084133985350854541 -0.013539554765776654 0 -0.0077898429726444328 -0.013403691473383252 0 -0.0078115147430518434 -0.013212201469391475 0 -0.0081169669272141958 -0.013474367015423951 0 -0.0084133985350854541 -0.013539554765776654 0 -0.0077898429726444328 -0.013403691473383252 0 -0.0077000734231799772 -0.013400281201666583 0 -0.0075601711758023311 -0.013202983472702885 0 -0.0077898429726444328 -0.013403691473383252 0 -0.0075601711758023311 -0.013202983472702885 0 -0.0076155475247381421 -0.013278787672444378 0 -0.0077898429726444328 -0.013403691473383252 0 -0.0076155475247381421 -0.013278787672444378 0 -0.0077898429726444328 -0.013403691473383252 0 -0.0076736845842294687 -0.01329025012371852 0 -0.0076736845842294687 -0.01329025012371852 0 -0.0078115147430518434 -0.013212201469391475 0 -0.0076391929191127082 -0.013354682311044568 0 -0.0077898429726444328 -0.013403691473383252 0 -0.0076736845842294687 -0.01329025012371852 0 -0.0078115147430518434 -0.013212201469391475 0 -0.0089315300538914243 -0.014034910867978515 0 -0.0088907635912876763 -0.014292631759172576 0 -0.0088843410405651784 -0.014293097720428827 0 -0.0083042428741841347 -0.01373401212110948 0 -0.0082828269143423068 -0.013813658044077035 0 -0.0087285313093475123 -0.014273152263349803 0 -0.0088907635912876763 -0.014292631759172576 0 -0.0088420524779904038 -0.014286647510407027 0 -0.0088907635912876763 -0.014292631759172576 0 -0.0088843410405651784 -0.014293097720428827 0 -0.0088420524779904038 -0.014286647510407027 0 -0.0088843410405651784 -0.014293097720428827 0 -0.0088420524779904038 -0.014286647510407027 0 -0.008876176398995423 -0.014336391823785419 0 -0.010201387192105997 -0.016517916631386225 0 -0.010176423923513946 -0.017892699170695987 0 -0.0087068998484746991 -0.014159382659723692 0 -0.0088420524779904038 -0.014286647510407027 0 -0.0088028803545247818 -0.014141725298721894 0 -0.0087068998484746991 -0.014159382659723692 0 -0.0088028803545247818 -0.014141725298721894 0 -0.00874424158274947 -0.01408889414967807 0 -0.0088028803545247818 -0.014141725298721894 0 -0.00874424158274947 -0.01408889414967807 0 -0.0088098349312780468 -0.014051080951809914 0 -0.010176423923513946 -0.017892699170695987 0 -0.0096153697439118058 -0.023380571843128008 0 -0.0088886239570081689 -0.014353949089112913 0 -0.0088980007384596056 -0.014366683322061773 0 -0.0088966285693178083 -0.014385422334260134 0 -0.0084906955932064852 -0.02120903475927657 0 -0.0096153697439118058 -0.023380571843128008 0 -0.0088980007384596056 -0.014366683322061773 0 -0.0089151081385932442 -0.01437831984196143 0 -0.0089231361868561225 -0.014389223673939876 0 -0.0088420524779904038 -0.014286647510407027 0 -0.0088886239570081689 -0.014353949089112913 0 -0.008876176398995423 -0.014336391823785419 0 -0.0088886239570081689 -0.014353949089112913 0 -0.008876176398995423 -0.014336391823785419 0 -0.0088980007384596056 -0.014366683322061773 0 -0.008876176398995423 -0.014336391823785419 0 -0.0088890077174790978 -0.014356903970553338 0 -0.0088980007384596056 -0.014366683322061773 0 -0.0088980007384596056 -0.014366683322061773 0 -0.0089184147751827925 -0.014366418930379951 0 -0.0089151081385932442 -0.01437831984196143 0 -0.0088890077174790978 -0.014356903970553338 0 -0.0088980007384596056 -0.014366683322061773 0 -0.0089184147751827925 -0.014366418930379951 0 -0.0089184147751827925 -0.014366418930379951 0 -0.0089168626035008042 -0.01436259963622959 0 -0.0089458300176081182 -0.014349712775421578 0 -0.0088890077174790978 -0.014356903970553338 0 -0.0089184147751827925 -0.014366418930379951 0 -0.0089168626035008042 -0.01436259963622959 0 -0.0088890077174790978 -0.014356903970553338 0 -0.0089168626035008042 -0.01436259963622959 0 -0.0088648919531964659 -0.014365623388099099 0 -0.0089168626035008042 -0.01436259963622959 0 -0.0088648919531964659 -0.014365623388099099 0 -0.0089435710391469712 -0.014424155442101193 0 -0.0088648919531964659 -0.014365623388099099 0 -0.0088674103864637942 -0.014377787893498542 0 -0.0089435710391469712 -0.014424155442101193 0 -0.0088843410405651784 -0.014293097720428827 0 -0.008876176398995423 -0.014336391823785419 0 -0.0088648919531964659 -0.014365623388099099 0 -0.008876176398995423 -0.014336391823785419 0 -0.0088890077174790978 -0.014356903970553338 0 -0.0088648919531964659 -0.014365623388099099 0 -0.0087894738835983324 -0.01419139993479499 0 -0.0088843410405651784 -0.014293097720428827 0 -0.0088648919531964659 -0.014365623388099099 0 -0.0087894738835983324 -0.01419139993479499 0 -0.0088648919531964659 -0.014365623388099099 0 -0.0088674103864637942 -0.014377787893498542 0 -0.0087264110630735012 -0.01409616020981083 0 -0.0088674103864637942 -0.014377787893498542 0 -0.0092964638718295335 -0.014741349116349318 0 -0.0096615269753650059 -0.016483066138222327 0 -0.0097194923874527831 -0.017166860474906134 0 -0.0092964638718295335 -0.014741349116349318 0 -0.0089435710391469712 -0.014424155442101193 0 -0.0090747480109689624 -0.014347305991296525 0 -0.0092964638718295335 -0.014741349116349318 0 -0.011047376415076016 -0.017024521071476614 0 -0.0087304389193845148 -0.015852227654652776 0 -0.0088674103864637942 -0.014377787893498542 0 -0.0092964638718295335 -0.014741349116349318 0 -0.0089435710391469712 -0.014424155442101193 0 -0.0089168626035008042 -0.01436259963622959 0 -0.0089458300176081182 -0.014349712775421578 0 -0.0090747480109689624 -0.014347305991296525 0 -0.0089168626035008042 -0.01436259963622959 0 -0.0089435710391469712 -0.014424155442101193 0 -0.0090747480109689624 -0.014347305991296525 0 -0.0089458300176081182 -0.014349712775421578 0 -0.0089594105618429256 -0.014355260419933877 0 -0.0090747480109689624 -0.014347305991296525 0 -0.0097292284147114279 -0.019074619413888275 0 -0.0097194923874527831 -0.017166860474906134 0 -0.01291816315205019 -0.020356694209333455 0 -0.011047376415076016 -0.017024521071476614 0 -0.010496431165136979 -0.01916278743594256 0 -0.01291816315205019 -0.020356694209333455 0 -0.010496431165136979 -0.01916278743594256 0 -0.010598220523392814 -0.021276361098125536 0 -0.011047376415076016 -0.017024521071476614 0 -0.0087657081053221647 -0.018116207986888202 0 -0.0087304389193845148 -0.015852227654652776 0 -0.011047376415076016 -0.017024521071476614 0 -0.0087657081053221647 -0.018116207986888202 0 -0.010496431165136979 -0.01916278743594256 0 -0.0087657081053221647 -0.018116207986888202 0 -0.010496431165136979 -0.01916278743594256 0 -0.0092451076318142873 -0.019711309822325516 0 -0.010496431165136979 -0.01916278743594256 0 -0.0092451076318142873 -0.019711309822325516 0 -0.010598220523392814 -0.021276361098125536 0 -0.0087657081053221647 -0.018116207986888202 0 -0.0092451076318142873 -0.019711309822325516 0 -0.007315687779447533 -0.020336682015442472 0 -0.006861144596109898 -0.01821147561694985 0 -0.0087657081053221647 -0.018116207986888202 0 -0.007315687779447533 -0.020336682015442472 0 -0.0087657081053221647 -0.018116207986888202 0 -0.0075359882255772222 -0.016635491435125126 0 -0.0087304389193845148 -0.015852227654652776 0 -0.006861144596109898 -0.01821147561694985 0 -0.0087657081053221647 -0.018116207986888202 0 -0.0075359882255772222 -0.016635491435125126 0 -0.0068445349206931018 -0.015799482142435654 0 -0.0075359882255772222 -0.016635491435125126 0 -0.0077718704008922258 -0.015543264499816977 0 -0.0068445349206931018 -0.015799482142435654 0 -0.0077718704008922258 -0.015543264499816977 0 -0.0073087195258257354 -0.014866402555239964 0 -0.0075359882255772222 -0.016635491435125126 0 -0.0077718704008922258 -0.015543264499816977 0 -0.0087304389193845148 -0.015852227654652776 0 -0.0092964638718295335 -0.014741349116349318 0 -0.0087304389193845148 -0.015852227654652776 0 -0.0082381544045987531 -0.014780825024037388 0 -0.0077718704008922258 -0.015543264499816977 0 -0.0087304389193845148 -0.015852227654652776 0 -0.0082381544045987531 -0.014780825024037388 0 -0.0083511720864948031 -0.01398000136365435 0 -0.0092964638718295335 -0.014741349116349318 0 -0.0082381544045987531 -0.014780825024037388 0 -0.0076764862585540676 -0.014225693999241612 0 -0.0082381544045987531 -0.014780825024037388 0 -0.0073087195258257354 -0.014866402555239964 0 -0.0077718704008922258 -0.015543264499816977 0 -0.0082381544045987531 -0.014780825024037388 0 -0.0073087195258257354 -0.014866402555239964 0 -0.013664914163674959 -0.034256655942244807 0 -0.012537275971217643 -0.035341553704532902 0 -0.0011250554055605795 -0.037857103561514206 0 -0.0046271230439485283 -0.035338667794652057 0 -0.0069224747813564757 -0.038911736673044206 0 -0.0046271230439485283 -0.035338667794652057 0 -0.0073475848189789557 -0.035235720162921036 0 -0.0057245999831497425 -0.032742315917955497 0 -0.0011250554055605795 -0.037857103561514206 0 -0.0046271230439485283 -0.035338667794652057 0 -0.0028424429483778686 -0.034596336976664782 0 -0.0046271230439485283 -0.035338667794652057 0 -0.0073475848189789557 -0.035235720162921036 0 -0.0069224747813564757 -0.038911736673044206 0 -0.0093252648347350153 -0.036938194725605014 0 -0.0073475848189789557 -0.035235720162921036 0 -0.0069224747813564757 -0.038911736673044206 0 -0.0093252648347350153 -0.036938194725605014 0 -0.012547553905107641 -0.038937405806932265 0 -0.0069224747813564757 -0.038911736673044206 0 -0.0093252648347350153 -0.036938194725605014 0 -0.011443449811903606 -0.03727896377220314 0 -0.012547553905107641 -0.038937405806932265 0 -0.011443449811903606 -0.03727896377220314 0 -0.0097585812881493365 -0.034664331164295487 0 -0.011486419588288232 -0.03468413712523101 0 -0.0093252648347350153 -0.036938194725605014 0 -0.011443449811903606 -0.03727896377220314 0 -0.0097585812881493365 -0.034664331164295487 0 -0.0093252648347350153 -0.036938194725605014 0 -0.0097585812881493365 -0.034664331164295487 0 -0.0073475848189789557 -0.035235720162921036 0 -0.0097585812881493365 -0.034664331164295487 0 -0.0073475848189789557 -0.035235720162921036 0 -0.0078809553259272733 -0.032855222478071017 0 -0.0097585812881493365 -0.034664331164295487 0 -0.0078809553259272733 -0.032855222478071017 0 -0.0095909254952577499 -0.031333000527275633 0 -0.0078809553259272733 -0.032855222478071017 0 -0.0073168876585022165 -0.030133264210685781 0 -0.0057245999831497425 -0.032742315917955497 0 -0.0097585812881493365 -0.034664331164295487 0 -0.0095909254952577499 -0.031333000527275633 0 -0.011736678763375991 -0.032736086267043191 0 -0.0097585812881493365 -0.034664331164295487 0 -0.011736678763375991 -0.032736086267043191 0 -0.011486419588288232 -0.03468413712523101 0 -0.0095909254952577499 -0.031333000527275633 0 -0.0073168876585022165 -0.030133264210685781 0 -0.010084747673529978 -0.027608301986820225 0 -0.0095909254952577499 -0.031333000527275633 0 -0.012021945104974868 -0.030083544793200551 0 -0.011736678763375991 -0.032736086267043191 0 -0.0095909254952577499 -0.031333000527275633 0 -0.010084747673529978 -0.027608301986820225 0 -0.012021945104974868 -0.030083544793200551 0 -0.0078809553259272733 -0.032855222478071017 0 -0.0095909254952577499 -0.031333000527275633 0 -0.0073168876585022165 -0.030133264210685781 0 -0.0073168876585022165 -0.030133264210685781 0 -0.0050105827220695426 -0.030677674606242277 0 -0.0057245999831497425 -0.032742315917955497 0 -0.0073475848189789557 -0.035235720162921036 0 -0.0078809553259272733 -0.032855222478071017 0 -0.0057245999831497425 -0.032742315917955497 0 -0.0050105827220695426 -0.030677674606242277 0 -0.0057245999831497425 -0.032742315917955497 0 -0.0035558281732953599 -0.032529501975124636 0 -0.0046271230439485283 -0.035338667794652057 0 -0.0028424429483778686 -0.034596336976664782 0 -0.0035558281732953599 -0.032529501975124636 0 -0.0046271230439485283 -0.035338667794652057 0 -0.0057245999831497425 -0.032742315917955497 0 -0.0035558281732953599 -0.032529501975124636 0 -0.0020469996579945433 -0.032675646303100554 0 -0.0028424429483778686 -0.034596336976664782 0 -0.0035558281732953599 -0.032529501975124636 0 -0.0016494207368946774 -0.031831797469230469 0 -0.0035558281732953599 -0.032529501975124636 0 -0.0031713842559130123 -0.030357914715050779 0 -0.0050105827220695426 -0.030677674606242277 0 -0.0035558281732953599 -0.032529501975124636 0 -0.0031713842559130123 -0.030357914715050779 0 -0.0019485498958240429 -0.028729498590603985 0 -0.0031713842559130123 -0.030357914715050779 0 -0.005098417325030598 -0.028007189164677735 0 -0.0050105827220695426 -0.030677674606242277 0 -0.0031713842559130123 -0.030357914715050779 0 -0.005098417325030598 -0.028007189164677735 0 -0.0073168876585022165 -0.030133264210685781 0 -0.0050105827220695426 -0.030677674606242277 0 -0.005098417325030598 -0.028007189164677735 0 -0.0047305888612267782 -0.027581601270557494 0 -0.0046655552394091688 -0.024854081061740387 0 -0.00729407527153481 -0.024087718574015669 0 -0.0021821253034616083 -0.025799601381257243 0 -0.0047305888612267782 -0.027581601270557494 0 -0.0046655552394091688 -0.024854081061740387 0 -0.0021821253034616083 -0.025799601381257243 0 -0.0046655552394091688 -0.024854081061740387 0 -0.0036157379054640383 -0.021371346451289977 0 -0.0046655552394091688 -0.024854081061740387 0 -0.0036157379054640383 -0.021371346451289977 0 -0.00729407527153481 -0.024087718574015669 0 -0.007375775701617176 -0.022483013382467616 0 -0.0082836963679799539 -0.022267290408769798 0 -0.0036157379054640383 -0.021371346451289977 0 -0.010598220523392814 -0.021276361098125536 0 -0.00729407527153481 -0.024087718574015669 0 -0.0092451076318142873 -0.019711309822325516 0 -0.007315687779447533 -0.020336682015442472 0 -0.010598220523392814 -0.021276361098125536 0 -0.010598220523392814 -0.021276361098125536 0 -0.00729407527153481 -0.024087718574015669 0 -0.011392406931001246 -0.024105547062511536 0 -0.0073168876585022165 -0.030133264210685781 0 -0.005098417325030598 -0.028007189164677735 0 -0.010084747673529978 -0.027608301986820225 0 -0.0078522247667662508 -0.028190493504965181 0 -0.0080664203046051895 -0.028138419920690154 0 -0.00729407527153481 -0.024087718574015669 0 -0.010084747673529978 -0.027608301986820225 0 -0.011392406931001246 -0.024105547062511536 0 -0.0047305888612267782 -0.027581601270557494 0 -0.00729407527153481 -0.024087718574015669 0 -0.010084747673529978 -0.027608301986820225 0 -0.010084747673529978 -0.027608301986820225 0 -0.014736546002693149 -0.026781126994718085 0 -0.012021945104974868 -0.030083544793200551 0 -0.010084747673529978 -0.027608301986820225 0 -0.014736546002693149 -0.026781126994718085 0 -0.011392406931001246 -0.024105547062511536 0 -0.014736546002693149 -0.026781126994718085 0 -0.013560058733317552 -0.031564191031930255 0 -0.012021945104974868 -0.030083544793200551 0 -0.0089594105618429256 -0.014355260419933877 0 -0.0089032321780318033 -0.014412294034483429 0 -0.0089366515985633745 -0.014374744048293257 0 -0.01291816315205019 -0.020356694209333455 0 -0.014736546002693149 -0.026781126994718085 0 -0.011392406931001246 -0.024105547062511536 0 -0.0097292284147114279 -0.019074619413888275 0 -0.009425439177139585 -0.022368618739802747 0 -0.01291816315205019 -0.020356694209333455 0 -0.010598220523392814 -0.021276361098125536 0 -0.011392406931001246 -0.024105547062511536 0 -0.0089458300176081182 -0.014349712775421578 0 -0.0089366515985633745 -0.014374744048293257 0 -0.008935508017148347 -0.014375409252699209 0 -0.0089458300176081182 -0.014349712775421578 0 -0.0089594105618429256 -0.014355260419933877 0 -0.0089366515985633745 -0.014374744048293257 0 -0.0089366515985633745 -0.014374744048293257 0 -0.0089318567170983652 -0.014403599730189839 0 -0.008935508017148347 -0.014375409252699209 0 -0.0089032321780318033 -0.014412294034483429 0 -0.0089366515985633745 -0.014374744048293257 0 -0.0089318567170983652 -0.014403599730189839 0 -0.0089032321780318033 -0.014412294034483429 0 -0.0089318567170983652 -0.014403599730189839 0 -0.0089202742800686685 -0.014438947711108324 0 -0.0089318567170983652 -0.014403599730189839 0 -0.0089202742800686685 -0.014438947711108324 0 -0.0089443659815443347 -0.014434265060733684 0 -0.0089032321780318033 -0.014412294034483429 0 -0.0089202742800686685 -0.014438947711108324 0 -0.0088979028171433765 -0.014508079955724274 0 -0.011972700941731685 -0.037958561210021516 0 -0.01220799577451101 -0.037993074836927133 0 -0.011663046888124758 -0.038303364383446357 0 -0.0084845499726489502 -0.027625464144711662 0 -0.0094298888429236588 -0.026186805045670305 0 -0.0089202742800686685 -0.014438947711108324 0 -0.0088979028171433765 -0.014508079955724274 0 -0.0089443659815443347 -0.014434265060733684 0 -0.014736546002693149 -0.026781126994718085 0 -0.013560058733317552 -0.031564191031930255 0 -0.015816898958888582 -0.033863162167874827 0 -0.009425439177139585 -0.022368618739802747 0 -0.0084845499726489502 -0.027625464144711662 0 -0.013560058733317552 -0.031564191031930255 0 -0.012021945104974868 -0.030083544793200551 0 -0.011736678763375991 -0.032736086267043191 0 -0.013560058733317552 -0.031564191031930255 0 -0.011736678763375991 -0.032736086267043191 0 -0.013017087460362259 -0.034115749900501778 0 -0.011736678763375991 -0.032736086267043191 0 -0.013017087460362259 -0.034115749900501778 0 -0.011486419588288232 -0.03468413712523101 0 -0.013560058733317552 -0.031564191031930255 0 -0.013017087460362259 -0.034115749900501778 0 -0.015816898958888582 -0.033863162167874827 0 -0.01216432006751964 -0.037993966994552486 0 -0.012179612869614571 -0.038177875465713891 0 -0.012076494264990027 -0.038509965463617991 0 -0.0084845499726489502 -0.027625464144711662 0 -0.0085195134732919155 -0.027851327819506468 0 -0.011443449811903606 -0.03727896377220314 0 -0.01217825861614184 -0.037946273527023358 0 -0.01216432006751964 -0.037993966994552486 0 -0.011443449811903606 -0.03727896377220314 0 -0.01216432006751964 -0.037993966994552486 0 -0.012179612869614571 -0.038177875465713891 0 -0.011443449811903606 -0.03727896377220314 0 -0.013017087460362259 -0.034115749900501778 0 -0.011486419588288232 -0.03468413712523101 0 -0.0083307235599892129 -0.028817330387946583 0 -0.0084845499726489502 -0.027625464144711662 0 -0.011443449811903606 -0.03727896377220314 0 -0.013017087460362259 -0.034115749900501778 0 -0.015816898958888582 -0.033863162167874827 0 -0.011443449811903606 -0.03727896377220314 0 -0.012179612869614571 -0.038177875465713891 0 -0.012547553905107641 -0.038937405806932265 0 -0.01264001401340242 -0.03788005462827955 0 -0.012861132699137481 -0.037603831013331146 0 -0.011972700941731685 -0.037958561210021516 0 -0.011588385042621075 -0.037638651102169296 0 -0.011836957193437575 -0.037419867120168031 0 -0.011972700941731685 -0.037958561210021516 0 -0.01216432006751964 -0.037993966994552486 0 -0.012076494264990027 -0.038509965463617991 0 -0.011972700941731685 -0.037958561210021516 0 -0.011836957193437575 -0.037419867120168031 0 -0.012178302306834969 -0.03731272499595608 0 -0.011972700941731685 -0.037958561210021516 0 -0.01220799577451101 -0.037993074836927133 0 -0.01216432006751964 -0.037993966994552486 0 -0.011274483079143655 -0.037795887327248721 0 -0.011588385042621075 -0.037638651102169296 0 -0.011566695967803629 -0.038001264111772112 0 -0.011972700941731685 -0.037958561210021516 0 -0.011588385042621075 -0.037638651102169296 0 -0.011566695967803629 -0.038001264111772112 0 -0.011588385042621075 -0.037638651102169296 0 -0.01129217161736629 -0.037532807965362423 0 -0.01154595540940328 -0.037240341979203548 0 -0.011274483079143655 -0.037795887327248721 0 -0.011588385042621075 -0.037638651102169296 0 -0.01129217161736629 -0.037532807965362423 0 -0.011274483079143655 -0.037795887327248721 0 -0.01129217161736629 -0.037532807965362423 0 -0.011053564600255469 -0.037628689801359083 0 -0.01129217161736629 -0.037532807965362423 0 -0.011053564600255469 -0.037628689801359083 0 -0.011019870657510476 -0.037339115761135126 0 -0.011053564600255469 -0.037628689801359083 0 -0.010733981223408942 -0.037629624467933741 0 -0.011019870657510476 -0.037339115761135126 0 -0.011053564600255469 -0.037628689801359083 0 -0.01094821756455882 -0.037903770692133049 0 -0.010733981223408942 -0.037629624467933741 0 -0.011274483079143655 -0.037795887327248721 0 -0.011053564600255469 -0.037628689801359083 0 -0.01094821756455882 -0.037903770692133049 0 -0.011274483079143655 -0.037795887327248721 0 -0.01094821756455882 -0.037903770692133049 0 -0.01110707985133471 -0.03818321770737719 0 -0.01094821756455882 -0.037903770692133049 0 -0.01110707985133471 -0.03818321770737719 0 -0.010631910586577363 -0.038292282180554603 0 -0.01110707985133471 -0.03818321770737719 0 -0.011566695967803629 -0.038001264111772112 0 -0.011663046888124758 -0.038303364383446357 0 -0.011274483079143655 -0.037795887327248721 0 -0.01110707985133471 -0.03818321770737719 0 -0.011566695967803629 -0.038001264111772112 0 -0.011972700941731685 -0.037958561210021516 0 -0.011566695967803629 -0.038001264111772112 0 -0.011663046888124758 -0.038303364383446357 0 -0.0089318567170983652 -0.014403599730189839 0 -0.0089443659815443347 -0.014434265060733684 0 -0.0089343955302781265 -0.014395231453764458 0 -0.0089443659815443347 -0.014434265060733684 0 -0.0089343955302781265 -0.014395231453764458 0 -0.0089275287047306199 -0.014394604145128302 0 -0.0094298888429236588 -0.026186805045670305 0 -0.0094475315142516624 -0.025125904240473035 0 -0.0089184147751827925 -0.014366418930379951 0 -0.0089458300176081182 -0.014349712775421578 0 -0.008935508017148347 -0.014375409252699209 0 -0.0089184147751827925 -0.014366418930379951 0 -0.0089343955302781265 -0.014395231453764458 0 -0.008935508017148347 -0.014375409252699209 0 -0.0089184147751827925 -0.014366418930379951 0 -0.0089343955302781265 -0.014395231453764458 0 -0.0089275287047306199 -0.014394604145128302 0 -0.0089318567170983652 -0.014403599730189839 0 -0.0089343955302781265 -0.014395231453764458 0 -0.008935508017148347 -0.014375409252699209 0 -0.0089184147751827925 -0.014366418930379951 0 -0.0089151081385932442 -0.01437831984196143 0 -0.0089275287047306199 -0.014394604145128302 0 -0.0089151081385932442 -0.01437831984196143 0 -0.0089275287047306199 -0.014394604145128302 0 -0.0089231361868561225 -0.014389223673939876 0 -0.01110707985133471 -0.03818321770737719 0 -0.011024787206283001 -0.03862758422087368 0 -0.010631910586577363 -0.038292282180554603 0 -0.01110707985133471 -0.03818321770737719 0 -0.011663046888124758 -0.038303364383446357 0 -0.011024787206283001 -0.03862758422087368 0 -0.011024787206283001 -0.03862758422087368 0 -0.010524167852657454 -0.03891466617267151 0 -0.010631910586577363 -0.038292282180554603 0 -0.010625041946246243 -0.033797242377457612 0 -0.011336837457615989 -0.034708598103066465 0 -0.010384369750996405 -0.035292064508124242 0 -0.0096153697439118058 -0.023380571843128008 0 -0.0093204402833821746 -0.033140874722218015 0 -0.0094475315142516624 -0.025125904240473035 0 -0.0096153697439118058 -0.023380571843128008 0 -0.0088098349312780468 -0.014051080951809914 0 -0.0087259509654217075 -0.014033643869629339 0 -0.0087330163119778807 -0.013976584251800855 0 -0.0096153697439118058 -0.023380571843128008 0 -0.0087562199733577026 -0.026202633325557199 0 -0.0086613084716102313 -0.014074455845496645 0 -0.00874424158274947 -0.01408889414967807 0 -0.0087259509654217075 -0.014033643869629339 0 -0.00874424158274947 -0.01408889414967807 0 -0.0088098349312780468 -0.014051080951809914 0 -0.0087259509654217075 -0.014033643869629339 0 -0.0087259509654217075 -0.014033643869629339 0 -0.0087330163119778807 -0.013976584251800855 0 -0.0086543489576478838 -0.013996570556584809 0 -0.011336837457615989 -0.034708598103066465 0 -0.011374296708137393 -0.035353102975980176 0 -0.010384369750996405 -0.035292064508124242 0 -0.011336837457615989 -0.034708598103066465 0 -0.011374296708137393 -0.035353102975980176 0 -0.011960151676901327 -0.035508251442128456 0 -0.0087562199733577026 -0.026202633325557199 0 -0.0079868190341911109 -0.029550722872485616 0 -0.011374296708137393 -0.035353102975980176 0 -0.011532449453056723 -0.035941886578447144 0 -0.011960151676901327 -0.035508251442128456 0 -0.011532449453056723 -0.035941886578447144 0 -0.010925189713899715 -0.035736647425174392 0 -0.010673538303741351 -0.036369086500575347 0 -0.011374296708137393 -0.035353102975980176 0 -0.010925189713899715 -0.035736647425174392 0 -0.010384369750996405 -0.035292064508124242 0 -0.011374296708137393 -0.035353102975980176 0 -0.011532449453056723 -0.035941886578447144 0 -0.010925189713899715 -0.035736647425174392 0 -0.0093204402833821746 -0.033140874722218015 0 -0.009502097162575435 -0.035625614389895262 0 -0.01094821756455882 -0.037903770692133049 0 -0.010631910586577363 -0.038292282180554603 0 -0.010733981223408942 -0.037629624467933741 0 -0.010925189713899715 -0.035736647425174392 0 -0.010384369750996405 -0.035292064508124242 0 -0.010673538303741351 -0.036369086500575347 0 -0.010384369750996405 -0.035292064508124242 0 -0.010673538303741351 -0.036369086500575347 0 -0.010252032427652519 -0.036603031477771511 0 -0.010252032427652519 -0.036603031477771511 0 -0.010651146074441962 -0.03664297039651384 0 -0.010431388839175798 -0.036817861709148518 0 -0.010673538303741351 -0.036369086500575347 0 -0.010252032427652519 -0.036603031477771511 0 -0.010651146074441962 -0.03664297039651384 0 -0.0080754520827196075 -0.030918076149749125 0 -0.0080310197691401963 -0.032028015587821458 0 -0.011249788742983548 -0.036071448399305199 0 -0.010673538303741351 -0.036369086500575347 0 -0.010651146074441962 -0.03664297039651384 0 -0.0080754520827196075 -0.030918076149749125 0 -0.0083481443432399521 -0.031359331801871122 0 -0.011000452038618462 -0.036243557848591006 0 -0.010651146074441962 -0.03664297039651384 0 -0.010865628252471268 -0.036607896375180055 0 -0.011000452038618462 -0.036243557848591006 0 -0.010865628252471268 -0.036607896375180055 0 -0.011252438743940716 -0.036126384964534089 0 -0.0079153440507470051 -0.033756053674257998 0 -0.0078691595741500371 -0.03048073622387705 0 -0.0095997517419328486 -0.037945612761368507 0 -0.0088610917436035518 -0.03804924416195158 0 -0.0091017244078133285 -0.037614354977850269 0 -0.0095997517419328486 -0.037945612761368507 0 -0.0095569321634443732 -0.037242953661320292 0 -0.010421224030584292 -0.036985039565574675 0 -0.0095569321634443732 -0.037242953661320292 0 -0.0091983089662174573 -0.036762935767962857 0 -0.0088930829956294314 -0.03718036659889222 0 -0.0095569321634443732 -0.037242953661320292 0 -0.0088930829956294314 -0.03718036659889222 0 -0.0091017244078133285 -0.037614354977850269 0 -0.0095997517419328486 -0.037945612761368507 0 -0.0095569321634443732 -0.037242953661320292 0 -0.0091017244078133285 -0.037614354977850269 0 -0.010651146074441962 -0.03664297039651384 0 -0.010865628252471268 -0.036607896375180055 0 -0.010421224030584292 -0.036985039565574675 0 -0.010651146074441962 -0.03664297039651384 0 -0.010431388839175798 -0.036817861709148518 0 -0.010421224030584292 -0.036985039565574675 0 -0.0095569321634443732 -0.037242953661320292 0 -0.010421224030584292 -0.036985039565574675 0 -0.0099284319067581787 -0.036918818936381201 0 -0.0079153440507470051 -0.033756053674257998 0 -0.008135612259516636 -0.034491405405496833 0 -0.010431388839175798 -0.036817861709148518 0 -0.010421224030584292 -0.036985039565574675 0 -0.01064679451038796 -0.03693088851243799 0 -0.010421224030584292 -0.036985039565574675 0 -0.0099284319067581787 -0.036918818936381201 0 -0.010243581455439658 -0.036556557962491673 0 -0.010421224030584292 -0.036985039565574675 0 -0.010243581455439658 -0.036556557962491673 0 -0.01064679451038796 -0.03693088851243799 0 -0.0099284319067581787 -0.036918818936381201 0 -0.010243581455439658 -0.036556557962491673 0 -0.0096925824686143313 -0.036419866708555897 0 -0.0099284319067581787 -0.036918818936381201 0 -0.0096925824686143313 -0.036419866708555897 0 -0.0087061201035433921 -0.036316747594865445 0 -0.0099284319067581787 -0.036918818936381201 0 -0.0091983089662174573 -0.036762935767962857 0 -0.0089933299411693347 -0.035849817864142756 0 -0.0088415651720039675 -0.036399483359350705 0 -0.0082989443285674831 -0.035946259687807486 0 -0.0095569321634443732 -0.037242953661320292 0 -0.0099284319067581787 -0.036918818936381201 0 -0.0091983089662174573 -0.036762935767962857 0 -0.0096925824686143313 -0.036419866708555897 0 -0.0098455238589472971 -0.035818810736876379 0 -0.0087061201035433921 -0.036316747594865445 0 -0.0088543662746756024 -0.034999699385534794 0 -0.0098455238589472971 -0.035818810736876379 0 -0.010530425523425518 -0.034999956314062809 0 -0.0088543662746756024 -0.034999699385534794 0 -0.0098455238589472971 -0.035818810736876379 0 -0.0087061201035433921 -0.036316747594865445 0 -0.0098455238589472971 -0.035818810736876379 0 -0.010530425523425518 -0.034999956314062809 0 -0.011171142907034273 -0.036313147473885789 0 -0.010243581455439658 -0.036556557962491673 0 -0.0096925824686143313 -0.036419866708555897 0 -0.0098455238589472971 -0.035818810736876379 0 -0.010987766451296442 -0.035978952842439266 0 -0.011342201789639076 -0.036071124512582216 0 -0.010243581455439658 -0.036556557962491673 0 -0.0098455238589472971 -0.035818810736876379 0 -0.010615924969616945 -0.036035163713574778 0 -0.010615924969616945 -0.036035163713574778 0 -0.011006540308880385 -0.036588728953904623 0 -0.010627203152566773 -0.036529367192135731 0 -0.010243581455439658 -0.036556557962491673 0 -0.010615924969616945 -0.036035163713574778 0 -0.010627203152566773 -0.036529367192135731 0 -0.010615924969616945 -0.036035163713574778 0 -0.011324938380316967 -0.036255673123970822 0 -0.011006540308880385 -0.036588728953904623 0 -0.011342201789639076 -0.036071124512582216 0 -0.012077261639373312 -0.036233362940887949 0 -0.010530425523425518 -0.034999956314062809 0 -0.011171142907034273 -0.036313147473885789 0 -0.012206899819953305 -0.034999985011661627 0 -0.011171142907034273 -0.036313147473885789 0 -0.012206899819953305 -0.034999985011661627 0 -0.012458182087730167 -0.036737703100191622 0 -0.012206464583208178 -0.035001631257613547 0 -0.012077261639373312 -0.036233362940887949 0 -0.012206983195782301 -0.035000064854928105 0 -0.012499524792447031 -0.036751534394063576 0 -0.013395933015501349 -0.035993468773229738 0 -0.012077261639373312 -0.036233362940887949 0 -0.012818888610744022 -0.036552080257922719 0 -0.011407863744477852 -0.03627549245042002 0 -0.011480566123735696 -0.036754158867624884 0 -0.011952060250228104 -0.036454835012541889 0 -0.011413386145985725 -0.036790958128274209 0 -0.011006540308880385 -0.036588728953904623 0 -0.011114012630987647 -0.037014511054015292 0 -0.012077261639373312 -0.036233362940887949 0 -0.012003118653661625 -0.036485869931199094 0 -0.011324938380316967 -0.036255673123970822 0 -0.011413386145985725 -0.036790958128274209 0 -0.011006540308880385 -0.036588728953904623 0 -0.011006540308880385 -0.036588728953904623 0 -0.010627203152566773 -0.036529367192135731 0 -0.01064679451038796 -0.03693088851243799 0 -0.010243581455439658 -0.036556557962491673 0 -0.010627203152566773 -0.036529367192135731 0 -0.01064679451038796 -0.03693088851243799 0 -0.011006540308880385 -0.036588728953904623 0 -0.01064679451038796 -0.03693088851243799 0 -0.011114012630987647 -0.037014511054015292 0 -0.01064679451038796 -0.03693088851243799 0 -0.011114012630987647 -0.037014511054015292 0 -0.011019870657510476 -0.037339115761135126 0 -0.010733981223408942 -0.037629624467933741 0 -0.01064679451038796 -0.03693088851243799 0 -0.011019870657510476 -0.037339115761135126 0 -0.009502097162575435 -0.035625614389895262 0 -0.0096226155019388214 -0.036098625369744841 0 -0.010252032427652519 -0.036603031477771511 0 -0.010431388839175798 -0.036817861709148518 0 -0.01064679451038796 -0.03693088851243799 0 -0.01129217161736629 -0.037532807965362423 0 -0.011019870657510476 -0.037339115761135126 0 -0.01154595540940328 -0.037240341979203548 0 -0.011588385042621075 -0.037638651102169296 0 -0.01154595540940328 -0.037240341979203548 0 -0.011836957193437575 -0.037419867120168031 0 -0.011480566123735696 -0.036754158867624884 0 -0.01154595540940328 -0.037240341979203548 0 -0.011919812508474624 -0.036932515966473116 0 -0.012003118653661625 -0.036485869931199094 0 -0.011986771276645698 -0.036610135981918535 0 -0.011413386145985725 -0.036790958128274209 0 -0.011114012630987647 -0.037014511054015292 0 -0.01154595540940328 -0.037240341979203548 0 -0.011114012630987647 -0.037014511054015292 0 -0.011019870657510476 -0.037339115761135126 0 -0.01154595540940328 -0.037240341979203548 0 -0.01154595540940328 -0.037240341979203548 0 -0.011836957193437575 -0.037419867120168031 0 -0.011919812508474624 -0.036932515966473116 0 -0.011836957193437575 -0.037419867120168031 0 -0.012178302306834969 -0.03731272499595608 0 -0.011919812508474624 -0.036932515966473116 0 -0.012178302306834969 -0.03731272499595608 0 -0.01248980239393719 -0.036634360696372596 0 -0.011919812508474624 -0.036932515966473116 0 -0.012076494264990027 -0.038509965463617991 0 -0.012514472287051812 -0.036853386229547688 0 -0.013247830510507215 -0.037870894966139511 0 -0.012179612869614571 -0.038177875465713891 0 -0.012076494264990027 -0.038509965463617991 0 -0.012547553905107641 -0.038937405806932265 0 -0.012076494264990027 -0.038509965463617991 0 -0.012547553905107641 -0.038937405806932265 0 -0.013247830510507215 -0.037870894966139511 0 -0.012861132699137481 -0.037603831013331146 0 -0.013524555206228944 -0.036814738972405718 0 -0.013524555206228944 -0.036814738972405718 0 -0.012818888610744022 -0.036552080257922719 0 -0.01248980239393719 -0.036634360696372596 0 -0.011919812508474624 -0.036932515966473116 0 -0.011952060250228104 -0.036454835012541889 0 -0.011480566123735696 -0.036754158867624884 0 -0.011919812508474624 -0.036932515966473116 0 -0.011952060250228104 -0.036454835012541889 0 -0.012499524792447031 -0.036751534394063576 0 -0.01366923190482249 -0.037129274577868902 0 -0.013395933015501349 -0.035993468773229738 0 -0.01366923190482249 -0.037129274577868902 0 -0.013395933015501349 -0.035993468773229738 0 -0.014287551025513897 -0.036375265867291035 0 -0.014127487162192625 -0.034999820701624315 0 -0.013395933015501349 -0.035993468773229738 0 -0.014287551025513897 -0.036375265867291035 0 -0.012206983195782301 -0.035000064854928105 0 -0.014127487162192625 -0.034999820701624315 0 -0.013395933015501349 -0.035993468773229738 0 -0.014127487162192625 -0.034999820701624315 0 -0.015407034634951234 -0.036263386698868423 0 -0.015983653209835358 -0.034925912660915194 0 -0.014127487162192625 -0.034999820701624315 0 -0.014287551025513897 -0.036375265867291035 0 -0.015407034634951234 -0.036263386698868423 0 -0.013524555206228944 -0.036814738972405718 0 -0.01415539567791795 -0.036205182262625549 0 -0.014843956850885286 -0.037512364621032968 0 -0.014287551025513897 -0.036375265867291035 0 -0.015407034634951234 -0.036263386698868423 0 -0.014843956850885286 -0.037512364621032968 0 -0.01366923190482249 -0.037129274577868902 0 -0.014287551025513897 -0.036375265867291035 0 -0.014516982005137328 -0.037133582544710345 0 -0.015024893248320303 -0.0361162321651907 0 -0.015142731410340605 -0.036873845455505212 0 -0.015024893248320303 -0.0361162321651907 0 -0.016001909628999712 -0.035652118874538091 0 -0.016170807814451616 -0.036667927144289486 0 -0.015024893248320303 -0.0361162321651907 0 -0.016170807814451616 -0.036667927144289486 0 -0.015142731410340605 -0.036873845455505212 0 -0.015024893248320303 -0.0361162321651907 0 -0.016001909628999712 -0.035652118874538091 0 -0.015982846369113016 -0.03492563569623048 0 -0.01415539567791795 -0.036205182262625549 0 -0.014426045722880781 -0.035866120532215967 0 -0.016001909628999712 -0.035652118874538091 0 -0.015982846369113016 -0.03492563569623048 0 -0.016802075780784305 -0.035681778878881881 0 -0.017968686564713902 -0.034999694525785038 0 -0.015982846369113016 -0.03492563569623048 0 -0.016802075780784305 -0.035681778878881881 0 -0.016001909628999712 -0.035652118874538091 0 -0.016802075780784305 -0.035681778878881881 0 -0.016170807814451616 -0.036667927144289486 0 -0.0179554215515727 -0.036286651494308084 0 -0.016802075780784305 -0.035681778878881881 0 -0.016170807814451616 -0.036667927144289486 0 -0.017634648276155497 -0.037809686816731934 0 -0.016170807814451616 -0.036667927144289486 0 -0.016415301370831092 -0.038314502777379966 0 -0.016170807814451616 -0.036667927144289486 0 -0.01512175979363389 -0.037498016522248268 0 -0.016415301370831092 -0.038314502777379966 0 -0.014516982005137328 -0.037133582544710345 0 -0.015142731410340605 -0.036873845455505212 0 -0.01512175979363389 -0.037498016522248268 0 -0.013524555206228944 -0.036814738972405718 0 -0.013921821973183002 -0.036961296890321294 0 -0.016170807814451616 -0.036667927144289486 0 -0.015142731410340605 -0.036873845455505212 0 -0.01512175979363389 -0.037498016522248268 0 -0.012514472287051812 -0.036853386229547688 0 -0.013247830510507215 -0.037870894966139511 0 -0.01512175979363389 -0.037498016522248268 0 -0.013247830510507215 -0.037870894966139511 0 -0.01512175979363389 -0.037498016522248268 0 -0.015491759875947999 -0.039655170201655245 0 -0.012446033115353868 -0.035706022396727023 0 -0.012537275971217643 -0.035341553704532902 0 -0.012547553905107641 -0.038937405806932265 0 -0.013247830510507215 -0.037870894966139511 0 -0.015491759875947999 -0.039655170201655245 0 -0.01512175979363389 -0.037498016522248268 0 -0.016415301370831092 -0.038314502777379966 0 -0.015491759875947999 -0.039655170201655245 0 -0.017538874902488722 -0.039927893701231405 0 -0.016415301370831092 -0.038314502777379966 0 -0.015491759875947999 -0.039655170201655245 0 -0.0025633036564681484 -0.028646596981002734 0 -0.0024118829175399539 -0.028620150930568113 0 -0.0024935291572865132 -0.028755115557104739 0 -0.0025633036564681484 -0.028646596981002734 0 -0.0024118829175399539 -0.028620150930568113 0 -0.0025018407868109905 -0.028503064284909025 0 -0.0025633036564681484 -0.028646596981002734 0 -0.0027113577546046407 -0.028586778651216345 0 -0.0026169300319194675 -0.028514111787805527 0 -0.0024118829175399539 -0.028620150930568113 0 -0.0023737858739137814 -0.028759869295930187 0 -0.0023027257918743411 -0.028663597220593254 0 -0.0024118829175399539 -0.028620150930568113 0 -0.0023737858739137814 -0.028759869295930187 0 -0.0024935291572865132 -0.028755115557104739 0 -0.0023737858739137814 -0.028759869295930187 0 -0.0024935291572865132 -0.028755115557104739 0 -0.0024676132832564157 -0.028890641641011659 0 -0.0023737858739137814 -0.028759869295930187 0 -0.0024676132832564157 -0.028890641641011659 0 -0.002388669385695914 -0.028937592439832776 0 -0.0025633036564681484 -0.028646596981002734 0 -0.0024935291572865132 -0.028755115557104739 0 -0.0026143267793219574 -0.028808484861675299 0 -0.0024935291572865132 -0.028755115557104739 0 -0.0026143267793219574 -0.028808484861675299 0 -0.0024676132832564157 -0.028890641641011659 0 0.0021425679007469928 -0.02847567004884359 0 0.0013843116642483348 -0.029000697884782427 0 0.0055014663339368365 -0.029359171119573722 0 0.0054353625965292297 -0.029845489124242942 0 0.0049530552431129452 -0.028903157694494298 0 -0.0024733643071296984 -0.028441529419753874 0 -0.0026789600194393011 -0.028040851249716999 0 -0.0026379942766367229 -0.028693814586602254 0 -0.0029947095554588468 -0.027925763258758087 0 -0.0026789600194393011 -0.028040851249716999 0 -0.0026379942766367229 -0.028693814586602254 0 0.0053940934700418483 -0.02896687997537024 0 0.0055014663339368365 -0.029359171119573722 0 0.0049530552431129452 -0.028903157694494298 0 0.00066096648446664836 -0.033812650628200235 0 0.0028550207704269594 -0.032931396636132863 0 -0.0009830275791924822 -0.03087618525508809 0 -0.00079302774021000686 -0.030422471003092713 0 0.00013137118537109922 -0.031672742800134011 0 0.0053940934700418483 -0.02896687997537024 0 0.0055014663339368365 -0.029359171119573722 0 0.0059803695898239112 -0.029394371577486658 0 0.001940663568162841 -0.030919403453060518 0 0.0028550207704269594 -0.032931396636132863 0 0.0055014663339368365 -0.029359171119573722 0 0.0057315523147543016 -0.029682934238707766 0 0.0059803695898239112 -0.029394371577486658 0 0.0055014663339368365 -0.029359171119573722 0 0.0057315523147543016 -0.029682934238707766 0 0.0054353625965292297 -0.029845489124242942 0 0.0057315523147543016 -0.029682934238707766 0 0.0054353625965292297 -0.029845489124242942 0 0.005750868870669423 -0.030020206973666343 0 0.0057315523147543016 -0.029682934238707766 0 0.005750868870669423 -0.030020206973666343 0 0.0059886390465251809 -0.029906712727168428 0 -0.0027515770626163972 -0.028183682752282734 0 -0.0030204220193022586 -0.027337402836228458 0 -0.0025633036564681484 -0.028646596981002734 0 -0.0026143267793219574 -0.028808484861675299 0 -0.0027113577546046407 -0.028586778651216345 0 -0.0024733643071296984 -0.028441529419753874 0 -0.0026789600194393011 -0.028040851249716999 0 -0.0026071702503014742 -0.027762844879477826 0 -0.0029947095554588468 -0.027925763258758087 0 -0.0026789600194393011 -0.028040851249716999 0 -0.0025405201221238918 -0.027698764321572797 0 -0.0030177848875915761 -0.02738251877811021 0 -0.0030204220193022586 -0.027337402836228458 0 -0.0030204220193022586 -0.027337402836228458 0 -0.0032975961661831752 -0.026271162514768732 0 -0.0024396610083637273 -0.027491812531531223 0 -0.0022841626691984611 -0.026780117460481239 0 -0.0027169826578001318 -0.026500201579077249 0 -0.0027113577546046407 -0.028586778651216345 0 -0.00268702880756136 -0.028400494815502504 0 -0.0026169300319194675 -0.028514111787805527 0 -0.0025405201221238918 -0.027698764321572797 0 -0.0029820025985208068 -0.027185931049902599 0 -0.0027457033590048878 -0.026629337121977445 0 -0.0030204220193022586 -0.027337402836228458 0 -0.0030177743221633736 -0.02671038899610138 0 -0.0029947095554588468 -0.027925763258758087 0 -0.0025405201221238918 -0.027698764321572797 0 -0.0029820025985208068 -0.027185931049902599 0 0.0054353625965292297 -0.029845489124242942 0 0.005750868870669423 -0.030020206973666343 0 0.0059190073545859218 -0.030702589987528773 0 -0.0029947095554588468 -0.027925763258758087 0 -0.0029820025985208068 -0.027185931049902599 0 -0.0035324612359417008 -0.026800488307856345 0 0.0021425679007469928 -0.02847567004884359 0 0.0034503599061918356 -0.02792127258708892 0 0.005750868870669423 -0.030020206973666343 0 0.0059190073545859218 -0.030702589987528773 0 0.0059303052368670289 -0.030200850796715483 0 -0.0029820025985208068 -0.027185931049902599 0 -0.0031522380379322545 -0.026715778508529322 0 -0.0035324612359417008 -0.026800488307856345 0 -0.0029820025985208068 -0.027185931049902599 0 -0.0031522380379322545 -0.026715778508529322 0 -0.0027457033590048878 -0.026629337121977445 0 -0.0031522380379322545 -0.026715778508529322 0 -0.0031223838172781595 -0.026486875177503241 0 -0.0027457033590048878 -0.026629337121977445 0 -0.0031661204593396997 -0.026140790537960052 0 -0.0031223838172781595 -0.026486875177503241 0 -0.0027457033590048878 -0.026629337121977445 0 -0.0034255840613013314 -0.026233542753851188 0 -0.0031522380379322545 -0.026715778508529322 0 -0.0035324612359417008 -0.026800488307856345 0 -0.0034255840613013314 -0.026233542753851188 0 -0.0031522380379322545 -0.026715778508529322 0 -0.0031223838172781595 -0.026486875177503241 0 -0.0034255840613013314 -0.026233542753851188 0 -0.0031661204593396997 -0.026140790537960052 0 -0.0031223838172781595 -0.026486875177503241 0 -0.0021284046925820672 -0.026061396941616154 0 -0.0022841626691984611 -0.026780117460481239 0 -0.0024732498651763666 -0.026370701125372476 0 -0.0035769398223564797 -0.024278116985201128 0 -0.0032975961661831752 -0.026271162514768732 0 -0.0022841626691984611 -0.026780117460481239 0 -0.0027169826578001318 -0.026500201579077249 0 -0.0024732498651763666 -0.026370701125372476 0 -0.0024327497701405903 -0.026114496021318368 0 -0.0027169826578001318 -0.026500201579077249 0 -0.0024732498651763666 -0.026370701125372476 0 -0.0020918035617292254 -0.026049713034122228 0 -0.0024327497701405903 -0.026114496021318368 0 -0.0024732498651763666 -0.026370701125372476 0 -0.0035769398223564797 -0.024278116985201128 0 -0.003561426303142789 -0.024372591096554531 0 -0.0025776564405001847 -0.028343948459652903 0 -0.0025018407868109905 -0.028503064284909025 0 -0.0024547877017376818 -0.028307790524700067 0 -0.0025251972806012734 -0.028228763106838337 0 -0.0026544368975432793 -0.028216591827291623 0 -0.0025776564405001847 -0.028343948459652903 0 -0.0026544368975432793 -0.028216591827291623 0 -0.00268702880756136 -0.028400494815502504 0 -0.0025776564405001847 -0.028343948459652903 0 -0.0025251972806012734 -0.028228763106838337 0 -0.0025776564405001847 -0.028343948459652903 0 -0.0024547877017376818 -0.028307790524700067 0 -0.0025776564405001847 -0.028343948459652903 0 -0.0025018407868109905 -0.028503064284909025 0 -0.0026169300319194675 -0.028514111787805527 0 -0.00268702880756136 -0.028400494815502504 0 -0.0025776564405001847 -0.028343948459652903 0 -0.0026169300319194675 -0.028514111787805527 0 -0.0025633036564681484 -0.028646596981002734 0 -0.0025018407868109905 -0.028503064284909025 0 -0.0026169300319194675 -0.028514111787805527 0 -0.0025018407868109905 -0.028503064284909025 0 -0.0023678401640634655 -0.028481431997654783 0 -0.0024547877017376818 -0.028307790524700067 0 -0.0024118829175399539 -0.028620150930568113 0 -0.0023678401640634655 -0.028481431997654783 0 -0.0023156355194664927 -0.028576082454689958 0 -0.0024118829175399539 -0.028620150930568113 0 -0.0025018407868109905 -0.028503064284909025 0 -0.0023678401640634655 -0.028481431997654783 0 -0.0024174012000469204 -0.028178667277880477 0 -0.0024547877017376818 -0.028307790524700067 0 -0.0023360641556791524 -0.028274474163228227 0 -0.0024547877017376818 -0.028307790524700067 0 -0.0023360641556791524 -0.028274474163228227 0 -0.0022828234297570184 -0.028377257157486811 0 -0.0058675658849785713 -0.022332525297570963 0 -0.0049487355150732567 -0.027041284783967414 0 -0.0023678401640634655 -0.028481431997654783 0 -0.0024547877017376818 -0.028307790524700067 0 -0.002237104724049168 -0.028452007089055636 0 -0.00375504471184449 -0.027641360809776961 0 -0.0049487355150732567 -0.027041284783967414 0 -0.0022465195276669646 -0.028178160866457653 0 -0.0023360641556791524 -0.028274474163228227 0 -0.0022828234297570184 -0.028377257157486811 0 -0.0073234654173225311 -0.026658134176391228 0 -0.0074167550818886371 -0.02728088553661635 0 -0.0067941015177316539 -0.027220148505080498 0 -0.0058675658849785713 -0.022332525297570963 0 -0.0082473672900722859 -0.02363480209030442 0 -0.0085487163734912028 -0.014066570038113721 0 -0.0083898878076335004 -0.014095591163101351 0 -0.0085433454286152309 -0.013992767707569007 0 -0.0074167550818886371 -0.02728088553661635 0 -0.0067941015177316539 -0.027220148505080498 0 -0.0067970324424237493 -0.027350250138490521 0 -0.0049487355150732567 -0.027041284783967414 0 -0.0056902334990037899 -0.02870729416899415 0 -0.0074167550818886371 -0.02728088553661635 0 -0.0067970324424237493 -0.027350250138490521 0 -0.0069031883032842833 -0.027550038596641097 0 -0.0021863831455737892 -0.028564876930062811 0 -0.0022486094107636821 -0.028477966798765467 0 -0.0021046953572994996 -0.028553276289356506 0 -0.0021863831455737892 -0.028564876930062811 0 -0.002251668942590406 -0.028519000818948446 0 -0.0022505492666380772 -0.028595414281257253 0 -0.002251668942590406 -0.028519000818948446 0 -0.0023156355194664927 -0.028576082454689958 0 -0.0022505492666380772 -0.028595414281257253 0 -0.0023678401640634655 -0.028481431997654783 0 -0.002251668942590406 -0.028519000818948446 0 -0.0023156355194664927 -0.028576082454689958 0 -0.0023678401640634655 -0.028481431997654783 0 -0.002251668942590406 -0.028519000818948446 0 -0.002237104724049168 -0.028452007089055636 0 -0.0021863831455737892 -0.028564876930062811 0 -0.002251668942590406 -0.028519000818948446 0 -0.0022486094107636821 -0.028477966798765467 0 -0.0049252554118121008 -0.027087633711871256 0 -0.0049487355150732567 -0.027041284783967414 0 -0.0086613084716102313 -0.014074455845496645 0 -0.0087259509654217075 -0.014033643869629339 0 -0.0086543489576478838 -0.013996570556584809 0 -0.0085487163734912028 -0.014066570038113721 0 -0.0086613084716102313 -0.014074455845496645 0 -0.0086543489576478838 -0.013996570556584809 0 -0.0085487163734912028 -0.014066570038113721 0 -0.0086543489576478838 -0.013996570556584809 0 -0.0085433454286152309 -0.013992767707569007 0 -0.0067970324424237493 -0.027350250138490521 0 -0.0069031883032842833 -0.027550038596641097 0 -0.0063746105554355007 -0.027829950927974023 0 -0.0067941015177316539 -0.027220148505080498 0 -0.0067970324424237493 -0.027350250138490521 0 -0.006298416828817462 -0.027769853453773117 0 -0.0077302569019785218 -0.029482456356076499 0 -0.0075901120788049951 -0.030170698323297846 0 -0.0087330163119778807 -0.013976584251800855 0 -0.0086543489576478838 -0.013996570556584809 0 -0.0086685540339988161 -0.013918149541254197 0 -0.0082473672900722859 -0.02363480209030442 0 -0.0079868190341911109 -0.029550722872485616 0 -0.0086543489576478838 -0.013996570556584809 0 -0.0085433454286152309 -0.013992767707569007 0 -0.0086685540339988161 -0.013918149541254197 0 -0.0067970324424237493 -0.027350250138490521 0 -0.006298416828817462 -0.027769853453773117 0 -0.0064160878568439873 -0.027809022992197899 0 -0.009001971894443881 -0.030722683365856353 0 -0.0077991477771771059 -0.0319372789601374 0 -0.0073488537837518141 -0.031379631489913656 0 -0.0080754520827196075 -0.030918076149749125 0 -0.0079868190341911109 -0.029550722872485616 0 -0.0080754520827196075 -0.030918076149749125 0 -0.0078691595741500371 -0.03048073622387705 0 -0.006298416828817462 -0.027769853453773117 0 -0.0064160878568439873 -0.027809022992197899 0 -0.0063715220398627495 -0.027859093052154216 0 -0.0079868190341911109 -0.029550722872485616 0 -0.0078691595741500371 -0.03048073622387705 0 -0.0075901120788049951 -0.030170698323297846 0 -0.0078691595741500371 -0.03048073622387705 0 -0.0017642763176857422 -0.028674285785605335 0 -0.0017119339980342476 -0.028720296276107522 0 -0.0019817129491935741 -0.028712535596973423 0 -0.0056902334990037899 -0.02870729416899415 0 -0.0075901120788049951 -0.030170698323297846 0 -0.0017119339980342476 -0.028720296276107522 0 -0.0019817129491935741 -0.028712535596973423 0 -0.0019899096405940919 -0.02920433779704263 0 -0.0021046953572994996 -0.028553276289356506 0 -0.0017642763176857422 -0.028674285785605335 0 -0.0019817129491935741 -0.028712535596973423 0 -0.0019817129491935741 -0.028712535596973423 0 -0.0021235501737251572 -0.028670035499454936 0 -0.0021514207438595679 -0.028809916561924758 0 -0.0021046953572994996 -0.028553276289356506 0 -0.0019817129491935741 -0.028712535596973423 0 -0.0021235501737251572 -0.028670035499454936 0 -0.0019899096405940919 -0.02920433779704263 0 -0.0025691281487228708 -0.029202237087840817 0 -0.0024187709517756581 -0.0297852483329233 0 -0.0019817129491935741 -0.028712535596973423 0 -0.0019899096405940919 -0.02920433779704263 0 -0.0025691281487228708 -0.029202237087840817 0 -0.0021455533476846364 -0.029698661000426011 0 -0.0024204678668364446 -0.030086021442377497 0 -0.0087734128013274484 -0.038828940121035153 0 -0.0081692582967081602 -0.038095595739718442 0 -0.0088610917436035518 -0.03804924416195158 0 -0.0078691595741500371 -0.03048073622387705 0 -0.0066123434078369523 -0.031994166201209456 0 -0.0095997517419328486 -0.037945612761368507 0 -0.0087734128013274484 -0.038828940121035153 0 -0.0088610917436035518 -0.03804924416195158 0 -0.0081692582967081602 -0.038095595739718442 0 -0.0088610917436035518 -0.03804924416195158 0 -0.0085986639320837065 -0.037650624765128662 0 -0.0088610917436035518 -0.03804924416195158 0 -0.0091017244078133285 -0.037614354977850269 0 -0.0085986639320837065 -0.037650624765128662 0 -0.0023027257918743411 -0.028663597220593254 0 -0.0022084237641484404 -0.02867848570639478 0 -0.0022610178923792926 -0.02876984529571433 0 -0.0023737858739137814 -0.028759869295930187 0 -0.0023027257918743411 -0.028663597220593254 0 -0.0022610178923792926 -0.02876984529571433 0 -0.0024118829175399539 -0.028620150930568113 0 -0.0023156355194664927 -0.028576082454689958 0 -0.0023027257918743411 -0.028663597220593254 0 -0.0023156355194664927 -0.028576082454689958 0 -0.0023027257918743411 -0.028663597220593254 0 -0.0022505492666380772 -0.028595414281257253 0 -0.0023027257918743411 -0.028663597220593254 0 -0.0022505492666380772 -0.028595414281257253 0 -0.0022084237641484404 -0.02867848570639478 0 -0.0021235501737251572 -0.028670035499454936 0 -0.0022084237641484404 -0.02867848570639478 0 -0.0021514207438595679 -0.028809916561924758 0 -0.0021863831455737892 -0.028564876930062811 0 -0.0021235501737251572 -0.028670035499454936 0 -0.0022084237641484404 -0.02867848570639478 0 -0.0021863831455737892 -0.028564876930062811 0 -0.0022505492666380772 -0.028595414281257253 0 -0.0022084237641484404 -0.02867848570639478 0 -0.0021863831455737892 -0.028564876930062811 0 -0.0021046953572994996 -0.028553276289356506 0 -0.0021235501737251572 -0.028670035499454936 0 -0.0022084237641484404 -0.02867848570639478 0 -0.0021514207438595679 -0.028809916561924758 0 -0.0022610178923792926 -0.02876984529571433 0 -0.0034802646000594933 -0.030549460305764924 0 -0.0033697584448185844 -0.03141383320576726 0 -0.0021514207438595679 -0.028809916561924758 0 -0.0022610178923792926 -0.02876984529571433 0 -0.0022874189243466468 -0.028934280362646746 0 -0.0023737858739137814 -0.028759869295930187 0 -0.0022610178923792926 -0.02876984529571433 0 -0.0022874189243466468 -0.028934280362646746 0 -0.0033697584448185844 -0.03141383320576726 0 -0.0028729998778186969 -0.032515267673554317 0 -0.0031975074509852357 -0.029778522605122745 0 -0.0024187709517756581 -0.0297852483329233 0 -0.0028841064238854788 -0.030372185219852348 0 -0.0024204678668364446 -0.030086021442377497 0 -0.0033697584448185844 -0.03141383320576726 0 -0.0025691281487228708 -0.029202237087840817 0 -0.0031975074509852357 -0.029778522605122745 0 -0.0024187709517756581 -0.0297852483329233 0 -0.0075521874733210466 -0.037350889281665384 0 -0.0075351683191761838 -0.03638690312973146 0 -0.006935688404788554 -0.036595378743635838 0 -0.0055238221191091993 -0.032886324865621715 0 -0.0044574062478788916 -0.033491406524609718 0 -0.0075351683191761838 -0.03638690312973146 0 -0.006935688404788554 -0.036595378743635838 0 -0.0073261500403268391 -0.035868836143147044 0 -0.0036306846974128834 -0.033812145773532358 0 -0.0036882646493991613 -0.033708264832865792 0 -0.0035365710671866244 -0.033728763850012146 0 -0.0036882646493991613 -0.033708264832865792 0 -0.0036181669866449159 -0.033623550627229722 0 -0.0035365710671866244 -0.033728763850012146 0 -0.0044574062478788916 -0.033491406524609718 0 -0.0043772190935846174 -0.034035933814805831 0 -0.0033697584448185844 -0.03141383320576726 0 -0.0044574062478788916 -0.033491406524609718 0 -0.0088930829956294314 -0.03718036659889222 0 -0.0091017244078133285 -0.037614354977850269 0 -0.0085986639320837065 -0.037650624765128662 0 -0.0088930829956294314 -0.03718036659889222 0 -0.0085986639320837065 -0.037650624765128662 0 -0.0081843230887679846 -0.037210028868174018 0 -0.0066123434078369523 -0.031994166201209456 0 -0.0055238221191091993 -0.032886324865621715 0 -0.0081692582967081602 -0.038095595739718442 0 -0.0075521874733210466 -0.037350889281665384 0 -0.0081843230887679846 -0.037210028868174018 0 -0.0081692582967081602 -0.038095595739718442 0 -0.0085986639320837065 -0.037650624765128662 0 -0.0081843230887679846 -0.037210028868174018 0 -0.0075521874733210466 -0.037350889281665384 0 -0.0081843230887679846 -0.037210028868174018 0 -0.0080450233763777485 -0.036620868484063783 0 -0.0075521874733210466 -0.037350889281665384 0 -0.0075351683191761838 -0.03638690312973146 0 -0.0080450233763777485 -0.036620868484063783 0 -0.0075351683191761838 -0.03638690312973146 0 -0.0080450233763777485 -0.036620868484063783 0 -0.0078737142572340903 -0.036159151847040064 0 -0.0080450233763777485 -0.036620868484063783 0 -0.0086118387186991004 -0.036594471888014589 0 -0.0082520926745760399 -0.03600365405274137 0 -0.0081843230887679846 -0.037210028868174018 0 -0.0080450233763777485 -0.036620868484063783 0 -0.0086118387186991004 -0.036594471888014589 0 -0.0091983089662174573 -0.036762935767962857 0 -0.0086118387186991004 -0.036594471888014589 0 -0.0089933299411693347 -0.035849817864142756 0 -0.0088930829956294314 -0.03718036659889222 0 -0.0081843230887679846 -0.037210028868174018 0 -0.0086118387186991004 -0.036594471888014589 0 -0.0091983089662174573 -0.036762935767962857 0 -0.0088930829956294314 -0.03718036659889222 0 -0.0086118387186991004 -0.036594471888014589 0 -0.0089933299411693347 -0.035849817864142756 0 -0.0082520926745760399 -0.03600365405274137 0 -0.0079962500196694829 -0.0353998964009649 0 -0.0086118387186991004 -0.036594471888014589 0 -0.0089933299411693347 -0.035849817864142756 0 -0.0082520926745760399 -0.03600365405274137 0 -0.0082520926745760399 -0.03600365405274137 0 -0.0079350863252857489 -0.035850019186807379 0 -0.0079962500196694829 -0.0353998964009649 0 -0.0080450233763777485 -0.036620868484063783 0 -0.0082520926745760399 -0.03600365405274137 0 -0.0078737142572340903 -0.036159151847040064 0 -0.0075351683191761838 -0.03638690312973146 0 -0.0078737142572340903 -0.036159151847040064 0 -0.0076183233906656931 -0.035836659873624679 0 -0.0082520926745760399 -0.03600365405274137 0 -0.0078737142572340903 -0.036159151847040064 0 -0.0079350863252857489 -0.035850019186807379 0 -0.0078737142572340903 -0.036159151847040064 0 -0.0079350863252857489 -0.035850019186807379 0 -0.0076183233906656931 -0.035836659873624679 0 -0.0079350863252857489 -0.035850019186807379 0 -0.0079962500196694829 -0.0353998964009649 0 -0.0076183233906656931 -0.035836659873624679 0 -0.0079962500196694829 -0.0353998964009649 0 -0.0076183233906656931 -0.035836659873624679 0 -0.0073237974532323275 -0.035869554110184762 0 -0.0089933299411693347 -0.035849817864142756 0 -0.0079962500196694829 -0.0353998964009649 0 -0.0080460812163302611 -0.034823403711513781 0 -0.0079962500196694829 -0.0353998964009649 0 -0.0078793522560793375 -0.034832981421046849 0 -0.0073237974532323275 -0.035869554110184762 0 -0.0079962500196694829 -0.0353998964009649 0 -0.0078793522560793375 -0.034832981421046849 0 -0.0080460812163302611 -0.034823403711513781 0 -0.0069638948188495576 -0.034999725690855278 0 -0.0069307509472750625 -0.03506133334696436 0 -0.0071452316116449675 -0.034903530897800746 0 -0.0068426108871860458 -0.034939443667280801 0 -0.0070750694081344089 -0.034997762089085886 0 -0.0069598481185419647 -0.034997982766393307 0 -0.0068426108871860458 -0.034939443667280801 0 -0.0088543662746756024 -0.034999699385534794 0 -0.0087061201035433921 -0.036316747594865445 0 -0.0071455311864924752 -0.034903614771304818 0 -0.0082989443285674831 -0.035946259687807486 0 -0.0070750694081344089 -0.034997762089085886 0 -0.0045742324821970133 -0.034933984927762111 0 -0.0051028545576848206 -0.034874869161384194 0 -0.004784166370682027 -0.034654656329913713 0 -0.0043772190935846174 -0.034035933814805831 0 -0.0052948758448832936 -0.03422738847331578 0 -0.0044645018603299644 -0.034798660571331241 0 -0.004784166370682027 -0.034654656329913713 0 -0.0044477932408508456 -0.034565416267855122 0 -0.0044645018603299644 -0.034798660571331241 0 -0.0045742324821970133 -0.034933984927762111 0 -0.004784166370682027 -0.034654656329913713 0 -0.0043918889128750941 -0.034060875081070925 0 -0.0043772190935846174 -0.034035933814805831 0 -0.0044574062478788916 -0.033491406524609718 0 -0.0052948758448832936 -0.03422738847331578 0 -0.0047312519687533229 -0.034370925250703392 0 -0.0046875084881318266 -0.034317717530777475 0 -0.0047656400192154745 -0.034308985696468459 0 -0.0075351683191761838 -0.03638690312973146 0 -0.0076183233906656931 -0.035836659873624679 0 -0.0073261500403268391 -0.035868836143147044 0 -0.0053781179986978232 -0.034237161868759795 0 -0.0052948758448832936 -0.03422738847331578 0 -0.005430748222495646 -0.034270411355969643 0 -0.0047788939119081508 -0.034305993025080105 0 -0.004784166370682027 -0.034654656329913713 0 -0.0069637481153759897 -0.034999998284059142 0 -0.0069045122895046952 -0.035110141053236642 0 -0.0054621266091871099 -0.034999998800475822 0 -0.0068426108871860458 -0.034939443667280801 0 -0.0052431547774982957 -0.034901894306364437 0 -0.0069045122895046952 -0.035110141053236642 0 -0.0054621266091871099 -0.034999998800475822 0 -0.0053019720192508755 -0.035200686462115646 0 -0.005430748222495646 -0.034270411355969643 0 -0.0051028545576848206 -0.034874869161384194 0 -0.004784166370682027 -0.034654656329913713 0 -0.0068426108871860458 -0.034939443667280801 0 -0.0052948758448832936 -0.03422738847331578 0 -0.0054621266091871099 -0.034999998800475822 0 -0.0053019720192508755 -0.035200686462115646 0 -0.003960507663112095 -0.034999997187273424 0 -0.0052431547774982957 -0.034901894306364437 0 -0.0039277158792054003 -0.034897387599397423 0 -0.0047788939119081508 -0.034305993025080105 0 -0.0044477932408508456 -0.034565416267855122 0 -0.0041277628616049238 -0.034342325466653424 0 -0.0047788939119081508 -0.034305993025080105 0 -0.004784166370682027 -0.034654656329913713 0 -0.0044477932408508456 -0.034565416267855122 0 -0.0053019720192508755 -0.035200686462115646 0 -0.003960507663112095 -0.034999997187273424 0 -0.0036995888843591239 -0.03529104240912595 0 -0.0041277628616049238 -0.034342325466653424 0 -0.0036616219789135035 -0.034860400480501735 0 -0.0040843488674416444 -0.03472531764789389 0 -0.0039599544279931911 -0.034999142462451123 0 -0.0039277158792054003 -0.034897387599397423 0 -0.0039604295647770391 -0.035000015314594971 0 -0.0037492673762244389 -0.034999981383979327 0 -0.0037078656584226869 -0.035243978103321395 0 -0.0044477932408508456 -0.034565416267855122 0 -0.0041277628616049238 -0.034342325466653424 0 -0.0040843488674416444 -0.03472531764789389 0 -0.0037492673762244389 -0.034999981383979327 0 -0.0037078656584226869 -0.035243978103321395 0 -0.0022285850632806398 -0.035811971006778541 0 -0.0037078656584226869 -0.035243978103321395 0 -0.0027578523223314917 -0.036301402499872092 0 -0.0022285850632806398 -0.035811971006778541 0 -0.003747460048943226 -0.03499990048378309 0 -0.0024063712883992455 -0.035162552695179324 0 -0.003749187947522231 -0.035000001297481577 0 -0.0019081028366525793 -0.035976175381361587 0 -0.001761290015644415 -0.034999991702752406 0 -0.0039277158792054003 -0.034897387599397423 0 -0.002626784423581482 -0.034672329226678962 0 -0.002626784423581482 -0.034672329226678962 0 -0.0024063712883992455 -0.035162552695179324 0 -0.0036616219789135035 -0.034860400480501735 0 -0.0038309315009710577 -0.035016883916856416 0 -0.0040843488674416444 -0.03472531764789389 0 -0.002626784423581482 -0.034672329226678962 0 -0.0027502001709068385 -0.034221734246188795 0 -0.0026328171600964157 -0.034149402370169786 0 -0.0025658243912184612 -0.034086692387169694 0 -0.0027018673198271103 -0.034071789301905263 0 -0.0024848648123819662 -0.029019202336493036 0 -0.0024239820856095974 -0.02908687955227628 0 -0.0021471921190862522 -0.028897485019505197 0 -0.0027502001709068385 -0.034221734246188795 0 -0.0020987781902605256 -0.034666363908309288 0 -0.002626784423581482 -0.034672329226678962 0 -0.0020987781902605256 -0.034666363908309288 0 -0.0023191492974005659 -0.035213191012231415 0 -0.0020674530590624718 -0.035494702902934529 0 -0.0020057347787379191 -0.035214820795616907 0 -0.0044645018603299644 -0.034798660571331241 0 -0.0045732248210437641 -0.034932710549548059 0 -0.0038309315009710577 -0.035016883916856416 0 -0.0044645018603299644 -0.034798660571331241 0 -0.0038309315009710577 -0.035016883916856416 0 -0.0040843488674416444 -0.03472531764789389 0 -0.0043772190935846174 -0.034035933814805831 0 -0.0027502001709068385 -0.034221734246188795 0 -0.0044645018603299644 -0.034798660571331241 0 -0.0044477932408508456 -0.034565416267855122 0 -0.0040843488674416444 -0.03472531764789389 0 -0.0036181669866449159 -0.033623550627229722 0 -0.0034422428034049457 -0.033645199800197999 0 -0.0035365710671866244 -0.033728763850012146 0 -0.0023946085877344738 -0.02903178396868011 0 -0.0024383086562012575 -0.029025822531711199 0 -0.002388669385695914 -0.028937592439832776 0 -0.0024848648123819662 -0.029019202336493036 0 -0.0023946085877344738 -0.02903178396868011 0 -0.0024383086562012575 -0.029025822531711199 0 -0.0027502001709068385 -0.034221734246188795 0 -0.0028729998778186969 -0.032515267673554317 0 0.00073334892090923503 -0.028980257124295451 0 0.0011849577464321534 -0.029281377016625611 0 -0.0024239820856095974 -0.02908687955227628 0 -0.0024797546763972679 -0.02897714904963208 0 -0.0025854986098819135 -0.02891312538924511 0 -0.0024239820856095974 -0.02908687955227628 0 -0.0020464557389739389 -0.030104639500527032 0 -0.0020641218574093414 -0.029310614917637694 0 -0.0024848648123819662 -0.029019202336493036 0 -0.0024239820856095974 -0.02908687955227628 0 -0.0024383086562012575 -0.029025822531711199 0 -0.0024239820856095974 -0.02908687955227628 0 -0.0020641218574093414 -0.029310614917637694 0 -0.0021471921190862522 -0.028897485019505197 0 -0.0024239820856095974 -0.02908687955227628 0 -0.0024383086562012575 -0.029025822531711199 0 -0.0024797546763972679 -0.02897714904963208 0 -0.0027515770626163972 -0.028183682752282734 0 -0.0026702535702842678 -0.028446050317752575 0 -0.0024383086562012575 -0.029025822531711199 0 -0.0024797546763972679 -0.02897714904963208 0 -0.0024676132832564157 -0.028890641641011659 0 -0.0026143267793219574 -0.028808484861675299 0 -0.0024797546763972679 -0.02897714904963208 0 -0.0024676132832564157 -0.028890641641011659 0 -0.0024383086562012575 -0.029025822531711199 0 -0.0024676132832564157 -0.028890641641011659 0 -0.002388669385695914 -0.028937592439832776 0 -0.0023737858739137814 -0.028759869295930187 0 -0.002278881930611001 -0.028943305981982932 0 -0.002388669385695914 -0.028937592439832776 0 -0.002278881930611001 -0.028943305981982932 0 -0.0023946085877344738 -0.02903178396868011 0 -0.002388669385695914 -0.028937592439832776 0 -8.5870497516584031e-05 -0.038674088918742765 0 0.00054903294566259681 -0.037958283711573296 0 0.0010003122426145317 -0.038482384793431926 0 -8.5870497516584031e-05 -0.038674088918742765 0 -0.00059809533128218754 -0.037879324236141869 0 -5.704439332516037e-05 -0.037925507839732274 0 -8.5870497516584031e-05 -0.038674088918742765 0 -5.704439332516037e-05 -0.037925507839732274 0 0.00054903294566259681 -0.037958283711573296 0 -0.0009830275791924822 -0.03087618525508809 0 -0.00079302774021000686 -0.030422471003092713 0 -0.0020464557389739389 -0.030104639500527032 0 -0.0024733643071296984 -0.028441529419753874 0 -0.0024797546763972679 -0.02897714904963208 0 -0.0026379942766367229 -0.028693814586602254 0 -0.00079302774021000686 -0.030422471003092713 0 -0.0020464557389739389 -0.030104639500527032 0 -0.0016733375347644142 -0.029265294751646846 0 0.001940663568162841 -0.030919403453060518 0 0.0011849577464321534 -0.029281377016625611 0 0.0053940934700418483 -0.02896687997537024 0 0.0049530552431129452 -0.028903157694494298 0 0.0047763759487717255 -0.028544696678903924 0 0.0013843116642483348 -0.029000697884782427 0 0.0011849577464321534 -0.029281377016625611 0 -0.0024797546763972679 -0.02897714904963208 0 -0.0026379942766367229 -0.028693814586602254 0 -0.0025854986098819135 -0.02891312538924511 0 0.00066096648446664836 -0.033812650628200235 0 -0.0011874413308143662 -0.034497335969461203 0 -0.00091007741785556603 -0.037535223037223238 0 -9.3926206898970838e-05 -0.037188837793038325 0 -0.0013512066762283931 -0.037037172200797289 0 -8.5870497516584031e-05 -0.038674088918742765 0 -0.00059809533128218754 -0.037879324236141869 0 -0.00091241205738838845 -0.037535105548983358 0 -0.0010980967516966331 -0.034638345992806178 0 -0.0011874413308143662 -0.034497335969461203 0 -0.0020464557389739389 -0.030104639500527032 0 -0.0020641218574093414 -0.029310614917637694 0 -0.0016733375347644142 -0.029265294751646846 0 -0.0011874413308143662 -0.034497335969461203 0 -0.0020987781902605256 -0.034666363908309288 0 -0.0020641218574093414 -0.029310614917637694 0 -0.0016733375347644142 -0.029265294751646846 0 -0.0021471921190862522 -0.028897485019505197 0 -0.00059809533128218754 -0.037879324236141869 0 -0.00091007741785556603 -0.037535223037223238 0 -9.3926206898970838e-05 -0.037188837793038325 0 -0.00059809533128218754 -0.037879324236141869 0 -9.3926206898970838e-05 -0.037188837793038325 0 -5.704439332516037e-05 -0.037925507839732274 0 -9.3926206898970838e-05 -0.037188837793038325 0 -5.704439332516037e-05 -0.037925507839732274 0 0.00054903294566259681 -0.037958283711573296 0 -0.0012422516990760921 -0.035590997505630211 0 -0.0011819703072002161 -0.035276307624726923 0 -0.00041177537252850134 -0.035687364371054978 0 -0.0012422516990760921 -0.035590997505630211 0 -0.0011819703072002161 -0.035276307624726923 0 -0.0016883156219291351 -0.035282641554256221 0 -0.00058652580617390255 -0.036667304032187896 0 -0.00072582691487192502 -0.035745294751472367 0 0.00014645057711910712 -0.036322779487845951 0 -0.0011819703072002161 -0.035276307624726923 0 -0.0016883156219291351 -0.035282641554256221 0 -0.001947563755229152 -0.034868749720858572 0 -0.0010428484810402017 -0.035747545072982584 0 -0.0024063712883992455 -0.035162552695179324 0 -0.0012422516990760921 -0.035590997505630211 0 -0.0020674530590624718 -0.035494702902934529 0 -0.0016883156219291351 -0.035282641554256221 0 -0.00058652580617390255 -0.036667304032187896 0 -0.0019072092970956003 -0.035975563900997536 0 -0.001653876791769813 -0.035741280935842883 0 -0.00086485574682913726 -0.035533440478231287 0 -0.0020987781902605256 -0.034666363908309288 0 -0.0020674530590624718 -0.035494702902934529 0 -0.0016883156219291351 -0.035282641554256221 0 -0.0020057347787379191 -0.035214820795616907 0 -0.0016883156219291351 -0.035282641554256221 0 -0.0020057347787379191 -0.035214820795616907 0 -0.001947563755229152 -0.034868749720858572 0 -0.0023191492974005659 -0.035213191012231415 0 -0.0020057347787379191 -0.035214820795616907 0 -0.001947563755229152 -0.034868749720858572 0 -0.0019081028366525793 -0.035976175381361587 0 -0.001653876791769813 -0.035741280935842883 0 -0.001761290015644415 -0.034999991702752406 0 -0.0024063712883992455 -0.035162552695179324 0 -0.002401235728721916 -0.035166395725467869 0 -0.001653876791769813 -0.035741280935842883 0 -0.001761290015644415 -0.034999991702752406 0 -0.00072582691487192502 -0.035745294751472367 0 -0.00072582691487192502 -0.035745294751472367 0 0.00022662696085559795 -0.034999979509763239 0 0.00014645057711910712 -0.036322779487845951 0 -0.001761290015644415 -0.034999991702752406 0 -0.00072582691487192502 -0.035745294751472367 0 0.00022662696085559795 -0.034999979509763239 0 -0.00058652580617390255 -0.036667304032187896 0 -0.001653876791769813 -0.035741280935842883 0 -0.00072582691487192502 -0.035745294751472367 0 0.00022662696085559795 -0.034999979509763239 0 0.0010420626377646756 -0.035962592547389337 0 0.00014645057711910712 -0.036322779487845951 0 0.0010420626377646756 -0.035962592547389337 0 0.0018269218931535635 -0.036683686095583617 0 0.0022145590029590415 -0.034999975427801484 0 0.00022662696085559795 -0.034999979509763239 0 0.0010420626377646756 -0.035962592547389337 0 0.0022145590029590415 -0.034999975427801484 0 0.0010420626377646756 -0.035962592547389337 0 0.0018269218931535635 -0.036683686095583617 0 0.00097967331341565099 -0.036787795685316649 0 0.0018269218931535635 -0.036683686095583617 0 0.0013036786709298565 -0.037086770116516767 0 0.00097967331341565099 -0.036787795685316649 0 -0.00058652580617390255 -0.036667304032187896 0 0.00014645057711910712 -0.036322779487845951 0 0.00075181207954625416 -0.037352916175451611 0 0.00097967331341565099 -0.036787795685316649 0 0.00014645057711910712 -0.036322779487845951 0 0.00075181207954625416 -0.037352916175451611 0 0.0013036786709298565 -0.037086770116516767 0 0.00097967331341565099 -0.036787795685316649 0 0.00075181207954625416 -0.037352916175451611 0 -0.0010428484810402017 -0.035747545072982584 0 7.9434420578018469e-05 -0.0361675358987463 0 0.0010420626377646756 -0.035962592547389337 0 0.00097967331341565099 -0.036787795685316649 0 0.00014645057711910712 -0.036322779487845951 0 0.0042023916062155471 -0.034999998181575544 0 0.0031072182748287697 -0.036498088425844941 0 0.0044546496473561207 -0.036331150383284168 0 0.0018269218931535635 -0.036683686095583617 0 0.0022145590029590415 -0.034999975427801484 0 0.0031072182748287697 -0.036498088425844941 0 0.0042023916062155471 -0.034999998181575544 0 0.0022145590029590415 -0.034999975427801484 0 0.0031072182748287697 -0.036498088425844941 0 0.0018269218931535635 -0.036683686095583617 0 0.0031072182748287697 -0.036498088425844941 0 0.0026367262168370833 -0.037422933404007284 0 0.0031072182748287697 -0.036498088425844941 0 0.0035164584171270704 -0.037634819551964183 0 0.0044546496473561207 -0.036331150383284168 0 0.0035164584171270704 -0.037634819551964183 0 0.0044850222085651235 -0.037649721047091168 0 0.0044546496473561207 -0.036331150383284168 0 0.0035164584171270704 -0.037634819551964183 0 0.0033018486225360136 -0.038769103663580266 0 0.0044850222085651235 -0.037649721047091168 0 0.0031072182748287697 -0.036498088425844941 0 0.0035164584171270704 -0.037634819551964183 0 0.0026367262168370833 -0.037422933404007284 0 0.0035164584171270704 -0.037634819551964183 0 0.0026367262168370833 -0.037422933404007284 0 0.0028473806705623631 -0.038295451357272109 0 0.0026367262168370833 -0.037422933404007284 0 0.0028473806705623631 -0.038295451357272109 0 0.0017875057670398938 -0.037850955773126645 0 0.0014506927869781857 -0.037057994412656517 0 0.0010729388842285036 -0.036819083466903629 0 0.0035164584171270704 -0.037634819551964183 0 0.0028473806705623631 -0.038295451357272109 0 0.0033018486225360136 -0.038769103663580266 0 0.0028473806705623631 -0.038295451357272109 0 0.0026875220747900664 -0.038908636134474608 0 0.0019537031908864939 -0.038578556485051194 0 0.0028473806705623631 -0.038295451357272109 0 0.0026875220747900664 -0.038908636134474608 0 0.0033018486225360136 -0.038769103663580266 0 0.0026875220747900664 -0.038908636134474608 0 0.0033018486225360136 -0.038769103663580266 0 0.0032882567033406325 -0.039430137615640168 0 0.0033018486225360136 -0.038769103663580266 0 0.004456389865939406 -0.038759764444264717 0 0.0046155439445801846 -0.037555524588104364 0 0.0033018486225360136 -0.038769103663580266 0 0.004456389865939406 -0.038759764444264717 0 0.004117469756343097 -0.039463050136990439 0 0.0042312264052787804 -0.037919734952067442 0 0.0047523484584529492 -0.037427231999557171 0 -9.3926206898970838e-05 -0.037188837793038325 0 0.00054903294566259681 -0.037958283711573296 0 0.0011505025631994774 -0.037344223071991728 0 -0.00086485574682913726 -0.035533440478231287 0 7.9434420578018469e-05 -0.0361675358987463 0 0.0013855577719959523 -0.037953296287345076 0 0.00054903294566259681 -0.037958283711573296 0 0.0011505025631994774 -0.037344223071991728 0 0.0013036786709298565 -0.037086770116516767 0 0.00075181207954625416 -0.037352916175451611 0 0.0017875057670398938 -0.037850955773126645 0 7.9434420578018469e-05 -0.0361675358987463 0 0.0010729388842285036 -0.036819083466903629 0 0.0018269218931535635 -0.036683686095583617 0 0.0013036786709298565 -0.037086770116516767 0 0.0017875057670398938 -0.037850955773126645 0 0.0018269218931535635 -0.036683686095583617 0 0.0026367262168370833 -0.037422933404007284 0 0.0017875057670398938 -0.037850955773126645 0 0.0013855577719959523 -0.037953296287345076 0 0.0011505025631994774 -0.037344223071991728 0 0.0020127283709783046 -0.037822578971316571 0 0.0013855577719959523 -0.037953296287345076 0 0.0020127283709783046 -0.037822578971316571 0 0.0019537031908864939 -0.038578556485051194 0 0.0028473806705623631 -0.038295451357272109 0 0.0020127283709783046 -0.037822578971316571 0 0.0019537031908864939 -0.038578556485051194 0 0.0026875220747900664 -0.038908636134474608 0 0.0019537031908864939 -0.038578556485051194 0 0.0020996586741981013 -0.039203384389848168 0 0.0019537031908864939 -0.038578556485051194 0 0.0011496880420401119 -0.039179879704453885 0 0.0020996586741981013 -0.039203384389848168 0 -8.5870497516584031e-05 -0.038674088918742765 0 0.0010003122426145317 -0.038482384793431926 0 0.0011496880420401119 -0.039179879704453885 0 0.0019537031908864939 -0.038578556485051194 0 0.0010003122426145317 -0.038482384793431926 0 0.0011496880420401119 -0.039179879704453885 0 0.0013855577719959523 -0.037953296287345076 0 0.0019537031908864939 -0.038578556485051194 0 0.0010003122426145317 -0.038482384793431926 0 0.0013855577719959523 -0.037953296287345076 0 0.00054903294566259681 -0.037958283711573296 0 0.0010003122426145317 -0.038482384793431926 0 -8.5870497516584031e-05 -0.038674088918742765 0 0.0011496880420401119 -0.039179879704453885 0 0.00073338096620994241 -0.039789161453896812 0 0.00073338096620994241 -0.039789161453896812 0 0.0015301626550730263 -0.040337712562280921 0 0.001690375961584963 -0.039625464878151169 0 0.0011496880420401119 -0.039179879704453885 0 0.00073338096620994241 -0.039789161453896812 0 0.001690375961584963 -0.039625464878151169 0 0.0057315523147543016 -0.029682934238707766 0 0.0059803695898239112 -0.029394371577486658 0 0.0059886390465251809 -0.029906712727168428 0 0.0061967666601099964 -0.029838633186854216 0 0.0064856057108460862 -0.030199761020161493 0 0.0065003134925296713 -0.030034528695611809 0 0.0059803695898239112 -0.029394371577486658 0 0.0064007115987466138 -0.029996589624882952 0 0.0059886390465251809 -0.029906712727168428 0 0.0028550207704269594 -0.032931396636132863 0 0.0038213799126937905 -0.032136455376542063 0 0.0028550207704269594 -0.032931396636132863 0 0.0039337307065690748 -0.034547538945831791 0 0.0064007115987466138 -0.029996589624882952 0 0.0059886390465251809 -0.029906712727168428 0 0.0061787800221074791 -0.030191987140855546 0 0.005750868870669423 -0.030020206973666343 0 0.0059886390465251809 -0.029906712727168428 0 0.0059303052368670289 -0.030200850796715483 0 0.0022901018959593546 -0.040871918975514968 0 0.0015301626550730263 -0.040337712562280921 0 0.001690375961584963 -0.039625464878151169 0 0.0048210048534859948 -0.035937362960530933 0 0.0047171596518366284 -0.037249146485139099 0 0.0023664553450840225 -0.041049929628269421 0 0.0024231351208164119 -0.040200428755518609 0 0.001690375961584963 -0.039625464878151169 0 0.0064856057108460862 -0.030199761020161493 0 0.0068130744519309975 -0.030231871887131827 0 0.0065003134925296713 -0.030034528695611809 0 0.0048210048534859948 -0.035937362960530933 0 0.0039337307065690748 -0.034547538945831791 0 0.0024231351208164119 -0.040200428755518609 0 0.0023328999208973426 -0.039656430101624375 0 0.001690375961584963 -0.039625464878151169 0 0.0011496880420401119 -0.039179879704453885 0 0.001690375961584963 -0.039625464878151169 0 0.0020996586741981013 -0.039203384389848168 0 0.0023328999208973426 -0.039656430101624375 0 0.001690375961584963 -0.039625464878151169 0 0.0020996586741981013 -0.039203384389848168 0 0.0023328999208973426 -0.039656430101624375 0 0.0020996586741981013 -0.039203384389848168 0 0.0026116897260388414 -0.039398810179362587 0 0.0026875220747900664 -0.038908636134474608 0 0.0026116897260388414 -0.039398810179362587 0 0.0032882567033406325 -0.039430137615640168 0 0.0026116897260388414 -0.039398810179362587 0 0.0032882567033406325 -0.039430137615640168 0 0.0028441276251054332 -0.03986261428127047 0 0.0026875220747900664 -0.038908636134474608 0 0.0020996586741981013 -0.039203384389848168 0 0.0026116897260388414 -0.039398810179362587 0 0.0032882567033406325 -0.039430137615640168 0 0.0028441276251054332 -0.03986261428127047 0 0.0034178037504033953 -0.040181693747407321 0 0.0023328999208973426 -0.039656430101624375 0 0.0026116897260388414 -0.039398810179362587 0 0.0028441276251054332 -0.03986261428127047 0 0.0024231351208164119 -0.040200428755518609 0 0.0023328999208973426 -0.039656430101624375 0 0.0028441276251054332 -0.03986261428127047 0 0.0032882567033406325 -0.039430137615640168 0 0.004117469756343097 -0.039463050136990439 0 0.0037639414743291209 -0.039842489896292729 0 0.0033018486225360136 -0.038769103663580266 0 0.0032882567033406325 -0.039430137615640168 0 0.004117469756343097 -0.039463050136990439 0 0.0032882567033406325 -0.039430137615640168 0 0.0037639414743291209 -0.039842489896292729 0 0.0034178037504033953 -0.040181693747407321 0 0.004117469756343097 -0.039463050136990439 0 0.0042293133209452723 -0.040290076559166312 0 0.0050280011285075117 -0.039498765481615086 0 0.004117469756343097 -0.039463050136990439 0 0.0037639414743291209 -0.039842489896292729 0 0.0042293133209452723 -0.040290076559166312 0 0.0042293133209452723 -0.040290076559166312 0 0.0035773810908963279 -0.040945674309406759 0 0.0043971100100888439 -0.041489721029734916 0 0.0037639414743291209 -0.039842489896292729 0 0.0042293133209452723 -0.040290076559166312 0 0.0034178037504033953 -0.040181693747407321 0 0.0042293133209452723 -0.040290076559166312 0 0.0035773810908963279 -0.040945674309406759 0 0.0034178037504033953 -0.040181693747407321 0 0.0024231351208164119 -0.040200428755518609 0 0.0028441276251054332 -0.03986261428127047 0 0.0028953375726949913 -0.040692036224581465 0 0.0028441276251054332 -0.03986261428127047 0 0.0034178037504033953 -0.040181693747407321 0 0.0028953375726949913 -0.040692036224581465 0 0.0035773810908963279 -0.040945674309406759 0 0.0028953375726949913 -0.040692036224581465 0 0.0031402747765040288 -0.041107868825800739 0 0.0035773810908963279 -0.040945674309406759 0 0.0034178037504033953 -0.040181693747407321 0 0.0028953375726949913 -0.040692036224581465 0 0.0028953375726949913 -0.040692036224581465 0 0.0027232254276193498 -0.041297465171606942 0 0.0031402747765040288 -0.041107868825800739 0 0.0023664553450840225 -0.041049929628269421 0 0.0028953375726949913 -0.040692036224581465 0 0.0027232254276193498 -0.041297465171606942 0 0.0023664553450840225 -0.041049929628269421 0 0.0024231351208164119 -0.040200428755518609 0 0.0028953375726949913 -0.040692036224581465 0 0.0048210048534859948 -0.035937362960530933 0 0.004830934827886357 -0.036027810744328904 0 0.0048210048534859948 -0.035937362960530933 0 0.0067021818981797066 -0.034789109520622516 0 0.0068130744519309975 -0.030231871887131827 0 0.0070622398092119714 -0.030656294627428114 0 0.0067839446240672103 -0.030581400306184454 0 0.0023771017330028983 -0.041049361477995996 0 0.0027232254276193498 -0.041297465171606942 0 0.0029441757413574405 -0.042197521206993854 0 0.0027232254276193498 -0.041297465171606942 0 0.0031402747765040288 -0.041107868825800739 0 0.0033749783334690447 -0.041620453838784488 0 0.0035773810908963279 -0.040945674309406759 0 0.0031402747765040288 -0.041107868825800739 0 0.0033749783334690447 -0.041620453838784488 0 0.0027232254276193498 -0.041297465171606942 0 0.0033749783334690447 -0.041620453838784488 0 0.0029441757413574405 -0.042197521206993854 0 0.0035773810908963279 -0.040945674309406759 0 0.0033749783334690447 -0.041620453838784488 0 0.0043971100100888439 -0.041489721029734916 0 0.0033749783334690447 -0.041620453838784488 0 0.0043971100100888439 -0.041489721029734916 0 0.003893442984625886 -0.042442587708134076 0 0.0043971100100888439 -0.041489721029734916 0 0.003893442984625886 -0.042442587708134076 0 0.0047626229195367421 -0.042419633870098811 0 0.003893442984625886 -0.042442587708134076 0 0.0035069287867628444 -0.0433406671816845 0 0.004246252950015318 -0.043371578428524758 0 0.003893442984625886 -0.042442587708134076 0 0.0047626229195367421 -0.042419633870098811 0 0.004246252950015318 -0.043371578428524758 0 0.0070622398092119714 -0.030656294627428114 0 0.0070581509817940324 -0.030944466683441814 0 0.0073331052798527013 -0.03118710530002777 0 0.0067021818981797066 -0.034789109520622516 0 0.0087088390946594672 -0.03269469752773544 0 0.003893442984625886 -0.042442587708134076 0 0.0029441757413574405 -0.042197521206993854 0 0.0035069287867628444 -0.0433406671816845 0 0.0070622398092119714 -0.030656294627428114 0 0.0069487788786732054 -0.030812256525210774 0 0.0067839446240672103 -0.030581400306184454 0 0.0070622398092119714 -0.030656294627428114 0 0.0069487788786732054 -0.030812256525210774 0 0.0070581509817940324 -0.030944466683441814 0 0.0033749783334690447 -0.041620453838784488 0 0.003893442984625886 -0.042442587708134076 0 0.0029441757413574405 -0.042197521206993854 0 0.0070581509817940324 -0.030944466683441814 0 0.0069019896642296226 -0.031011577274738203 0 0.0073331052798527013 -0.03118710530002777 0 0.0069487788786732054 -0.030812256525210774 0 0.0069019896642296226 -0.031011577274738203 0 0.0067879570854568316 -0.030857845525304833 0 0.0069487788786732054 -0.030812256525210774 0 0.0070581509817940324 -0.030944466683441814 0 0.0069019896642296226 -0.031011577274738203 0 0.0069019896642296226 -0.031011577274738203 0 0.0067879570854568316 -0.030857845525304833 0 0.0066060947840161201 -0.03091338281989536 0 0.0066060947840161201 -0.03091338281989536 0 0.0060936929104769564 -0.030881263538207929 0 0.0067613007262487647 -0.031171623618264956 0 0.0069019896642296226 -0.031011577274738203 0 0.0066060947840161201 -0.03091338281989536 0 0.0067613007262487647 -0.031171623618264956 0 0.0067879570854568316 -0.030857845525304833 0 0.0066193753208333367 -0.030745673808184937 0 0.0066060947840161201 -0.03091338281989536 0 0.0067879570854568316 -0.030857845525304833 0 0.0066193753208333367 -0.030745673808184937 0 0.0067839446240672103 -0.030581400306184454 0 0.0069487788786732054 -0.030812256525210774 0 0.0067879570854568316 -0.030857845525304833 0 0.0067839446240672103 -0.030581400306184454 0 0.0064748821397797047 -0.030585448550973827 0 0.0066193753208333367 -0.030745673808184937 0 0.0067839446240672103 -0.030581400306184454 0 0.0066193753208333367 -0.030745673808184937 0 0.006435857096849751 -0.0307875595495447 0 0.0066060947840161201 -0.03091338281989536 0 0.0064748821397797047 -0.030585448550973827 0 0.0066193753208333367 -0.030745673808184937 0 0.006435857096849751 -0.0307875595495447 0 0.006435857096849751 -0.0307875595495447 0 0.0066060947840161201 -0.03091338281989536 0 0.0060936929104769564 -0.030881263538207929 0 0.0060936929104769564 -0.030881263538207929 0 0.0059190073545859218 -0.030702589987528773 0 0.0063152295041522871 -0.031383871844331536 0 0.0060936929104769564 -0.030881263538207929 0 0.0059190073545859218 -0.030702589987528773 0 0.0061056628041387786 -0.030629279979643508 0 0.0059190073545859218 -0.030702589987528773 0 0.0061056628041387786 -0.030629279979643508 0 0.0060764771832085328 -0.030438856519272091 0 0.0060936929104769564 -0.030881263538207929 0 0.0061056628041387786 -0.030629279979643508 0 0.0062793134128896868 -0.030674697786166841 0 0.006435857096849751 -0.0307875595495447 0 0.0060936929104769564 -0.030881263538207929 0 0.0062793134128896868 -0.030674697786166841 0 0.0061056628041387786 -0.030629279979643508 0 0.0062793134128896868 -0.030674697786166841 0 0.0062591826619165115 -0.030465907340116477 0 0.0064748821397797047 -0.030585448550973827 0 0.006435857096849751 -0.0307875595495447 0 0.0062793134128896868 -0.030674697786166841 0 0.0064748821397797047 -0.030585448550973827 0 0.0062591826619165115 -0.030465907340116477 0 0.006420470499095457 -0.030365467854448342 0 0.0064748821397797047 -0.030585448550973827 0 0.0062793134128896868 -0.030674697786166841 0 0.0062591826619165115 -0.030465907340116477 0 0.0062591826619165115 -0.030465907340116477 0 0.0060764771832085328 -0.030438856519272091 0 0.0061787800221074791 -0.030191987140855546 0 0.0062591826619165115 -0.030465907340116477 0 0.0061787800221074791 -0.030191987140855546 0 0.006420470499095457 -0.030365467854448342 0 0.0059190073545859218 -0.030702589987528773 0 0.0060764771832085328 -0.030438856519272091 0 0.0059303052368670289 -0.030200850796715483 0 0.0061056628041387786 -0.030629279979643508 0 0.0062591826619165115 -0.030465907340116477 0 0.0060764771832085328 -0.030438856519272091 0 0.0059886390465251809 -0.029906712727168428 0 0.0059303052368670289 -0.030200850796715483 0 0.0061787800221074791 -0.030191987140855546 0 0.0060764771832085328 -0.030438856519272091 0 0.0059303052368670289 -0.030200850796715483 0 0.0061787800221074791 -0.030191987140855546 0 0.0064007115987466138 -0.029996589624882952 0 0.0061787800221074791 -0.030191987140855546 0 0.006420470499095457 -0.030365467854448342 0 0.0038213799126937905 -0.032136455376542063 0 0.0041863353823665935 -0.031988629355855287 0 0.0064856057108460862 -0.030199761020161493 0 0.0068130744519309975 -0.030231871887131827 0 0.0067839446240672103 -0.030581400306184454 0 0.0064007115987466138 -0.029996589624882952 0 0.0067839446240672103 -0.030581400306184454 0 0.006420470499095457 -0.030365467854448342 0 0.0064748821397797047 -0.030585448550973827 0 0.0067839446240672103 -0.030581400306184454 0 0.006420470499095457 -0.030365467854448342 0 0.017894550971752021 -0.031893325471251378 0 0.018027307341082037 -0.031912869263865058 0 0.017911141439277155 -0.032001908626538608 0 0.017894550971752021 -0.031893325471251378 0 0.01796800796882354 -0.031795108486318793 0 0.018027307341082037 -0.031912869263865058 0 0.015396506487306385 -0.031697486928818581 0 0.016862560053112634 -0.031439506658522444 0 0.018144929668262772 -0.031263249330297747 0 0.01780627144603621 -0.031346153216800961 0 0.017898374299261305 -0.031129035792103899 0 0.018053985336214093 -0.031591568254856081 0 0.018292812371183003 -0.031255953775369882 0 0.01780627144603621 -0.031346153216800961 0 0.016538206945457878 -0.031323856569123808 0 0.015396506487306385 -0.031697486928818581 0 0.01796800796882354 -0.031795108486318793 0 0.018027307341082037 -0.031912869263865058 0 0.018045576566886636 -0.031781652582867526 0 0.0053777887826148285 -0.041783527376149647 0 0.0064650469117463064 -0.041415202938014338 0 0.005825080311285675 -0.043072223927977868 0 0.015396506487306385 -0.031697486928818581 0 0.011606150945517632 -0.033264566757012309 0 0.011712926286039847 -0.035500105570032421 0 0.011606150945517632 -0.033264566757012309 0 0.0047626229195367421 -0.042419633870098811 0 0.004246252950015318 -0.043371578428524758 0 0.005825080311285675 -0.043072223927977868 0 0.0047626229195367421 -0.042419633870098811 0 0.0053777887826148285 -0.041783527376149647 0 0.005825080311285675 -0.043072223927977868 0 0.0043971100100888439 -0.041489721029734916 0 0.0053777887826148285 -0.041783527376149647 0 0.0052942104598124404 -0.040647606451555886 0 0.0043971100100888439 -0.041489721029734916 0 0.0047626229195367421 -0.042419633870098811 0 0.0053777887826148285 -0.041783527376149647 0 0.0053777887826148285 -0.041783527376149647 0 0.0064650469117463064 -0.041415202938014338 0 0.0052942104598124404 -0.040647606451555886 0 0.0064650469117463064 -0.041415202938014338 0 0.0052942104598124404 -0.040647606451555886 0 0.0060223824579740161 -0.039611290855024836 0 0.0042293133209452723 -0.040290076559166312 0 0.0052942104598124404 -0.040647606451555886 0 0.0050280011285075117 -0.039498765481615086 0 0.0042293133209452723 -0.040290076559166312 0 0.0043971100100888439 -0.041489721029734916 0 0.0052942104598124404 -0.040647606451555886 0 0.0050280011285075117 -0.039498765481615086 0 0.0060223824579740161 -0.039611290855024836 0 0.0052029884576864378 -0.038484217540105253 0 0.0052942104598124404 -0.040647606451555886 0 0.0050280011285075117 -0.039498765481615086 0 0.0060223824579740161 -0.039611290855024836 0 0.004456389865939406 -0.038759764444264717 0 0.004117469756343097 -0.039463050136990439 0 0.0050280011285075117 -0.039498765481615086 0 0.0060223824579740161 -0.039611290855024836 0 0.0071341688356675228 -0.039749813502446801 0 0.0068189373144740264 -0.038726949265343799 0 0.018027307341082037 -0.031912869263865058 0 0.018022892831991523 -0.032126286995385542 0 0.017911141439277155 -0.032001908626538608 0 0.011712926286039847 -0.035500105570032421 0 0.012212703955331314 -0.035457756080615126 0 0.0064650469117463064 -0.041415202938014338 0 0.0060223824579740161 -0.039611290855024836 0 0.0071341688356675228 -0.039749813502446801 0 0.017894550971752021 -0.031893325471251378 0 0.017911141439277155 -0.032001908626538608 0 0.017768667386677338 -0.031983061798775955 0 0.016538206945457878 -0.031323856569123808 0 0.01678356575821861 -0.031339975978104534 0 0.017911141439277155 -0.032001908626538608 0 0.017854549544783244 -0.03211532965298982 0 0.017768667386677338 -0.031983061798775955 0 0.018022892831991523 -0.032126286995385542 0 0.017911141439277155 -0.032001908626538608 0 0.017854549544783244 -0.03211532965298982 0 0.018022892831991523 -0.032126286995385542 0 0.017854549544783244 -0.03211532965298982 0 0.017856619231234803 -0.03227923390986228 0 0.017854549544783244 -0.03211532965298982 0 0.017856619231234803 -0.03227923390986228 0 0.017715370445738454 -0.032219666139090719 0 0.017856619231234803 -0.03227923390986228 0 0.017951022926155715 -0.032493074846824635 0 0.017724546278307864 -0.032436375843421822 0 0.018022892831991523 -0.032126286995385542 0 0.017856619231234803 -0.03227923390986228 0 0.017951022926155715 -0.032493074846824635 0 0.012720982700252213 -0.034576090461943605 0 0.012779528808956908 -0.034545443420810666 0 0.0071341688356675228 -0.039749813502446801 0 0.0076469373239216407 -0.03816163566291858 0 0.0068189373144740264 -0.038726949265343799 0 0.0071341688356675228 -0.039749813502446801 0 0.0076469373239216407 -0.03816163566291858 0 0.0078351166756310785 -0.038077116046547892 0 0.012212703955331314 -0.035457756080615126 0 0.012779528808956908 -0.034545443420810666 0 0.0068189373144740264 -0.038726949265343799 0 0.006724776587377807 -0.03824885386520975 0 0.0071819242854938231 -0.038112853270702796 0 0.0068189373144740264 -0.038726949265343799 0 0.006724776587377807 -0.03824885386520975 0 0.006207997919820343 -0.038470593322026909 0 0.0076469373239216407 -0.03816163566291858 0 0.0068189373144740264 -0.038726949265343799 0 0.0071819242854938231 -0.038112853270702796 0 0.0076469373239216407 -0.03816163566291858 0 0.0071819242854938231 -0.038112853270702796 0 0.0076389633200606268 -0.037894520034982983 0 0.0071819242854938231 -0.038112853270702796 0 0.0073303896345589536 -0.037609517492556269 0 0.0076389633200606268 -0.037894520034982983 0 0.0071819242854938231 -0.038112853270702796 0 0.0073303896345589536 -0.037609517492556269 0 0.0069453390240684018 -0.037788255451379343 0 0.0073303896345589536 -0.037609517492556269 0 0.007847966732153322 -0.037441543709937214 0 0.0076389633200606268 -0.037894520034982983 0 0.0069453390240684018 -0.037788255451379343 0 0.0068672025103413805 -0.037180980798643043 0 0.0064400396519646488 -0.037913932324919332 0 0.006724776587377807 -0.03824885386520975 0 0.0069453390240684018 -0.037788255451379343 0 0.0064400396519646488 -0.037913932324919332 0 0.006724776587377807 -0.03824885386520975 0 0.0071819242854938231 -0.038112853270702796 0 0.0069453390240684018 -0.037788255451379343 0 0.0073303896345589536 -0.037609517492556269 0 0.0069453390240684018 -0.037788255451379343 0 0.0068672025103413805 -0.037180980798643043 0 0.0073303896345589536 -0.037609517492556269 0 0.0068672025103413805 -0.037180980798643043 0 0.0075074918427732564 -0.03721438518152851 0 0.0073303896345589536 -0.037609517492556269 0 0.0075074918427732564 -0.03721438518152851 0 0.007847966732153322 -0.037441543709937214 0 0.012779528808956908 -0.034545443420810666 0 0.013410273947265008 -0.034616985260348912 0 0.007847966732153322 -0.037441543709937214 0 0.0079385403519182888 -0.03789769954214775 0 0.0084054420027529757 -0.037048785109590157 0 0.0075074918427732564 -0.03721438518152851 0 0.007847966732153322 -0.037441543709937214 0 0.0079503850529807803 -0.036984030853136625 0 0.007847966732153322 -0.037441543709937214 0 0.0084054420027529757 -0.037048785109590157 0 0.0079503850529807803 -0.036984030853136625 0 0.0079385403519182888 -0.03789769954214775 0 0.0078583481331296317 -0.038102389322206179 0 0.0094506608932520345 -0.037430799674581655 0 0.0079385403519182888 -0.03789769954214775 0 0.0084054420027529757 -0.037048785109590157 0 0.0094506608932520345 -0.037430799674581655 0 0.0076469373239216407 -0.03816163566291858 0 0.0076389633200606268 -0.037894520034982983 0 0.0078491369584664013 -0.038085942490236474 0 0.0079385403519182888 -0.03789769954214775 0 0.0076389633200606268 -0.037894520034982983 0 0.0078491369584664013 -0.038085942490236474 0 0.012750550380257795 -0.034594801989052369 0 0.012779528808956908 -0.034545443420810666 0 0.007847966732153322 -0.037441543709937214 0 0.0079385403519182888 -0.03789769954214775 0 0.0076389633200606268 -0.037894520034982983 0 0.004456389865939406 -0.038759764444264717 0 0.0052029884576864378 -0.038484217540105253 0 0.0046155439445801846 -0.037555524588104364 0 0.004456389865939406 -0.038759764444264717 0 0.0050280011285075117 -0.039498765481615086 0 0.0052029884576864378 -0.038484217540105253 0 0.0060223824579740161 -0.039611290855024836 0 0.0068189373144740264 -0.038726949265343799 0 0.006207997919820343 -0.038470593322026909 0 0.0060223824579740161 -0.039611290855024836 0 0.0052029884576864378 -0.038484217540105253 0 0.006207997919820343 -0.038470593322026909 0 0.0052029884576864378 -0.038484217540105253 0 0.006207997919820343 -0.038470593322026909 0 0.0058387580570014065 -0.037609620833879122 0 0.006724776587377807 -0.03824885386520975 0 0.006207997919820343 -0.038470593322026909 0 0.0064400396519646488 -0.037913932324919332 0 0.006207997919820343 -0.038470593322026909 0 0.0064400396519646488 -0.037913932324919332 0 0.0058387580570014065 -0.037609620833879122 0 0.0068672025103413805 -0.037180980798643043 0 0.0064400396519646488 -0.037913932324919332 0 0.0058387580570014065 -0.037609620833879122 0 0.0058387580570014065 -0.037609620833879122 0 0.0046155439445801846 -0.037555524588104364 0 0.0058859646522268112 -0.036382604699667288 0 0.0052029884576864378 -0.038484217540105253 0 0.0058387580570014065 -0.037609620833879122 0 0.0046155439445801846 -0.037555524588104364 0 0.0044850222085651235 -0.037649721047091168 0 0.0044546496473561207 -0.036331150383284168 0 0.0058132987715825172 -0.036436220469563428 0 0.0047523484584529492 -0.037427231999557171 0 0.0056631827283211179 -0.036567595282579315 0 0.0068672025103413805 -0.037180980798643043 0 0.0058387580570014065 -0.037609620833879122 0 0.0058859646522268112 -0.036382604699667288 0 0.0044546496473561207 -0.036331150383284168 0 0.0058132987715825172 -0.036436220469563428 0 0.0061902688608956374 -0.034999989240346356 0 0.0056631827283211179 -0.036567595282579315 0 0.0061952449683341394 -0.036064187251400641 0 0.0058132987715825172 -0.036436220469563428 0 0.0061902688608956374 -0.034999989240346356 0 0.0071558555476703874 -0.03518040229973448 0 0.0042023916062155471 -0.034999998181575544 0 0.0044546496473561207 -0.036331150383284168 0 0.0061902688608956374 -0.034999989240346356 0 0.0081547273199501884 -0.036461951945831392 0 0.0078189617872752495 -0.035783634865211071 0 0.0090985113180522791 -0.036065672645186363 0 0.0081547273199501884 -0.036461951945831392 0 0.007551330040471935 -0.036666660545081366 0 0.0078189617872752495 -0.035783634865211071 0 0.0081547273199501884 -0.036461951945831392 0 0.0084054420027529757 -0.037048785109590157 0 0.0090985113180522791 -0.036065672645186363 0 0.0081547273199501884 -0.036461951945831392 0 0.0079503850529807803 -0.036984030853136625 0 0.007551330040471935 -0.036666660545081366 0 0.0075074918427732564 -0.03721438518152851 0 0.0079503850529807803 -0.036984030853136625 0 0.007551330040471935 -0.036666660545081366 0 0.0081547273199501884 -0.036461951945831392 0 0.0084054420027529757 -0.037048785109590157 0 0.0079503850529807803 -0.036984030853136625 0 0.0068672025103413805 -0.037180980798643043 0 0.007551330040471935 -0.036666660545081366 0 0.0070498833213143769 -0.036229528987341074 0 0.0068672025103413805 -0.037180980798643043 0 0.0058859646522268112 -0.036382604699667288 0 0.0070498833213143769 -0.036229528987341074 0 0.0068672025103413805 -0.037180980798643043 0 0.0075074918427732564 -0.03721438518152851 0 0.007551330040471935 -0.036666660545081366 0 0.007551330040471935 -0.036666660545081366 0 0.0070498833213143769 -0.036229528987341074 0 0.0078189617872752495 -0.035783634865211071 0 0.0070498833213143769 -0.036229528987341074 0 0.0071558555476703874 -0.03518040229973448 0 0.0078189617872752495 -0.035783634865211071 0 0.0058859646522268112 -0.036382604699667288 0 0.0070498833213143769 -0.036229528987341074 0 0.0071558555476703874 -0.03518040229973448 0 0.0061902688608956374 -0.034999989240346356 0 0.0071558555476703874 -0.03518040229973448 0 0.0081781716026688035 -0.034999969779298902 0 0.0071558555476703874 -0.03518040229973448 0 0.0081781716026688035 -0.034999969779298902 0 0.0078189617872752495 -0.035783634865211071 0 0.0081781716026688035 -0.034999969779298902 0 0.0078189617872752495 -0.035783634865211071 0 0.0090985113180522791 -0.036065672645186363 0 0.0081781716026688035 -0.034999969779298902 0 0.0090985113180522791 -0.036065672645186363 0 0.010166040844692784 -0.034999964553460466 0 0.0084054420027529757 -0.037048785109590157 0 0.0090985113180522791 -0.036065672645186363 0 0.0094506608932520345 -0.037430799674581655 0 0.0090985113180522791 -0.036065672645186363 0 0.011037856109702426 -0.0367284088550947 0 0.0094506608932520345 -0.037430799674581655 0 0.014076204757104615 -0.03449092753007791 0 0.013410273947265008 -0.034616985260348912 0 0.0090985113180522791 -0.036065672645186363 0 0.010166040844692784 -0.034999964553460466 0 0.011037856109702426 -0.0367284088550947 0 0.010166040844692784 -0.034999964553460466 0 0.012153943216892869 -0.035000002770914064 0 0.011037856109702426 -0.0367284088550947 0 0.012156277400566459 -0.035001045934437293 0 0.014076204757104615 -0.03449092753007791 0 0.012154015142910455 -0.035000017958076945 0 0.012213681334005289 -0.035533435901206195 0 0.011146170189310302 -0.036661125126908424 0 0.014663305243039722 -0.034812095499987927 0 0.014623487936782564 -0.034998675194185126 0 0.012800333875678999 -0.035430235659396875 0 0.012154015142910455 -0.035000017958076945 0 0.013495099152698092 -0.034999978146199061 0 0.012800333875678999 -0.035430235659396875 0 0.012351294974544604 -0.036135199867409283 0 0.013589602426765079 -0.035574564248732253 0 0.012800333875678999 -0.035430235659396875 0 0.012154015142910455 -0.035000017958076945 0 0.012213681334005289 -0.035533435901206195 0 0.014616900602478852 -0.034852641660872444 0 0.014663305243039722 -0.034812095499987927 0 0.012800333875678999 -0.035430235659396875 0 0.012213681334005289 -0.035533435901206195 0 0.012351294974544604 -0.036135199867409283 0 0.015301435450409524 -0.035353691990396376 0 0.015407579389063075 -0.035323541843877662 0 0.015320535055962155 -0.035355637545907009 0 0.014663305243039722 -0.034812095499987927 0 0.015592112824705774 -0.034016074238461126 0 0.012213681334005289 -0.035533435901206195 0 0.012345178884592054 -0.036094027943899799 0 0.011146170189310302 -0.036661125126908424 0 0.014663305243039722 -0.034812095499987927 0 0.014076204757104615 -0.03449092753007791 0 0.016852503630957336 -0.033263311591918601 0 0.017227209778847952 -0.033086729138700699 0 0.017110098122479555 -0.032729085865377025 0 0.016852503630957336 -0.033263311591918601 0 0.017110098122479555 -0.032729085865377025 0 0.016733187783216044 -0.03270467446117508 0 0.016733187783216044 -0.03270467446117508 0 0.016909140454882201 -0.032384637361633259 0 0.01661306856695537 -0.032156763790940998 0 0.015592112824705774 -0.034016074238461126 0 0.016261433407588476 -0.033080177759872875 0 0.017110098122479555 -0.032729085865377025 0 0.016733187783216044 -0.03270467446117508 0 0.016909140454882201 -0.032384637361633259 0 0.017110098122479555 -0.032729085865377025 0 0.016909140454882201 -0.032384637361633259 0 0.017206300237827966 -0.032362330934937629 0 0.017206300237827966 -0.032362330934937629 0 0.017480738159979942 -0.032335545907048881 0 0.017491737334747834 -0.032654091170346441 0 0.017110098122479555 -0.032729085865377025 0 0.017206300237827966 -0.032362330934937629 0 0.017491737334747834 -0.032654091170346441 0 0.015877828672281505 -0.032805331175887222 0 0.016359410976561795 -0.032391865409998152 0 0.017856619231234803 -0.03227923390986228 0 0.017724546278307864 -0.032436375843421822 0 0.017715370445738454 -0.032219666139090719 0 0.017480738159979942 -0.032335545907048881 0 0.017491737334747834 -0.032654091170346441 0 0.017715370445738454 -0.032219666139090719 0 0.017724546278307864 -0.032436375843421822 0 0.017475429529175333 -0.032508527327781631 0 0.017715370445738454 -0.032219666139090719 0 0.017951022926155715 -0.032493074846824635 0 0.017724546278307864 -0.032436375843421822 0 0.017629697891449272 -0.032679409921399047 0 0.017724546278307864 -0.032436375843421822 0 0.017629697891449272 -0.032679409921399047 0 0.017475429529175333 -0.032508527327781631 0 0.017227209778847952 -0.033086729138700699 0 0.017110098122479555 -0.032729085865377025 0 0.017491737334747834 -0.032654091170346441 0 0.017237696088476927 -0.032874397329114131 0 0.017629697891449272 -0.032679409921399047 0 0.017475429529175333 -0.032508527327781631 0 0.014076204757104615 -0.03449092753007791 0 0.015877828672281505 -0.032805331175887222 0 0.015792012883928352 -0.03541522428491034 0 0.015892417083285943 -0.035472736371333663 0 0.015900866872758549 -0.035240148095561287 0 0.01573002537970725 -0.035509179115844162 0 0.015892417083285943 -0.035472736371333663 0 0.016020680634515286 -0.035645499389242719 0 0.01573002537970725 -0.035509179115844162 0 0.015792012883928352 -0.03541522428491034 0 0.015892417083285943 -0.035472736371333663 0 0.016800987991471582 -0.035469541797819762 0 0.017402489264013516 -0.035503304314089185 0 0.01666611280005657 -0.034999559201611408 0 0.015795076858013526 -0.035427929135882823 0 0.017820298853373474 -0.035754676990037294 0 0.015792012883928352 -0.03541522428491034 0 0.015795076858013526 -0.035427929135882823 0 0.015900866872758549 -0.035240148095561287 0 0.01666611280005657 -0.034999559201611408 0 0.015795076858013526 -0.035427929135882823 0 0.014838159473867215 -0.035000398183823403 0 0.015795076858013526 -0.035427929135882823 0 0.01553640729548748 -0.03546385331400706 0 0.015188650168419625 -0.035347516693252833 0 0.015792012883928352 -0.03541522428491034 0 0.015795076858013526 -0.035427929135882823 0 0.01553640729548748 -0.03546385331400706 0 0.01573002537970725 -0.035509179115844162 0 0.015792012883928352 -0.03541522428491034 0 0.01553640729548748 -0.03546385331400706 0 0.01573002537970725 -0.035509179115844162 0 0.01553640729548748 -0.03546385331400706 0 0.015499553063439454 -0.035500997638673981 0 0.01553640729548748 -0.03546385331400706 0 0.015323758349797725 -0.035410896890312092 0 0.015499553063439454 -0.035500997638673981 0 0.015323758349797725 -0.035410896890312092 0 0.015188650168419625 -0.035347516693252833 0 0.0151848368745441 -0.035321315754977267 0 0.01553640729548748 -0.03546385331400706 0 0.015323758349797725 -0.035410896890312092 0 0.015188650168419625 -0.035347516693252833 0 0.015795076858013526 -0.035427929135882823 0 0.014838159473867215 -0.035000398183823403 0 0.015188650168419625 -0.035347516693252833 0 0.014838159473867215 -0.035000398183823403 0 0.015188650168419625 -0.035347516693252833 0 0.0151848368745441 -0.035321315754977267 0 0.014835928253081311 -0.034999892727921825 0 0.014623487936782564 -0.034998675194185126 0 0.014836281690557375 -0.035000009551946897 0 0.013495099152698092 -0.034999978146199061 0 0.013589602426765079 -0.035574564248732253 0 0.012800333875678999 -0.035430235659396875 0 0.013495099152698092 -0.034999978146199061 0 0.013589602426765079 -0.035574564248732253 0 0.015301435450409524 -0.035353691990396376 0 0.0151848368745441 -0.035321315754977267 0 0.015320535055962155 -0.035355637545907009 0 0.015323758349797725 -0.035410896890312092 0 0.0151848368745441 -0.035321315754977267 0 0.015320535055962155 -0.035355637545907009 0 0.015323758349797725 -0.035410896890312092 0 0.015320535055962155 -0.035355637545907009 0 0.015423678456997115 -0.035346561776116031 0 0.015407579389063075 -0.035323541843877662 0 0.015320535055962155 -0.035355637545907009 0 0.015423678456997115 -0.035346561776116031 0 0.015407579389063075 -0.035323541843877662 0 0.015493716863273365 -0.035220660965277276 0 0.015473663086756911 -0.035243113715766182 0 0.015407579389063075 -0.035323541843877662 0 0.015423678456997115 -0.035346561776116031 0 0.015493716863273365 -0.035220660965277276 0 0.015648478310435868 -0.033770629983385071 0 0.015844413428687483 -0.033588143900205529 0 0.015518622472585038 -0.035267666392289627 0 0.015473896413409243 -0.034892427412410006 0 0.015493716863273365 -0.035220660965277276 0 0.015518622472585038 -0.035267666392289627 0 0.015423678456997115 -0.035346561776116031 0 0.015493716863273365 -0.035220660965277276 0 0.015518622472585038 -0.035267666392289627 0 0.015438374002668315 -0.035452141915405973 0 0.015430710215144727 -0.035568730589243244 0 0.015518622472585038 -0.035267666392289627 0 0.015423678456997115 -0.035346561776116031 0 0.015438374002668315 -0.035452141915405973 0 0.015323758349797725 -0.035410896890312092 0 0.015423678456997115 -0.035346561776116031 0 0.015438374002668315 -0.035452141915405973 0 0.015323758349797725 -0.035410896890312092 0 0.015438374002668315 -0.035452141915405973 0 0.015499553063439454 -0.035500997638673981 0 0.01573002537970725 -0.035509179115844162 0 0.015499553063439454 -0.035500997638673981 0 0.015797387649100176 -0.035683506335586944 0 0.015499553063439454 -0.035500997638673981 0 0.015430710215144727 -0.035568730589243244 0 0.015797387649100176 -0.035683506335586944 0 0.015438374002668315 -0.035452141915405973 0 0.015499553063439454 -0.035500997638673981 0 0.015430710215144727 -0.035568730589243244 0 0.015518622472585038 -0.035267666392289627 0 0.015430710215144727 -0.035568730589243244 0 0.015473896413409243 -0.034892427412410006 0 0.015473896413409243 -0.034892427412410006 0 0.014488756057596525 -0.034625885998040375 0 0.015071078986919065 -0.034081384864049484 0 0.015450751786841452 -0.035102719177998142 0 0.015360560058783314 -0.034943065966349857 0 0.015430710215144727 -0.035568730589243244 0 0.015473896413409243 -0.034892427412410006 0 0.014488756057596525 -0.034625885998040375 0 0.015847634184544344 -0.036092637632578375 0 0.015985674123391146 -0.03590806194516466 0 0.016145785283208789 -0.036021253112208738 0 0.015847634184544344 -0.036092637632578375 0 0.015985674123391146 -0.03590806194516466 0 0.015797387649100176 -0.035683506335586944 0 0.015430710215144727 -0.035568730589243244 0 0.015847634184544344 -0.036092637632578375 0 0.015797387649100176 -0.035683506335586944 0 0.015985674123391146 -0.03590806194516466 0 0.015797387649100176 -0.035683506335586944 0 0.016114056435261152 -0.0358115337873844 0 0.015797387649100176 -0.035683506335586944 0 0.016020680634515286 -0.035645499389242719 0 0.016114056435261152 -0.0358115337873844 0 0.01573002537970725 -0.035509179115844162 0 0.015797387649100176 -0.035683506335586944 0 0.016020680634515286 -0.035645499389242719 0 0.014660639148747524 -0.03327616039456513 0 0.014669918426646474 -0.032167357804819732 0 0.013897283964659645 -0.032386283259026163 0 0.014660639148747524 -0.03327616039456513 0 0.015412097889643426 -0.032445185509444703 0 0.014669918426646474 -0.032167357804819732 0 0.014488756057596525 -0.034625885998040375 0 0.014660639148747524 -0.03327616039456513 0 0.01369060016580899 -0.033493721634628028 0 0.014488756057596525 -0.034625885998040375 0 0.014660639148747524 -0.03327616039456513 0 0.015071078986919065 -0.034081384864049484 0 0.014660639148747524 -0.03327616039456513 0 0.015071078986919065 -0.034081384864049484 0 0.015690923142605753 -0.033554130904362593 0 0.015473896413409243 -0.034892427412410006 0 0.015071078986919065 -0.034081384864049484 0 0.015690923142605753 -0.033554130904362593 0 0.014660639148747524 -0.03327616039456513 0 0.015690923142605753 -0.033554130904362593 0 0.015412097889643426 -0.032445185509444703 0 0.015690923142605753 -0.033554130904362593 0 0.016313767651943475 -0.032537082602677202 0 0.015412097889643426 -0.032445185509444703 0 0.015690923142605753 -0.033554130904362593 0 0.016313767651943475 -0.032537082602677202 0 0.016744711969230493 -0.033399740826768533 0 0.015473896413409243 -0.034892427412410006 0 0.015690923142605753 -0.033554130904362593 0 0.016557471798063404 -0.034296365588125044 0 0.015690923142605753 -0.033554130904362593 0 0.016557471798063404 -0.034296365588125044 0 0.016744711969230493 -0.033399740826768533 0 0.016557471798063404 -0.034296365588125044 0 0.017543551015416322 -0.033844709391665423 0 0.016744711969230493 -0.033399740826768533 0 0.015844413428687483 -0.033588143900205529 0 0.016261433407588476 -0.033080177759872875 0 0.016261433407588476 -0.033080177759872875 0 0.016383884150207754 -0.032623551877273241 0 0.017543551015416322 -0.033844709391665423 0 0.016744711969230493 -0.033399740826768533 0 0.01721299822243106 -0.032671380015501121 0 0.016313767651943475 -0.032537082602677202 0 0.016744711969230493 -0.033399740826768533 0 0.01721299822243106 -0.032671380015501121 0 0.016313767651943475 -0.032537082602677202 0 0.01721299822243106 -0.032671380015501121 0 0.016745188321819718 -0.031534162694209479 0 0.016383884150207754 -0.032623551877273241 0 0.016396110872434651 -0.032389910527861963 0 0.016842447262620189 -0.031798813123496895 0 0.016745188321819718 -0.031534162694209479 0 0.017088849619868011 -0.031583527465559195 0 0.016026771580024586 -0.031682107393696493 0 0.015288224667207298 -0.031340559451905128 0 0.016317354099786407 -0.030540865247624636 0 0.016745188321819718 -0.031534162694209479 0 0.016026771580024586 -0.031682107393696493 0 0.016317354099786407 -0.030540865247624636 0 0.016313767651943475 -0.032537082602677202 0 0.016026771580024586 -0.031682107393696493 0 0.015412097889643426 -0.032445185509444703 0 0.016313767651943475 -0.032537082602677202 0 0.016745188321819718 -0.031534162694209479 0 0.016026771580024586 -0.031682107393696493 0 0.015412097889643426 -0.032445185509444703 0 0.015288224667207298 -0.031340559451905128 0 0.014669918426646474 -0.032167357804819732 0 0.016026771580024586 -0.031682107393696493 0 0.015412097889643426 -0.032445185509444703 0 0.015288224667207298 -0.031340559451905128 0 0.014672717919965 -0.030900406064758804 0 0.014260159175664045 -0.03145734839389356 0 0.014198779435493521 -0.030319231300414286 0 0.015288224667207298 -0.031340559451905128 0 0.014672717919965 -0.030900406064758804 0 0.014260159175664045 -0.03145734839389356 0 0.015288224667207298 -0.031340559451905128 0 0.014260159175664045 -0.03145734839389356 0 0.014669918426646474 -0.032167357804819732 0 0.014260159175664045 -0.03145734839389356 0 0.014669918426646474 -0.032167357804819732 0 0.013897283964659645 -0.032386283259026163 0 0.017614212217953864 -0.031793850148069985 0 0.017494981635515265 -0.032117839448128724 0 0.017101259628644793 -0.031968191502841511 0 0.017317142755307886 -0.032306934835686196 0 0.017055957432144497 -0.032490561817899846 0 0.017614212217953864 -0.031793850148069985 0 0.0172907934487171 -0.031928194950839435 0 0.01739504548534037 -0.031638642018332115 0 0.017614212217953864 -0.031793850148069985 0 0.017768667386677338 -0.031983061798775955 0 0.017761124361702903 -0.031634644610344549 0 0.017614212217953864 -0.031793850148069985 0 0.017768667386677338 -0.031983061798775955 0 0.017494981635515265 -0.032117839448128724 0 0.017768667386677338 -0.031983061798775955 0 0.017715370445738454 -0.032219666139090719 0 0.017494981635515265 -0.032117839448128724 0 0.017854549544783244 -0.03211532965298982 0 0.017768667386677338 -0.031983061798775955 0 0.017715370445738454 -0.032219666139090719 0 0.017480738159979942 -0.032335545907048881 0 0.017715370445738454 -0.032219666139090719 0 0.017494981635515265 -0.032117839448128724 0 0.017206300237827966 -0.032362330934937629 0 0.017480738159979942 -0.032335545907048881 0 0.017494981635515265 -0.032117839448128724 0 0.017206300237827966 -0.032362330934937629 0 0.017494981635515265 -0.032117839448128724 0 0.017101259628644793 -0.031968191502841511 0 0.016909140454882201 -0.032384637361633259 0 0.017206300237827966 -0.032362330934937629 0 0.017101259628644793 -0.031968191502841511 0 0.016261433407588476 -0.033080177759872875 0 0.017055957432144497 -0.032490561817899846 0 0.016909140454882201 -0.032384637361633259 0 0.01661306856695537 -0.032156763790940998 0 0.017101259628644793 -0.031968191502841511 0 0.016842447262620189 -0.031798813123496895 0 0.0172907934487171 -0.031928194950839435 0 0.017088849619868011 -0.031583527465559195 0 0.016911766320450067 -0.032089836968064306 0 0.016842447262620189 -0.031798813123496895 0 0.0172907934487171 -0.031928194950839435 0 0.01739504548534037 -0.031638642018332115 0 0.017088849619868011 -0.031583527465559195 0 0.017368043545471043 -0.03135517529709686 0 0.0172907934487171 -0.031928194950839435 0 0.01739504548534037 -0.031638642018332115 0 0.017088849619868011 -0.031583527465559195 0 0.017088849619868011 -0.031583527465559195 0 0.017368043545471043 -0.03135517529709686 0 0.017123794178606992 -0.030894674292309052 0 0.016745188321819718 -0.031534162694209479 0 0.017088849619868011 -0.031583527465559195 0 0.017123794178606992 -0.030894674292309052 0 0.017590493522158197 -0.031502531765451224 0 0.01780627144603621 -0.031346153216800961 0 0.017526426029633849 -0.031063343804330512 0 0.017368043545471043 -0.03135517529709686 0 0.017590493522158197 -0.031502531765451224 0 0.017526426029633849 -0.031063343804330512 0 0.01739504548534037 -0.031638642018332115 0 0.017368043545471043 -0.03135517529709686 0 0.017590493522158197 -0.031502531765451224 0 0.017614212217953864 -0.031793850148069985 0 0.01739504548534037 -0.031638642018332115 0 0.017590493522158197 -0.031502531765451224 0 0.017590493522158197 -0.031502531765451224 0 0.017761124361702903 -0.031634644610344549 0 0.01780627144603621 -0.031346153216800961 0 0.018053985336214093 -0.031591568254856081 0 0.017768667386677338 -0.031983061798775955 0 0.017761124361702903 -0.031634644610344549 0 0.018053985336214093 -0.031591568254856081 0 0.017761124361702903 -0.031634644610344549 0 0.01780627144603621 -0.031346153216800961 0 0.017614212217953864 -0.031793850148069985 0 0.017590493522158197 -0.031502531765451224 0 0.017761124361702903 -0.031634644610344549 0 0.01780627144603621 -0.031346153216800961 0 0.017526426029633849 -0.031063343804330512 0 0.017898374299261305 -0.031129035792103899 0 0.016073097490904041 -0.030492580591159193 0 0.015911781390835451 -0.030840025421507263 0 0.014837530727936315 -0.028995985810778474 0 0.015077016714314603 -0.029121917746198669 0 0.014840085791251578 -0.028952761269982644 0 0.014976068712926689 -0.028972484364337858 0 0.014985796103771836 -0.028945264256047463 0 0.014837530727936315 -0.028995985810778474 0 0.015011503587774845 -0.029185866514643159 0 0.015034134085685257 -0.029423932494179857 0 0.014837530727936315 -0.028995985810778474 0 0.014679008513012633 -0.028591797575087868 0 0.014853028797463542 -0.028724869863680256 0 0.014837530727936315 -0.028995985810778474 0 0.015011503587774845 -0.029185866514643159 0 0.015077016714314603 -0.029121917746198669 0 0.015011503587774845 -0.029185866514643159 0 0.015077016714314603 -0.029121917746198669 0 0.015218426192912539 -0.029396932943190925 0 0.017368043545471043 -0.03135517529709686 0 0.017526426029633849 -0.031063343804330512 0 0.017123794178606992 -0.030894674292309052 0 0.016073097490904041 -0.030492580591159193 0 0.015911169831096677 -0.030328497881848604 0 0.015286971140257235 -0.029390090593057527 0 0.015218426192912539 -0.029396932943190925 0 0.015298297641478942 -0.029517433696687932 0 0.015077016714314603 -0.029121917746198669 0 0.015286971140257235 -0.029390090593057527 0 0.015218426192912539 -0.029396932943190925 0 0.015218426192912539 -0.029396932943190925 0 0.015181588077205262 -0.029547966733444359 0 0.015034134085685257 -0.029423932494179857 0 0.015218426192912539 -0.029396932943190925 0 0.015298297641478942 -0.029517433696687932 0 0.015296196180658819 -0.029480794903625311 0 0.015011731047816029 -0.028854636311456943 0 0.014989229017364011 -0.029054564792466701 0 0.015218426192912539 -0.029396932943190925 0 0.015181588077205262 -0.029547966733444359 0 0.015296196180658819 -0.029480794903625311 0 0.01508991987861163 -0.02880758626105542 0 0.015256779959504597 -0.028829471721535643 0 0.014978387334459676 -0.028936535512316369 0 0.01508991987861163 -0.02880758626105542 0 0.014978387334459676 -0.028936535512316369 0 0.014994153026754119 -0.028780919300095888 0 0.015011731047816029 -0.028854636311456943 0 0.015008755139568106 -0.028852882279265676 0 0.014799873166479507 -0.028407613034981169 0 0.014679008513012633 -0.028591797575087868 0 0.014744568050372818 -0.02839356624394988 0 0.014706498988883437 -0.028382002720554293 0 0.014679008513012633 -0.028591797575087868 0 0.014744568050372818 -0.02839356624394988 0 0.014686156922269718 -0.028388386153803524 0 0.014706498988883437 -0.028382002720554293 0 0.014679008513012633 -0.028591797575087868 0 0.015011731047816029 -0.028854636311456943 0 0.014985796103771836 -0.028945264256047463 0 0.014799873166479507 -0.028407613034981169 0 0.01484172654310662 -0.028566216882582301 0 0.014679008513012633 -0.028591797575087868 0 0.014799873166479507 -0.028407613034981169 0 0.01484172654310662 -0.028566216882582301 0 0.014900268451697531 -0.028492826572475299 0 0.01484172654310662 -0.028566216882582301 0 0.014679008513012633 -0.028591797575087868 0 0.014853028797463542 -0.028724869863680256 0 0.015011503587774845 -0.029185866514643159 0 0.015218426192912539 -0.029396932943190925 0 0.015034134085685257 -0.029423932494179857 0 0.014826710216280953 -0.030228516923986315 0 0.014623488065390875 -0.02952283065895954 0 0.014198779435493521 -0.030319231300414286 0 0.014623488065390875 -0.02952283065895954 0 0.014198779435493521 -0.030319231300414286 0 0.014014937126444083 -0.029536692034039982 0 0.014672717919965 -0.030900406064758804 0 0.014826710216280953 -0.030228516923986315 0 0.014198779435493521 -0.030319231300414286 0 0.015288224667207298 -0.031340559451905128 0 0.014672717919965 -0.030900406064758804 0 0.014826710216280953 -0.030228516923986315 0 0.015288224667207298 -0.031340559451905128 0 0.014826710216280953 -0.030228516923986315 0 0.016317354099786407 -0.030540865247624636 0 0.015197678729575108 -0.030232970569247779 0 0.015522870444351182 -0.030253691384485904 0 0.014826710216280953 -0.030228516923986315 0 0.015073633832509663 -0.029727302086044394 0 0.014623488065390875 -0.02952283065895954 0 0.014826710216280953 -0.030228516923986315 0 0.015073633832509663 -0.029727302086044394 0 0.015239617169069533 -0.029731598362192056 0 0.015073633832509663 -0.029727302086044394 0 0.015239617169069533 -0.029731598362192056 0 0.015298297641478942 -0.029517433696687932 0 0.015911169831096677 -0.030328497881848604 0 0.015522870444351182 -0.030253691384485904 0 0.016745188321819718 -0.031534162694209479 0 0.017123794178606992 -0.030894674292309052 0 0.016317354099786407 -0.030540865247624636 0 0.015286971140257235 -0.029390090593057527 0 0.015239617169069533 -0.029731598362192056 0 0.015298297641478942 -0.029517433696687932 0 0.014989229017364011 -0.029054564792466701 0 0.014848933112183806 -0.029205669213067997 0 0.015298297641478942 -0.029517433696687932 0 0.015296196180658819 -0.029480794903625311 0 0.015191521710693483 -0.029444540662427011 0 0.014978387334459676 -0.028936535512316369 0 0.01482324399779416 -0.02913179458145794 0 0.014859339177002752 -0.02880237363430448 0 0.014978387334459676 -0.028936535512316369 0 0.014859339177002752 -0.02880237363430448 0 0.014994153026754119 -0.028780919300095888 0 0.01482324399779416 -0.02913179458145794 0 0.014675663891130597 -0.02895976814787158 0 0.014859339177002752 -0.02880237363430448 0 0.015073633832509663 -0.029727302086044394 0 0.015298297641478942 -0.029517433696687932 0 0.015191521710693483 -0.029444540662427011 0 0.015073633832509663 -0.029727302086044394 0 0.015191521710693483 -0.029444540662427011 0 0.014623488065390875 -0.02952283065895954 0 0.014848933112183806 -0.029205669213067997 0 0.014718194251401712 -0.029289038560381855 0 0.01482324399779416 -0.02913179458145794 0 0.014675663891130597 -0.02895976814787158 0 0.014623488065390875 -0.02952283065895954 0 0.014675663891130597 -0.02895976814787158 0 0.014314868911689593 -0.029036388924370066 0 0.014623488065390875 -0.02952283065895954 0 0.014675663891130597 -0.02895976814787158 0 0.014314868911689593 -0.029036388924370066 0 0.014490977817202495 -0.028770525883732752 0 0.014314868911689593 -0.029036388924370066 0 0.014623488065390875 -0.02952283065895954 0 0.014014937126444083 -0.029536692034039982 0 0.014428743073391417 -0.028535677337352641 0 0.014490977817202495 -0.028770525883732752 0 0.014141181889278244 -0.02872761926757713 0 0.014314868911689593 -0.029036388924370066 0 0.014490977817202495 -0.028770525883732752 0 0.014141181889278244 -0.02872761926757713 0 0.014428743073391417 -0.028535677337352641 0 0.014490977817202495 -0.028770525883732752 0 0.014784304511439864 -0.028653470052183213 0 0.014675663891130597 -0.02895976814787158 0 0.014490977817202495 -0.028770525883732752 0 0.014784304511439864 -0.028653470052183213 0 0.014406628213379539 -0.028503231897857962 0 0.014634849018858701 -0.028542834541742505 0 0.014362665708431229 -0.028438868692832908 0 0.014562595273603143 -0.028462663487893197 0 0.014521651729562608 -0.028267009949649168 0 0.014562595273603143 -0.028462663487893197 0 0.014724146705105776 -0.028404651586671853 0 0.014689480244849494 -0.028276615627821466 0 0.014675663891130597 -0.02895976814787158 0 0.014784304511439864 -0.028653470052183213 0 0.014859339177002752 -0.02880237363430448 0 0.014634849018858701 -0.028542834541742505 0 0.014762388603163722 -0.028564753881863227 0 0.014784304511439864 -0.028653470052183213 0 0.014859339177002752 -0.02880237363430448 0 0.014905982723811419 -0.028604704551382292 0 0.014859339177002752 -0.02880237363430448 0 0.014994153026754119 -0.028780919300095888 0 0.014905982723811419 -0.028604704551382292 0 0.014724146705105776 -0.028404651586671853 0 0.014905982723811419 -0.028604704551382292 0 0.014860404877579671 -0.028389718316844448 0 0.014562595273603143 -0.028462663487893197 0 0.014724146705105776 -0.028404651586671853 0 0.014905982723811419 -0.028604704551382292 0 0.014724146705105776 -0.028404651586671853 0 0.014777322475199911 -0.028309329893047706 0 0.014860404877579671 -0.028389718316844448 0 0.014777322475199911 -0.028309329893047706 0 0.014689480244849494 -0.028276615627821466 0 0.014769747537798604 -0.028208278460090334 0 0.014724146705105776 -0.028404651586671853 0 0.014777322475199911 -0.028309329893047706 0 0.014689480244849494 -0.028276615627821466 0 0.014689480244849494 -0.028276615627821466 0 0.014664840130920677 -0.0281260053420807 0 0.014769747537798604 -0.028208278460090334 0 0.014664840130920677 -0.0281260053420807 0 0.014769747537798604 -0.028208278460090334 0 0.014762722143043507 -0.028058076925659342 0 0.014689480244849494 -0.028276615627821466 0 0.014664840130920677 -0.0281260053420807 0 0.014521651729562608 -0.028267009949649168 0 0.014562595273603143 -0.028462663487893197 0 0.014689480244849494 -0.028276615627821466 0 0.014521651729562608 -0.028267009949649168 0 0.014362665708431229 -0.028438868692832908 0 0.014521651729562608 -0.028267009949649168 0 0.014381036239429703 -0.028226814910148185 0 0.014521651729562608 -0.028267009949649168 0 0.014455724837904695 -0.028087054248568773 0 0.014381036239429703 -0.028226814910148185 0 0.014664840130920677 -0.0281260053420807 0 0.014521651729562608 -0.028267009949649168 0 0.014455724837904695 -0.028087054248568773 0 0.014455724837904695 -0.028087054248568773 0 0.014317007426296642 -0.028111044413389245 0 0.014381036239429703 -0.028226814910148185 0 0.014317007426296642 -0.028111044413389245 0 0.014381036239429703 -0.028226814910148185 0 0.014239871375960207 -0.028231630810620228 0 0.014362665708431229 -0.028438868692832908 0 0.014381036239429703 -0.028226814910148185 0 0.014239871375960207 -0.028231630810620228 0 0.014762542252246427 -0.028314655859763997 0 0.014778155540923189 -0.028299665666872181 0 0.014797700866001245 -0.028256747824804116 0 0.014759949601865418 -0.028335542293755907 0 0.014762542252246427 -0.028314655859763997 0 0.014797700866001245 -0.028256747824804116 0 0.014824312561493958 -0.028302475168006047 0 0.014759949601865418 -0.028335542293755907 0 0.014797700866001245 -0.028256747824804116 0 0.014824312561493958 -0.028302475168006047 0 0.014797700866001245 -0.028256747824804116 0 0.014864132224664218 -0.028241145670457338 0 0.014799873166479507 -0.028407613034981169 0 0.014824312561493958 -0.028302475168006047 0 0.014759949601865418 -0.028335542293755907 0 0.014799873166479507 -0.028407613034981169 0 0.014744568050372818 -0.02839356624394988 0 0.014759949601865418 -0.028335542293755907 0 0.014706498988883437 -0.028382002720554293 0 0.014744568050372818 -0.02839356624394988 0 0.014759949601865418 -0.028335542293755907 0 0.014713857034560312 -0.028370877066112393 0 0.014706498988883437 -0.028382002720554293 0 0.014734921276658425 -0.02834331229396626 0 0.014759949601865418 -0.028335542293755907 0 0.014734921276658425 -0.02834331229396626 0 0.014762542252246427 -0.028314655859763997 0 0.014706498988883437 -0.028382002720554293 0 0.014759949601865418 -0.028335542293755907 0 0.014734921276658425 -0.02834331229396626 0 0.015011731047816029 -0.028854636311456943 0 0.014934367361264602 -0.028711882856281734 0 0.01508991987861163 -0.02880758626105542 0 0.015256779959504597 -0.028829471721535643 0 0.015135443295348173 -0.028662984548162077 0 0.014713857034560312 -0.028370877066112393 0 0.014734921276658425 -0.02834331229396626 0 0.014763903714891989 -0.028317755303903493 0 0.014734921276658425 -0.02834331229396626 0 0.014763903714891989 -0.028317755303903493 0 0.014757391126702213 -0.028327465798091755 0 0.014734921276658425 -0.02834331229396626 0 0.014762542252246427 -0.028314655859763997 0 0.014757391126702213 -0.028327465798091755 0 0.01508991987861163 -0.02880758626105542 0 0.014994153026754119 -0.028780919300095888 0 0.015135443295348173 -0.028662984548162077 0 0.015135443295348173 -0.028662984548162077 0 0.014905982723811419 -0.028604704551382292 0 0.014860404877579671 -0.028389718316844448 0 0.014994153026754119 -0.028780919300095888 0 0.015135443295348173 -0.028662984548162077 0 0.014905982723811419 -0.028604704551382292 0 0.014934367361264602 -0.028711882856281734 0 0.014904153861528746 -0.028659671050706947 0 0.014763903714891989 -0.028317755303903493 0 0.014860404877579671 -0.028389718316844448 0 0.014787465239367992 -0.028341542941986202 0 0.014860404877579671 -0.028389718316844448 0 0.014787465239367992 -0.028341542941986202 0 0.014796218243001405 -0.02830198702271889 0 0.014787465239367992 -0.028341542941986202 0 0.014778155540923189 -0.028299665666872181 0 0.014796218243001405 -0.02830198702271889 0 0.014777322475199911 -0.028309329893047706 0 0.014860404877579671 -0.028389718316844448 0 0.014796218243001405 -0.02830198702271889 0 0.014762542252246427 -0.028314655859763997 0 0.014757391126702213 -0.028327465798091755 0 0.014778155540923189 -0.028299665666872181 0 0.014763903714891989 -0.028317755303903493 0 0.014787465239367992 -0.028341542941986202 0 0.014757391126702213 -0.028327465798091755 0 0.014787465239367992 -0.028341542941986202 0 0.014757391126702213 -0.028327465798091755 0 0.014778155540923189 -0.028299665666872181 0 0.014778155540923189 -0.028299665666872181 0 0.01479036646912715 -0.028227096840718158 0 0.014796218243001405 -0.02830198702271889 0 0.014778155540923189 -0.028299665666872181 0 0.01479036646912715 -0.028227096840718158 0 0.014797700866001245 -0.028256747824804116 0 0.01479036646912715 -0.028227096840718158 0 0.014796218243001405 -0.02830198702271889 0 0.014769747537798604 -0.028208278460090334 0 0.014777322475199911 -0.028309329893047706 0 0.014796218243001405 -0.02830198702271889 0 0.014769747537798604 -0.028208278460090334 0 0.01479036646912715 -0.028227096840718158 0 0.014769747537798604 -0.028208278460090334 0 0.014784210051577738 -0.028123997523538911 0 0.01479036646912715 -0.028227096840718158 0 0.014808133386794466 -0.028173377649882179 0 0.014784210051577738 -0.028123997523538911 0 0.01479036646912715 -0.028227096840718158 0 0.014808133386794466 -0.028173377649882179 0 0.014797700866001245 -0.028256747824804116 0 0.014808133386794466 -0.028173377649882179 0 0.014797700866001245 -0.028256747824804116 0 0.01484965651941 -0.028168324780451771 0 0.014797700866001245 -0.028256747824804116 0 0.01484965651941 -0.028168324780451771 0 0.014864132224664218 -0.028241145670457338 0 0.014808133386794466 -0.028173377649882179 0 0.01484965651941 -0.028168324780451771 0 0.014820973476381848 -0.028074778767230395 0 0.01484965651941 -0.028168324780451771 0 0.014878971949578402 -0.02813955806940717 0 0.014892911810456919 -0.028195134999562273 0 0.014878971949578402 -0.02813955806940717 0 0.014892911810456919 -0.028195134999562273 0 0.014903319709005099 -0.028116970951545077 0 0.014892911810456919 -0.028195134999562273 0 0.014901936443252531 -0.028235964236218467 0 0.014897521451801093 -0.028226769881764289 0 0.014892911810456919 -0.028195134999562273 0 0.014864132224664218 -0.028241145670457338 0 0.014901936443252531 -0.028235964236218467 0 0.01484965651941 -0.028168324780451771 0 0.014892911810456919 -0.028195134999562273 0 0.014864132224664218 -0.028241145670457338 0 0.014824312561493958 -0.028302475168006047 0 0.014864132224664218 -0.028241145670457338 0 0.014897691948514502 -0.028296320079942362 0 0.014864132224664218 -0.028241145670457338 0 0.014901936443252531 -0.028235964236218467 0 0.014897691948514502 -0.028296320079942362 0 0.014901936443252531 -0.028235964236218467 0 0.014897691948514502 -0.028296320079942362 0 0.014905046295231804 -0.028206558324711695 0 0.014880113176903251 -0.0283031877117562 0 0.014909202365892387 -0.028263378481318283 0 0.014799873166479507 -0.028407613034981169 0 0.014824312561493958 -0.028302475168006047 0 0.014897691948514502 -0.028296320079942362 0 0.01483808475164417 -0.028328794536391474 0 0.014880113176903251 -0.0283031877117562 0 0.015163268446300769 -0.028256246238437942 0 0.015119505081025027 -0.028351520941775579 0 0.015160483858882082 -0.028379313556564915 0 0.015163268446300769 -0.028256246238437942 0 0.015119505081025027 -0.028351520941775579 0 0.015064782320970947 -0.028276505257339764 0 0.014939127938431768 -0.028382823643117425 0 0.015064782320970947 -0.028276505257339764 0 0.01506655940993838 -0.028399744101080128 0 0.015119505081025027 -0.028351520941775579 0 0.015064782320970947 -0.028276505257339764 0 0.01506655940993838 -0.028399744101080128 0 0.014901936443252531 -0.028235964236218467 0 0.014905046295231804 -0.028206558324711695 0 0.014897521451801093 -0.028226769881764289 0 0.014905046295231804 -0.028206558324711695 0 0.014756921845515251 -0.028228396003291273 0 0.014689473001019231 -0.028194471845683442 0 0.014909202365892387 -0.028263378481318283 0 0.014812500863589893 -0.028259857730206971 0 0.015163268446300769 -0.028256246238437942 0 0.015064782320970947 -0.028276505257339764 0 0.015272017789050666 -0.028182118279446142 0 0.014905046295231804 -0.028206558324711695 0 0.014897521451801093 -0.028226769881764289 0 0.014756921845515251 -0.028228396003291273 0 0.014897521451801093 -0.028226769881764289 0 0.014907058882254697 -0.028209254731135239 0 0.014756921845515251 -0.028228396003291273 0 0.013570303941861811 -0.027653813815375079 0 0.01381581291442908 -0.028002272046536655 0 0.014892911810456919 -0.028195134999562273 0 0.014919001030332151 -0.028161779415752642 0 0.014903319709005099 -0.028116970951545077 0 0.014892911810456919 -0.028195134999562273 0 0.014897521451801093 -0.028226769881764289 0 0.014919001030332151 -0.028161779415752642 0 0.013570303941861811 -0.027653813815375079 0 0.012560864045508314 -0.025641318766206365 0 0.014919001030332151 -0.028161779415752642 0 0.014907058882254697 -0.028209254731135239 0 0.014966762381351809 -0.028096806362190627 0 0.014897521451801093 -0.028226769881764289 0 0.014919001030332151 -0.028161779415752642 0 0.014907058882254697 -0.028209254731135239 0 0.014298770405241502 -0.028888233249655421 0 0.014560232567087548 -0.028532456876592824 0 0.014611640227336086 -0.028864046569077716 0 0.014735845323591932 -0.028698367709550612 0 0.014560232567087548 -0.028532456876592824 0 0.014611640227336086 -0.028864046569077716 0 0.014298770405241502 -0.028888233249655421 0 0.0142311102069435 -0.028623133894899868 0 0.014560232567087548 -0.028532456876592824 0 0.0142311102069435 -0.028623133894899868 0 0.014560232567087548 -0.028532456876592824 0 0.014090723618544892 -0.028336161674237585 0 0.014560232567087548 -0.028532456876592824 0 0.014090723618544892 -0.028336161674237585 0 0.014689473001019231 -0.028194471845683442 0 0.014735845323591932 -0.028698367709550612 0 0.014560232567087548 -0.028532456876592824 0 0.014756921845515251 -0.028228396003291273 0 -0.0056348176278231358 -0.0058768505813001169 0 -0.0055504365391120082 -0.005285878592931584 0 -0.0049920165422074518 -0.0058825612613842256 0 -0.0055504365391120082 -0.005285878592931584 0 -0.0049920165422074518 -0.0058825612613842256 0 -0.0047776476081782164 -0.0050820822408592379 0 -0.0035719888440257411 -0.0056938026942203266 0 -0.0049920165422074518 -0.0058825612613842256 0 -0.0047776476081782164 -0.0050820822408592379 0 0.014298770405241502 -0.028888233249655421 0 0.0142311102069435 -0.028623133894899868 0 0.013636581154618662 -0.028673067004755463 0 0.0056298291714853912 -0.017296774811378958 0 0.0041240815209456355 -0.017135691061197514 0 0.013636581154618662 -0.028673067004755463 0 0.013482457819687925 -0.027984476188611468 0 0.014090723618544892 -0.028336161674237585 0 0.0142311102069435 -0.028623133894899868 0 0.013636581154618662 -0.028673067004755463 0 0.014090723618544892 -0.028336161674237585 0 -0.0055504365391120082 -0.005285878592931584 0 -0.0055691452028625221 -0.004619005586755571 0 -0.0047776476081782164 -0.0050820822408592379 0 0.012367081205009348 -0.027850400348714374 0 0.013636581154618662 -0.028673067004755463 0 0.013482457819687925 -0.027984476188611468 0 0.012367081205009348 -0.027850400348714374 0 0.013482457819687925 -0.027984476188611468 0 0.01329350849400404 -0.027380422369666722 0 0.0024902964269999839 -0.017116240500220592 0 0.0041240815209456355 -0.017135691061197514 0 0.013482457819687925 -0.027984476188611468 0 0.013924790090924642 -0.027601310343828796 0 0.01329350849400404 -0.027380422369666722 0 0.013482457819687925 -0.027984476188611468 0 0.014090723618544892 -0.028336161674237585 0 0.013924790090924642 -0.027601310343828796 0 0.014090723618544892 -0.028336161674237585 0 0.013924790090924642 -0.027601310343828796 0 0.014376077810015519 -0.027813265227958898 0 0.013924790090924642 -0.027601310343828796 0 0.013729107383295918 -0.026805549853082745 0 0.014601328883514588 -0.027118164552952989 0 0.013729107383295918 -0.026805549853082745 0 0.014601328883514588 -0.027118164552952989 0 0.014221991812452699 -0.026285986353592646 0 0.013924790090924642 -0.027601310343828796 0 0.013729107383295918 -0.026805549853082745 0 0.01329350849400404 -0.027380422369666722 0 0.013729107383295918 -0.026805549853082745 0 0.01271782042202804 -0.026685678722632705 0 0.01329350849400404 -0.027380422369666722 0 0.012367081205009348 -0.027850400348714374 0 0.01271782042202804 -0.026685678722632705 0 0.01329350849400404 -0.027380422369666722 0 0.014560232567087548 -0.028532456876592824 0 0.014756921845515251 -0.028228396003291273 0 0.014689473001019231 -0.028194471845683442 0 0.015272017789050666 -0.028182118279446142 0 0.014926628795129964 -0.02808894882742238 0 0.015111477668996077 -0.028144066907892101 0 0.015272017789050666 -0.028182118279446142 0 0.015111477668996077 -0.028144066907892101 0 0.015187907462038444 -0.028196966881401001 0 0.015163268446300769 -0.028256246238437942 0 0.015272017789050666 -0.028182118279446142 0 0.015187907462038444 -0.028196966881401001 0 0.014090723618544892 -0.028336161674237585 0 0.015272017789050666 -0.028182118279446142 0 0.014926628795129964 -0.02808894882742238 0 0.014617018513828085 -0.028300929756505323 0 0.014812500863589893 -0.028259857730206971 0 0.014090723618544892 -0.028336161674237585 0 0.014376077810015519 -0.027813265227958898 0 0.014926628795129964 -0.02808894882742238 0 0.014376077810015519 -0.027813265227958898 0 0.014926628795129964 -0.02808894882742238 0 0.014601328883514588 -0.027118164552952989 0 0.014926628795129964 -0.02808894882742238 0 0.015258167880081984 -0.028237985565606572 0 0.015111477668996077 -0.028144066907892101 0 0.01194753978285421 -0.028727661983932153 0 0.011642796472682067 -0.028636813640418566 0 0.013924790090924642 -0.027601310343828796 0 0.014376077810015519 -0.027813265227958898 0 0.014601328883514588 -0.027118164552952989 0 0.015258167880081984 -0.028237985565606572 0 0.015165116372588406 -0.028249896382459026 0 0.015236709187290313 -0.028368388026468749 0 0.015163268446300769 -0.028256246238437942 0 0.015165116372588406 -0.028249896382459026 0 0.015160483858882082 -0.028379313556564915 0 0.015258167880081984 -0.028237985565606572 0 0.015165116372588406 -0.028249896382459026 0 0.015111477668996077 -0.028144066907892101 0 0.015165116372588406 -0.028249896382459026 0 0.015111477668996077 -0.028144066907892101 0 0.015187907462038444 -0.028196966881401001 0 0.015163268446300769 -0.028256246238437942 0 0.015165116372588406 -0.028249896382459026 0 0.015187907462038444 -0.028196966881401001 0 0.015209271519495537 -0.028442499304999574 0 0.015236709187290313 -0.028368388026468749 0 0.015257320062685847 -0.02850900421398864 0 0.015160483858882082 -0.028379313556564915 0 0.015209271519495537 -0.028442499304999574 0 0.015236709187290313 -0.028368388026468749 0 0.015165116372588406 -0.028249896382459026 0 0.015160483858882082 -0.028379313556564915 0 0.015236709187290313 -0.028368388026468749 0 0.015160483858882082 -0.028379313556564915 0 0.015178419883137811 -0.028474643122104206 0 0.015209271519495537 -0.028442499304999574 0 0.015236709187290313 -0.028368388026468749 0 0.015347577294999347 -0.028388134718567715 0 0.015257320062685847 -0.02850900421398864 0 0.015258167880081984 -0.028237985565606572 0 0.015236709187290313 -0.028368388026468749 0 0.015347577294999347 -0.028388134718567715 0 0.011642796472682067 -0.028636813640418566 0 0.010699387635355715 -0.028422592281808549 0 0.010699387635355715 -0.028422592281808549 0 0.01070219595820582 -0.029849201937466551 0 0.0071499834644069811 -0.031987874815235066 0 0.0066064619328032844 -0.031838517865301758 0 0.006968044442354041 -0.031631571122049125 0 0.0068456691400406427 -0.032311248982209106 0 0.0071499834644069811 -0.031987874815235066 0 0.0066064619328032844 -0.031838517865301758 0 0.0071499834644069811 -0.031987874815235066 0 0.0072037831238197505 -0.031680635917552928 0 0.006968044442354041 -0.031631571122049125 0 0.0071499834644069811 -0.031987874815235066 0 0.0074624402778455494 -0.031659213890899686 0 0.0072037831238197505 -0.031680635917552928 0 0.01070219595820582 -0.029849201937466551 0 0.010578345592046987 -0.031219510551486689 0 0.015257320062685847 -0.02850900421398864 0 0.015199887419853514 -0.028517818875442635 0 0.01518663109553094 -0.028599466960428383 0 0.015172679938062766 -0.028557554972781583 0 0.015199887419853514 -0.028517818875442635 0 0.015170887814545045 -0.028528649484469867 0 0.015172679938062766 -0.028557554972781583 0 0.015199887419853514 -0.028517818875442635 0 0.01518663109553094 -0.028599466960428383 0 0.015178419883137811 -0.028474643122104206 0 0.015199887419853514 -0.028517818875442635 0 0.015170887814545045 -0.028528649484469867 0 0.015178419883137811 -0.028474643122104206 0 0.015209271519495537 -0.028442499304999574 0 0.015199887419853514 -0.028517818875442635 0 0.015209271519495537 -0.028442499304999574 0 0.015257320062685847 -0.02850900421398864 0 0.015199887419853514 -0.028517818875442635 0 0.013729107383295918 -0.026805549853082745 0 0.01271782042202804 -0.026685678722632705 0 0.013225974073670698 -0.025823242228304559 0 0.012079532628336475 -0.025674780233832226 0 0.01271782042202804 -0.026685678722632705 0 0.013225974073670698 -0.025823242228304559 0 0.013729107383295918 -0.026805549853082745 0 0.014303544725651068 -0.026184020988870974 0 0.013225974073670698 -0.025823242228304559 0 0.011174031364152667 -0.027994291810410774 0 0.010699387635355715 -0.028422592281808549 0 0.010699387635355715 -0.028422592281808549 0 0.0087789891890583862 -0.028290686081243775 0 0.014303544725651068 -0.026184020988870974 0 0.013225974073670698 -0.025823242228304559 0 0.013716507673040071 -0.024943345987022487 0 0.013225974073670698 -0.025823242228304559 0 0.013716507673040071 -0.024943345987022487 0 0.012733103690057382 -0.024934585324299218 0 0.012079532628336475 -0.025674780233832226 0 0.013225974073670698 -0.025823242228304559 0 0.012733103690057382 -0.024934585324299218 0 0.013716507673040071 -0.024943345987022487 0 0.012733103690057382 -0.024934585324299218 0 0.013123683179858955 -0.023718136594668104 0 0.011519934632616021 -0.024517389436304538 0 0.012733103690057382 -0.024934585324299218 0 0.013123683179858955 -0.023718136594668104 0 0.0087789891890583862 -0.028290686081243775 0 0.0061518207734903383 -0.027480119241487605 0 0.0066064619328032844 -0.031838517865301758 0 0.0067173030470489446 -0.031446916364683476 0 0.006968044442354041 -0.031631571122049125 0 0.0066064619328032844 -0.031838517865301758 0 0.0067173030470489446 -0.031446916364683476 0 0.0063525980575314224 -0.0313581621323979 0 0.0067173030470489446 -0.031446916364683476 0 0.0067847265842645773 -0.031333565646147754 0 0.006925037724471686 -0.031385365387326211 0 0.0060936929104769564 -0.030881263538207929 0 0.0068543818255405488 -0.031298863411417278 0 0.0067613007262487647 -0.031171623618264956 0 0.0060936929104769564 -0.030881263538207929 0 0.0067952664790021169 -0.031188603732238009 0 0.0065276445599732717 -0.031271388918274481 0 0.007163457668799369 -0.03067622156797746 0 0.0078018758363435246 -0.030840844758668825 0 0.0067020884200532232 -0.031308965821381866 0 0.0067952664790021169 -0.031188603732238009 0 0.0065276445599732717 -0.031271388918274481 0 0.0067173030470489446 -0.031446916364683476 0 0.0067847265842645773 -0.031333565646147754 0 0.0067020884200532232 -0.031308965821381866 0 0.0067173030470489446 -0.031446916364683476 0 0.0067020884200532232 -0.031308965821381866 0 0.0065276445599732717 -0.031271388918274481 0 0.0067847265842645773 -0.031333565646147754 0 0.0067020884200532232 -0.031308965821381866 0 0.0067952664790021169 -0.031188603732238009 0 0.0067173030470489446 -0.031446916364683476 0 0.0065276445599732717 -0.031271388918274481 0 0.0063525980575314224 -0.0313581621323979 0 0.0060830942474603897 -0.027595484172981393 0 0.0061518207734903383 -0.027480119241487605 0 0.0060936929104769564 -0.030881263538207929 0 0.0065276445599732717 -0.031271388918274481 0 0.0063152295041522871 -0.031383871844331536 0 0.0034503599061918356 -0.02792127258708892 0 0.0061518207734903383 -0.027480119241487605 0 -0.0034255840613013314 -0.026233542753851188 0 -0.0035324612359417008 -0.026800488307856345 0 -0.004102100837741496 -0.025569935639932671 0 -0.0034255840613013314 -0.026233542753851188 0 -0.0034921766317234644 -0.025679295358236001 0 -0.004102100837741496 -0.025569935639932671 0 0.0073851271103936213 -0.031497402644223148 0 0.0072037831238197505 -0.031680635917552928 0 0.0071070228033858155 -0.031469221551099436 0 0.010227412043631267 -0.032511402463732998 0 0.010241302260770942 -0.03251804574732111 0 0.010240279568029873 -0.032496515908186065 0 0.0099579865403006656 -0.03138976943363922 0 0.010816297917921493 -0.031377661507699876 0 0.010441954667167606 -0.032346846405943132 0 0.010006475719905346 -0.031425909871407039 0 0.009571832182068812 -0.031893467505658329 0 0.0099579865403006656 -0.03138976943363922 0 0.010578345592046987 -0.031219510551486689 0 0.015175878412345833 -0.028576578475116455 0 0.015169226952100455 -0.028582255629077777 0 0.015165912705035887 -0.028568940196281502 0 0.010578345592046987 -0.031219510551486689 0 0.010816297917921493 -0.031377661507699876 0 0.010651760383546611 -0.031151738424938669 0 0.010578345592046987 -0.031219510551486689 0 0.015172679938062766 -0.028557554972781583 0 0.015175878412345833 -0.028576578475116455 0 0.015165912705035887 -0.028568940196281502 0 0.0073851271103936213 -0.031497402644223148 0 0.0074624402778455494 -0.031659213890899686 0 0.0072037831238197505 -0.031680635917552928 0 0.0072037831238197505 -0.031680635917552928 0 0.006968044442354041 -0.031631571122049125 0 0.0071070228033858155 -0.031469221551099436 0 0.0067952664790021169 -0.031188603732238009 0 0.0073851271103936213 -0.031497402644223148 0 0.0071070228033858155 -0.031469221551099436 0 0.0067173030470489446 -0.031446916364683476 0 0.006968044442354041 -0.031631571122049125 0 0.006925037724471686 -0.031385365387326211 0 0.006968044442354041 -0.031631571122049125 0 0.0071070228033858155 -0.031469221551099436 0 0.006925037724471686 -0.031385365387326211 0 0.0068543818255405488 -0.031298863411417278 0 0.0077553767749732891 -0.031764022291295414 0 0.007276012064156203 -0.031321192452511443 0 0.0081199801582212666 -0.032527044881027076 0 0.0087088390946594672 -0.03269469752773544 0 0.0078018758363435246 -0.030840844758668825 0 0.0099579865403006656 -0.03138976943363922 0 0.0067613007262487647 -0.031171623618264956 0 0.007276012064156203 -0.031321192452511443 0 0.0074716451070351072 -0.031186761149348274 0 0.0069019896642296226 -0.031011577274738203 0 0.0067613007262487647 -0.031171623618264956 0 0.0073331052798527013 -0.03118710530002777 0 0.0067847265842645773 -0.031333565646147754 0 0.0067952664790021169 -0.031188603732238009 0 0.006925037724471686 -0.031385365387326211 0 0.0067952664790021169 -0.031188603732238009 0 0.0071070228033858155 -0.031469221551099436 0 0.006925037724471686 -0.031385365387326211 0 0.0068543818255405488 -0.031298863411417278 0 0.0067613007262487647 -0.031171623618264956 0 0.007276012064156203 -0.031321192452511443 0 0.007276012064156203 -0.031321192452511443 0 0.0074716451070351072 -0.031186761149348274 0 0.0075142042680834669 -0.031275936744012273 0 0.0088657134922288348 -0.032523919296742962 0 0.0089307896741226116 -0.032530123163067824 0 0.0087088390946594672 -0.03269469752773544 0 0.0093081641221386836 -0.03276913074423167 0 0.0089307896741226116 -0.032530123163067824 0 0.0093081641221386836 -0.03276913074423167 0 0.008813359646795792 -0.032977098128591328 0 0.0088439439523427272 -0.033041444958303967 0 0.0091194639235819986 -0.032989146686090293 0 0.0087088390946594672 -0.03269469752773544 0 0.0089307896741226116 -0.032530123163067824 0 0.0099579865403006656 -0.03138976943363922 0 0.0089307896741226116 -0.032530123163067824 0 0.010227412043631267 -0.032511402463732998 0 0.010212536188612871 -0.032484470721647979 0 0.010240279568029873 -0.032496515908186065 0 0.0077553767749732891 -0.031764022291295414 0 0.007276012064156203 -0.031321192452511443 0 0.0075207930981571226 -0.031274241281312495 0 0.010212536188612871 -0.032484470721647979 0 0.010240279568029873 -0.032496515908186065 0 0.010235949552331959 -0.032480481874497577 0 0.010816297917921493 -0.031377661507699876 0 0.011453616972050792 -0.032132434078717451 0 0.010240279568029873 -0.032496515908186065 0 0.010235949552331959 -0.032480481874497577 0 0.010278183926907264 -0.032482936192092686 0 0.0095908781994504151 -0.032776473403929432 0 0.011801795971990634 -0.032865442213781577 0 0.011969026354716 -0.032686203382691882 0 0.011481959540065496 -0.032203741342987577 0 0.011688551312951247 -0.031235276716807724 0 0.01132820005506709 -0.032197821779361306 0 0.0095908781994504151 -0.032776473403929432 0 0.011969026354716 -0.032686203382691882 0 0.012494926237923875 -0.032227120469310443 0 0.010241302260770942 -0.03251804574732111 0 0.010240279568029873 -0.032496515908186065 0 0.010278183926907264 -0.032482936192092686 0 0.0093081641221386836 -0.03276913074423167 0 0.011606150945517632 -0.033264566757012309 0 0.0093081641221386836 -0.03276913074423167 0 0.011453616972050792 -0.032132434078717451 0 0.011453616972050792 -0.032132434078717451 0 0.0114538361352804 -0.032133533783462252 0 0.015245736856372715 -0.028677799827868663 0 0.015105241544575166 -0.028726352688674659 0 0.015062024233070749 -0.029244521651933773 0 0.011664297532284382 -0.031195758596592401 0 0.012080606983802113 -0.032106339560694086 0 0.012153834460732867 -0.031477850382387255 0 0.011481959540065496 -0.032203741342987577 0 0.011688551312951247 -0.031235276716807724 0 0.015170578661441655 -0.02865047661812177 0 0.015105241544575166 -0.028726352688674659 0 0.015104636662848652 -0.028646187932612147 0 0.015170578661441655 -0.02865047661812177 0 0.015245736856372715 -0.028677799827868663 0 0.015105241544575166 -0.028726352688674659 0 0.011687709104431112 -0.031196259731848305 0 0.011664297532284382 -0.031195758596592401 0 0.015169226952100455 -0.028582255629077777 0 0.015154550330165295 -0.028572099575481753 0 0.015165912705035887 -0.028568940196281502 0 0.010816297917921493 -0.031377661507699876 0 0.011664297532284382 -0.031195758596592401 0 0.01519202488422952 -0.030451004571149829 0 0.014664806663702514 -0.031532885290765485 0 0.015105241544575166 -0.028726352688674659 0 0.015030471733697084 -0.028931280301800876 0 0.015026159824018847 -0.028783672792644228 0 0.015063657283485478 -0.028696681159389927 0 0.015105241544575166 -0.028726352688674659 0 0.015026159824018847 -0.028783672792644228 0 0.015063657283485478 -0.028696681159389927 0 0.015026159824018847 -0.028783672792644228 0 0.015026278758820878 -0.028706822841070883 0 0.015063657283485478 -0.028696681159389927 0 0.015105241544575166 -0.028726352688674659 0 0.015104636662848652 -0.028646187932612147 0 0.013883624379329908 -0.032185489200118968 0 0.013124943564582195 -0.032327218621605501 0 0.013593359165874903 -0.032574171271403773 0 0.015105241544575166 -0.028726352688674659 0 0.015062024233070749 -0.029244521651933773 0 0.01473245197755505 -0.029236247684308918 0 0.011802106161644134 -0.032865016900397892 0 0.011969026354716 -0.032686203382691882 0 0.01224742345591022 -0.032883206728552279 0 0.011453616972050792 -0.032132434078717451 0 0.012080606983802113 -0.032106339560694086 0 0.012080606983802113 -0.032106339560694086 0 0.011606150945517632 -0.033264566757012309 0 0.011969026354716 -0.032686203382691882 0 0.01224742345591022 -0.032883206728552279 0 0.012494926237923875 -0.032227120469310443 0 0.013039496306332844 -0.0325514286633104 0 0.013124943564582195 -0.032327218621605501 0 0.013593359165874903 -0.032574171271403773 0 0.012080606983802113 -0.032106339560694086 0 0.014664806663702514 -0.031532885290765485 0 0.014664806663702514 -0.031532885290765485 0 0.015911781390835451 -0.030840025421507263 0 0.015396506487306385 -0.031697486928818581 0 0.014664806663702514 -0.031532885290765485 0 0.015030471733697084 -0.028931280301800876 0 0.014935650508169866 -0.028891407036964342 0 0.015026159824018847 -0.028783672792644228 0 0.015030471733697084 -0.028931280301800876 0 0.014935650508169866 -0.028891407036964342 0 0.014840085791251578 -0.028952761269982644 0 0.018144929668262772 -0.031263249330297747 0 0.018224615772781678 -0.03115062938909564 0 0.017898374299261305 -0.031129035792103899 0 0.014935650508169866 -0.028891407036964342 0 0.014840085791251578 -0.028952761269982644 0 0.014874776160946642 -0.028925783344225141 0 0.014837530727936315 -0.028995985810778474 0 0.014840085791251578 -0.028952761269982644 0 0.014874776160946642 -0.028925783344225141 0 0.014837530727936315 -0.028995985810778474 0 0.014874776160946642 -0.028925783344225141 0 0.01491024328381926 -0.028834363156454084 0 0.014935650508169866 -0.028891407036964342 0 0.014874776160946642 -0.028925783344225141 0 0.01491024328381926 -0.028834363156454084 0 0.01491024328381926 -0.028834363156454084 0 0.014971655369503305 -0.028741828928888102 0 0.014928639931001282 -0.028642188850911434 0 0.014837530727936315 -0.028995985810778474 0 0.01491024328381926 -0.028834363156454084 0 0.014853028797463542 -0.028724869863680256 0 0.014935650508169866 -0.028891407036964342 0 0.015026159824018847 -0.028783672792644228 0 0.014971655369503305 -0.028741828928888102 0 0.014935650508169866 -0.028891407036964342 0 0.01491024328381926 -0.028834363156454084 0 0.014971655369503305 -0.028741828928888102 0 0.015026159824018847 -0.028783672792644228 0 0.014971655369503305 -0.028741828928888102 0 0.015026278758820878 -0.028706822841070883 0 0.014971655369503305 -0.028741828928888102 0 0.015026278758820878 -0.028706822841070883 0 0.015006456466091531 -0.028618227298941083 0 0.014971655369503305 -0.028741828928888102 0 0.015006456466091531 -0.028618227298941083 0 0.014928639931001282 -0.028642188850911434 0 0.015006456466091531 -0.028618227298941083 0 0.014928639931001282 -0.028642188850911434 0 0.01496378648371326 -0.028519760966399164 0 0.01491024328381926 -0.028834363156454084 0 0.014853028797463542 -0.028724869863680256 0 0.014928639931001282 -0.028642188850911434 0 0.01484172654310662 -0.028566216882582301 0 0.014928639931001282 -0.028642188850911434 0 0.014900268451697531 -0.028492826572475299 0 0.01484172654310662 -0.028566216882582301 0 0.014853028797463542 -0.028724869863680256 0 0.014928639931001282 -0.028642188850911434 0 0.014799873166479507 -0.028407613034981169 0 0.014939127938431768 -0.028382823643117425 0 0.014900268451697531 -0.028492826572475299 0 0.014939127938431768 -0.028382823643117425 0 0.014900268451697531 -0.028492826572475299 0 0.01496378648371326 -0.028519760966399164 0 0.014928639931001282 -0.028642188850911434 0 0.014900268451697531 -0.028492826572475299 0 0.01496378648371326 -0.028519760966399164 0 0.014939127938431768 -0.028382823643117425 0 0.01496378648371326 -0.028519760966399164 0 0.015038500367549229 -0.02850126603622891 0 0.014939127938431768 -0.028382823643117425 0 0.015038500367549229 -0.02850126603622891 0 0.01506655940993838 -0.028399744101080128 0 0.015006456466091531 -0.028618227298941083 0 0.01496378648371326 -0.028519760966399164 0 0.015038500367549229 -0.02850126603622891 0 0.015038500367549229 -0.02850126603622891 0 0.015096572238275135 -0.028508911873401824 0 0.01506655940993838 -0.028399744101080128 0 0.015096572238275135 -0.028508911873401824 0 0.01506655940993838 -0.028399744101080128 0 0.015122835132886942 -0.028430735581412028 0 0.015119505081025027 -0.028351520941775579 0 0.01506655940993838 -0.028399744101080128 0 0.015122835132886942 -0.028430735581412028 0 0.015119505081025027 -0.028351520941775579 0 0.015160483858882082 -0.028379313556564915 0 0.015122835132886942 -0.028430735581412028 0 0.015160483858882082 -0.028379313556564915 0 0.015122835132886942 -0.028430735581412028 0 0.015147738400353978 -0.028498409696588123 0 0.015160483858882082 -0.028379313556564915 0 0.015178419883137811 -0.028474643122104206 0 0.015147738400353978 -0.028498409696588123 0 0.015096572238275135 -0.028508911873401824 0 0.015122835132886942 -0.028430735581412028 0 0.015147738400353978 -0.028498409696588123 0 0.015147738400353978 -0.028498409696588123 0 0.015163437042138883 -0.028565345289087135 0 0.015128139835639456 -0.02857741699826246 0 0.015096572238275135 -0.028508911873401824 0 0.015147738400353978 -0.028498409696588123 0 0.015128139835639456 -0.02857741699826246 0 0.015170887814545045 -0.028528649484469867 0 0.015147738400353978 -0.028498409696588123 0 0.015163437042138883 -0.028565345289087135 0 0.015178419883137811 -0.028474643122104206 0 0.015170887814545045 -0.028528649484469867 0 0.015147738400353978 -0.028498409696588123 0 0.015172679938062766 -0.028557554972781583 0 0.015170887814545045 -0.028528649484469867 0 0.015163437042138883 -0.028565345289087135 0 0.015172679938062766 -0.028557554972781583 0 0.015165912705035887 -0.028568940196281502 0 0.015163437042138883 -0.028565345289087135 0 0.015154550330165295 -0.028572099575481753 0 0.015165912705035887 -0.028568940196281502 0 0.015163437042138883 -0.028565345289087135 0 0.015170578661441655 -0.02865047661812177 0 0.015163437042138883 -0.028565345289087135 0 0.015128139835639456 -0.02857741699826246 0 0.015170578661441655 -0.02865047661812177 0 0.015184517631144503 -0.028657144831228349 0 0.015163437042138883 -0.028565345289087135 0 0.011664297532284382 -0.031195758596592401 0 0.011800323086664699 -0.030961886249240393 0 0.015170578661441655 -0.02865047661812177 0 0.015128139835639456 -0.02857741699826246 0 0.015104636662848652 -0.028646187932612147 0 0.015128139835639456 -0.02857741699826246 0 0.015104636662848652 -0.028646187932612147 0 0.015068396893368778 -0.028611405065337821 0 0.015063657283485478 -0.028696681159389927 0 0.015104636662848652 -0.028646187932612147 0 0.015068396893368778 -0.028611405065337821 0 0.015063657283485478 -0.028696681159389927 0 0.015026278758820878 -0.028706822841070883 0 0.015068396893368778 -0.028611405065337821 0 0.015026278758820878 -0.028706822841070883 0 0.015006456466091531 -0.028618227298941083 0 0.015068396893368778 -0.028611405065337821 0 0.015006456466091531 -0.028618227298941083 0 0.015038500367549229 -0.02850126603622891 0 0.015068396893368778 -0.028611405065337821 0 0.015038500367549229 -0.02850126603622891 0 0.015096572238275135 -0.028508911873401824 0 0.015068396893368778 -0.028611405065337821 0 0.015096572238275135 -0.028508911873401824 0 0.015128139835639456 -0.02857741699826246 0 0.015068396893368778 -0.028611405065337821 0 0.036163378882101908 -0.027328415467602375 0 0.034998605138621484 -0.029523472874527706 0 0.034999627315057541 -0.025481892005292248 0 0.036163378882101908 -0.027328415467602375 0 0.037595417273587534 -0.02592919950635313 0 0.036457321561736908 -0.025872084998226064 0 0.03586780312584166 -0.02803513418930063 0 0.036101527583564656 -0.027260567787613474 0 0.036163378882101908 -0.027328415467602375 0 0.037608001346752316 -0.027918482120606727 0 0.037595417273587534 -0.02592919950635313 0 0.038178402178961894 -0.026395149178442889 0 0.037811323647971795 -0.026928807672759424 0 0.037595417273587534 -0.02592919950635313 0 0.038178402178961894 -0.026395149178442889 0 0.037811323647971795 -0.026928807672759424 0 0.03847619957395762 -0.027178849277005694 0 0.036163378882101908 -0.027328415467602375 0 0.037608001346752316 -0.027918482120606727 0 0.036147772020548093 -0.029366437498475669 0 0.037608001346752316 -0.027918482120606727 0 0.037455896651969585 -0.029877282010695713 0 0.036147772020548093 -0.029366437498475669 0 0.037972596579177349 -0.027741896892593855 0 0.03840009614957942 -0.027793240614865346 0 0.03847619957395762 -0.027178849277005694 0 0.03586780312584166 -0.02803513418930063 0 0.035005157325485314 -0.029929658137756849 0 0.037811323647971795 -0.026928807672759424 0 0.037972596579177349 -0.027741896892593855 0 0.03847619957395762 -0.027178849277005694 0 0.037455896651969585 -0.029877282010695713 0 0.036271130885855554 -0.031039921667506923 0 0.037485612236097039 -0.032480352581702621 0 0.035005157325485314 -0.029929658137756849 0 0.033220223404820455 -0.033696466623187094 0 0.037972596579177349 -0.027741896892593855 0 0.038267765515858733 -0.028045355400377919 0 0.038145095060215524 -0.028323451372126551 0 0.037972596579177349 -0.027741896892593855 0 0.038267765515858733 -0.028045355400377919 0 0.03840009614957942 -0.027793240614865346 0 0.037455896651969585 -0.029877282010695713 0 0.036271130885855554 -0.031039921667506923 0 0.036147772020548093 -0.029366437498475669 0 0.036147772020548093 -0.029366437498475669 0 0.034998605138621484 -0.029523472874527706 0 0.035401215114590573 -0.0313636416557787 0 0.036271130885855554 -0.031039921667506923 0 0.036147772020548093 -0.029366437498475669 0 0.035401215114590573 -0.0313636416557787 0 0.036163378882101908 -0.027328415467602375 0 0.036147772020548093 -0.029366437498475669 0 0.034998605138621484 -0.029523472874527706 0 0.034998605138621484 -0.029523472874527706 0 0.035401215114590573 -0.0313636416557787 0 0.034488304334479143 -0.034167898222413735 0 0.034998605138621484 -0.029523472874527706 0 0.034996262641323092 -0.034999218019948881 0 0.034488304334479143 -0.034167898222413735 0 0.035401215114590573 -0.0313636416557787 0 0.034488304334479143 -0.034167898222413735 0 0.035518217256365794 -0.032558737671695384 0 0.034996262641323092 -0.034999218019948881 0 0.034488304334479143 -0.034167898222413735 0 0.030864583431829691 -0.034996648193745733 0 0.034488304334479143 -0.034167898222413735 0 0.033588899047185927 -0.034046412597680792 0 0.03461933743218374 -0.033490540998442515 0 0.034488304334479143 -0.034167898222413735 0 0.030864583431829691 -0.034996648193745733 0 0.033588899047185927 -0.034046412597680792 0 0.030853925306782361 -0.034999996542584087 0 0.03105098903240891 -0.036750550409445498 0 0.029951801884622421 -0.036249509119392155 0 0.030856809315691458 -0.034998829606814962 0 0.03207223902606815 -0.034548944605955374 0 0.033588899047185927 -0.034046412597680792 0 0.03461933743218374 -0.033490540998442515 0 0.035114522300736604 -0.033089680790245116 0 0.03207223902606815 -0.034548944605955374 0 0.033220223404820455 -0.033696466623187094 0 0.03105098903240891 -0.036750550409445498 0 0.031263258211007408 -0.038468148860026877 0 0.030494196787835985 -0.037524976962457761 0 0.031263258211007408 -0.038468148860026877 0 0.030475849943419342 -0.038469053251583632 0 0.030494196787835985 -0.037524976962457761 0 0.034488304334479143 -0.034167898222413735 0 0.03461933743218374 -0.033490540998442515 0 0.035518217256365794 -0.032558737671695384 0 0.03461933743218374 -0.033490540998442515 0 0.035518217256365794 -0.032558737671695384 0 0.035114522300736604 -0.033089680790245116 0 0.033681472530559135 -0.033635992243973761 0 0.033220223404820455 -0.033696466623187094 0 0.036271130885855554 -0.031039921667506923 0 0.035518217256365794 -0.032558737671695384 0 0.037485612236097039 -0.032480352581702621 0 0.036271130885855554 -0.031039921667506923 0 0.035401215114590573 -0.0313636416557787 0 0.035518217256365794 -0.032558737671695384 0 0.038145095060215524 -0.028323451372126551 0 0.03836519165751693 -0.028214280286872354 0 0.038437245695650553 -0.028309998110052685 0 0.033220223404820455 -0.033696466623187094 0 0.032512179988731855 -0.034150375102546753 0 0.038267765515858733 -0.028045355400377919 0 0.038145095060215524 -0.028323451372126551 0 0.03836519165751693 -0.028214280286872354 0 0.038359141358084867 -0.028224081145271186 0 0.038500520443672338 -0.028232325224607627 0 0.038011537079248474 -0.028069341397691478 0 0.032512179988731855 -0.034150375102546753 0 0.03269092875346364 -0.033678129277977371 0 0.038410149761590476 -0.02811374437892885 0 0.038359141358084867 -0.028224081145271186 0 0.038500520443672338 -0.028232325224607627 0 0.038267765515858733 -0.028045355400377919 0 0.03836519165751693 -0.028214280286872354 0 0.038410149761590476 -0.02811374437892885 0 0.03836519165751693 -0.028214280286872354 0 0.038410149761590476 -0.02811374437892885 0 0.038500520443672338 -0.028232325224607627 0 0.032534843679843731 -0.034096872290169271 0 0.032512179988731855 -0.034150375102546753 0 0.038359141358084867 -0.028224081145271186 0 0.038011537079248474 -0.028069341397691478 0 0.038064214888149601 -0.029185156294130741 0 0.028949219961182836 -0.03846998793865003 0 0.029483800516789272 -0.037311906016262546 0 0.028045534567508332 -0.037434588803296767 0 0.032512179988731855 -0.034150375102546753 0 0.030913369744640776 -0.035305069113374186 0 0.030405538859069776 -0.038465238187509146 0 0.028949219961182836 -0.03846998793865003 0 0.029483800516789272 -0.037311906016262546 0 0.030475849943419342 -0.038469053251583632 0 0.029555130411762609 -0.037330382988843072 0 0.030494196787835985 -0.037524976962457761 0 0.03105098903240891 -0.036750550409445498 0 0.030494196787835985 -0.037524976962457761 0 0.029951801884622421 -0.036249509119392155 0 0.029555130411762609 -0.037330382988843072 0 0.030494196787835985 -0.037524976962457761 0 0.029951801884622421 -0.036249509119392155 0 0.029483800516789272 -0.037311906016262546 0 0.028562905451856541 -0.036157475718717372 0 0.028045534567508332 -0.037434588803296767 0 0.030913369744640776 -0.035305069113374186 0 0.029258334128933371 -0.035348675414878176 0 0.029555130411762609 -0.037330382988843072 0 0.029951801884622421 -0.036249509119392155 0 0.02860989320549091 -0.036176796759158331 0 0.02860989320549091 -0.036176796759158331 0 0.029253034469020764 -0.034999986371557379 0 0.027652049025435329 -0.034999997737747299 0 0.029951801884622421 -0.036249509119392155 0 0.02860989320549091 -0.036176796759158331 0 0.029253034469020764 -0.034999986371557379 0 0.030853925306782361 -0.034999996542584087 0 0.029951801884622421 -0.036249509119392155 0 0.029253034469020764 -0.034999986371557379 0 0.026369602078301156 -0.035782578786218912 0 0.027651989095456197 -0.034999998665321178 0 0.027027860326828589 -0.036475160117055525 0 0.026369602078301156 -0.035782578786218912 0 0.027651989095456197 -0.034999998665321178 0 0.025821213339473011 -0.034999942723716898 0 0.028562905451856541 -0.036157475718717372 0 0.027651989095456197 -0.034999998665321178 0 0.027027860326828589 -0.036475160117055525 0 0.029258334128933371 -0.035348675414878176 0 0.02765530463392165 -0.034999706020232189 0 0.028562905451856541 -0.036157475718717372 0 0.027027860326828589 -0.036475160117055525 0 0.028045534567508332 -0.037434588803296767 0 0.026369602078301156 -0.035782578786218912 0 0.027027860326828589 -0.036475160117055525 0 0.025499195442582747 -0.036182420680511904 0 0.027027860326828589 -0.036475160117055525 0 0.026816020029319255 -0.037677303597862283 0 0.028045534567508332 -0.037434588803296767 0 0.027027860326828589 -0.036475160117055525 0 0.026816020029319255 -0.037677303597862283 0 0.025771277027183168 -0.037330793771772293 0 0.028949219961182836 -0.03846998793865003 0 0.028045534567508332 -0.037434588803296767 0 0.027489810479821807 -0.038473059130929951 0 0.026816020029319255 -0.037677303597862283 0 0.028045534567508332 -0.037434588803296767 0 0.027489810479821807 -0.038473059130929951 0 0.038011537079248474 -0.028069341397691478 0 0.036868145231836312 -0.028031977835809772 0 0.037413787177529217 -0.028612070103509635 0 0.03269092875346364 -0.033678129277977371 0 0.032017251562330616 -0.033310648083385859 0 0.036868145231836312 -0.028031977835809772 0 0.036819334961586826 -0.028472646320344942 0 0.037413787177529217 -0.028612070103509635 0 0.036868145231836312 -0.028031977835809772 0 0.036819334961586826 -0.028472646320344942 0 0.036106112076460237 -0.028099258882535606 0 0.032017251562330616 -0.033310648083385859 0 0.031128457230547253 -0.032956666200656612 0 0.036868145231836312 -0.028031977835809772 0 0.036106112076460237 -0.028099258882535606 0 0.035886750631479745 -0.028076660897848108 0 0.036819334961586826 -0.028472646320344942 0 0.036106112076460237 -0.028099258882535606 0 0.036919157432354167 -0.029146962731542176 0 0.026816020029319255 -0.037677303597862283 0 0.027489810479821807 -0.038473059130929951 0 0.026030583864209512 -0.038471662070124236 0 0.036106112076460237 -0.028099258882535606 0 0.036031744544189212 -0.02849659941240772 0 0.036173254837658479 -0.028497149697946419 0 0.036499014861112136 -0.027970368090086632 0 0.036509556053722046 -0.027817633029521179 0 0.036031744544189212 -0.02849659941240772 0 0.036098462393228295 -0.028555537975687269 0 0.036077908062613968 -0.028613242832736051 0 0.032535398512445218 -0.030474710529078467 0 0.032994328528789647 -0.029897916978571165 0 0.036031744544189212 -0.02849659941240772 0 0.036098462393228295 -0.028555537975687269 0 0.036173254837658479 -0.028497149697946419 0 0.036068554407279858 -0.028961267173309966 0 0.036077908062613968 -0.028613242832736051 0 0.036131233762939495 -0.028611290993078842 0 0.036098462393228295 -0.028555537975687269 0 0.03611971139767018 -0.028573258099697508 0 0.036101205459959179 -0.028585324042302046 0 0.036098462393228295 -0.028555537975687269 0 0.036077908062613968 -0.028613242832736051 0 0.036101205459959179 -0.028585324042302046 0 0.03611971139767018 -0.028573258099697508 0 0.036173254837658479 -0.028497149697946419 0 0.036124793989287689 -0.028589190916271278 0 0.036509556053722046 -0.027817633029521179 0 0.035639106375919043 -0.025992509664098704 0 0.036098462393228295 -0.028555537975687269 0 0.03611971139767018 -0.028573258099697508 0 0.036173254837658479 -0.028497149697946419 0 0.036919157432354167 -0.029146962731542176 0 0.037413787177529217 -0.028612070103509635 0 0.038064214888149601 -0.029185156294130741 0 0.036819334961586826 -0.028472646320344942 0 0.036919157432354167 -0.029146962731542176 0 0.037413787177529217 -0.028612070103509635 0 0.038011537079248474 -0.028069341397691478 0 0.037413787177529217 -0.028612070103509635 0 0.038064214888149601 -0.029185156294130741 0 0.036592583905048014 -0.027340969827246125 0 0.03634825574443061 -0.027110700409638342 0 0.038410149761590476 -0.02811374437892885 0 0.038359141358084867 -0.028224081145271186 0 0.038893378836259949 -0.027783115952361759 0 0.038410149761590476 -0.02811374437892885 0 0.038893378836259949 -0.027783115952361759 0 0.03840009614957942 -0.027793240614865346 0 0.038267765515858733 -0.028045355400377919 0 0.038410149761590476 -0.02811374437892885 0 0.03840009614957942 -0.027793240614865346 0 0.038893378836259949 -0.027783115952361759 0 0.03840009614957942 -0.027793240614865346 0 0.03847619957395762 -0.027178849277005694 0 0.036919157432354167 -0.029146962731542176 0 0.038064214888149601 -0.029185156294130741 0 0.037682908700282201 -0.030182062859247814 0 0.038893378836259949 -0.027783115952361759 0 0.039259114899602376 -0.027096301452337594 0 0.03847619957395762 -0.027178849277005694 0 0.03634825574443061 -0.027110700409638342 0 0.035639106375919043 -0.025992509664098704 0 0.035639106375919043 -0.025992509664098704 0 0.035461402212077511 -0.023109680628132113 0 0.039259114899602376 -0.027096301452337594 0 0.03847619957395762 -0.027178849277005694 0 0.038837679963255163 -0.026242938106051338 0 0.038178402178961894 -0.026395149178442889 0 0.03847619957395762 -0.027178849277005694 0 0.038837679963255163 -0.026242938106051338 0 0.032680864772611527 -0.015995581859026727 0 0.033635082925524008 -0.017280413309004525 0 0.032146383181578808 -0.017352068581518505 0 0.036074056846414009 -0.028563522839715423 0 0.036092408510018693 -0.028583297871239803 0 0.036096480085659445 -0.028557744398163054 0 0.036124793989287689 -0.028589190916271278 0 0.036074056846414009 -0.028563522839715423 0 0.036092408510018693 -0.028583297871239803 0 0.035639106375919043 -0.025992509664098704 0 0.033880231282184557 -0.024065591325299958 0 0.036096480085659445 -0.028557744398163054 0 0.036093217573305247 -0.028592263134018123 0 0.036131233762939495 -0.028611290993078842 0 0.036092408510018693 -0.028583297871239803 0 0.036096480085659445 -0.028557744398163054 0 0.036093217573305247 -0.028592263134018123 0 0.031114943555020255 -0.028866985799085282 0 0.03074870458438626 -0.030873481851619533 0 0.0236991167868888 -0.032835012543248929 0 0.024171003550729157 -0.03437842236495877 0 0.024447373187937552 -0.033726595627757705 0 0.036093217573305247 -0.028592263134018123 0 0.036077908062613968 -0.028613242832736051 0 0.036102695146536967 -0.028591594278649414 0 0.036092408510018693 -0.028583297871239803 0 0.036093217573305247 -0.028592263134018123 0 0.036102695146536967 -0.028591594278649414 0 0.036093217573305247 -0.028592263134018123 0 0.036077908062613968 -0.028613242832736051 0 0.036131233762939495 -0.028611290993078842 0 0.036077908062613968 -0.028613242832736051 0 0.036101205459959179 -0.028585324042302046 0 0.036102695146536967 -0.028591594278649414 0 0.03611971139767018 -0.028573258099697508 0 0.036101205459959179 -0.028585324042302046 0 0.036102695146536967 -0.028591594278649414 0 0.036124793989287689 -0.028589190916271278 0 0.036092408510018693 -0.028583297871239803 0 0.036102695146536967 -0.028591594278649414 0 0.03611971139767018 -0.028573258099697508 0 0.036124793989287689 -0.028589190916271278 0 0.036102695146536967 -0.028591594278649414 0 0.02518306646722691 -0.03394031327920579 0 0.025559177969224186 -0.034381417274921416 0 0.025876601318243878 -0.034641360750574397 0 0.025924934065804667 -0.034081753755522089 0 0.026882110202999156 -0.034181054234533409 0 0.02724964283700506 -0.035168529637454433 0 0.023063265273627391 -0.035319013523485161 0 0.021569646024367395 -0.035324267241320428 0 0.02518306646722691 -0.03394031327920579 0 0.025050937159303503 -0.034301285058595303 0 0.024756841171975436 -0.033936770435306664 0 0.02518306646722691 -0.03394031327920579 0 0.025559177969224186 -0.034381417274921416 0 0.025050937159303503 -0.034301285058595303 0 0.025924934065804667 -0.034081753755522089 0 0.026882110202999156 -0.034181054234533409 0 0.026512204194798918 -0.033463025136556822 0 0.025559177969224186 -0.034381417274921416 0 0.025181416042041025 -0.034598915717977456 0 0.025404444584717724 -0.034791700562750688 0 0.025559177969224186 -0.034381417274921416 0 0.025698147079784892 -0.034746057890137863 0 0.025404444584717724 -0.034791700562750688 0 0.025559177969224186 -0.034381417274921416 0 0.025181416042041025 -0.034598915717977456 0 0.025050937159303503 -0.034301285058595303 0 0.025181416042041025 -0.034598915717977456 0 0.025050937159303503 -0.034301285058595303 0 0.024881841820974002 -0.034617069013987499 0 0.024881841820974002 -0.034617069013987499 0 0.024591100200592599 -0.034616429054449518 0 0.024712422389219363 -0.034325911981088336 0 0.024591100200592599 -0.034616429054449518 0 0.024712422389219363 -0.034325911981088336 0 0.024520567286638727 -0.034184129285039111 0 0.025050937159303503 -0.034301285058595303 0 0.024881841820974002 -0.034617069013987499 0 0.024712422389219363 -0.034325911981088336 0 0.024591100200592599 -0.034616429054449518 0 0.024171003550729157 -0.03437842236495877 0 0.024520567286638727 -0.034184129285039111 0 0.024171003550729157 -0.03437842236495877 0 0.024520567286638727 -0.034184129285039111 0 0.024447373187937552 -0.033726595627757705 0 0.024520567286638727 -0.034184129285039111 0 0.024756841171975436 -0.033936770435306664 0 0.024447373187937552 -0.033726595627757705 0 0.025050937159303503 -0.034301285058595303 0 0.024712422389219363 -0.034325911981088336 0 0.024756841171975436 -0.033936770435306664 0 0.024712422389219363 -0.034325911981088336 0 0.024520567286638727 -0.034184129285039111 0 0.024756841171975436 -0.033936770435306664 0 0.02518306646722691 -0.03394031327920579 0 0.024756841171975436 -0.033936770435306664 0 0.02451466826940505 -0.033009231319414842 0 0.02451466826940505 -0.033009231319414842 0 0.025931857981985454 -0.032865174901568033 0 0.025128506097357971 -0.03219462274140196 0 0.025924934065804667 -0.034081753755522089 0 0.02451466826940505 -0.033009231319414842 0 0.025931857981985454 -0.032865174901568033 0 0.023063265273627391 -0.035319013523485161 0 0.023254524177441737 -0.035091233459040833 0 0.024756841171975436 -0.033936770435306664 0 0.024447373187937552 -0.033726595627757705 0 0.02451466826940505 -0.033009231319414842 0 0.0236991167868888 -0.032835012543248929 0 0.024447373187937552 -0.033726595627757705 0 0.02451466826940505 -0.033009231319414842 0 0.025931857981985454 -0.032865174901568033 0 0.026512204194798918 -0.033463025136556822 0 0.027284409928700116 -0.032898304035682432 0 0.025924934065804667 -0.034081753755522089 0 0.025931857981985454 -0.032865174901568033 0 0.026512204194798918 -0.033463025136556822 0 0.011844281229921151 -0.031589363809321758 0 0.012471607188335608 -0.031584525453395053 0 0.012651541367206033 -0.032536856688902584 0 0.026882110202999156 -0.034181054234533409 0 0.026512204194798918 -0.033463025136556822 0 0.027284409928700116 -0.032898304035682432 0 0.018678891229365981 -0.034663576252182506 0 0.018215331471201249 -0.034284666206149401 0 0.012471607188335608 -0.031584525453395053 0 0.012651541367206033 -0.032536856688902584 0 0.013184681972266113 -0.031324151361999959 0 0.013546212475515072 -0.032179896953582851 0 0.012774338237945482 -0.032577681307964235 0 0.013184681972266113 -0.031324151361999959 0 0.013546212475515072 -0.032179896953582851 0 0.013184681972266113 -0.031324151361999959 0 0.013709184566740508 -0.031276602109761735 0 0.012774338237945482 -0.032577681307964235 0 0.013308173778974895 -0.033487926104656125 0 0.012248766589559579 -0.033886808448412596 0 0.013546212475515072 -0.032179896953582851 0 0.013897894928392338 -0.033075769774432433 0 0.012774338237945482 -0.032577681307964235 0 0.013897894928392338 -0.033075769774432433 0 0.012774338237945482 -0.032577681307964235 0 0.013308173778974895 -0.033487926104656125 0 0.013897894928392338 -0.033075769774432433 0 0.013308173778974895 -0.033487926104656125 0 0.013924079240394118 -0.033809490897776698 0 0.02087675974477941 -0.032404971145509456 0 0.020978561197531265 -0.035167275428690151 0 0.018678891229365981 -0.034663576252182506 0 0.020507629266533357 -0.0352467317096435 0 0.012651541367206033 -0.032536856688902584 0 0.011997491282293625 -0.033713049989592729 0 0.012130430835657473 -0.033821079224349702 0 0.011844281229921151 -0.031589363809321758 0 0.012651541367206033 -0.032536856688902584 0 0.011997491282293625 -0.033713049989592729 0 0.026882110202999156 -0.034181054234533409 0 0.027284409928700116 -0.032898304035682432 0 0.027440721114199245 -0.035327714415978262 0 0.026882110202999156 -0.034181054234533409 0 0.02724964283700506 -0.035168529637454433 0 0.027440721114199245 -0.035327714415978262 0 0.021805662169853322 -0.035404693262872662 0 0.021569646024367395 -0.035324267241320428 0 0.025559177969224186 -0.034381417274921416 0 0.025927108965830389 -0.034630011618168262 0 0.025698147079784892 -0.034746057890137863 0 0.025698147079784892 -0.034746057890137863 0 0.025815716590133875 -0.034916645277517658 0 0.025914272465669463 -0.034791671237638204 0 0.025927108965830389 -0.034630011618168262 0 0.025698147079784892 -0.034746057890137863 0 0.025914272465669463 -0.034791671237638204 0 0.025698147079784892 -0.034746057890137863 0 0.025815716590133875 -0.034916645277517658 0 0.02557420469835741 -0.035049990883619819 0 0.025815716590133875 -0.034916645277517658 0 0.026084886588520102 -0.034995198977202754 0 0.02579755465389252 -0.035085708738021353 0 0.025815716590133875 -0.034916645277517658 0 0.02579755465389252 -0.035085708738021353 0 0.02557420469835741 -0.035049990883619819 0 0.025815716590133875 -0.034916645277517658 0 0.026084886588520102 -0.034995198977202754 0 0.025914272465669463 -0.034791671237638204 0 0.020966029393624172 -0.035642271583221592 0 0.020978561197531265 -0.035167275428690151 0 0.026084886588520102 -0.034995198977202754 0 0.025914272465669463 -0.034791671237638204 0 0.026053957581088097 -0.034727805598869239 0 0.021934375605198949 -0.035366808326573074 0 0.021865327313673553 -0.034379924141276545 0 0.022226431610913189 -0.034675713889947342 0 0.020978561197531265 -0.035167275428690151 0 0.020507629266533357 -0.0352467317096435 0 0.025927108965830389 -0.034630011618168262 0 0.025914272465669463 -0.034791671237638204 0 0.026053957581088097 -0.034727805598869239 0 0.021569646024367395 -0.035324267241320428 0 0.020978561197531265 -0.035167275428690151 0 0.020966029393624172 -0.035642271583221592 0 0.020507629266533357 -0.0352467317096435 0 0.020507629266533357 -0.0352467317096435 0 0.020261158785720931 -0.036371979205554052 0 0.023763073154378381 -0.043266011749194755 0 0.023402681536811593 -0.042184659082181809 0 0.022487320052335613 -0.042235879915821964 0 0.023901408399415541 -0.042939029777710601 0 0.023763073154378381 -0.043266011749194755 0 0.023402681536811593 -0.042184659082181809 0 0.026084886588520102 -0.034995198977202754 0 0.025685317909672288 -0.035397487099353996 0 0.02579755465389252 -0.035085708738021353 0 0.025685317909672288 -0.035397487099353996 0 0.02579755465389252 -0.035085708738021353 0 0.02557420469835741 -0.035049990883619819 0 0.012248766589559579 -0.033886808448412596 0 0.013576576022752621 -0.034604790349476472 0 0.013717873567138954 -0.034790781829889497 0 0.012248766589559579 -0.033886808448412596 0 0.013416405338043237 -0.03403262803124936 0 0.013576576022752621 -0.034604790349476472 0 0.020507629266533357 -0.0352467317096435 0 0.018192400112864823 -0.035388689727741764 0 0.019851171555459918 -0.035908929965289452 0 0.019510483382682176 -0.03565240048802093 0 0.019358117578564735 -0.035627523358470504 0 0.013416405338043237 -0.03403262803124936 0 0.013924079240394118 -0.033809490897776698 0 0.014028762177185686 -0.03441234211681251 0 0.013308173778974895 -0.033487926104656125 0 0.013416405338043237 -0.03403262803124936 0 0.013924079240394118 -0.033809490897776698 0 0.013308173778974895 -0.033487926104656125 0 0.012248766589559579 -0.033886808448412596 0 0.013416405338043237 -0.03403262803124936 0 0.013416405338043237 -0.03403262803124936 0 0.013576576022752621 -0.034604790349476472 0 0.014028762177185686 -0.03441234211681251 0 0.018164163005787749 -0.035365443709102509 0 0.018192400112864823 -0.035388689727741764 0 0.013576576022752621 -0.034604790349476472 0 0.013726584862013502 -0.034793055951108036 0 0.014028762177185686 -0.03441234211681251 0 0.022487320052335613 -0.042235879915821964 0 0.022393907325884432 -0.040551292437037624 0 0.021178978055964463 -0.041202150909405849 0 0.022487320052335613 -0.042235879915821964 0 0.023015465834993198 -0.04136262094426895 0 0.022393907325884432 -0.040551292437037624 0 0.019510483382682176 -0.03565240048802093 0 0.019358117578564735 -0.035627523358470504 0 0.019170168470254174 -0.035395714875943729 0 0.020261158785720931 -0.036371979205554052 0 0.018902286009154959 -0.03624837434753328 0 0.023402681536811593 -0.042184659082181809 0 0.022487320052335613 -0.042235879915821964 0 0.023015465834993198 -0.04136262094426895 0 0.023015465834993198 -0.04136262094426895 0 0.023771501337336347 -0.040656989144836626 0 0.022393907325884432 -0.040551292437037624 0 0.022393907325884432 -0.040551292437037624 0 0.021603683440960225 -0.040339830675700045 0 0.021178978055964463 -0.041202150909405849 0 0.020966029393624172 -0.035642271583221592 0 0.022135653564155668 -0.037764756338739575 0 0.023402681536811593 -0.042184659082181809 0 0.023015465834993198 -0.04136262094426895 0 0.023771501337336347 -0.040656989144836626 0 0.026084886588520102 -0.034995198977202754 0 0.025685317909672288 -0.035397487099353996 0 0.025486134878059116 -0.036185000503234623 0 0.023901408399415541 -0.042939029777710601 0 0.023402681536811593 -0.042184659082181809 0 0.023771501337336347 -0.040656989144836626 0 0.020966029393624172 -0.035642271583221592 0 0.022208185897218787 -0.035871308057685861 0 0.023873604860358187 -0.038604410629437355 0 0.023820189784151107 -0.037684180008669417 0 0.024230281513166731 -0.037807203211609595 0 0.025486134878059116 -0.036185000503234623 0 0.025124624055471025 -0.035950710272983563 0 0.025334928936894097 -0.035715376712216161 0 0.025486134878059116 -0.036185000503234623 0 0.024852405979750677 -0.036190167658047626 0 0.024805978575033579 -0.036463257985365184 0 0.024852405979750677 -0.036190167658047626 0 0.025124624055471025 -0.035950710272983563 0 0.024851897354942358 -0.035800302433331134 0 0.025486134878059116 -0.036185000503234623 0 0.024852405979750677 -0.036190167658047626 0 0.025124624055471025 -0.035950710272983563 0 0.025124624055471025 -0.035950710272983563 0 0.025051676520261648 -0.035658233575513065 0 0.025334928936894097 -0.035715376712216161 0 0.025124624055471025 -0.035950710272983563 0 0.024851897354942358 -0.035800302433331134 0 0.025051676520261648 -0.035658233575513065 0 0.024851897354942358 -0.035800302433331134 0 0.025051676520261648 -0.035658233575513065 0 0.024792654322004191 -0.035504943793956266 0 0.025685317909672288 -0.035397487099353996 0 0.025486134878059116 -0.036185000503234623 0 0.025334928936894097 -0.035715376712216161 0 0.025051676520261648 -0.035658233575513065 0 0.025334928936894097 -0.035715376712216161 0 0.025346672933850081 -0.035390566187777715 0 0.025685317909672288 -0.035397487099353996 0 0.025334928936894097 -0.035715376712216161 0 0.025346672933850081 -0.035390566187777715 0 0.025685317909672288 -0.035397487099353996 0 0.025346672933850081 -0.035390566187777715 0 0.02557420469835741 -0.035049990883619819 0 0.025346672933850081 -0.035390566187777715 0 0.02557420469835741 -0.035049990883619819 0 0.02531623618800528 -0.03507299604962695 0 0.025051676520261648 -0.035658233575513065 0 0.025346672933850081 -0.035390566187777715 0 0.0249921647090471 -0.035267298716972546 0 0.025051676520261648 -0.035658233575513065 0 0.0249921647090471 -0.035267298716972546 0 0.024792654322004191 -0.035504943793956266 0 0.025346672933850081 -0.035390566187777715 0 0.0249921647090471 -0.035267298716972546 0 0.02531623618800528 -0.03507299604962695 0 0.0249921647090471 -0.035267298716972546 0 0.025096692473693536 -0.034923751729984097 0 0.02531623618800528 -0.03507299604962695 0 0.025096692473693536 -0.034923751729984097 0 0.025404444584717724 -0.034791700562750688 0 0.02531623618800528 -0.03507299604962695 0 0.0249921647090471 -0.035267298716972546 0 0.025096692473693536 -0.034923751729984097 0 0.024781656674186924 -0.034937839710764668 0 0.024881841820974002 -0.034617069013987499 0 0.025096692473693536 -0.034923751729984097 0 0.024781656674186924 -0.034937839710764668 0 0.025181416042041025 -0.034598915717977456 0 0.024881841820974002 -0.034617069013987499 0 0.025096692473693536 -0.034923751729984097 0 0.025181416042041025 -0.034598915717977456 0 0.025096692473693536 -0.034923751729984097 0 0.025404444584717724 -0.034791700562750688 0 0.025698147079784892 -0.034746057890137863 0 0.025404444584717724 -0.034791700562750688 0 0.02557420469835741 -0.035049990883619819 0 0.025404444584717724 -0.034791700562750688 0 0.02557420469835741 -0.035049990883619819 0 0.02531623618800528 -0.03507299604962695 0 0.036068554407279858 -0.028961267173309966 0 0.036131233762939495 -0.028611290993078842 0 0.036210164159799066 -0.028961738729575658 0 0.03074870458438626 -0.030873481851619533 0 0.030414149851306908 -0.03204447648013322 0 0.024171003550729157 -0.03437842236495877 0 0.024634504082424152 -0.035067246272601375 0 0.024478677186706266 -0.035661102367760641 0 0.024591100200592599 -0.034616429054449518 0 0.024171003550729157 -0.03437842236495877 0 0.024634504082424152 -0.035067246272601375 0 0.024591100200592599 -0.034616429054449518 0 0.024781656674186924 -0.034937839710764668 0 0.024634504082424152 -0.035067246272601375 0 0.024881841820974002 -0.034617069013987499 0 0.024591100200592599 -0.034616429054449518 0 0.024781656674186924 -0.034937839710764668 0 0.0249921647090471 -0.035267298716972546 0 0.024634504082424152 -0.035067246272601375 0 0.024792654322004191 -0.035504943793956266 0 0.024634504082424152 -0.035067246272601375 0 0.024478677186706266 -0.035661102367760641 0 0.024792654322004191 -0.035504943793956266 0 0.0249921647090471 -0.035267298716972546 0 0.024781656674186924 -0.034937839710764668 0 0.024634504082424152 -0.035067246272601375 0 0.032535398512445218 -0.030474710529078467 0 0.031128457230547253 -0.032956666200656612 0 0.036068554407279858 -0.028961267173309966 0 0.036210164159799066 -0.028961738729575658 0 0.036123312336565204 -0.029352827063365363 0 0.030414149851306908 -0.03204447648013322 0 0.029985707505708371 -0.032746198251448477 0 0.024852405979750677 -0.036190167658047626 0 0.024478677186706266 -0.035661102367760641 0 0.024805978575033579 -0.036463257985365184 0 0.024852405979750677 -0.036190167658047626 0 0.024851897354942358 -0.035800302433331134 0 0.024478677186706266 -0.035661102367760641 0 0.024851897354942358 -0.035800302433331134 0 0.024478677186706266 -0.035661102367760641 0 0.024792654322004191 -0.035504943793956266 0 0.036210164159799066 -0.028961738729575658 0 0.036123312336565204 -0.029352827063365363 0 0.036319368404154569 -0.02935569151261325 0 0.036106112076460237 -0.028099258882535606 0 0.036031744544189212 -0.02849659941240772 0 0.035886750631479745 -0.028076660897848108 0 0.024478677186706266 -0.035661102367760641 0 0.024805978575033579 -0.036463257985365184 0 0.024696941364919928 -0.036825287105934718 0 0.031128457230547253 -0.032956666200656612 0 0.029985707505708371 -0.032746198251448477 0 0.025967598886610491 -0.03835791343123901 0 0.025167093625571381 -0.038359276440015348 0 0.025564861020098788 -0.037882779092748925 0 0.024230281513166731 -0.037807203211609595 0 0.024633200132741364 -0.036892597519880818 0 0.024109351194278386 -0.037208537824824972 0 0.022208185897218787 -0.035871308057685861 0 0.022568868320474951 -0.035945058509656777 0 0.025486134878059116 -0.036185000503234623 0 0.024758381785780329 -0.036812971339891795 0 0.024633200132741364 -0.036892597519880818 0 0.025486134878059116 -0.036185000503234623 0 0.024805978575033579 -0.036463257985365184 0 0.024758381785780329 -0.036812971339891795 0 0.024805978575033579 -0.036463257985365184 0 0.024758381785780329 -0.036812971339891795 0 0.024696941364919928 -0.036825287105934718 0 0.029962917925604893 -0.032751066930614421 0 0.029985707505708371 -0.032746198251448477 0 0.024758381785780329 -0.036812971339891795 0 0.024773346792146607 -0.03695001946570086 0 0.024633200132741364 -0.036892597519880818 0 0.024773346792146607 -0.03695001946570086 0 0.024633200132741364 -0.036892597519880818 0 0.024432535261656341 -0.036492462151950442 0 0.029985707505708371 -0.032746198251448477 0 0.028364014908919932 -0.034563477882458102 0 0.025167093625571381 -0.038359276440015348 0 0.025564861020098788 -0.037882779092748925 0 0.024648297273251026 -0.036894042843559072 0 0.024231940516914855 -0.036832324540262314 0 0.024633200132741364 -0.036892597519880818 0 0.024432535261656341 -0.036492462151950442 0 0.024231940516914855 -0.036832324540262314 0 0.024633200132741364 -0.036892597519880818 0 0.024109351194278386 -0.037208537824824972 0 0.025730934423428508 -0.037282532606114804 0 0.025564861020098788 -0.037882779092748925 0 0.024648297273251026 -0.036894042843559072 0 0.026816020029319255 -0.037677303597862283 0 0.026030583864209512 -0.038471662070124236 0 0.025771277027183168 -0.037330793771772293 0 0.031128457230547253 -0.032956666200656612 0 0.030235009320532403 -0.034645599502350799 0 0.025967598886610491 -0.03835791343123901 0 0.025730934423428508 -0.037282532606114804 0 0.025564861020098788 -0.037882779092748925 0 0.027027860326828589 -0.036475160117055525 0 0.025771277027183168 -0.037330793771772293 0 0.025499195442582747 -0.036182420680511904 0 0.025730934423428508 -0.037282532606114804 0 0.025499195442582747 -0.036182420680511904 0 0.024648297273251026 -0.036894042843559072 0 0.030235009320532403 -0.034645599502350799 0 0.029905832682743265 -0.034959854566829381 0 0.028364014908919932 -0.034563477882458102 0 0.027740621785510917 -0.034696417151826031 0 0.024648297273251026 -0.036894042843559072 0 0.024760045604506759 -0.035987822678441028 0 0.024066829064221557 -0.035341640035889688 0 0.025499195442582747 -0.036182420680511904 0 0.024648297273251026 -0.036894042843559072 0 0.024760045604506759 -0.035987822678441028 0 0.025499195442582747 -0.036182420680511904 0 0.024818510404543994 -0.035530691361134993 0 0.024760045604506759 -0.035987822678441028 0 0.024818510404543994 -0.035530691361134993 0 0.025821213339473011 -0.034999942723716898 0 0.023990526647958272 -0.035000077499907786 0 0.024818510404543994 -0.035530691361134993 0 0.024760045604506759 -0.035987822678441028 0 0.024066829064221557 -0.035341640035889688 0 0.024818510404543994 -0.035530691361134993 0 0.024066829064221557 -0.035341640035889688 0 0.023990526647958272 -0.035000077499907786 0 0.026369602078301156 -0.035782578786218912 0 0.025499195442582747 -0.036182420680511904 0 0.025821213339473011 -0.034999942723716898 0 0.025499195442582747 -0.036182420680511904 0 0.024818510404543994 -0.035530691361134993 0 0.025821213339473011 -0.034999942723716898 0 0.022322579480969565 -0.03591894014625157 0 0.022159432879417369 -0.034999700147190095 0 0.023374264729617157 -0.03595327074117239 0 0.022322579480969565 -0.03591894014625157 0 0.022159432879417369 -0.034999700147190095 0 0.02144418354317246 -0.0358266506635476 0 0.022159432879417369 -0.034999700147190095 0 0.023990526647958272 -0.035000077499907786 0 0.023374264729617157 -0.03595327074117239 0 0.024066829064221557 -0.035341640035889688 0 0.023990526647958272 -0.035000077499907786 0 0.023374264729617157 -0.03595327074117239 0 0.022710167141369319 -0.037016860256079531 0 0.02260524331423162 -0.037469426483830406 0 0.024432535261656341 -0.036492462151950442 0 0.024066829064221557 -0.035341640035889688 0 0.023374264729617157 -0.03595327074117239 0 0.024432535261656341 -0.036492462151950442 0 0.023374264729617157 -0.03595327074117239 0 0.02373342576029619 -0.036809085401394145 0 0.023374264729617157 -0.03595327074117239 0 0.022314413273334697 -0.037134784650074804 0 0.023634220459209057 -0.038271907331478651 0 0.022322579480969565 -0.03591894014625157 0 0.023374264729617157 -0.03595327074117239 0 0.022314413273334697 -0.037134784650074804 0 0.022322579480969565 -0.03591894014625157 0 0.022314413273334697 -0.037134784650074804 0 0.02144418354317246 -0.0358266506635476 0 0.022314413273334697 -0.037134784650074804 0 0.021701373616310849 -0.038109273724584766 0 0.023634220459209057 -0.038271907331478651 0 0.021701373616310849 -0.038109273724584766 0 0.023634220459209057 -0.038271907331478651 0 0.021893441445453091 -0.039258198998010682 0 0.024231940516914855 -0.036832324540262314 0 0.024432535261656341 -0.036492462151950442 0 0.02373342576029619 -0.036809085401394145 0 0.024231940516914855 -0.036832324540262314 0 0.02373342576029619 -0.036809085401394145 0 0.024109351194278386 -0.037208537824824972 0 0.022135653564155668 -0.037764756338739575 0 0.02260524331423162 -0.037469426483830406 0 0.023820189784151107 -0.037684180008669417 0 0.02373342576029619 -0.036809085401394145 0 0.024109351194278386 -0.037208537824824972 0 0.023771501337336347 -0.040656989144836626 0 0.023634220459209057 -0.038271907331478651 0 0.022393907325884432 -0.040551292437037624 0 0.023820189784151107 -0.037684180008669417 0 0.024230281513166731 -0.037807203211609595 0 0.024109351194278386 -0.037208537824824972 0 0.023634220459209057 -0.038271907331478651 0 0.021893441445453091 -0.039258198998010682 0 0.022393907325884432 -0.040551292437037624 0 0.021893441445453091 -0.039258198998010682 0 0.022393907325884432 -0.040551292437037624 0 0.021603683440960225 -0.040339830675700045 0 0.018318480771120183 -0.03594987842174914 0 0.018902286009154959 -0.03624837434753328 0 0.018651108261416645 -0.036739593289786557 0 0.018902286009154959 -0.03624837434753328 0 0.020979176586026195 -0.040012972075610158 0 0.019876723421868459 -0.039620108897176848 0 0.021178978055964463 -0.041202150909405849 0 0.021603683440960225 -0.040339830675700045 0 0.020979176586026195 -0.040012972075610158 0 0.021178978055964463 -0.041202150909405849 0 0.016743310747854359 -0.036085390934497995 0 0.016730728750867035 -0.036087555949084672 0 0.016742036424629458 -0.036074220548004236 0 0.021893441445453091 -0.039258198998010682 0 0.021603683440960225 -0.040339830675700045 0 0.020979176586026195 -0.040012972075610158 0 0.020979176586026195 -0.040012972075610158 0 0.020479734250387144 -0.039409375096490847 0 0.020820026744949701 -0.03887599083524184 0 0.020979176586026195 -0.040012972075610158 0 0.020479734250387144 -0.039409375096490847 0 0.019876723421868459 -0.039620108897176848 0 0.020245823444351628 -0.039120945783243453 0 0.020479734250387144 -0.039409375096490847 0 0.019876723421868459 -0.039620108897176848 0 0.020245823444351628 -0.039120945783243453 0 0.020479734250387144 -0.039409375096490847 0 0.020820026744949701 -0.03887599083524184 0 0.021893441445453091 -0.039258198998010682 0 0.020979176586026195 -0.040012972075610158 0 0.020820026744949701 -0.03887599083524184 0 0.016917087606907293 -0.035289366288248705 0 0.017068792930164087 -0.035228889505221912 0 0.016743310747854359 -0.036085390934497995 0 0.016666652189194886 -0.036043004354970438 0 0.01677086954813771 -0.036150808705106903 0 0.016666652189194886 -0.036043004354970438 0 0.016070622533487466 -0.035490391389124888 0 0.015295484282626868 -0.035649966731076843 0 0.016730728750867035 -0.036087555949084672 0 0.016740056141153835 -0.036081352984240284 0 0.016751223440707667 -0.036093660716590349 0 0.016743310747854359 -0.036085390934497995 0 0.016730728750867035 -0.036087555949084672 0 0.016740056141153835 -0.036081352984240284 0 0.016743310747854359 -0.036085390934497995 0 0.016740056141153835 -0.036081352984240284 0 0.016666652189194886 -0.036043004354970438 0 0.016740056141153835 -0.036081352984240284 0 0.016751223440707667 -0.036093660716590349 0 0.016666652189194886 -0.036043004354970438 0 0.016730728750867035 -0.036087555949084672 0 0.016751223440707667 -0.036093660716590349 0 0.01683246179784539 -0.036096160922263046 0 0.019876723421868459 -0.039620108897176848 0 0.019732177125225868 -0.038457157232987656 0 0.018336716064681641 -0.037887096711473646 0 0.018651108261416645 -0.036739593289786557 0 0.018164997076090525 -0.03651057568184058 0 0.020245823444351628 -0.039120945783243453 0 0.019876723421868459 -0.039620108897176848 0 0.019732177125225868 -0.038457157232987656 0 0.019732177125225868 -0.038457157232987656 0 0.019643990053035704 -0.037529195203521611 0 0.018336716064681641 -0.037887096711473646 0 0.021701373616310849 -0.038109273724584766 0 0.021893441445453091 -0.039258198998010682 0 0.020820026744949701 -0.03887599083524184 0 0.020245823444351628 -0.039120945783243453 0 0.019732177125225868 -0.038457157232987656 0 0.020820026744949701 -0.03887599083524184 0 0.019732177125225868 -0.038457157232987656 0 0.020820026744949701 -0.03887599083524184 0 0.020738593841101678 -0.037742435967801864 0 0.019732177125225868 -0.038457157232987656 0 0.019643990053035704 -0.037529195203521611 0 0.020738593841101678 -0.037742435967801864 0 0.022314413273334697 -0.037134784650074804 0 0.021701373616310849 -0.038109273724584766 0 0.020738593841101678 -0.037742435967801864 0 0.021701373616310849 -0.038109273724584766 0 0.020820026744949701 -0.03887599083524184 0 0.020738593841101678 -0.037742435967801864 0 0.020715633457604517 -0.036807502563272788 0 0.019370462621891838 -0.036558082252289001 0 0.02144418354317246 -0.0358266506635476 0 0.022314413273334697 -0.037134784650074804 0 0.020738593841101678 -0.037742435967801864 0 0.020715633457604517 -0.036807502563272788 0 0.022314413273334697 -0.037134784650074804 0 0.020715633457604517 -0.036807502563272788 0 0.02144418354317246 -0.0358266506635476 0 0.019643990053035704 -0.037529195203521611 0 0.020738593841101678 -0.037742435967801864 0 0.020715633457604517 -0.036807502563272788 0 0.019643990053035704 -0.037529195203521611 0 0.018336716064681641 -0.037887096711473646 0 0.019370462621891838 -0.036558082252289001 0 0.019370462621891838 -0.036558082252289001 0 0.017952811328099113 -0.035191647831307814 0 0.02144418354317246 -0.0358266506635476 0 0.019643990053035704 -0.037529195203521611 0 0.020715633457604517 -0.036807502563272788 0 0.019370462621891838 -0.036558082252289001 0 0.018336716064681641 -0.037887096711473646 0 0.018116171196831399 -0.036324149937351335 0 0.019370462621891838 -0.036558082252289001 0 0.018116171196831399 -0.036324149937351335 0 0.019370462621891838 -0.036558082252289001 0 0.017952811328099113 -0.035191647831307814 0 0.020328644410106206 -0.035000000816852291 0 0.019722179099153563 -0.035832245382896387 0 0.02144418354317246 -0.0358266506635476 0 0.018707556568768456 -0.035578144465367029 0 0.019614336897535188 -0.035640858742501023 0 0.022159432879417369 -0.034999700147190095 0 0.020328644410106206 -0.035000000816852291 0 0.02144418354317246 -0.0358266506635476 0 0.01666611280005657 -0.034999559201611408 0 0.018498233173603235 -0.035000092505688071 0 0.017820298853373474 -0.035754676990037294 0 0.017952811328099113 -0.035191647831307814 0 0.015900866872758549 -0.035240148095561287 0 0.016707325263484327 -0.035572889457160597 0 0.019722179099153563 -0.035832245382896387 0 0.018498233173603235 -0.035000092505688071 0 0.017820298853373474 -0.035754676990037294 0 0.018707556568768456 -0.035578144465367029 0 0.017402489264013516 -0.035503304314089185 0 0.020328644410106206 -0.035000000816852291 0 0.019722179099153563 -0.035832245382896387 0 0.018498233173603235 -0.035000092505688071 0 0.018164997076090525 -0.03651057568184058 0 0.017889568198553585 -0.036258686022900499 0 0.018336716064681641 -0.037887096711473646 0 0.018116171196831399 -0.036324149937351335 0 0.016882932582597824 -0.03568648084791002 0 0.016093187162316988 -0.035669630745389189 0 0.015992982769935309 -0.035677132504074095 0 0.017952811328099113 -0.035191647831307814 0 0.016707325263484327 -0.035572889457160597 0 0.016882932582597824 -0.03568648084791002 0 0.016707325263484327 -0.035572889457160597 0 0.016882932582597824 -0.03568648084791002 0 0.016824006104514826 -0.035907286905314771 0 0.01683246179784539 -0.036096160922263046 0 0.016882932582597824 -0.03568648084791002 0 0.016824006104514826 -0.035907286905314771 0 0.016707325263484327 -0.035572889457160597 0 0.016252417820888525 -0.035711495468743082 0 0.016327150198730728 -0.035827413471124454 0 0.016707325263484327 -0.035572889457160597 0 0.016824006104514826 -0.035907286905314771 0 0.016759354625759431 -0.036230461406826675 0 0.018116171196831399 -0.036324149937351335 0 0.017952811328099113 -0.035191647831307814 0 0.016882932582597824 -0.03568648084791002 0 0.015900866872758549 -0.035240148095561287 0 0.016707325263484327 -0.035572889457160597 0 0.016127859906248654 -0.035567978817031075 0 0.016707325263484327 -0.035572889457160597 0 0.016252417820888525 -0.035711495468743082 0 0.016127859906248654 -0.035567978817031075 0 0.015892417083285943 -0.035472736371333663 0 0.015900866872758549 -0.035240148095561287 0 0.016127859906248654 -0.035567978817031075 0 0.015892417083285943 -0.035472736371333663 0 0.016127859906248654 -0.035567978817031075 0 0.016020680634515286 -0.035645499389242719 0 0.016252417820888525 -0.035711495468743082 0 0.016127859906248654 -0.035567978817031075 0 0.016020680634515286 -0.035645499389242719 0 0.016252417820888525 -0.035711495468743082 0 0.016020680634515286 -0.035645499389242719 0 0.016114056435261152 -0.0358115337873844 0 0.016252417820888525 -0.035711495468743082 0 0.016114056435261152 -0.0358115337873844 0 0.016327150198730728 -0.035827413471124454 0 0.016114056435261152 -0.0358115337873844 0 0.016327150198730728 -0.035827413471124454 0 0.016145785283208789 -0.036021253112208738 0 0.016751223440707667 -0.036093660716590349 0 0.01683246179784539 -0.036096160922263046 0 0.016759354625759431 -0.036230461406826675 0 0.016751223440707667 -0.036093660716590349 0 0.016759354625759431 -0.036230461406826675 0 0.016666652189194886 -0.036043004354970438 0 0.01683246179784539 -0.036096160922263046 0 0.016824006104514826 -0.035907286905314771 0 0.016759354625759431 -0.036230461406826675 0 0.015992982769935309 -0.035677132504074095 0 0.015642082606901038 -0.035266665226518716 0 0.016327150198730728 -0.035827413471124454 0 0.016145785283208789 -0.036021253112208738 0 0.016358480523489309 -0.036177856282055734 0 0.016759354625759431 -0.036230461406826675 0 0.016666652189194886 -0.036043004354970438 0 0.016779340720047466 -0.035629816810269895 0 0.016666652189194886 -0.036043004354970438 0 0.016779340720047466 -0.035629816810269895 0 0.016070622533487466 -0.035490391389124888 0 0.015985674123391146 -0.03590806194516466 0 0.016114056435261152 -0.0358115337873844 0 0.016145785283208789 -0.036021253112208738 0 0.015847634184544344 -0.036092637632578375 0 0.016145785283208789 -0.036021253112208738 0 0.016148353950200582 -0.036321600224380537 0 0.015360560058783314 -0.034943065966349857 0 0.015160632315250442 -0.034512260790690683 0 0.016145785283208789 -0.036021253112208738 0 0.016148353950200582 -0.036321600224380537 0 0.016358480523489309 -0.036177856282055734 0 0.01369060016580899 -0.033493721634628028 0 0.013023699397867555 -0.032505282382909069 0 0.013897283964659645 -0.032386283259026163 0 0.014660639148747524 -0.03327616039456513 0 0.01369060016580899 -0.033493721634628028 0 0.013897283964659645 -0.032386283259026163 0 0.014855047750049911 -0.033791927189672506 0 0.015642082606901038 -0.035266665226518716 0 0.015160632315250442 -0.034512260790690683 0 0.014855047750049911 -0.033791927189672506 0 0.016148353950200582 -0.036321600224380537 0 0.016395638495776889 -0.036541483924177734 0 0.016358480523489309 -0.036177856282055734 0 0.016668704407249716 -0.033915557439114744 0 0.016779340720047466 -0.035629816810269895 0 0.016074075472539341 -0.034861866130253473 0 0.016779340720047466 -0.035629816810269895 0 0.016070622533487466 -0.035490391389124888 0 0.016074075472539341 -0.034861866130253473 0 0.016070622533487466 -0.035490391389124888 0 0.015295484282626868 -0.035649966731076843 0 0.015480996884811008 -0.035017143688178966 0 0.016070622533487466 -0.035490391389124888 0 0.015480996884811008 -0.035017143688178966 0 0.016074075472539341 -0.034861866130253473 0 0.018192400112864823 -0.035388689727741764 0 0.017068792930164087 -0.035228889505221912 0 0.013726584862013502 -0.034793055951108036 0 0.015295484282626868 -0.035649966731076843 0 0.01476671796367662 -0.034827681208561612 0 0.016743310747854359 -0.036085390934497995 0 0.01677086954813771 -0.036150808705106903 0 0.016861185622053132 -0.036167535827129144 0 0.016918687071722005 -0.036232580401250492 0 0.01677086954813771 -0.036150808705106903 0 0.016861185622053132 -0.036167535827129144 0 0.015295484282626868 -0.035649966731076843 0 0.015480996884811008 -0.035017143688178966 0 0.01476671796367662 -0.034827681208561612 0 0.018192400112864823 -0.035388689727741764 0 0.018902286009154959 -0.03624837434753328 0 0.01476671796367662 -0.034827681208561612 0 0.014028762177185686 -0.03441234211681251 0 0.014645495748033002 -0.033800644785264726 0 0.013726584862013502 -0.034793055951108036 0 0.01476671796367662 -0.034827681208561612 0 0.014028762177185686 -0.03441234211681251 0 0.01476671796367662 -0.034827681208561612 0 0.014645495748033002 -0.033800644785264726 0 0.015550357720996145 -0.034126155259743197 0 0.013924079240394118 -0.033809490897776698 0 0.014028762177185686 -0.03441234211681251 0 0.014645495748033002 -0.033800644785264726 0 0.016668704407249716 -0.033915557439114744 0 0.016074075472539341 -0.034861866130253473 0 0.015550357720996145 -0.034126155259743197 0 0.015480996884811008 -0.035017143688178966 0 0.016074075472539341 -0.034861866130253473 0 0.015550357720996145 -0.034126155259743197 0 0.015480996884811008 -0.035017143688178966 0 0.01476671796367662 -0.034827681208561612 0 0.015550357720996145 -0.034126155259743197 0 0.013175785581268707 -0.032022649560921795 0 0.012706460538927475 -0.031438201815396701 0 0.013127562814009378 -0.031593875363772547 0 0.014855047750049911 -0.033791927189672506 0 0.013903315802109939 -0.03247434751597153 0 0.014645495748033002 -0.033800644785264726 0 0.015550357720996145 -0.034126155259743197 0 0.015264076320449169 -0.032593737915738205 0 0.016668704407249716 -0.033915557439114744 0 0.015550357720996145 -0.034126155259743197 0 0.015264076320449169 -0.032593737915738205 0 0.013546212475515072 -0.032179896953582851 0 0.013897894928392338 -0.033075769774432433 0 0.015264076320449169 -0.032593737915738205 0 0.013897894928392338 -0.033075769774432433 0 0.014645495748033002 -0.033800644785264726 0 0.015264076320449169 -0.032593737915738205 0 0.013897894928392338 -0.033075769774432433 0 0.013924079240394118 -0.033809490897776698 0 0.014645495748033002 -0.033800644785264726 0 0.012706460538927475 -0.031438201815396701 0 0.012638922347833008 -0.030917959589118964 0 0.012290564815029889 -0.030689471748252272 0 0.013546212475515072 -0.032179896953582851 0 0.015264076320449169 -0.032593737915738205 0 0.013709184566740508 -0.031276602109761735 0 0.013903315802109939 -0.03247434751597153 0 0.013139364358544972 -0.031546717314891025 0 0.012706460538927475 -0.031438201815396701 0 0.012638922347833008 -0.030917959589118964 0 0.013108872441061859 -0.030993607179475587 0 0.012706460538927475 -0.031438201815396701 0 0.013108872441061859 -0.030993607179475587 0 0.013127562814009378 -0.031593875363772547 0 0.013108872441061859 -0.030993607179475587 0 0.013620997510448369 -0.030913310916178178 0 0.013127562814009378 -0.031593875363772547 0 0.013620997510448369 -0.030913310916178178 0 0.013659289618747869 -0.031677770208041932 0 0.013127562814009378 -0.031593875363772547 0 0.014260159175664045 -0.03145734839389356 0 0.013620997510448369 -0.030913310916178178 0 0.013659289618747869 -0.031677770208041932 0 0.014260159175664045 -0.03145734839389356 0 0.013620997510448369 -0.030913310916178178 0 0.014198779435493521 -0.030319231300414286 0 0.013023699397867555 -0.032505282382909069 0 0.013897283964659645 -0.032386283259026163 0 0.013659289618747869 -0.031677770208041932 0 0.014260159175664045 -0.03145734839389356 0 0.013897283964659645 -0.032386283259026163 0 0.013659289618747869 -0.031677770208041932 0 0.013023699397867555 -0.032505282382909069 0 0.013659289618747869 -0.031677770208041932 0 0.013127562814009378 -0.031593875363772547 0 0.014855047750049911 -0.033791927189672506 0 0.014695761570006686 -0.033310068501013021 0 0.01343242944240618 -0.030144271731254689 0 0.014198779435493521 -0.030319231300414286 0 0.014014937126444083 -0.029536692034039982 0 0.013620997510448369 -0.030913310916178178 0 0.01343242944240618 -0.030144271731254689 0 0.014198779435493521 -0.030319231300414286 0 0.013108872441061859 -0.030993607179475587 0 0.013620997510448369 -0.030913310916178178 0 0.01343242944240618 -0.030144271731254689 0 0.012638922347833008 -0.030917959589118964 0 0.013108872441061859 -0.030993607179475587 0 0.012844080767690919 -0.03058133440303816 0 0.013108872441061859 -0.030993607179475587 0 0.01343242944240618 -0.030144271731254689 0 0.012844080767690919 -0.03058133440303816 0 0.012638922347833008 -0.030917959589118964 0 0.012525995195285583 -0.030589078355219831 0 0.012290564815029889 -0.030689471748252272 0 0.012525995195285583 -0.030589078355219831 0 0.012326104288887606 -0.030394541436089939 0 0.012290564815029889 -0.030689471748252272 0 0.012638922347833008 -0.030917959589118964 0 0.012844080767690919 -0.03058133440303816 0 0.012525995195285583 -0.030589078355219831 0 0.012844080767690919 -0.03058133440303816 0 0.012525995195285583 -0.030589078355219831 0 0.012555654334836377 -0.030300562614138295 0 0.012844080767690919 -0.03058133440303816 0 0.012555654334836377 -0.030300562614138295 0 0.012874055523440838 -0.030082211978322653 0 0.012525995195285583 -0.030589078355219831 0 0.012555654334836377 -0.030300562614138295 0 0.012326104288887606 -0.030394541436089939 0 0.012555654334836377 -0.030300562614138295 0 0.012874055523440838 -0.030082211978322653 0 0.012513975567856715 -0.029830664688693866 0 0.012555654334836377 -0.030300562614138295 0 0.012513975567856715 -0.029830664688693866 0 0.012300218404199521 -0.030172370525277291 0 0.012555654334836377 -0.030300562614138295 0 0.012300218404199521 -0.030172370525277291 0 0.012326104288887606 -0.030394541436089939 0 0.01343242944240618 -0.030144271731254689 0 0.012844080767690919 -0.03058133440303816 0 0.012874055523440838 -0.030082211978322653 0 0.01343242944240618 -0.030144271731254689 0 0.012874055523440838 -0.030082211978322653 0 0.013062629350199063 -0.029563638397944316 0 0.012874055523440838 -0.030082211978322653 0 0.013062629350199063 -0.029563638397944316 0 0.012513975567856715 -0.029830664688693866 0 0.013062629350199063 -0.029563638397944316 0 0.0132981250740959 -0.02901296684626848 0 0.013584433191925685 -0.029420089205580213 0 0.014238467480332036 -0.029102272378423222 0 0.014593654520693347 -0.028651529222241911 0 0.012513975567856715 -0.029830664688693866 0 0.012571099820410634 -0.029203688073635891 0 0.012215096590487381 -0.029620801258315357 0 0.013062629350199063 -0.029563638397944316 0 0.012513975567856715 -0.029830664688693866 0 0.012468677045052985 -0.028896855439498399 0 0.013062629350199063 -0.029563638397944316 0 0.012468677045052985 -0.028896855439498399 0 0.0132981250740959 -0.02901296684626848 0 0.012468677045052985 -0.028896855439498399 0 0.0132981250740959 -0.02901296684626848 0 0.013160121972050071 -0.028475321060540949 0 0.0132981250740959 -0.02901296684626848 0 0.0139066215602937 -0.028954906071485896 0 0.013584433191925685 -0.029420089205580213 0 0.0132981250740959 -0.02901296684626848 0 0.0139066215602937 -0.028954906071485896 0 0.013160121972050071 -0.028475321060540949 0 0.01343242944240618 -0.030144271731254689 0 0.013062629350199063 -0.029563638397944316 0 0.013584433191925685 -0.029420089205580213 0 0.01343242944240618 -0.030144271731254689 0 0.013584433191925685 -0.029420089205580213 0 0.014014937126444083 -0.029536692034039982 0 0.0139066215602937 -0.028954906071485896 0 0.013584433191925685 -0.029420089205580213 0 0.014014937126444083 -0.029536692034039982 0 0.014314868911689593 -0.029036388924370066 0 0.0139066215602937 -0.028954906071485896 0 0.014014937126444083 -0.029536692034039982 0 0.014314868911689593 -0.029036388924370066 0 0.0139066215602937 -0.028954906071485896 0 0.014141181889278244 -0.02872761926757713 0 0.0139066215602937 -0.028954906071485896 0 0.014141181889278244 -0.02872761926757713 0 0.013938679897784663 -0.028639735821920805 0 0.0139066215602937 -0.028954906071485896 0 0.013938679897784663 -0.028639735821920805 0 0.013806231158011571 -0.028655253258938636 0 0.014554583754177067 -0.027819448409271388 0 0.014700432342216971 -0.027627776973739682 0 0.013938679897784663 -0.028639735821920805 0 0.01388244403906588 -0.028523873052647513 0 0.013806231158011571 -0.028655253258938636 0 0.013938679897784663 -0.028639735821920805 0 0.01388244403906588 -0.028523873052647513 0 0.013984510826010441 -0.028374743778655873 0 0.014141181889278244 -0.02872761926757713 0 0.013938679897784663 -0.028639735821920805 0 0.013984510826010441 -0.028374743778655873 0 0.014141181889278244 -0.02872761926757713 0 0.014037837417878845 -0.028357412080507228 0 0.014073403776866373 -0.02844282693983877 0 0.014037837417878845 -0.028357412080507228 0 0.014073403776866373 -0.02844282693983877 0 0.014160690355976554 -0.028332153363866377 0 0.01388244403906588 -0.028523873052647513 0 0.013984510826010441 -0.028374743778655873 0 0.01388258608579369 -0.028405912702430019 0 0.014085840586282984 -0.028495530085059284 0 0.014018936766975751 -0.028356918002193057 0 0.014428743073391417 -0.028535677337352641 0 0.014141181889278244 -0.02872761926757713 0 0.014073403776866373 -0.02844282693983877 0 0.014362665708431229 -0.028438868692832908 0 0.014073403776866373 -0.02844282693983877 0 0.014160690355976554 -0.028332153363866377 0 0.014406628213379539 -0.028503231897857962 0 0.014272351999903215 -0.028481324300419004 0 0.014362665708431229 -0.028438868692832908 0 0.014239871375960207 -0.028231630810620228 0 0.014160690355976554 -0.028332153363866377 0 0.014239871375960207 -0.028231630810620228 0 0.014160690355976554 -0.028332153363866377 0 0.014090493634284317 -0.028192853562210664 0 0.014018936766975751 -0.028356918002193057 0 0.013920629214138903 -0.028149781942572269 0 0.014037837417878845 -0.028357412080507228 0 0.014090493634284317 -0.028192853562210664 0 0.013950968928271456 -0.028113451884403649 0 0.014037837417878845 -0.028357412080507228 0 0.014160690355976554 -0.028332153363866377 0 0.014090493634284317 -0.028192853562210664 0 0.013984510826010441 -0.028374743778655873 0 0.013862227348267656 -0.028295971591778449 0 0.01388258608579369 -0.028405912702430019 0 0.014090493634284317 -0.028192853562210664 0 0.014182215187742929 -0.028073255765459101 0 0.013950968928271456 -0.028113451884403649 0 0.014239871375960207 -0.028231630810620228 0 0.014090493634284317 -0.028192853562210664 0 0.014182215187742929 -0.028073255765459101 0 0.014317007426296642 -0.028111044413389245 0 0.014239871375960207 -0.028231630810620228 0 0.014182215187742929 -0.028073255765459101 0 0.013765806993934839 -0.028081012637049298 0 0.01380060255493994 -0.028198872189844303 0 0.013709373283892908 -0.028184879237913758 0 0.013765806993934839 -0.028081012637049298 0 0.013709373283892908 -0.028184879237913758 0 0.013696075434090529 -0.028111257598524675 0 0.013709373283892908 -0.028184879237913758 0 0.013696075434090529 -0.028111257598524675 0 0.013686713655587233 -0.028159767923501427 0 0.013765806993934839 -0.028081012637049298 0 0.013696075434090529 -0.028111257598524675 0 0.013684230827181506 -0.028015996980884736 0 0.013765806993934839 -0.028081012637049298 0 0.013892804311998045 -0.028104970690528561 0 0.01380060255493994 -0.028198872189844303 0 0.01380060255493994 -0.028198872189844303 0 0.01379560553638127 -0.028302084317733015 0 0.013751075369396059 -0.028268219446688447 0 0.013984510826010441 -0.028374743778655873 0 0.013892804311998045 -0.028104970690528561 0 0.013862227348267656 -0.028295971591778449 0 0.01380060255493994 -0.028198872189844303 0 0.013862227348267656 -0.028295971591778449 0 0.01379560553638127 -0.028302084317733015 0 0.013892804311998045 -0.028104970690528561 0 0.01380060255493994 -0.028198872189844303 0 0.013862227348267656 -0.028295971591778449 0 0.013862227348267656 -0.028295971591778449 0 0.01388258608579369 -0.028405912702430019 0 0.013812145732746448 -0.028391863049927548 0 0.013862227348267656 -0.028295971591778449 0 0.01379560553638127 -0.028302084317733015 0 0.013812145732746448 -0.028391863049927548 0 0.01379560553638127 -0.028302084317733015 0 0.013751648537100432 -0.028360990483318877 0 0.013812145732746448 -0.028391863049927548 0 0.013751648537100432 -0.028360990483318877 0 0.013710821771067378 -0.028319385495491907 0 0.013704286987807702 -0.028380650008262589 0 0.013710821771067378 -0.028319385495491907 0 0.01366663385672838 -0.02829196875864487 0 0.013704286987807702 -0.028380650008262589 0 0.013710821771067378 -0.028319385495491907 0 0.013751075369396059 -0.028268219446688447 0 0.013690855827991583 -0.028267210768549843 0 0.013751648537100432 -0.028360990483318877 0 0.013710821771067378 -0.028319385495491907 0 0.013751075369396059 -0.028268219446688447 0 0.01379560553638127 -0.028302084317733015 0 0.013751648537100432 -0.028360990483318877 0 0.013751075369396059 -0.028268219446688447 0 0.01380060255493994 -0.028198872189844303 0 0.013751075369396059 -0.028268219446688447 0 0.013709373283892908 -0.028184879237913758 0 0.013709373283892908 -0.028184879237913758 0 0.013715334431443117 -0.02820888401963554 0 0.013682900959871853 -0.028190945665379524 0 0.013709373283892908 -0.028184879237913758 0 0.013690855827991583 -0.028267210768549843 0 0.013668759679023128 -0.028288563904380871 0 0.01613250888997763 -0.027776226853872148 0 0.01617506167925244 -0.027743175735634434 0 0.013751075369396059 -0.028268219446688447 0 0.013709373283892908 -0.028184879237913758 0 0.013690855827991583 -0.028267210768549843 0 0.01617506167925244 -0.027743175735634434 0 0.017110651922774826 -0.027145544887231594 0 0.013710821771067378 -0.028319385495491907 0 0.013690855827991583 -0.028267210768549843 0 0.01366663385672838 -0.02829196875864487 0 0.016167758776684932 -0.027749420712642258 0 0.01617506167925244 -0.027743175735634434 0 0.01617506167925244 -0.027743175735634434 0 0.015805529743539701 -0.027424979095327713 0 0.015933414661300091 -0.026581633793741104 0 0.015946341927919189 -0.02837663453930719 0 0.015042071727876851 -0.027750922203876146 0 0.013743774773181245 -0.028464565297672485 0 0.013646238003985959 -0.028465155681341982 0 0.013806231158011571 -0.028655253258938636 0 0.01366663385672838 -0.02829196875864487 0 0.013704286987807702 -0.028380650008262589 0 0.013646238003985959 -0.028465155681341982 0 0.015805529743539701 -0.027424979095327713 0 0.017110651922774826 -0.027145544887231594 0 0.013704286987807702 -0.028380650008262589 0 0.013743774773181245 -0.028464565297672485 0 0.013646238003985959 -0.028465155681341982 0 0.013751648537100432 -0.028360990483318877 0 0.013704286987807702 -0.028380650008262589 0 0.013743774773181245 -0.028464565297672485 0 0.01388258608579369 -0.028405912702430019 0 0.013812145732746448 -0.028391863049927548 0 0.013824822933717576 -0.028489682503370615 0 0.013751648537100432 -0.028360990483318877 0 0.013743774773181245 -0.028464565297672485 0 0.013812145732746448 -0.028391863049927548 0 0.013743774773181245 -0.028464565297672485 0 0.013812145732746448 -0.028391863049927548 0 0.013824822933717576 -0.028489682503370615 0 0.013743774773181245 -0.028464565297672485 0 0.013824822933717576 -0.028489682503370615 0 0.013806231158011571 -0.028655253258938636 0 0.01388244403906588 -0.028523873052647513 0 0.013824822933717576 -0.028489682503370615 0 0.013806231158011571 -0.028655253258938636 0 0.01388244403906588 -0.028523873052647513 0 0.01388258608579369 -0.028405912702430019 0 0.013824822933717576 -0.028489682503370615 0 0.012571099820410634 -0.029203688073635891 0 0.012591994313327843 -0.028548669588686799 0 0.012334772232280166 -0.028922942518941661 0 0.014593654520693347 -0.028651529222241911 0 0.015805529743539701 -0.027424979095327713 0 0.015805529743539701 -0.027424979095327713 0 0.014700432342216971 -0.027627776973739682 0 0.012468677045052985 -0.028896855439498399 0 0.012467283331083944 -0.027994514336949619 0 0.013160121972050071 -0.028475321060540949 0 0.020567394799591073 -0.027139393306081078 0 0.018081185109821363 -0.026680086762118933 0 0.012334772232280166 -0.028922942518941661 0 0.012022065621337251 -0.028917808478641987 0 0.012159850894449349 -0.02922574476283624 0 0.012334772232280166 -0.028922942518941661 0 0.012022065621337251 -0.028917808478641987 0 0.012376022585568388 -0.02862862440631396 0 0.028111140171802485 -0.024079657270698315 0 0.027607782778385218 -0.023940218483969947 0 0.027646762976029426 -0.024696851452688767 0 0.028111140171802485 -0.024079657270698315 0 0.027904582872255838 -0.023539860852247456 0 0.027607782778385218 -0.023940218483969947 0 0.028111140171802485 -0.024079657270698315 0 0.027904582872255838 -0.023539860852247456 0 0.028203152532642418 -0.023459687283491779 0 0.027904582872255838 -0.023539860852247456 0 0.027627870333713441 -0.023230855468933997 0 0.027607782778385218 -0.023940218483969947 0 0.028203152532642418 -0.023459687283491779 0 0.027959501774011325 -0.023198935071527118 0 0.028355069241599234 -0.023104907034887438 0 0.027904582872255838 -0.023539860852247456 0 0.028203152532642418 -0.023459687283491779 0 0.027959501774011325 -0.023198935071527118 0 0.027904582872255838 -0.023539860852247456 0 0.027959501774011325 -0.023198935071527118 0 0.027627870333713441 -0.023230855468933997 0 0.028111140171802485 -0.024079657270698315 0 0.028203152532642418 -0.023459687283491779 0 0.028550763542536332 -0.023493098240825617 0 0.012022065621337251 -0.028917808478641987 0 0.012319566804848418 -0.028520257175362631 0 0.012376022585568388 -0.02862862440631396 0 0.012318089808841066 -0.028517929903142929 0 0.012376022585568388 -0.02862862440631396 0 0.012400106809044086 -0.028411067114140365 0 0.012591994313327843 -0.028548669588686799 0 0.012334772232280166 -0.028922942518941661 0 0.012376022585568388 -0.02862862440631396 0 0.012591994313327843 -0.028548669588686799 0 0.012376022585568388 -0.02862862440631396 0 0.012400106809044086 -0.028411067114140365 0 0.018081185109821363 -0.026680086762118933 0 0.01803224895085842 -0.026674518456211382 0 0.028203152532642418 -0.023459687283491779 0 0.028550763542536332 -0.023493098240825617 0 0.028355069241599234 -0.023104907034887438 0 0.018081185109821363 -0.026680086762118933 0 0.019087425061998117 -0.026769208802306144 0 0.017110651922774826 -0.027145544887231594 0 0.019087425061998117 -0.026769208802306144 0 0.019445902140856661 -0.027884025588409599 0 0.020225153847992703 -0.026861870367188262 0 0.018086089063434195 -0.025381451585549594 0 0.018081185109821363 -0.026680086762118933 0 0.017110651922774826 -0.027145544887231594 0 0.013715334431443117 -0.02820888401963554 0 0.013686967923070555 -0.028255018626689905 0 0.013680587865897147 -0.028217999144276539 0 0.013686967923070555 -0.028255018626689905 0 0.013680587865897147 -0.028217999144276539 0 0.013643722637209412 -0.028228579160062387 0 0.013715334431443117 -0.02820888401963554 0 0.013680587865897147 -0.028217999144276539 0 0.013682900959871853 -0.028190945665379524 0 0.013648005728836907 -0.02818326404418494 0 0.013643722637209412 -0.028228579160062387 0 0.013569290181525112 -0.028132695266101321 0 0.013709373283892908 -0.028184879237913758 0 0.013682900959871853 -0.028190945665379524 0 0.013686713655587233 -0.028159767923501427 0 0.013680587865897147 -0.028217999144276539 0 0.013682900959871853 -0.028190945665379524 0 0.013648005728836907 -0.02818326404418494 0 0.013682900959871853 -0.028190945665379524 0 0.013686713655587233 -0.028159767923501427 0 0.01365554997011967 -0.028145325763017155 0 0.013682900959871853 -0.028190945665379524 0 0.013648005728836907 -0.02818326404418494 0 0.01365554997011967 -0.028145325763017155 0 0.013680587865897147 -0.028217999144276539 0 0.013648005728836907 -0.02818326404418494 0 0.013643722637209412 -0.028228579160062387 0 0.019087425061998117 -0.026769208802306144 0 0.020317631602910158 -0.025755994589537274 0 0.019087425061998117 -0.026769208802306144 0 0.020807438709460977 -0.027015282402340378 0 0.027959501774011325 -0.023198935071527118 0 0.028355069241599234 -0.023104907034887438 0 0.027688158999751553 -0.022672083252792151 0 0.027778691787026848 -0.022763303591034786 0 0.027688158999751553 -0.022672083252792151 0 0.02766618526435171 -0.022569515300881738 0 0.027959501774011325 -0.023198935071527118 0 0.027688158999751553 -0.022672083252792151 0 0.027627870333713441 -0.023230855468933997 0 0.02766618526435171 -0.022569515300881738 0 0.027509092322118192 -0.022545164756905565 0 0.02748174363897703 -0.022599241386386415 0 0.02766618526435171 -0.022569515300881738 0 0.027509092322118192 -0.022545164756905565 0 0.027554316715059077 -0.022563352530659244 0 0.027688158999751553 -0.022672083252792151 0 0.02766618526435171 -0.022569515300881738 0 0.027554316715059077 -0.022563352530659244 0 0.013569290181525112 -0.028132695266101321 0 0.013635070110893341 -0.028066287759816146 0 0.013543832014528176 -0.027957676851269441 0 0.013635070110893341 -0.028066287759816146 0 0.013696075434090529 -0.028111257598524675 0 0.013684230827181506 -0.028015996980884736 0 0.013635070110893341 -0.028066287759816146 0 0.013696075434090529 -0.028111257598524675 0 0.01365554997011967 -0.028145325763017155 0 0.013696075434090529 -0.028111257598524675 0 0.013686713655587233 -0.028159767923501427 0 0.01365554997011967 -0.028145325763017155 0 0.013648005728836907 -0.02818326404418494 0 0.013569290181525112 -0.028132695266101321 0 0.01365554997011967 -0.028145325763017155 0 0.013569290181525112 -0.028132695266101321 0 0.013635070110893341 -0.028066287759816146 0 0.01365554997011967 -0.028145325763017155 0 0.02767282221050258 -0.022443421004936112 0 0.027518688091259066 -0.022550880457879483 0 0.027317937472371823 -0.022485549140528124 0 0.02767282221050258 -0.022443421004936112 0 0.027720661129966788 -0.022558294703834383 0 0.027518688091259066 -0.022550880457879483 0 0.027720661129966788 -0.022558294703834383 0 0.027518688091259066 -0.022550880457879483 0 0.027574893961931465 -0.022612271789937126 0 0.027518688091259066 -0.022550880457879483 0 0.027509092322118192 -0.022545164756905565 0 0.027574893961931465 -0.022612271789937126 0 0.027509092322118192 -0.022545164756905565 0 0.027554316715059077 -0.022563352530659244 0 0.027317937472371823 -0.022485549140528124 0 0.027518688091259066 -0.022550880457879483 0 0.027509092322118192 -0.022545164756905565 0 0.027317937472371823 -0.022485549140528124 0 0.027317937472371823 -0.022485549140528124 0 0.027389755409351346 -0.02293001965464616 0 0.026064327411836143 -0.023678362885678747 0 0.027554316715059077 -0.022563352530659244 0 0.027317937472371823 -0.022485549140528124 0 0.027389755409351346 -0.02293001965464616 0 0.027688158999751553 -0.022672083252792151 0 0.027554316715059077 -0.022563352530659244 0 0.027389755409351346 -0.02293001965464616 0 0.027688158999751553 -0.022672083252792151 0 0.027389755409351346 -0.02293001965464616 0 0.027627870333713441 -0.023230855468933997 0 0.027779435546134861 -0.023313972851006826 0 0.027859924167814097 -0.023466211860079932 0 0.027317937472371823 -0.022485549140528124 0 0.027536749993147168 -0.022102352856855731 0 0.027783024486425806 -0.022235279672241731 0 0.02767282221050258 -0.022443421004936112 0 0.027317937472371823 -0.022485549140528124 0 0.027783024486425806 -0.022235279672241731 0 0.027536749993147168 -0.022102352856855731 0 0.027851419693295704 -0.022031868611529667 0 0.027783024486425806 -0.022235279672241731 0 0.026064327411836143 -0.023678362885678747 0 0.02712985429672217 -0.023820718586065017 0 0.026438712123537076 -0.025057071762750831 0 0.027536749993147168 -0.022102352856855731 0 0.028036313327990246 -0.021605982284666179 0 0.027851419693295704 -0.022031868611529667 0 0.024455468785253828 -0.025292557565279442 0 0.024133896626695597 -0.025975322857011145 0 0.027627870333713441 -0.023230855468933997 0 0.02712985429672217 -0.023820718586065017 0 0.02795768406626677 -0.02492627939943904 0 0.027389755409351346 -0.02293001965464616 0 0.027627870333713441 -0.023230855468933997 0 0.02712985429672217 -0.023820718586065017 0 0.027389755409351346 -0.02293001965464616 0 0.026064327411836143 -0.023678362885678747 0 0.02712985429672217 -0.023820718586065017 0 0.02795768406626677 -0.02492627939943904 0 0.027055649664381381 -0.025987538478714513 0 0.026438712123537076 -0.025057071762750831 0 0.02712985429672217 -0.023820718586065017 0 0.02795768406626677 -0.02492627939943904 0 0.026438712123537076 -0.025057071762750831 0 0.024133896626695597 -0.025975322857011145 0 0.023068206290781056 -0.027880999272630418 0 0.02795768406626677 -0.02492627939943904 0 0.027055649664381381 -0.025987538478714513 0 0.028191944803269746 -0.027006678107384437 0 0.027055649664381381 -0.025987538478714513 0 0.026438712123537076 -0.025057071762750831 0 0.025980420914473258 -0.026152931644271783 0 0.026064327411836143 -0.023678362885678747 0 0.026438712123537076 -0.025057071762750831 0 0.024852435343690391 -0.02575248369387164 0 0.027859924167814097 -0.023466211860079932 0 0.028280579827445439 -0.023743624416691804 0 0.027536749993147168 -0.022102352856855731 0 0.027979590582325724 -0.020690886587135433 0 0.028036313327990246 -0.021605982284666179 0 0.026438712123537076 -0.025057071762750831 0 0.024852435343690391 -0.02575248369387164 0 0.025980420914473258 -0.026152931644271783 0 0.024852435343690391 -0.02575248369387164 0 0.025980420914473258 -0.026152931644271783 0 0.025269045754708425 -0.027068107536719704 0 0.025980420914473258 -0.026152931644271783 0 0.02639004679025625 -0.027141274177184302 0 0.025269045754708425 -0.027068107536719704 0 0.02639004679025625 -0.027141274177184302 0 0.025269045754708425 -0.027068107536719704 0 0.025334129080490011 -0.028148089648319524 0 0.025269045754708425 -0.027068107536719704 0 0.025334129080490011 -0.028148089648319524 0 0.023750834847898063 -0.028168706383073172 0 0.02639004679025625 -0.027141274177184302 0 0.025334129080490011 -0.028148089648319524 0 0.026603236032483272 -0.029119773000571111 0 0.025334129080490011 -0.028148089648319524 0 0.024813418816525663 -0.029484341878429167 0 0.023750834847898063 -0.028168706383073172 0 0.025334129080490011 -0.028148089648319524 0 0.024813418816525663 -0.029484341878429167 0 0.026603236032483272 -0.029119773000571111 0 0.024065466406716803 -0.028337356814001301 0 0.023068206290781056 -0.027880999272630418 0 0.025825885951565337 -0.029776934274575406 0 0.026912689043612773 -0.028335197918341236 0 0.027091062672103986 -0.030553436680537061 0 0.02639004679025625 -0.027141274177184302 0 0.026603236032483272 -0.029119773000571111 0 0.028191944803269746 -0.027006678107384437 0 0.027055649664381381 -0.025987538478714513 0 0.02639004679025625 -0.027141274177184302 0 0.028191944803269746 -0.027006678107384437 0 0.027055649664381381 -0.025987538478714513 0 0.025980420914473258 -0.026152931644271783 0 0.02639004679025625 -0.027141274177184302 0 0.020567394799591073 -0.027139393306081078 0 0.023068206290781056 -0.027880999272630418 0 0.012022065621337251 -0.028917808478641987 0 0.011742757966651376 -0.029297958072027615 0 0.012159850894449349 -0.02922574476283624 0 0.011742757966651376 -0.029297958072027615 0 0.012159850894449349 -0.02922574476283624 0 0.012215096590487381 -0.029620801258315357 0 0.012571099820410634 -0.029203688073635891 0 0.012334772232280166 -0.028922942518941661 0 0.012159850894449349 -0.02922574476283624 0 0.012571099820410634 -0.029203688073635891 0 0.012159850894449349 -0.02922574476283624 0 0.012215096590487381 -0.029620801258315357 0 0.011742757966651376 -0.029297958072027615 0 0.012016304308657296 -0.029826935131753825 0 0.011727846458180055 -0.029946412599543868 0 0.011742757966651376 -0.029297958072027615 0 0.012215096590487381 -0.029620801258315357 0 0.012016304308657296 -0.029826935131753825 0 0.023068206290781056 -0.027880999272630418 0 0.021465684652138536 -0.030198617870065725 0 0.011727846458180055 -0.029946412599543868 0 0.012086016117742135 -0.03023671282792333 0 0.012234172228393294 -0.030927197294118938 0 0.012016304308657296 -0.029826935131753825 0 0.011727846458180055 -0.029946412599543868 0 0.012086016117742135 -0.03023671282792333 0 0.012215096590487381 -0.029620801258315357 0 0.012016304308657296 -0.029826935131753825 0 0.012300218404199521 -0.030172370525277291 0 0.012513975567856715 -0.029830664688693866 0 0.012215096590487381 -0.029620801258315357 0 0.012300218404199521 -0.030172370525277291 0 0.012086016117742135 -0.03023671282792333 0 0.012300218404199521 -0.030172370525277291 0 0.012326104288887606 -0.030394541436089939 0 0.012016304308657296 -0.029826935131753825 0 0.012086016117742135 -0.03023671282792333 0 0.012300218404199521 -0.030172370525277291 0 0.012086016117742135 -0.03023671282792333 0 0.012326104288887606 -0.030394541436089939 0 0.012290564815029889 -0.030689471748252272 0 0.01276000111873961 -0.031134236065938736 0 0.013139364358544972 -0.031546717314891025 0 0.012086016117742135 -0.03023671282792333 0 0.013184681972266113 -0.031324151361999959 0 0.013709184566740508 -0.031276602109761735 0 0.012471607188335608 -0.031584525453395053 0 0.013184681972266113 -0.031324151361999959 0 0.012234172228393294 -0.030927197294118938 0 0.011844281229921151 -0.031589363809321758 0 0.011727846458180055 -0.029946412599543868 0 0.012234172228393294 -0.030927197294118938 0 0.012086016117742135 -0.03023671282792333 0 0.013184681972266113 -0.031324151361999959 0 0.012234172228393294 -0.030927197294118938 0 0.02087675974477941 -0.032404971145509456 0 0.021465684652138536 -0.030198617870065725 0 0.011844281229921151 -0.031589363809321758 0 0.012471607188335608 -0.031584525453395053 0 0.012234172228393294 -0.030927197294118938 0 0.027284409928700116 -0.032898304035682432 0 0.027091062672103986 -0.030553436680537061 0 0.026091003587484795 -0.031758745332618327 0 0.025931857981985454 -0.032865174901568033 0 0.027284409928700116 -0.032898304035682432 0 0.026091003587484795 -0.031758745332618327 0 0.025931857981985454 -0.032865174901568033 0 0.026091003587484795 -0.031758745332618327 0 0.025128506097357971 -0.03219462274140196 0 0.026091003587484795 -0.031758745332618327 0 0.025128506097357971 -0.03219462274140196 0 0.024761718592045373 -0.03117815549589828 0 0.02451466826940505 -0.033009231319414842 0 0.025128506097357971 -0.03219462274140196 0 0.024246023552551132 -0.031999434172690598 0 0.025128506097357971 -0.03219462274140196 0 0.024761718592045373 -0.03117815549589828 0 0.024246023552551132 -0.031999434172690598 0 0.026091003587484795 -0.031758745332618327 0 0.024761718592045373 -0.03117815549589828 0 0.025933075831728124 -0.030816288041437549 0 0.024813418816525663 -0.029484341878429167 0 0.026603236032483272 -0.029119773000571111 0 0.024761718592045373 -0.03117815549589828 0 0.025825885951565337 -0.029776934274575406 0 0.024761718592045373 -0.03117815549589828 0 0.025933075831728124 -0.030816288041437549 0 0.024065466406716803 -0.028337356814001301 0 0.024052921927365734 -0.028877470845903117 0 0.025825885951565337 -0.029776934274575406 0 0.027091062672103986 -0.030553436680537061 0 0.025933075831728124 -0.030816288041437549 0 0.027091062672103986 -0.030553436680537061 0 0.026091003587484795 -0.031758745332618327 0 0.025933075831728124 -0.030816288041437549 0 0.031581571093769578 -0.018748097032869188 0 0.032650754005634892 -0.018323026128838453 0 0.032546720999639095 -0.019321455222275016 0 0.024813418816525663 -0.029484341878429167 0 0.024761718592045373 -0.03117815549589828 0 0.022862417937199446 -0.030577856158149182 0 0.031114943555020255 -0.028866985799085282 0 0.031356302753947386 -0.024384382223023013 0 0.0236991167868888 -0.032835012543248929 0 0.022862417937199446 -0.030577856158149182 0 0.024246023552551132 -0.031999434172690598 0 0.024761718592045373 -0.03117815549589828 0 0.022862417937199446 -0.030577856158149182 0 0.024246023552551132 -0.031999434172690598 0 0.0236991167868888 -0.032835012543248929 0 0.02451466826940505 -0.033009231319414842 0 0.024246023552551132 -0.031999434172690598 0 0.033880231282184557 -0.024065591325299958 0 0.031356302753947386 -0.024384382223023013 0 0.036074056846414009 -0.028563522839715423 0 0.036096480085659445 -0.028557744398163054 0 0.036067335709813617 -0.028497598211952028 0 0.032146383181578808 -0.017352068581518505 0 0.031581571093769578 -0.018748097032869188 0 0.032650754005634892 -0.018323026128838453 0 0.033635082925524008 -0.017280413309004525 0 0.032146383181578808 -0.017352068581518505 0 0.032650754005634892 -0.018323026128838453 0 0.033635082925524008 -0.017280413309004525 0 0.032650754005634892 -0.018323026128838453 0 0.033610588221003317 -0.018310416317374362 0 0.033635082925524008 -0.017280413309004525 0 0.033610588221003317 -0.018310416317374362 0 0.034679601371159954 -0.018620904597674414 0 0.035461402212077511 -0.023109680628132113 0 0.035840670314463176 -0.022272740307376061 0 0.033383040429325703 -0.019078583239934156 0 0.034329984101292746 -0.019948709731383778 0 0.034679601371159954 -0.018620904597674414 0 0.033610588221003317 -0.018310416317374362 0 0.033383040429325703 -0.019078583239934156 0 0.034679601371159954 -0.018620904597674414 0 0.032650754005634892 -0.018323026128838453 0 0.033383040429325703 -0.019078583239934156 0 0.032546720999639095 -0.019321455222275016 0 0.032650754005634892 -0.018323026128838453 0 0.033610588221003317 -0.018310416317374362 0 0.033383040429325703 -0.019078583239934156 0 0.032546720999639095 -0.019321455222275016 0 0.033122467522677564 -0.020148357541344922 0 0.032018941010247257 -0.020335266082517824 0 0.033383040429325703 -0.019078583239934156 0 0.032546720999639095 -0.019321455222275016 0 0.033122467522677564 -0.020148357541344922 0 0.033383040429325703 -0.019078583239934156 0 0.033122467522677564 -0.020148357541344922 0 0.034329984101292746 -0.019948709731383778 0 0.033122467522677564 -0.020148357541344922 0 0.034329984101292746 -0.019948709731383778 0 0.034080101733327879 -0.021170337357779016 0 0.033122467522677564 -0.020148357541344922 0 0.032827451747893747 -0.020998506710964222 0 0.032018941010247257 -0.020335266082517824 0 0.033122467522677564 -0.020148357541344922 0 0.032827451747893747 -0.020998506710964222 0 0.034080101733327879 -0.021170337357779016 0 0.03106622110794123 -0.018710317976766921 0 0.030119754205160099 -0.020268257424192321 0 0.030819187246864242 -0.021002244972274604 0 0.03106622110794123 -0.018710317976766921 0 0.029328584460246773 -0.019638855562272628 0 0.030119754205160099 -0.020268257424192321 0 0.029957212661287206 -0.015425546009971475 0 0.03106622110794123 -0.018710317976766921 0 0.028987884031575092 -0.017963544543727755 0 0.031581571093769578 -0.018748097032869188 0 0.032546720999639095 -0.019321455222275016 0 0.032018941010247257 -0.020335266082517824 0 0.031356302753947386 -0.024384382223023013 0 0.031015790259251875 -0.021123887383269094 0 0.031356302753947386 -0.024384382223023013 0 0.029327366503719129 -0.024021035663702246 0 0.024813418816525663 -0.029484341878429167 0 0.022862417937199446 -0.030577856158149182 0 0.023750834847898063 -0.028168706383073172 0 0.024852435343690391 -0.02575248369387164 0 0.025269045754708425 -0.027068107536719704 0 0.023750834847898063 -0.028168706383073172 0 0.028280579827445439 -0.023743624416691804 0 0.029327366503719129 -0.024021035663702246 0 0.03106622110794123 -0.018710317976766921 0 0.028987884031575092 -0.017963544543727755 0 0.029328584460246773 -0.019638855562272628 0 0.027979590582325724 -0.020690886587135433 0 0.028987884031575092 -0.017963544543727755 0 0.029328584460246773 -0.019638855562272628 0 0.027979590582325724 -0.020690886587135433 0 0.029328584460246773 -0.019638855562272628 0 0.029438609961482641 -0.020993766392163056 0 0.027979590582325724 -0.020690886587135433 0 0.029438609961482641 -0.020993766392163056 0 0.028036313327990246 -0.021605982284666179 0 0.029438609961482641 -0.020993766392163056 0 0.028036313327990246 -0.021605982284666179 0 0.031637828113733134 -0.022753124449757973 0 0.029328584460246773 -0.019638855562272628 0 0.029438609961482641 -0.020993766392163056 0 0.030119754205160099 -0.020268257424192321 0 0.03106622110794123 -0.018710317976766921 0 0.030819187246864242 -0.021002244972274604 0 0.032264695310336329 -0.022142614951572579 0 0.031015790259251875 -0.021123887383269094 0 0.031294719062833987 -0.021372327830910209 0 0.029438609961482641 -0.020993766392163056 0 0.030819187246864242 -0.021002244972274604 0 0.031637828113733134 -0.022753124449757973 0 0.029438609961482641 -0.020993766392163056 0 0.030119754205160099 -0.020268257424192321 0 0.030819187246864242 -0.021002244972274604 0 0.030819187246864242 -0.021002244972274604 0 0.031637828113733134 -0.022753124449757973 0 0.032264695310336329 -0.022142614951572579 0 0.028249192605185759 -0.02200530417859663 0 0.028124812632280529 -0.021978234867543158 0 0.02818176463981718 -0.022147488721287117 0 0.028020156075043386 -0.022080217064114418 0 0.028124812632280529 -0.021978234867543158 0 0.02818176463981718 -0.022147488721287117 0 0.028249192605185759 -0.02200530417859663 0 0.02818176463981718 -0.022147488721287117 0 0.028341863686666378 -0.022148153922412178 0 0.029440551600596096 -0.02134204827427718 0 0.03029629530329473 -0.021390260867082584 0 0.028036313327990246 -0.021605982284666179 0 0.028249192605185759 -0.02200530417859663 0 0.028124812632280529 -0.021978234867543158 0 0.028036313327990246 -0.021605982284666179 0 0.028020156075043386 -0.022080217064114418 0 0.027851419693295704 -0.022031868611529667 0 0.028036313327990246 -0.021605982284666179 0 0.028020156075043386 -0.022080217064114418 0 0.028124812632280529 -0.021978234867543158 0 0.028020156075043386 -0.022080217064114418 0 0.027851419693295704 -0.022031868611529667 0 0.027783024486425806 -0.022235279672241731 0 0.028020156075043386 -0.022080217064114418 0 0.027783024486425806 -0.022235279672241731 0 0.027935800685896347 -0.022350688557529773 0 0.028020156075043386 -0.022080217064114418 0 0.027935800685896347 -0.022350688557529773 0 0.02818176463981718 -0.022147488721287117 0 0.02767282221050258 -0.022443421004936112 0 0.027783024486425806 -0.022235279672241731 0 0.027935800685896347 -0.022350688557529773 0 0.02818176463981718 -0.022147488721287117 0 0.02812418434561656 -0.022376219836967547 0 0.028290333104844793 -0.022295807260899494 0 0.027935800685896347 -0.022350688557529773 0 0.02818176463981718 -0.022147488721287117 0 0.02812418434561656 -0.022376219836967547 0 0.02812418434561656 -0.022376219836967547 0 0.027977909717317465 -0.022528135021320651 0 0.028232453309631603 -0.022527433955041136 0 0.02812418434561656 -0.022376219836967547 0 0.028290333104844793 -0.022295807260899494 0 0.028232453309631603 -0.022527433955041136 0 0.027720661129966788 -0.022558294703834383 0 0.027935800685896347 -0.022350688557529773 0 0.027977909717317465 -0.022528135021320651 0 0.027935800685896347 -0.022350688557529773 0 0.02812418434561656 -0.022376219836967547 0 0.027977909717317465 -0.022528135021320651 0 0.02767282221050258 -0.022443421004936112 0 0.027720661129966788 -0.022558294703834383 0 0.027935800685896347 -0.022350688557529773 0 0.028435193174154105 -0.022415515133112185 0 0.028655401544382793 -0.022339689685593394 0 0.028568813881126823 -0.022599743758381287 0 0.028435193174154105 -0.022415515133112185 0 0.028449714299745698 -0.022242969383974066 0 0.028655401544382793 -0.022339689685593394 0 0.028435193174154105 -0.022415515133112185 0 0.028290333104844793 -0.022295807260899494 0 0.028232453309631603 -0.022527433955041136 0 0.028435193174154105 -0.022415515133112185 0 0.028290333104844793 -0.022295807260899494 0 0.028449714299745698 -0.022242969383974066 0 0.028341863686666378 -0.022148153922412178 0 0.028449714299745698 -0.022242969383974066 0 0.028549741875699274 -0.022096641388190293 0 0.028290333104844793 -0.022295807260899494 0 0.028341863686666378 -0.022148153922412178 0 0.028449714299745698 -0.022242969383974066 0 0.02818176463981718 -0.022147488721287117 0 0.028290333104844793 -0.022295807260899494 0 0.028341863686666378 -0.022148153922412178 0 0.028449714299745698 -0.022242969383974066 0 0.028549741875699274 -0.022096641388190293 0 0.028655401544382793 -0.022339689685593394 0 0.034028955547929451 -0.02315053643093944 0 0.033635960623799518 -0.022013212254119844 0 0.034935756247743088 -0.02271843199533493 0 0.03029629530329473 -0.021390260867082584 0 0.031906374670191931 -0.021138394022664944 0 0.028249192605185759 -0.02200530417859663 0 0.028341863686666378 -0.022148153922412178 0 0.028549741875699274 -0.022096641388190293 0 0.034028955547929451 -0.02315053643093944 0 0.032264695310336329 -0.022142614951572579 0 0.033635960623799518 -0.022013212254119844 0 0.031637828113733134 -0.022753124449757973 0 0.034028955547929451 -0.02315053643093944 0 0.032264695310336329 -0.022142614951572579 0 0.032827451747893747 -0.020998506710964222 0 0.032018941010247257 -0.020335266082517824 0 0.032264695310336329 -0.022142614951572579 0 0.032827451747893747 -0.020998506710964222 0 0.032264695310336329 -0.022142614951572579 0 0.033635960623799518 -0.022013212254119844 0 0.032827451747893747 -0.020998506710964222 0 0.033635960623799518 -0.022013212254119844 0 0.034080101733327879 -0.021170337357779016 0 0.033635960623799518 -0.022013212254119844 0 0.034080101733327879 -0.021170337357779016 0 0.034935756247743088 -0.02271843199533493 0 0.034080101733327879 -0.021170337357779016 0 0.035480196960533082 -0.021465454694955022 0 0.035248095125809023 -0.020812692745859954 0 0.035133806274073746 -0.020924153596382961 0 0.035476785664785557 -0.020985502710219584 0 0.034080101733327879 -0.021170337357779016 0 0.035534042666837386 -0.021932789759087506 0 0.034935756247743088 -0.02271843199533493 0 0.035480196960533082 -0.021465454694955022 0 0.036195611420948362 -0.02101235446540323 0 0.036279547256865233 -0.021432716909898716 0 0.035480196960533082 -0.021465454694955022 0 0.036279547256865233 -0.021432716909898716 0 0.035248095125809023 -0.020812692745859954 0 0.035850308676775036 -0.022989810944743401 0 0.036370288237092208 -0.023188877550576005 0 0.036828689610989201 -0.022627626156027494 0 0.035476785664785557 -0.020985502710219584 0 0.035819083706594049 -0.020840621032275429 0 0.035534042666837386 -0.021932789759087506 0 0.035850308676775036 -0.022989810944743401 0 0.036828689610989201 -0.022627626156027494 0 0.035850308676775036 -0.022989810944743401 0 0.036370288237092208 -0.023188877550576005 0 0.035908684848747548 -0.02349087671335021 0 0.034028955547929451 -0.02315053643093944 0 0.034935756247743088 -0.02271843199533493 0 0.035909701496697255 -0.023551648366844653 0 0.035534042666837386 -0.021932789759087506 0 0.035850308676775036 -0.022989810944743401 0 0.034935756247743088 -0.02271843199533493 0 0.035850308676775036 -0.022989810944743401 0 0.034935756247743088 -0.02271843199533493 0 0.035909701496697255 -0.023551648366844653 0 0.031906374670191931 -0.021138394022664944 0 0.03446883868754419 -0.020325344847004757 0 0.028549741875699274 -0.022096641388190293 0 0.028876938771282182 -0.022178613982714871 0 0.028655401544382793 -0.022339689685593394 0 0.034511888461298525 -0.020544251806567448 0 0.03446883868754419 -0.020325344847004757 0 0.036370288237092208 -0.023188877550576005 0 0.035908684848747548 -0.02349087671335021 0 0.03685782043602303 -0.023393899574293352 0 0.03446883868754419 -0.020325344847004757 0 0.033995246808182424 -0.019852327263502847 0 0.037902891430157536 -0.019389404117910809 0 0.037748708059555998 -0.01774802197368255 0 0.037034722868765163 -0.018618880379785322 0 0.037748708059555998 -0.01774802197368255 0 0.036727236649643266 -0.017724435822320375 0 0.037034722868765163 -0.018618880379785322 0 0.028895051889334215 -0.022451020840873158 0 0.028655401544382793 -0.022339689685593394 0 0.02876317298389677 -0.022591683434422343 0 0.028876938771282182 -0.022178613982714871 0 0.028895051889334215 -0.022451020840873158 0 0.028655401544382793 -0.022339689685593394 0 0.035624007213753854 -0.01831766696572646 0 0.034999994563865121 -0.017778473979600279 0 0.035498050984097133 -0.018978543408472943 0 0.035624007213753854 -0.01831766696572646 0 0.035906769119573176 -0.017833711937804447 0 0.036090523457386746 -0.018680371698302008 0 0.035624007213753854 -0.01831766696572646 0 0.034999994563865121 -0.017778473979600279 0 0.035906769119573176 -0.017833711937804447 0 0.035870615587583372 -0.019199856838331454 0 0.03562888683740225 -0.019574512243779894 0 0.036727236649643266 -0.017724435822320375 0 0.036073812153866736 -0.018689503793152186 0 0.037034722868765163 -0.018618880379785322 0 0.035906769119573176 -0.017833711937804447 0 0.036727236649643266 -0.017724435822320375 0 0.036090523457386746 -0.018680371698302008 0 0.037902891430157536 -0.019389404117910809 0 0.037034722868765163 -0.018618880379785322 0 0.035952770943781798 -0.018869262392796411 0 0.03446883868754419 -0.020325344847004757 0 0.035540648778496366 -0.019712051360153859 0 0.035908684848747548 -0.02349087671335021 0 0.03685782043602303 -0.023393899574293352 0 0.037608164577563996 -0.023923108940120102 0 0.036073812153866736 -0.018689503793152186 0 0.037034722868765163 -0.018618880379785322 0 0.035952770943781798 -0.018869262392796411 0 0.036370288237092208 -0.023188877550576005 0 0.03685782043602303 -0.023393899574293352 0 0.036905178505816122 -0.023112552850405404 0 0.03685782043602303 -0.023393899574293352 0 0.037416337862638906 -0.023296603971533138 0 0.036905178505816122 -0.023112552850405404 0 0.03685782043602303 -0.023393899574293352 0 0.037416337862638906 -0.023296603971533138 0 0.037608164577563996 -0.023923108940120102 0 0.035540648778496366 -0.019712051360153859 0 0.035316499323067831 -0.02007129066225655 0 0.03597077978414448 -0.018860483647126908 0 0.035498050984097133 -0.018978543408472943 0 0.03544794082573783 -0.019642206498223375 0 0.037416337862638906 -0.023296603971533138 0 0.037608164577563996 -0.023923108940120102 0 0.038056565455451372 -0.023250916744106682 0 0.034999994563865121 -0.017778473979600279 0 0.035498050984097133 -0.018978543408472943 0 0.034999995844083656 -0.019419700446361588 0 0.036090523457386746 -0.018680371698302008 0 0.03597077978414448 -0.018860483647126908 0 0.035498050984097133 -0.018978543408472943 0 0.035624007213753854 -0.01831766696572646 0 0.036090523457386746 -0.018680371698302008 0 0.035498050984097133 -0.018978543408472943 0 0.03562888683740225 -0.019574512243779894 0 0.035540648778496366 -0.019712051360153859 0 0.035498050984097133 -0.018978543408472943 0 0.03544794082573783 -0.019642206498223375 0 0.034999995844083656 -0.019419700446361588 0 0.035316499323067831 -0.02007129066225655 0 0.035000504063192758 -0.019424027648358315 0 0.0354496570635809 -0.019644987920293577 0 0.034999999000586333 -0.019419715755806522 0 0.034999999705672351 -0.020313078134525323 0 0.035284681511172512 -0.020037767419732923 0 0.034999852527280578 -0.020314285933380725 0 0.036195611420948362 -0.02101235446540323 0 0.035316499323067831 -0.02007129066225655 0 0.035001094846154275 -0.020312626952257183 0 0.034999852527280578 -0.020314285933380725 0 0.036195611420948362 -0.02101235446540323 0 0.036279547256865233 -0.021432716909898716 0 0.035316499323067831 -0.02007129066225655 0 0.035819083706594049 -0.020840621032275429 0 0.037416337862638906 -0.023296603971533138 0 0.038056565455451372 -0.023250916744106682 0 0.036828689610989201 -0.022627626156027494 0 0.036370288237092208 -0.023188877550576005 0 0.036905178505816122 -0.023112552850405404 0 0.036828689610989201 -0.022627626156027494 0 0.037416337862638906 -0.023296603971533138 0 0.036905178505816122 -0.023112552850405404 0 0.036828689610989201 -0.022627626156027494 0 0.034999852527280578 -0.020314285933380725 0 0.036279547256865233 -0.021432716909898716 0 0.034999627315057541 -0.025481892005292248 0 0.036279547256865233 -0.021432716909898716 0 0.037444814604956231 -0.023241312109567855 0 0.034999627315057541 -0.025481892005292248 0 0.036045681656951961 -0.021731160868968306 0 0.036039976726599643 -0.021900279736092522 0 0.036279547256865233 -0.021432716909898716 0 0.035248095125809023 -0.020812692745859954 0 0.035709514037892277 -0.020084168115148921 0 0.034329984101292746 -0.019948709731383778 0 0.034080101733327879 -0.021170337357779016 0 0.035248095125809023 -0.020812692745859954 0 0.034329984101292746 -0.019948709731383778 0 0.035248095125809023 -0.020812692745859954 0 0.035709514037892277 -0.020084168115148921 0 0.036039976726599643 -0.021900279736092522 0 0.035840670314463176 -0.022272740307376061 0 0.034329984101292746 -0.019948709731383778 0 0.035709514037892277 -0.020084168115148921 0 0.034679601371159954 -0.018620904597674414 0 0.037444814604956231 -0.023241312109567855 0 0.03711330801513784 -0.024814338617290752 0 0.038360530164746567 -0.025010893042636855 0 0.038178402178961894 -0.026395149178442889 0 0.038360530164746567 -0.025010893042636855 0 0.037595417273587534 -0.02592919950635313 0 0.038178402178961894 -0.026395149178442889 0 0.038837679963255163 -0.026242938106051338 0 0.038360530164746567 -0.025010893042636855 0 0.03711330801513784 -0.024814338617290752 0 0.038360530164746567 -0.025010893042636855 0 0.037595417273587534 -0.02592919950635313 0 0.03711330801513784 -0.024814338617290752 0 0.037595417273587534 -0.02592919950635313 0 0.036457321561736908 -0.025872084998226064 0 0.037444814604956231 -0.023241312109567855 0 0.03711330801513784 -0.024814338617290752 0 0.034999627315057541 -0.025481892005292248 0 0.036163378882101908 -0.027328415467602375 0 0.036457321561736908 -0.025872084998226064 0 0.034999627315057541 -0.025481892005292248 0 0.03711330801513784 -0.024814338617290752 0 0.036457321561736908 -0.025872084998226064 0 0.034999627315057541 -0.025481892005292248 0 0.037109215618006793 -0.0096185671864678773 0 0.036798042396453012 -0.010423493149004424 0 0.037178357733799558 -0.011006090914065418 0 0.034446390964152633 -0.012313932972655066 0 0.034277424820013849 -0.012994578650566375 0 0.036616773393108107 -0.0099974653471386465 0 0.036278349280307792 -0.010371259457882583 0 0.036289989658961665 -0.0095495278322616107 0 0.036278349280307792 -0.010371259457882583 0 0.035618549833796413 -0.0099481599894014408 0 0.036289989658961665 -0.0095495278322616107 0 0.036616773393108107 -0.0099974653471386465 0 0.037109215618006793 -0.0096185671864678773 0 0.036798042396453012 -0.010423493149004424 0 0.036616773393108107 -0.0099974653471386465 0 0.037109215618006793 -0.0096185671864678773 0 0.036289989658961665 -0.0095495278322616107 0 0.036798042396453012 -0.010423493149004424 0 0.036562768679774905 -0.01092485842907598 0 0.037178357733799558 -0.011006090914065418 0 0.036798042396453012 -0.010423493149004424 0 0.036278349280307792 -0.010371259457882583 0 0.036562768679774905 -0.01092485842907598 0 0.036616773393108107 -0.0099974653471386465 0 0.036798042396453012 -0.010423493149004424 0 0.036278349280307792 -0.010371259457882583 0 0.036278349280307792 -0.010371259457882583 0 0.036134294792575329 -0.010853242742762025 0 0.036562768679774905 -0.01092485842907598 0 0.036278349280307792 -0.010371259457882583 0 0.036134294792575329 -0.010853242742762025 0 0.035850069425478179 -0.010513848546804594 0 0.036134294792575329 -0.010853242742762025 0 0.035850069425478179 -0.010513848546804594 0 0.035462560101632665 -0.010850281083570992 0 0.036278349280307792 -0.010371259457882583 0 0.035850069425478179 -0.010513848546804594 0 0.035618549833796413 -0.0099481599894014408 0 0.035850069425478179 -0.010513848546804594 0 0.035462560101632665 -0.010850281083570992 0 0.035618549833796413 -0.0099481599894014408 0 0.034999908891134836 -0.010817687888884531 0 0.035618549833796413 -0.0099481599894014408 0 0.034999649985132351 -0.0087794091239238783 0 0.034999908891134836 -0.010817687888884531 0 0.035462560101632665 -0.010850281083570992 0 0.035618549833796413 -0.0099481599894014408 0 0.035618549833796413 -0.0099481599894014408 0 0.034999649985132351 -0.0087794091239238783 0 0.035811924085982938 -0.0088553484112841932 0 0.035618549833796413 -0.0099481599894014408 0 0.035811924085982938 -0.0088553484112841932 0 0.036289989658961665 -0.0095495278322616107 0 0.035811924085982938 -0.0088553484112841932 0 0.036511135072016455 -0.0085272795617704206 0 0.035912421824142969 -0.0073906024066651924 0 0.036511135072016455 -0.0085272795617704206 0 0.037826675610199124 -0.009603732822692836 0 0.03706857862369433 -0.0068161999017104331 0 0.035811924085982938 -0.0088553484112841932 0 0.036289989658961665 -0.0095495278322616107 0 0.036511135072016455 -0.0085272795617704206 0 0.037109215618006793 -0.0096185671864678773 0 0.036289989658961665 -0.0095495278322616107 0 0.036511135072016455 -0.0085272795617704206 0 0.037109215618006793 -0.0096185671864678773 0 0.036511135072016455 -0.0085272795617704206 0 0.037826675610199124 -0.009603732822692836 0 0.036856597245142536 -0.0060030291890143701 0 0.037411958478139461 -0.0048720650137226446 0 0.03706857862369433 -0.0068161999017104331 0 0.034889964388725318 -0.00880322416756712 0 0.035085709696811934 -0.008202521519516854 0 0.036856597245142536 -0.0060030291890143701 0 0.036952347011888841 -0.0051904905891199983 0 0.036725789703927328 -0.0052050387892441183 0 0.036952347011888841 -0.0051904905891199983 0 0.036725789703927328 -0.0052050387892441183 0 0.036876854119133065 -0.0047456269698248153 0 0.036952347011888841 -0.0051904905891199983 0 0.037411958478139461 -0.0048720650137226446 0 0.036876854119133065 -0.0047456269698248153 0 0.036856597245142536 -0.0060030291890143701 0 0.036952347011888841 -0.0051904905891199983 0 0.037411958478139461 -0.0048720650137226446 0 0.036856597245142536 -0.0060030291890143701 0 0.036725789703927328 -0.0052050387892441183 0 0.036596943322235814 -0.0053551842533921838 0 0.036725789703927328 -0.0052050387892441183 0 0.0364355961823805 -0.0047080790314399075 0 0.036645491822860032 -0.0047641370642126429 0 0.036725789703927328 -0.0052050387892441183 0 0.036645491822860032 -0.0047641370642126429 0 0.036876854119133065 -0.0047456269698248153 0 0.0364355961823805 -0.0047080790314399075 0 0.036206943282983281 -0.0046374185022566147 0 0.036596943322235814 -0.0053551842533921838 0 0.036725789703927328 -0.0052050387892441183 0 0.0364355961823805 -0.0047080790314399075 0 0.036596943322235814 -0.0053551842533921838 0 0.0364355961823805 -0.0047080790314399075 0 0.036594534240499521 -0.0044259206982356072 0 0.036332322136569485 -0.0042903693179430187 0 0.036594534240499521 -0.0044259206982356072 0 0.036876854119133065 -0.0047456269698248153 0 0.036879056217644021 -0.0043064269268052787 0 0.0364355961823805 -0.0047080790314399075 0 0.036645491822860032 -0.0047641370642126429 0 0.036594534240499521 -0.0044259206982356072 0 0.036645491822860032 -0.0047641370642126429 0 0.036594534240499521 -0.0044259206982356072 0 0.036876854119133065 -0.0047456269698248153 0 0.036594534240499521 -0.0044259206982356072 0 0.036879056217644021 -0.0043064269268052787 0 0.036557265585854676 -0.0040597113381974975 0 0.036332322136569485 -0.0042903693179430187 0 0.036557265585854676 -0.0040597113381974975 0 0.036179198857404997 -0.0039571134566074159 0 0.036594534240499521 -0.0044259206982356072 0 0.036332322136569485 -0.0042903693179430187 0 0.036557265585854676 -0.0040597113381974975 0 0.037826675610199124 -0.009603732822692836 0 0.038133345098314508 -0.011974814943387041 0 0.037274078272049892 -0.011588669340801444 0 0.037109215618006793 -0.0096185671864678773 0 0.037826675610199124 -0.009603732822692836 0 0.037274078272049892 -0.011588669340801444 0 0.034889964388725318 -0.00880322416756712 0 0.034200997071340937 -0.010761364155980311 0 0.037411958478139461 -0.0048720650137226446 0 0.036879056217644021 -0.0043064269268052787 0 0.037134264519040637 -0.0039441382740210288 0 0.037411958478139461 -0.0048720650137226446 0 0.036876854119133065 -0.0047456269698248153 0 0.036879056217644021 -0.0043064269268052787 0 0.037134264519040637 -0.0039441382740210288 0 0.036600328468158812 -0.0036871977141647552 0 0.036955054255671471 -0.0033092560094918492 0 0.034200997071340937 -0.010761364155980311 0 0.032959837369924479 -0.01528283692091654 0 0.038133345098314508 -0.011974814943387041 0 0.037447258360749358 -0.013507581256024909 0 0.037274078272049892 -0.011588669340801444 0 0.036879056217644021 -0.0043064269268052787 0 0.037134264519040637 -0.0039441382740210288 0 0.036788463859253745 -0.003990725257756394 0 0.037134264519040637 -0.0039441382740210288 0 0.036788463859253745 -0.003990725257756394 0 0.036600328468158812 -0.0036871977141647552 0 0.036557265585854676 -0.0040597113381974975 0 0.036600328468158812 -0.0036871977141647552 0 0.036179198857404997 -0.0039571134566074159 0 0.036879056217644021 -0.0043064269268052787 0 0.036788463859253745 -0.003990725257756394 0 0.036557265585854676 -0.0040597113381974975 0 0.036788463859253745 -0.003990725257756394 0 0.036557265585854676 -0.0040597113381974975 0 0.036600328468158812 -0.0036871977141647552 0 0.032842780883627992 -0.015694228673084124 0 0.032406447825424282 -0.01474143418592754 0 0.028974705410818289 -0.023289952866796342 0 0.028721721720135322 -0.023121691725323149 0 0.028592444316670133 -0.023312898430025736 0 0.036600328468158812 -0.0036871977141647552 0 0.036887196917001569 -0.0032636842622483495 0 0.036063873489237223 -0.0033472628656328221 0 0.038133345098314508 -0.011974814943387041 0 0.037447258360749358 -0.013507581256024909 0 0.038462912350195007 -0.014296535442590472 0 0.033706271002824112 -0.014721190690226465 0 0.032959837369924479 -0.01528283692091654 0 0.033706271002824112 -0.014721190690226465 0 0.033457650760172382 -0.015522524678265886 0 0.036600328468158812 -0.0036871977141647552 0 0.036955054255671471 -0.0033092560094918492 0 0.036887196917001569 -0.0032636842622483495 0 0.032959837369924479 -0.01528283692091654 0 0.032842780883627992 -0.015694228673084124 0 0.034887591973620145 -0.017066283238838367 0 0.034594871589311092 -0.01514851622661313 0 0.032433733610805399 -0.015182944731686965 0 0.032959837369924479 -0.01528283692091654 0 0.032927499846324919 -0.015693736195242069 0 0.032927499846324919 -0.015693736195242069 0 0.032842780883627992 -0.015694228673084124 0 0.033926479855256424 -0.015781685681740383 0 0.033207068880081958 -0.015231640241793463 0 0.033860054047044869 -0.015097555986743208 0 0.032927499846324919 -0.015693736195242069 0 0.033457650760172382 -0.015522524678265886 0 0.033207068880081958 -0.015231640241793463 0 0.033188162637259731 -0.01510855910814201 0 0.033860054047044869 -0.015097555986743208 0 0.037273100164266292 -0.012837150895361591 0 0.036137739948684841 -0.012849594242426855 0 0.036657923922448293 -0.013668138051997817 0 0.033457650760172382 -0.015522524678265886 0 0.034707840629265893 -0.014088913553949573 0 0.037270056720877319 -0.012814601643340879 0 0.03613173977530957 -0.012831273140165104 0 0.036513188960409129 -0.012236945918334503 0 0.037214174451763053 -0.012217310136226744 0 0.037270056720877319 -0.012814601643340879 0 0.036513188960409129 -0.012236945918334503 0 0.033706271002824112 -0.014721190690226465 0 0.034277424820013849 -0.012994578650566375 0 0.033706271002824112 -0.014721190690226465 0 0.034118314758284203 -0.014152333638056109 0 0.037289234496718268 -0.012285413803936111 0 0.036337052152554429 -0.011542546064838548 0 0.037178357733799558 -0.011006090914065418 0 0.037214174451763053 -0.012217310136226744 0 0.036513188960409129 -0.012236945918334503 0 0.036355743062652747 -0.011544289097516227 0 0.036513188960409129 -0.012236945918334503 0 0.036355743062652747 -0.011544289097516227 0 0.035482091305117251 -0.011891268331404426 0 0.036134294792575329 -0.010853242742762025 0 0.036337052152554429 -0.011542546064838548 0 0.036562768679774905 -0.01092485842907598 0 0.036337052152554429 -0.011542546064838548 0 0.036562768679774905 -0.01092485842907598 0 0.037178357733799558 -0.011006090914065418 0 0.034999908891134836 -0.010817687888884531 0 0.035482091305117251 -0.011891268331404426 0 0.034999996700789071 -0.012854709108353395 0 0.034999908891134836 -0.010817687888884531 0 0.035462560101632665 -0.010850281083570992 0 0.035482091305117251 -0.011891268331404426 0 0.035462560101632665 -0.010850281083570992 0 0.036355743062652747 -0.011544289097516227 0 0.035482091305117251 -0.011891268331404426 0 0.034151193941196263 -0.013895203708419415 0 0.034118314758284203 -0.014152333638056109 0 0.036134294792575329 -0.010853242742762025 0 0.035462560101632665 -0.010850281083570992 0 0.036337052152554429 -0.011542546064838548 0 0.034707840629265893 -0.014088913553949573 0 0.034999760255182949 -0.012859112701585037 0 0.03613173977530957 -0.012831273140165104 0 0.035482091305117251 -0.011891268331404426 0 0.034999996700789071 -0.012854709108353395 0 0.03613173977530957 -0.012831273140165104 0 0.036513188960409129 -0.012236945918334503 0 0.035482091305117251 -0.011891268331404426 0 0.036137739948684841 -0.012849594242426855 0 0.034999994443108425 -0.012854777409684976 0 0.035911895185752239 -0.013899431068564705 0 0.034999994443108425 -0.012854777409684976 0 0.035911895185752239 -0.013899431068564705 0 0.034999992977117853 -0.014495991817989315 0 0.037273100164266292 -0.012837150895361591 0 0.036657923922448293 -0.013668138051997817 0 0.03743509354442108 -0.014468700779383529 0 0.036137739948684841 -0.012849594242426855 0 0.035911895185752239 -0.013899431068564705 0 0.036657923922448293 -0.013668138051997817 0 0.035911895185752239 -0.013899431068564705 0 0.036657923922448293 -0.013668138051997817 0 0.036594364168780924 -0.014478900897099058 0 0.036657923922448293 -0.013668138051997817 0 0.036594364168780924 -0.014478900897099058 0 0.03743509354442108 -0.014468700779383529 0 0.035911895185752239 -0.013899431068564705 0 0.036594364168780924 -0.014478900897099058 0 0.035937361336317912 -0.015113273337226181 0 0.036594364168780924 -0.014478900897099058 0 0.03688300158422661 -0.015302697227399145 0 0.03743509354442108 -0.014468700779383529 0 0.036594364168780924 -0.014478900897099058 0 0.03688300158422661 -0.015302697227399145 0 0.035937361336317912 -0.015113273337226181 0 0.034999992977117853 -0.014495991817989315 0 0.035937361336317912 -0.015113273337226181 0 0.034999991795660823 -0.016137237117789603 0 0.035911895185752239 -0.013899431068564705 0 0.034999992977117853 -0.014495991817989315 0 0.035937361336317912 -0.015113273337226181 0 0.035937361336317912 -0.015113273337226181 0 0.034999991795660823 -0.016137237117789603 0 0.03614938193026488 -0.01661568490448426 0 0.03688300158422661 -0.015302697227399145 0 0.03614938193026488 -0.01661568490448426 0 0.037594064939848473 -0.016108118148900615 0 0.03688300158422661 -0.015302697227399145 0 0.035937361336317912 -0.015113273337226181 0 0.03614938193026488 -0.01661568490448426 0 0.035906769119573176 -0.017833711937804447 0 0.036727236649643266 -0.017724435822320375 0 0.03614938193026488 -0.01661568490448426 0 0.036727236649643266 -0.017724435822320375 0 0.03614938193026488 -0.01661568490448426 0 0.037594064939848473 -0.016108118148900615 0 0.034999994563865121 -0.017778473979600279 0 0.034999991795660823 -0.016137237117789603 0 0.03614938193026488 -0.01661568490448426 0 0.034999994563865121 -0.017778473979600279 0 0.035906769119573176 -0.017833711937804447 0 0.03614938193026488 -0.01661568490448426 0 0.028655401544382793 -0.022339689685593394 0 0.02876317298389677 -0.022591683434422343 0 0.028568813881126823 -0.022599743758381287 0 0.02876317298389677 -0.022591683434422343 0 0.028683817847333967 -0.022777122054534107 0 0.028568813881126823 -0.022599743758381287 0 0.033995246808182424 -0.019852327263502847 0 0.033720124822663337 -0.019085728503374574 0 0.028895051889334215 -0.022451020840873158 0 0.02876317298389677 -0.022591683434422343 0 0.028905111519240877 -0.022714956874688642 0 0.037748708059555998 -0.01774802197368255 0 0.036727236649643266 -0.017724435822320375 0 0.037594064939848473 -0.016108118148900615 0 0.02876317298389677 -0.022591683434422343 0 0.028905111519240877 -0.022714956874688642 0 0.028683817847333967 -0.022777122054534107 0 0.028905111519240877 -0.022714956874688642 0 0.028683817847333967 -0.022777122054534107 0 0.028809240876878365 -0.022867969587719868 0 0.028683817847333967 -0.022777122054534107 0 0.028699676633046654 -0.022929406907638998 0 0.028809240876878365 -0.022867969587719868 0 0.028699676633046654 -0.022929406907638998 0 0.028809240876878365 -0.022867969587719868 0 0.028836964602250707 -0.02295134928288927 0 0.028905111519240877 -0.022714956874688642 0 0.028809240876878365 -0.022867969587719868 0 0.028892391353098134 -0.022933441852833296 0 0.03688300158422661 -0.015302697227399145 0 0.037594064939848473 -0.016108118148900615 0 0.03743509354442108 -0.014468700779383529 0 0.033720124822663337 -0.019085728503374574 0 0.033567467381388605 -0.01789082898877729 0 0.028809240876878365 -0.022867969587719868 0 0.028836964602250707 -0.02295134928288927 0 0.028892391353098134 -0.022933441852833296 0 0.02887778405965143 -0.023169278260874022 0 0.028858854284960076 -0.023170392367264779 0 0.028836964602250707 -0.02295134928288927 0 0.032927499846324919 -0.015693736195242069 0 0.032709989370985078 -0.018264298974828428 0 0.028894648995673566 -0.022986990813560308 0 0.028836964602250707 -0.02295134928288927 0 0.028892391353098134 -0.022933441852833296 0 0.028871794730291632 -0.02298553814335224 0 0.028894648995673566 -0.022986990813560308 0 0.028836964602250707 -0.02295134928288927 0 0.033457650760172382 -0.015522524678265886 0 0.033567467381388605 -0.01789082898877729 0 0.032842780883627992 -0.015694228673084124 0 0.032048375872541432 -0.017880452447968247 0 0.028858854284960076 -0.023170392367264779 0 0.028836964602250707 -0.02295134928288927 0 0.028673154443818474 -0.023056441648713684 0 0.028699676633046654 -0.022929406907638998 0 0.028836964602250707 -0.02295134928288927 0 0.028673154443818474 -0.023056441648713684 0 0.032048375872541432 -0.017880452447968247 0 0.031728292308829925 -0.018497736326732569 0 0.028721721720135322 -0.023121691725323149 0 0.02844372316010162 -0.023157988909014139 0 0.028592444316670133 -0.023312898430025736 0 0.028721721720135322 -0.023121691725323149 0 0.02844372316010162 -0.023157988909014139 0 0.028472795510407128 -0.022965964144091355 0 0.02844372316010162 -0.023157988909014139 0 0.028472795510407128 -0.022965964144091355 0 0.028216802068915976 -0.023063183079991775 0 0.02844372316010162 -0.023157988909014139 0 0.028216802068915976 -0.023063183079991775 0 0.028230057806372239 -0.023325805881639051 0 0.028472795510407128 -0.022965964144091355 0 0.028223532217812024 -0.02280565799008509 0 0.028216802068915976 -0.023063183079991775 0 0.028699676633046654 -0.022929406907638998 0 0.028673154443818474 -0.023056441648713684 0 0.028472795510407128 -0.022965964144091355 0 0.028683817847333967 -0.022777122054534107 0 0.028699676633046654 -0.022929406907638998 0 0.028472795510407128 -0.022965964144091355 0 0.028683817847333967 -0.022777122054534107 0 0.028472795510407128 -0.022965964144091355 0 0.028475276586900466 -0.022769679329506527 0 0.028683817847333967 -0.022777122054534107 0 0.028475276586900466 -0.022769679329506527 0 0.028568813881126823 -0.022599743758381287 0 0.028472795510407128 -0.022965964144091355 0 0.028475276586900466 -0.022769679329506527 0 0.028223532217812024 -0.02280565799008509 0 0.028475276586900466 -0.022769679329506527 0 0.028223532217812024 -0.02280565799008509 0 0.028378028685291785 -0.022638367254566538 0 0.028435193174154105 -0.022415515133112185 0 0.028378028685291785 -0.022638367254566538 0 0.028232453309631603 -0.022527433955041136 0 0.028223532217812024 -0.02280565799008509 0 0.028378028685291785 -0.022638367254566538 0 0.028232453309631603 -0.022527433955041136 0 0.028435193174154105 -0.022415515133112185 0 0.028378028685291785 -0.022638367254566538 0 0.028568813881126823 -0.022599743758381287 0 0.028475276586900466 -0.022769679329506527 0 0.028378028685291785 -0.022638367254566538 0 0.028568813881126823 -0.022599743758381287 0 0.027808200415570795 -0.02265467811095935 0 0.028046755092829039 -0.022662895777976921 0 0.027931766500246594 -0.022799060702910968 0 0.027977909717317465 -0.022528135021320651 0 0.027808200415570795 -0.02265467811095935 0 0.028046755092829039 -0.022662895777976921 0 0.027720661129966788 -0.022558294703834383 0 0.027977909717317465 -0.022528135021320651 0 0.027808200415570795 -0.02265467811095935 0 0.027977909717317465 -0.022528135021320651 0 0.028232453309631603 -0.022527433955041136 0 0.028046755092829039 -0.022662895777976921 0 0.028223532217812024 -0.02280565799008509 0 0.028232453309631603 -0.022527433955041136 0 0.028046755092829039 -0.022662895777976921 0 0.028223532217812024 -0.02280565799008509 0 0.027931766500246594 -0.022799060702910968 0 0.027976637628235532 -0.022977557853865231 0 0.028223532217812024 -0.02280565799008509 0 0.028046755092829039 -0.022662895777976921 0 0.027931766500246594 -0.022799060702910968 0 0.027931766500246594 -0.022799060702910968 0 0.027806212139397778 -0.022889390831545904 0 0.027685270630576669 -0.022738780709066864 0 0.027808200415570795 -0.02265467811095935 0 0.027931766500246594 -0.022799060702910968 0 0.027685270630576669 -0.022738780709066864 0 0.027931766500246594 -0.022799060702910968 0 0.027806212139397778 -0.022889390831545904 0 0.027976637628235532 -0.022977557853865231 0 0.027806212139397778 -0.022889390831545904 0 0.027976637628235532 -0.022977557853865231 0 0.027728314167062271 -0.022995558404672541 0 0.027976637628235532 -0.022977557853865231 0 0.027774762102111307 -0.023154675395525723 0 0.027728314167062271 -0.022995558404672541 0 0.028223532217812024 -0.02280565799008509 0 0.027976637628235532 -0.022977557853865231 0 0.028216802068915976 -0.023063183079991775 0 0.028216802068915976 -0.023063183079991775 0 0.028015313550770457 -0.023170413850195859 0 0.028230057806372239 -0.023325805881639051 0 0.027976637628235532 -0.022977557853865231 0 0.028216802068915976 -0.023063183079991775 0 0.028015313550770457 -0.023170413850195859 0 0.027976637628235532 -0.022977557853865231 0 0.028015313550770457 -0.023170413850195859 0 0.027774762102111307 -0.023154675395525723 0 0.028015313550770457 -0.023170413850195859 0 0.027882714520394102 -0.023335235408567096 0 0.027774762102111307 -0.023154675395525723 0 0.03552627168388877 -0.0038562933671133105 0 0.035457860390529783 -0.0037503151658395814 0 0.035673049494463101 -0.0037705202077642826 0 0.035457860390529783 -0.0037503151658395814 0 0.03561797153850068 -0.0036566124641796201 0 0.035427976966608279 -0.0036969890474263306 0 0.035457860390529783 -0.0037503151658395814 0 0.03561797153850068 -0.0036566124641796201 0 0.035673049494463101 -0.0037705202077642826 0 0.035457860390529783 -0.0037503151658395814 0 0.035559601301811086 -0.0037210333245443392 0 0.035448591182243736 -0.0037659256034679534 0 0.035457860390529783 -0.0037503151658395814 0 0.035509817403734371 -0.0035865699397785462 0 0.035559601301811086 -0.0037210333245443392 0 0.035457860390529783 -0.0037503151658395814 0 0.035427976966608279 -0.0036969890474263306 0 0.035448591182243736 -0.0037659256034679534 0 0.03552627168388877 -0.0038562933671133105 0 0.035457860390529783 -0.0037503151658395814 0 0.035509817403734371 -0.0035865699397785462 0 0.031441520772059042 -0.014216041730074579 0 0.031961638309688158 -0.01431636590637737 0 0.028015313550770457 -0.023170413850195859 0 0.027882714520394102 -0.023335235408567096 0 0.028230057806372239 -0.023325805881639051 0 0.031961638309688158 -0.01431636590637737 0 0.032406447825424282 -0.01474143418592754 0 0.035509817403734371 -0.0035865699397785462 0 0.035881299528986117 -0.0036710741106832858 0 0.035559601301811086 -0.0037210333245443392 0 0.02844372316010162 -0.023157988909014139 0 0.028230057806372239 -0.023325805881639051 0 0.028592444316670133 -0.023312898430025736 0 0.035509817403734371 -0.0035865699397785462 0 0.036063873489237223 -0.0033472628656328221 0 0.035881299528986117 -0.0036710741106832858 0 0.036600328468158812 -0.0036871977141647552 0 0.036063873489237223 -0.0033472628656328221 0 0.035881299528986117 -0.0036710741106832858 0 0.036600328468158812 -0.0036871977141647552 0 0.035881299528986117 -0.0036710741106832858 0 0.036179198857404997 -0.0039571134566074159 0 0.035881299528986117 -0.0036710741106832858 0 0.036179198857404997 -0.0039571134566074159 0 0.035724840059166242 -0.0038797977809651224 0 0.035881299528986117 -0.0036710741106832858 0 0.035559601301811086 -0.0037210333245443392 0 0.035724840059166242 -0.0038797977809651224 0 0.035559601301811086 -0.0037210333245443392 0 0.035724840059166242 -0.0038797977809651224 0 0.035448591182243736 -0.0037659256034679534 0 0.035724840059166242 -0.0038797977809651224 0 0.035536461706458439 -0.0038618618106260128 0 0.035448591182243736 -0.0037659256034679534 0 0.035724840059166242 -0.0038797977809651224 0 0.035741980639770132 -0.0040311295642424449 0 0.036048422602140515 -0.004248638864259538 0 0.035724840059166242 -0.0038797977809651224 0 0.035741980639770132 -0.0040311295642424449 0 0.035536461706458439 -0.0038618618106260128 0 0.035741980639770132 -0.0040311295642424449 0 0.035536461706458439 -0.0038618618106260128 0 0.035551495796260928 -0.003948279327732538 0 0.036179198857404997 -0.0039571134566074159 0 0.035724840059166242 -0.0038797977809651224 0 0.036048422602140515 -0.004248638864259538 0 0.036332322136569485 -0.0042903693179430187 0 0.036179198857404997 -0.0039571134566074159 0 0.036048422602140515 -0.004248638864259538 0 0.035741980639770132 -0.0040311295642424449 0 0.036048422602140515 -0.004248638864259538 0 0.035908370362548757 -0.0043242931512170076 0 0.0364355961823805 -0.0047080790314399075 0 0.036332322136569485 -0.0042903693179430187 0 0.036048422602140515 -0.004248638864259538 0 0.036206943282983281 -0.0046374185022566147 0 0.036220365060573592 -0.0048377367744622266 0 0.036596943322235814 -0.0053551842533921838 0 0.0364355961823805 -0.0047080790314399075 0 0.036048422602140515 -0.004248638864259538 0 0.036206943282983281 -0.0046374185022566147 0 0.036048422602140515 -0.004248638864259538 0 0.036206943282983281 -0.0046374185022566147 0 0.035908370362548757 -0.0043242931512170076 0 0.036206943282983281 -0.0046374185022566147 0 0.035908370362548757 -0.0043242931512170076 0 0.036220365060573592 -0.0048377367744622266 0 0.035551495796260928 -0.003948279327732538 0 0.035908370362548757 -0.0043242931512170076 0 0.035682861670042407 -0.0042992803875719979 0 0.035741980639770132 -0.0040311295642424449 0 0.035551495796260928 -0.003948279327732538 0 0.035908370362548757 -0.0043242931512170076 0 0.035908370362548757 -0.0043242931512170076 0 0.035682861670042407 -0.0042992803875719979 0 0.036220365060573592 -0.0048377367744622266 0 0.035551495796260928 -0.003948279327732538 0 0.035682861670042407 -0.0042992803875719979 0 0.035323638951103249 -0.0037216244077159593 0 0.034957354684355721 -0.0032110488122861981 0 0.035496515080101182 -0.0035166700643892834 0 0.035268288396647592 -0.0036810852494237362 0 0.035682861670042407 -0.0042992803875719979 0 0.035323638951103249 -0.0037216244077159593 0 0.034957354684355721 -0.0032110488122861981 0 0.035323638951103249 -0.0037216244077159593 0 0.034957354684355721 -0.0032110488122861981 0 0.035268288396647592 -0.0036810852494237362 0 0.035551495796260928 -0.003948279327732538 0 0.035323638951103249 -0.0037216244077159593 0 0.035268288396647592 -0.0036810852494237362 0 0.034957354684355721 -0.0032110488122861981 0 0.035496515080101182 -0.0035166700643892834 0 0.035899679217891813 -0.0030172353170094695 0 0.034957354684355721 -0.0032110488122861981 0 0.035899679217891813 -0.0030172353170094695 0 0.034970600139194882 -0.0021476317612443012 0 0.035496515080101182 -0.0035166700643892834 0 0.035427976966608279 -0.0036969890474263306 0 0.035268288396647592 -0.0036810852494237362 0 0.035496515080101182 -0.0035166700643892834 0 0.03561797153850068 -0.0036566124641796201 0 0.035427976966608279 -0.0036969890474263306 0 0.035427976966608279 -0.0036969890474263306 0 0.035448591182243736 -0.0037659256034679534 0 0.035268288396647592 -0.0036810852494237362 0 0.035536461706458439 -0.0038618618106260128 0 0.035448591182243736 -0.0037659256034679534 0 0.035268288396647592 -0.0036810852494237362 0 0.035536461706458439 -0.0038618618106260128 0 0.035551495796260928 -0.003948279327732538 0 0.035268288396647592 -0.0036810852494237362 0 0.036109784795087668 -0.0034531918958304601 0 0.035950858478916166 -0.0036155392134706366 0 0.035903307204452707 -0.0034155932495120037 0 0.036109784795087668 -0.0034531918958304601 0 0.035950858478916166 -0.0036155392134706366 0 0.036136040692624646 -0.0036087071175883701 0 0.035496515080101182 -0.0035166700643892834 0 0.03561797153850068 -0.0036566124641796201 0 0.035903307204452707 -0.0034155932495120037 0 0.03561797153850068 -0.0036566124641796201 0 0.035950858478916166 -0.0036155392134706366 0 0.035903307204452707 -0.0034155932495120037 0 0.035903307204452707 -0.0034155932495120037 0 0.035899679217891813 -0.0030172353170094695 0 0.03608157672806557 -0.0032480572749802269 0 0.034268853166689012 -0.0023456249377698571 0 0.033926021537510336 -0.0025524634334552192 0 0.035496515080101182 -0.0035166700643892834 0 0.035903307204452707 -0.0034155932495120037 0 0.035899679217891813 -0.0030172353170094695 0 0.036109784795087668 -0.0034531918958304601 0 0.035903307204452707 -0.0034155932495120037 0 0.03608157672806557 -0.0032480572749802269 0 0.033926021537510336 -0.0025524634334552192 0 0.03270499676691916 -0.0029331834214754099 0 0.036109784795087668 -0.0034531918958304601 0 0.03608157672806557 -0.0032480572749802269 0 0.036334960449173226 -0.0033190806977320872 0 0.03344484104958198 0.00010328072486426285 0 0.032935641593382588 0.00021064419400342824 0 0.033150886322146439 -0.00018187975723248616 0 0.033225442908107056 -0.00038087948518542719 0 0.032759368447380012 -0.00077296857043284307 0 0.033461875595275123 -0.0010066215720747915 0 0.033225442908107056 -0.00038087948518542719 0 0.033461875595275123 -0.0010066215720747915 0 0.033744657682019522 -2.490849991991828e-05 0 0.033225442908107056 -0.00038087948518542719 0 0.032759368447380012 -0.00077296857043284307 0 0.032939261785614064 1.8451438364401612e-05 0 0.03270499676691916 -0.0029331834214754099 0 0.032744485804271507 -0.0025117722045100233 0 0.032458357972770475 -0.0009726193615513895 0 0.033461875595275123 -0.0010066215720747915 0 0.032807896605771686 -0.0015909822745895142 0 0.03270499676691916 -0.0029331834214754099 0 0.032762693711679912 -0.0028496090919750321 0 0.032807896605771686 -0.0015909822745895142 0 0.032654344873120862 -0.0023288218439982264 0 0.034501373018398569 -0.0017492921972275077 0 0.032458357972770475 -0.0009726193615513895 0 0.032807896605771686 -0.0015909822745895142 0 0.032488980161272406 -0.002476444093393643 0 0.03270499676691916 -0.0029331834214754099 0 0.030416751559125776 -0.006045186189814384 0 0.032807896605771686 -0.0015909822745895142 0 0.032654344873120862 -0.0023288218439982264 0 0.032488980161272406 -0.002476444093393643 0 0.032654344873120862 -0.0023288218439982264 0 0.032201573604663976 -0.002270791002009157 0 0.031817777198867102 -0.0025566229746347958 0 0.036109784795087668 -0.0034531918958304601 0 0.036334960449173226 -0.0033190806977320872 0 0.036220659912810697 -0.0035033581518677933 0 0.036334960449173226 -0.0033190806977320872 0 0.036220659912810697 -0.0035033581518677933 0 0.036298174487816776 -0.0036396237869927078 0 0.036220659912810697 -0.0035033581518677933 0 0.036136040692624646 -0.0036087071175883701 0 0.036298174487816776 -0.0036396237869927078 0 0.036109784795087668 -0.0034531918958304601 0 0.036220659912810697 -0.0035033581518677933 0 0.036136040692624646 -0.0036087071175883701 0 0.030416751559125776 -0.006045186189814384 0 0.026332886267506697 -0.014813401007687917 0 0.036136040692624646 -0.0036087071175883701 0 0.036298174487816776 -0.0036396237869927078 0 0.036091366141933326 -0.0037916607733174388 0 0.036298174487816776 -0.0036396237869927078 0 0.036091366141933326 -0.0037916607733174388 0 0.036247507789636806 -0.0039958759290432732 0 0.032488980161272406 -0.002476444093393643 0 0.032390729676518092 -0.0018553149750367352 0 0.032793732877693681 -0.0013785824988358866 0 0.032201573604663976 -0.002270791002009157 0 0.032191936444101558 -0.0020509555225518097 0 0.031831123771431907 -0.0020890962524114918 0 0.032654344873120862 -0.0023288218439982264 0 0.032201573604663976 -0.002270791002009157 0 0.032404359948534217 -0.0022667862260686068 0 0.032201573604663976 -0.002270791002009157 0 0.032404359948534217 -0.0022667862260686068 0 0.032191936444101558 -0.0020509555225518097 0 0.032488980161272406 -0.002476444093393643 0 0.032404359948534217 -0.0022667862260686068 0 0.032390729676518092 -0.0018553149750367352 0 0.032654344873120862 -0.0023288218439982264 0 0.032488980161272406 -0.002476444093393643 0 0.032404359948534217 -0.0022667862260686068 0 0.032191936444101558 -0.0020509555225518097 0 0.03188553795665628 -0.0016350011708494512 0 0.031831123771431907 -0.0020890962524114918 0 0.032390729676518092 -0.0018553149750367352 0 0.032191936444101558 -0.0020509555225518097 0 0.03188553795665628 -0.0016350011708494512 0 0.032404359948534217 -0.0022667862260686068 0 0.032390729676518092 -0.0018553149750367352 0 0.032191936444101558 -0.0020509555225518097 0 0.02455871539390771 -0.015915070817691591 0 0.025820058280854482 -0.014412069383038113 0 0.032390729676518092 -0.0018553149750367352 0 0.032224590625881219 -0.0013658942992016995 0 0.03188553795665628 -0.0016350011708494512 0 0.032390729676518092 -0.0018553149750367352 0 0.032224590625881219 -0.0013658942992016995 0 0.032793732877693681 -0.0013785824988358866 0 0.02455871539390771 -0.015915070817691591 0 0.021782582061014681 -0.021679845204751285 0 0.02455871539390771 -0.015915070817691591 0 0.026332886267506697 -0.014813401007687917 0 0.024112637081730847 -0.016375405804321806 0 0.025567295044898443 -0.016356866431873625 0 0.025695552451753777 -0.014794185774267941 0 0.026332886267506697 -0.014813401007687917 0 0.0302589907853642 -0.014363001640540302 0 0.027157665070460656 -0.023341753394466872 0 0.02753227393895415 -0.023341075786647795 0 0.027242308899035665 -0.023182833140414919 0 0.036091366141933326 -0.0037916607733174388 0 0.036247507789636806 -0.0039958759290432732 0 0.035877261540448763 -0.0039768076991534927 0 0.026332886267506697 -0.014813401007687917 0 0.021782582061014681 -0.021679845204751285 0 0.035950858478916166 -0.0036155392134706366 0 0.036091366141933326 -0.0037916607733174388 0 0.035877261540448763 -0.0039768076991534927 0 0.035950858478916166 -0.0036155392134706366 0 0.036136040692624646 -0.0036087071175883701 0 0.036091366141933326 -0.0037916607733174388 0 0.03561797153850068 -0.0036566124641796201 0 0.035950858478916166 -0.0036155392134706366 0 0.035673049494463101 -0.0037705202077642826 0 0.035950858478916166 -0.0036155392134706366 0 0.035877261540448763 -0.0039768076991534927 0 0.035673049494463101 -0.0037705202077642826 0 0.031441520772059042 -0.014216041730074579 0 0.0302589907853642 -0.014363001640540302 0 0.027882714520394102 -0.023335235408567096 0 0.02753227393895415 -0.023341075786647795 0 0.027774762102111307 -0.023154675395525723 0 0.03552627168388877 -0.0038562933671133105 0 0.035877261540448763 -0.0039768076991534927 0 0.035673049494463101 -0.0037705202077642826 0 0.02753227393895415 -0.023341075786647795 0 0.027774762102111307 -0.023154675395525723 0 0.027566724238443432 -0.023094258358520834 0 0.027774762102111307 -0.023154675395525723 0 0.027566724238443432 -0.023094258358520834 0 0.027728314167062271 -0.022995558404672541 0 0.02753227393895415 -0.023341075786647795 0 0.027426832371849112 -0.023154170785842216 0 0.027242308899035665 -0.023182833140414919 0 0.02753227393895415 -0.023341075786647795 0 0.027426832371849112 -0.023154170785842216 0 0.027566724238443432 -0.023094258358520834 0 0.027426832371849112 -0.023154170785842216 0 0.027566724238443432 -0.023094258358520834 0 0.027365685855225502 -0.023001262407321286 0 0.027365685855225502 -0.023001262407321286 0 0.027600057413994319 -0.022943201746379743 0 0.027542354345910722 -0.022843034040285478 0 0.027566724238443432 -0.023094258358520834 0 0.027365685855225502 -0.023001262407321286 0 0.027600057413994319 -0.022943201746379743 0 0.023410243364901502 -0.024626519013440262 0 0.023318155479968877 -0.024633633466285765 0 0.013467085654429316 -0.026785180597421382 0 0.01310520126636024 -0.027183201650635144 0 0.013431554176874173 -0.027255506162735334 0 0.021989858507534724 -0.023711303335056638 0 0.023318155479968877 -0.024633633466285765 0 0.027566724238443432 -0.023094258358520834 0 0.027728314167062271 -0.022995558404672541 0 0.027600057413994319 -0.022943201746379743 0 0.027600057413994319 -0.022943201746379743 0 0.027677668746133456 -0.022857605293054455 0 0.027559043787977681 -0.022866038542432771 0 0.027728314167062271 -0.022995558404672541 0 0.027600057413994319 -0.022943201746379743 0 0.027677668746133456 -0.022857605293054455 0 0.027806212139397778 -0.022889390831545904 0 0.027728314167062271 -0.022995558404672541 0 0.027677668746133456 -0.022857605293054455 0 0.027806212139397778 -0.022889390831545904 0 0.027685270630576669 -0.022738780709066864 0 0.027677668746133456 -0.022857605293054455 0 0.027685270630576669 -0.022738780709066864 0 0.027545562240338429 -0.022847770514013932 0 0.02756850090132526 -0.022693443105150372 0 0.027685270630576669 -0.022738780709066864 0 0.027677668746133456 -0.022857605293054455 0 0.027559043787977681 -0.022866038542432771 0 0.024135815232106166 -0.023978753963925171 0 0.023318155479968877 -0.024633633466285765 0 0.01310520126636024 -0.027183201650635144 0 0.013431554176874173 -0.027255506162735334 0 0.013403517698888697 -0.027754749062430088 0 0.023318155479968877 -0.024633633466285765 0 0.02155841712652673 -0.025043814825225656 0 0.027545562240338429 -0.022847770514013932 0 0.02756850090132526 -0.022693443105150372 0 0.02748174363897703 -0.022599241386386415 0 0.02756850090132526 -0.022693443105150372 0 0.02748174363897703 -0.022599241386386415 0 0.027574893961931465 -0.022612271789937126 0 0.027509092322118192 -0.022545164756905565 0 0.02748174363897703 -0.022599241386386415 0 0.027574893961931465 -0.022612271789937126 0 0.027720661129966788 -0.022558294703834383 0 0.027808200415570795 -0.02265467811095935 0 0.027574893961931465 -0.022612271789937126 0 0.027808200415570795 -0.02265467811095935 0 0.027685270630576669 -0.022738780709066864 0 0.027574893961931465 -0.022612271789937126 0 0.027685270630576669 -0.022738780709066864 0 0.02756850090132526 -0.022693443105150372 0 0.027574893961931465 -0.022612271789937126 0 0.01361441011383672 -0.02788496414329393 0 0.013684230827181506 -0.028015996980884736 0 0.013824318028998727 -0.027868938216129513 0 0.01361441011383672 -0.02788496414329393 0 0.013684230827181506 -0.028015996980884736 0 0.013615904475246103 -0.027972222096487726 0 0.013635070110893341 -0.028066287759816146 0 0.013684230827181506 -0.028015996980884736 0 0.013615904475246103 -0.027972222096487726 0 0.017418400248192797 -0.027250392383302516 0 0.018354715708794343 -0.026304990055794522 0 0.013635070110893341 -0.028066287759816146 0 0.013615904475246103 -0.027972222096487726 0 0.013543832014528176 -0.027957676851269441 0 0.020317631602910158 -0.025755994589537274 0 0.02155841712652673 -0.025043814825225656 0 0.01361441011383672 -0.02788496414329393 0 0.013615904475246103 -0.027972222096487726 0 0.013543832014528176 -0.027957676851269441 0 0.013569290181525112 -0.028132695266101321 0 0.013403517698888697 -0.027754749062430088 0 0.013543832014528176 -0.027957676851269441 0 0.01361441011383672 -0.02788496414329393 0 0.013543832014528176 -0.027957676851269441 0 0.013555175224259204 -0.027767909403017415 0 0.013403517698888697 -0.027754749062430088 0 0.013543832014528176 -0.027957676851269441 0 0.013752790740733137 -0.027260607602550245 0 0.013431554176874173 -0.027255506162735334 0 0.013403517698888697 -0.027754749062430088 0 0.013752790740733137 -0.027260607602550245 0 0.01361441011383672 -0.02788496414329393 0 0.013688111121540473 -0.02774965301009448 0 0.013824318028998727 -0.027868938216129513 0 0.01361441011383672 -0.02788496414329393 0 0.013555175224259204 -0.027767909403017415 0 0.013688111121540473 -0.02774965301009448 0 0.013688111121540473 -0.02774965301009448 0 0.01365797830753521 -0.027613216462935571 0 0.013785058260591987 -0.027570858030546135 0 0.013555175224259204 -0.027767909403017415 0 0.013688111121540473 -0.02774965301009448 0 0.01365797830753521 -0.027613216462935571 0 0.013555175224259204 -0.027767909403017415 0 0.01365797830753521 -0.027613216462935571 0 0.013587913142907231 -0.027509649243119865 0 0.018354715708794343 -0.026304990055794522 0 0.021782582061014681 -0.021679845204751285 0 0.013467085654429316 -0.026785180597421382 0 0.013752790740733137 -0.027260607602550245 0 0.013898750473641303 -0.026355018049208433 0 0.013467085654429316 -0.026785180597421382 0 0.013431554176874173 -0.027255506162735334 0 0.013752790740733137 -0.027260607602550245 0 0.027365685855225502 -0.023001262407321286 0 0.027176117969316231 -0.023163970426461573 0 0.027242308899035665 -0.023182833140414919 0 0.021989858507534724 -0.023711303335056638 0 0.021782582061014681 -0.021679845204751285 0 0.027426832371849112 -0.023154170785842216 0 0.027365685855225502 -0.023001262407321286 0 0.027242308899035665 -0.023182833140414919 0 0.027157665070460656 -0.023341753394466872 0 0.02717077112134508 -0.02316159306080216 0 0.027242308899035665 -0.023182833140414919 0 0.021782582061014681 -0.021679845204751285 0 0.021916577384728766 -0.021717137985096911 0 0.015589003406635349 -0.028116674391871755 0 0.015913359606960276 -0.027803153705920909 0 0.015304755154215434 -0.027668377521660473 0 0.01365797830753521 -0.027613216462935571 0 0.013587913142907231 -0.027509649243119865 0 0.013785058260591987 -0.027570858030546135 0 0.021782582061014681 -0.021679845204751285 0 0.017209021552668569 -0.023734089451259724 0 0.013785058260591987 -0.027570858030546135 0 0.014000234567110484 -0.027621102902305614 0 0.013824318028998727 -0.027868938216129513 0 0.013688111121540473 -0.02774965301009448 0 0.013785058260591987 -0.027570858030546135 0 0.013824318028998727 -0.027868938216129513 0 0.015304755154215434 -0.027668377521660473 0 0.014750167728914276 -0.027592362661142806 0 0.014939458254552 -0.028108027201652567 0 0.014750167728914276 -0.027592362661142806 0 0.014563932931225777 -0.027851058390987136 0 0.014939458254552 -0.028108027201652567 0 0.017209021552668569 -0.023734089451259724 0 0.015698130784752806 -0.024929561631578574 0 0.014000234567110484 -0.027621102902305614 0 0.013824318028998727 -0.027868938216129513 0 0.014086705938918143 -0.027796066176082095 0 0.013824318028998727 -0.027868938216129513 0 0.013988167759342779 -0.027930048335110463 0 0.014086705938918143 -0.027796066176082095 0 0.013950968928271456 -0.028113451884403649 0 0.013824318028998727 -0.027868938216129513 0 0.013988167759342779 -0.027930048335110463 0 0.013920629214138903 -0.028149781942572269 0 0.01386664885392345 -0.028038205943211977 0 0.013765806993934839 -0.028081012637049298 0 0.013892804311998045 -0.028104970690528561 0 0.013824318028998727 -0.027868938216129513 0 0.013765806993934839 -0.028081012637049298 0 0.013684230827181506 -0.028015996980884736 0 0.013824318028998727 -0.027868938216129513 0 0.014182215187742929 -0.028073255765459101 0 0.014135494985726192 -0.027941624367439261 0 0.014315456108680671 -0.027945946158434432 0 0.014135494985726192 -0.027941624367439261 0 0.014251036892689686 -0.027832967963113062 0 0.014315456108680671 -0.027945946158434432 0 0.014317007426296642 -0.028111044413389245 0 0.014182215187742929 -0.028073255765459101 0 0.014315456108680671 -0.027945946158434432 0 0.013950968928271456 -0.028113451884403649 0 0.013988167759342779 -0.027930048335110463 0 0.014135494985726192 -0.027941624367439261 0 0.014182215187742929 -0.028073255765459101 0 0.013950968928271456 -0.028113451884403649 0 0.014135494985726192 -0.027941624367439261 0 0.014135494985726192 -0.027941624367439261 0 0.014086705938918143 -0.027796066176082095 0 0.014251036892689686 -0.027832967963113062 0 0.013988167759342779 -0.027930048335110463 0 0.014135494985726192 -0.027941624367439261 0 0.014086705938918143 -0.027796066176082095 0 0.014251036892689686 -0.027832967963113062 0 0.014328250105235019 -0.027794775092387338 0 0.014315456108680671 -0.027945946158434432 0 0.014086705938918143 -0.027796066176082095 0 0.014251036892689686 -0.027832967963113062 0 0.014298876939814438 -0.027683701157436406 0 0.014251036892689686 -0.027832967963113062 0 0.014298876939814438 -0.027683701157436406 0 0.014328250105235019 -0.027794775092387338 0 0.014298876939814438 -0.027683701157436406 0 0.014363565409376491 -0.027786662699670495 0 0.014310160029747662 -0.0276974843036547 0 0.014298876939814438 -0.027683701157436406 0 0.01444014575538652 -0.027759673924639988 0 0.014363565409376491 -0.027786662699670495 0 0.015698130784752806 -0.024929561631578574 0 0.015333664009787912 -0.025313744862992704 0 0.014000234567110484 -0.027621102902305614 0 0.014086705938918143 -0.027796066176082095 0 0.014298876939814438 -0.027683701157436406 0 0.014750167728914276 -0.027592362661142806 0 0.014298876939814438 -0.027683701157436406 0 0.01444014575538652 -0.027759673924639988 0 0.014750167728914276 -0.027592362661142806 0 0.01444014575538652 -0.027759673924639988 0 0.014563932931225777 -0.027851058390987136 0 0.01444014575538652 -0.027759673924639988 0 0.014563932931225777 -0.027851058390987136 0 0.01442786003870887 -0.027876028891573337 0 0.014563932931225777 -0.027851058390987136 0 0.01442786003870887 -0.027876028891573337 0 0.0144307452219526 -0.028048740784881673 0 0.014363565409376491 -0.027786662699670495 0 0.014365681832671857 -0.027984825169543887 0 0.014310160029747662 -0.0276974843036547 0 0.018080251155380291 -0.021500783532676381 0 0.016866283116333685 -0.023948806225296122 0 0.014363565409376491 -0.027786662699670495 0 0.01442786003870887 -0.027876028891573337 0 0.014365681832671857 -0.027984825169543887 0 0.018080251155380291 -0.021500783532676381 0 0.016798559016516282 -0.025338925177997823 0 0.01444014575538652 -0.027759673924639988 0 0.014363565409376491 -0.027786662699670495 0 0.01442786003870887 -0.027876028891573337 0 0.018808338321025631 -0.019876502549073839 0 0.020014284415370932 -0.01715350792496708 0 0.028758448080792295 -0.0010235579114898723 0 0.028486332901440453 -0.0016887529103715012 0 0.026914190935466133 -0.001048603326914608 0 0.014679519653082942 -0.027807218261608889 0 0.014685639207071072 -0.027806560407822221 0 0.014654225345371972 -0.027821755295987637 0 0.01442786003870887 -0.027876028891573337 0 0.014365681832671857 -0.027984825169543887 0 0.0144307452219526 -0.028048740784881673 0 0.018080251155380291 -0.021500783532676381 0 0.018808338321025631 -0.019876502549073839 0 0.028758448080792295 -0.0010235579114898723 0 0.028486332901440453 -0.0016887529103715012 0 0.029075195531183741 -0.0012275265226777091 0 0.028486332901440453 -0.0016887529103715012 0 0.029113458083155262 -0.0022203831455958017 0 0.028000468933230785 -0.002894995509656639 0 0.028486332901440453 -0.0016887529103715012 0 0.028000468933230785 -0.002894995509656639 0 0.026914190935466133 -0.001048603326914608 0 0.029113458083155262 -0.0022203831455958017 0 0.030035069380280457 -0.0022537977308210179 0 0.02945570898700833 -0.0029056980646887764 0 0.028486332901440453 -0.0016887529103715012 0 0.029113458083155262 -0.0022203831455958017 0 0.029052870226363565 -0.0017214795993843511 0 0.029113458083155262 -0.0022203831455958017 0 0.029052870226363565 -0.0017214795993843511 0 0.029517023293344075 -0.0018170540026889177 0 0.029113458083155262 -0.0022203831455958017 0 0.029517023293344075 -0.0018170540026889177 0 0.030035069380280457 -0.0022537977308210179 0 0.029517023293344075 -0.0018170540026889177 0 0.030141169704319133 -0.0016784018632958783 0 0.030035069380280457 -0.0022537977308210179 0 0.018808338321025631 -0.019876502549073839 0 0.022279341025161364 -0.017300985658798073 0 0.028771426331588558 -0.0010309570637806638 0 0.029075195531183741 -0.0012275265226777091 0 0.030661474125082949 -0.0010712020366502955 0 0.029517023293344075 -0.0018170540026889177 0 0.029075195531183741 -0.0012275265226777091 0 0.030141169704319133 -0.0016784018632958783 0 0.014563932931225777 -0.027851058390987136 0 0.0144307452219526 -0.028048740784881673 0 0.014939458254552 -0.028108027201652567 0 0.028486332901440453 -0.0016887529103715012 0 0.029052870226363565 -0.0017214795993843511 0 0.029075195531183741 -0.0012275265226777091 0 0.029052870226363565 -0.0017214795993843511 0 0.029517023293344075 -0.0018170540026889177 0 0.029075195531183741 -0.0012275265226777091 0 0.018808338321025631 -0.019876502549073839 0 0.018854556863797684 -0.019723797674819698 0 0.029075195531183741 -0.0012275265226777091 0 0.030661474125082949 -0.0010712020366502955 0 0.030141169704319133 -0.0016784018632958783 0 0.030661474125082949 -0.0010712020366502955 0 0.031074283662348188 -0.0020400752922550927 0 0.030141169704319133 -0.0016784018632958783 0 0.02455871539390771 -0.015915070817691591 0 0.022279341025161364 -0.017300985658798073 0 0.03237867818407409 -0.0011601433659508826 0 0.030661474125082949 -0.0010712020366502955 0 0.03188553795665628 -0.0016350011708494512 0 0.030661474125082949 -0.0010712020366502955 0 0.03188553795665628 -0.0016350011708494512 0 0.031074283662348188 -0.0020400752922550927 0 0.015589003406635349 -0.028116674391871755 0 0.015304755154215434 -0.027668377521660473 0 0.014939458254552 -0.028108027201652567 0 0.031074283662348188 -0.0020400752922550927 0 0.030510838912147859 -0.0028213005719482467 0 0.031817777198867102 -0.0025566229746347958 0 0.03188553795665628 -0.0016350011708494512 0 0.031074283662348188 -0.0020400752922550927 0 0.031831123771431907 -0.0020890962524114918 0 0.031074283662348188 -0.0020400752922550927 0 0.031831123771431907 -0.0020890962524114918 0 0.031817777198867102 -0.0025566229746347958 0 0.032201573604663976 -0.002270791002009157 0 0.031831123771431907 -0.0020890962524114918 0 0.031817777198867102 -0.0025566229746347958 0 0.031074283662348188 -0.0020400752922550927 0 0.030141169704319133 -0.0016784018632958783 0 0.030035069380280457 -0.0022537977308210179 0 0.031074283662348188 -0.0020400752922550927 0 0.030035069380280457 -0.0022537977308210179 0 0.030510838912147859 -0.0028213005719482467 0 0.032312510731485111 -0.0013823445562366941 0 0.032082435678414449 -0.00080675155990264787 0 0.030035069380280457 -0.0022537977308210179 0 0.030510838912147859 -0.0028213005719482467 0 0.02945570898700833 -0.0029056980646887764 0 0.030510838912147859 -0.0028213005719482467 0 0.031126970175262475 -0.0032632916663296219 0 0.029427635473840721 -0.0038363988811982767 0 0.030510838912147859 -0.0028213005719482467 0 0.031126970175262475 -0.0032632916663296219 0 0.031817777198867102 -0.0025566229746347958 0 0.032333806594496702 -0.001553437011195382 0 0.032312510731485111 -0.0013823445562366941 0 0.033461875595275123 -0.0010066215720747915 0 0.032807896605771686 -0.0015909822745895142 0 0.034501373018398569 -0.0017492921972275077 0 0.032654344873120862 -0.0023288218439982264 0 0.031126970175262475 -0.0032632916663296219 0 0.031817777198867102 -0.0025566229746347958 0 0.033461875595275123 -0.0010066215720747915 0 0.034698517771817837 -0.00034658385107257838 0 0.033744657682019522 -2.490849991991828e-05 0 0.033461875595275123 -0.0010066215720747915 0 0.034501373018398569 -0.0017492921972275077 0 0.034698517771817837 -0.00034658385107257838 0 0.034501373018398569 -0.0017492921972275077 0 0.034698517771817837 -0.00034658385107257838 0 0.036145238530046107 -0.001200396672018236 0 0.034698517771817837 -0.00034658385107257838 0 0.036145238530046107 -0.001200396672018236 0 0.035851859013255952 0.00021914015191001768 0 0.032082435678414449 -0.00080675155990264787 0 0.031371069612035098 0.00035068221604174472 0 0.036145238530046107 -0.001200396672018236 0 0.037263706326770688 0.00039303297136163173 0 0.037744706566954549 -0.00064579763696649998 0 0.029427635473840721 -0.0038363988811982767 0 0.028000468933230785 -0.002894995509656639 0 0.027679631141288057 -0.0043498299653315061 0 0.029113458083155262 -0.0022203831455958017 0 0.028000468933230785 -0.002894995509656639 0 0.02945570898700833 -0.0029056980646887764 0 0.029427635473840721 -0.0038363988811982767 0 0.028000468933230785 -0.002894995509656639 0 0.02945570898700833 -0.0029056980646887764 0 0.030510838912147859 -0.0028213005719482467 0 0.029427635473840721 -0.0038363988811982767 0 0.02945570898700833 -0.0029056980646887764 0 0.036591524419193493 0.0010872696615430106 0 0.035775219347903002 0.0014820711824455222 0 0.035851859013255952 0.00021914015191001768 0 0.036591524419193493 0.0010872696615430106 0 0.035775219347903002 0.0014820711824455222 0 0.036613862111987173 0.0020273378315264212 0 0.036591524419193493 0.0010872696615430106 0 0.037344280501654677 0.001508659915393217 0 0.037263706326770688 0.00039303297136163173 0 0.036591524419193493 0.0010872696615430106 0 0.037344280501654677 0.001508659915393217 0 0.036613862111987173 0.0020273378315264212 0 0.037344280501654677 0.001508659915393217 0 0.037263706326770688 0.00039303297136163173 0 0.038086778767754903 0.0012126078906514294 0 0.036145238530046107 -0.001200396672018236 0 0.037263706326770688 0.00039303297136163173 0 0.035851859013255952 0.00021914015191001768 0 0.036591524419193493 0.0010872696615430106 0 0.037263706326770688 0.00039303297136163173 0 0.035851859013255952 0.00021914015191001768 0 0.034698517771817837 -0.00034658385107257838 0 0.034237835875563991 0.00053553188164558792 0 0.03496084795322843 0.00081934270058335134 0 0.034698517771817837 -0.00034658385107257838 0 0.035851859013255952 0.00021914015191001768 0 0.03496084795322843 0.00081934270058335134 0 0.034698517771817837 -0.00034658385107257838 0 0.033744657682019522 -2.490849991991828e-05 0 0.034237835875563991 0.00053553188164558792 0 0.033744657682019522 -2.490849991991828e-05 0 0.034237835875563991 0.00053553188164558792 0 0.033579449930697974 0.00087748904176916209 0 0.034237835875563991 0.00053553188164558792 0 0.033579449930697974 0.00087748904176916209 0 0.03425818841291553 0.0013793906297656043 0 0.034237835875563991 0.00053553188164558792 0 0.03425818841291553 0.0013793906297656043 0 0.03496084795322843 0.00081934270058335134 0 0.03425818841291553 0.0013793906297656043 0 0.034926773265323584 0.00187581569786089 0 0.034229334100535379 0.0022805185613620532 0 0.033579449930697974 0.00087748904176916209 0 0.03425818841291553 0.0013793906297656043 0 0.033566564019033858 0.0020615683598944981 0 0.035775219347903002 0.0014820711824455222 0 0.035851859013255952 0.00021914015191001768 0 0.03496084795322843 0.00081934270058335134 0 0.03425818841291553 0.0013793906297656043 0 0.03496084795322843 0.00081934270058335134 0 0.034926773265323584 0.00187581569786089 0 0.035775219347903002 0.0014820711824455222 0 0.03496084795322843 0.00081934270058335134 0 0.034926773265323584 0.00187581569786089 0 0.035775219347903002 0.0014820711824455222 0 0.034926773265323584 0.00187581569786089 0 0.035659462603712735 0.002525857345596716 0 0.034926773265323584 0.00187581569786089 0 0.035659462603712735 0.002525857345596716 0 0.0346308037619854 0.0029379243380880248 0 0.034926773265323584 0.00187581569786089 0 0.0346308037619854 0.0029379243380880248 0 0.034229334100535379 0.0022805185613620532 0 0.035659462603712735 0.002525857345596716 0 0.0346308037619854 0.0029379243380880248 0 0.034891388809012498 0.0039207603296480854 0 0.033566564019033858 0.0020615683598944981 0 0.033784965369218732 0.0031748506452359011 0 0.032996673087071202 0.0035797193837540427 0 0.033566564019033858 0.0020615683598944981 0 0.034229334100535379 0.0022805185613620532 0 0.033784965369218732 0.0031748506452359011 0 0.03425818841291553 0.0013793906297656043 0 0.033566564019033858 0.0020615683598944981 0 0.034229334100535379 0.0022805185613620532 0 0.0346308037619854 0.0029379243380880248 0 0.034229334100535379 0.0022805185613620532 0 0.033784965369218732 0.0031748506452359011 0 0.03362362345830288 0.0027233473060541166 0 0.033366604764274083 0.0019217031607032258 0 0.033784965369218732 0.0031748506452359011 0 0.033955436808102687 0.0043223134792962454 0 0.032996673087071202 0.0035797193837540427 0 0.033955436808102687 0.0043223134792962454 0 0.033756874619016705 0.0049615404230021138 0 0.032996673087071202 0.0035797193837540427 0 0.0346308037619854 0.0029379243380880248 0 0.033784965369218732 0.0031748506452359011 0 0.033955436808102687 0.0043223134792962454 0 0.033731975043646931 0.0049014842428244058 0 0.033188955992943893 0.005468475367723412 0 0.033509928665954064 0.0049873988304541929 0 0.0346308037619854 0.0029379243380880248 0 0.033955436808102687 0.0043223134792962454 0 0.034891388809012498 0.0039207603296480854 0 0.03364505073938262 0.0053444192456723267 0 0.033641382892316773 0.0053649156071165112 0 0.033955436808102687 0.0043223134792962454 0 0.033731975043646931 0.0049014842428244058 0 0.033743045407619736 0.0048446931404511973 0 0.035659462603712735 0.002525857345596716 0 0.034891388809012498 0.0039207603296480854 0 0.036716081533314598 0.0031134451748374434 0 0.033641382892316773 0.0053649156071165112 0 0.03283127348793171 0.0056449432608203969 0 0.033641382892316773 0.0053649156071165112 0 0.034216425154552414 0.0050952455085143504 0 0.033825282992019284 0.0056694255555793235 0 0.033097898553089145 0.0055547760450114511 0 0.032978984729892864 0.0058823385232955223 0 0.035659462603712735 0.002525857345596716 0 0.036716081533314598 0.0031134451748374434 0 0.036613862111987173 0.0020273378315264212 0 0.035775219347903002 0.0014820711824455222 0 0.035659462603712735 0.002525857345596716 0 0.036613862111987173 0.0020273378315264212 0 0.036716081533314598 0.0031134451748374434 0 0.037481455529937625 0.0024355580984667846 0 0.038319724832463403 0.002571494837762151 0 0.034216425154552414 0.0050952455085143504 0 0.033522301596244815 0.0053173329790752793 0 0.037344280501654677 0.001508659915393217 0 0.037481455529937625 0.0024355580984667846 0 0.037987915567704561 0.0018562398854147352 0 0.037344280501654677 0.001508659915393217 0 0.036613862111987173 0.0020273378315264212 0 0.037481455529937625 0.0024355580984667846 0 0.036716081533314598 0.0031134451748374434 0 0.036613862111987173 0.0020273378315264212 0 0.037481455529937625 0.0024355580984667846 0 0.032978984729892864 0.0058823385232955223 0 0.032368592790781539 0.0054411599926505348 0 0.032130719400284544 0.0060950380202822998 0 0.033097898553089145 0.0055547760450114511 0 0.032978984729892864 0.0058823385232955223 0 0.032368592790781539 0.0054411599926505348 0 0.03283127348793171 0.0056449432608203969 0 0.03189279318210448 0.0059605038621897309 0 0.033188955992943893 0.005468475367723412 0 0.033044172784759358 0.0052235206644038268 0 0.032592930564789464 0.0058386383169060476 0 0.033044172784759358 0.0052235206644038268 0 0.032592930564789464 0.0058386383169060476 0 0.032455190502511354 0.0056331889367679244 0 0.033188955992943893 0.005468475367723412 0 0.033044172784759358 0.0052235206644038268 0 0.033509928665954064 0.0049873988304541929 0 0.033044172784759358 0.0052235206644038268 0 0.0335577666065398 0.0045199947725959345 0 0.033509928665954064 0.0049873988304541929 0 0.033044172784759358 0.0052235206644038268 0 0.033096740365410132 0.0049946554254385591 0 0.0335577666065398 0.0045199947725959345 0 0.033044172784759358 0.0052235206644038268 0 0.032749740250673801 0.0053112480818978602 0 0.033096740365410132 0.0049946554254385591 0 0.033044172784759358 0.0052235206644038268 0 0.032749740250673801 0.0053112480818978602 0 0.032455190502511354 0.0056331889367679244 0 0.032749740250673801 0.0053112480818978602 0 0.033096740365410132 0.0049946554254385591 0 0.032856381188269133 0.0051787531503906872 0 0.033096740365410132 0.0049946554254385591 0 0.033163242310176262 0.0049570522403390898 0 0.032890597733328773 0.0052461590854609502 0 0.033096740365410132 0.0049946554254385591 0 0.032856381188269133 0.0051787531503906872 0 0.032890597733328773 0.0052461590854609502 0 0.032856381188269133 0.0051787531503906872 0 0.032863647312067042 0.0053324441648071623 0 0.032890597733328773 0.0052461590854609502 0 0.032736862807168171 0.0050746064026658795 0 0.033163242310176262 0.0049570522403390898 0 0.032752696583594108 0.0054361089832167236 0 0.033163242310176262 0.0049570522403390898 0 0.032752696583594108 0.0054361089832167236 0 0.032890597733328773 0.0052461590854609502 0 0.033096740365410132 0.0049946554254385591 0 0.033163242310176262 0.0049570522403390898 0 0.0335577666065398 0.0045199947725959345 0 0.032736862807168171 0.0050746064026658795 0 0.033163242310176262 0.0049570522403390898 0 0.033087256705384621 0.003986073160470391 0 0.033163242310176262 0.0049570522403390898 0 0.0335577666065398 0.0045199947725959345 0 0.033087256705384621 0.003986073160470391 0 0.033715055332028891 0.0030754495375645828 0 0.03362362345830288 0.0027233473060541166 0 0.0335577666065398 0.0045199947725959345 0 0.034025556365383264 0.00227692428581029 0 0.033087256705384621 0.003986073160470391 0 0.0335577666065398 0.0045199947725959345 0 0.033509928665954064 0.0049873988304541929 0 0.033756874619016705 0.0049615404230021138 0 0.033509928665954064 0.0049873988304541929 0 0.033743045407619736 0.0048446931404511973 0 0.033756874619016705 0.0049615404230021138 0 0.033731975043646931 0.0049014842428244058 0 0.033509928665954064 0.0049873988304541929 0 0.033743045407619736 0.0048446931404511973 0 0.033955436808102687 0.0043223134792962454 0 0.033743045407619736 0.0048446931404511973 0 0.033756874619016705 0.0049615404230021138 0 0.033206111321256115 0.0015533712680188222 0 0.031980727119613701 0.0029307201363341314 0 0.033289730911027757 -0.0002793025192420383 0 0.034025556365383264 0.00227692428581029 0 0.033206111321256115 0.0015533712680188222 0 0.033087256705384621 0.003986073160470391 0 0.034812413047886556 -0.0007322205159502271 0 0.033962901965007765 -0.00078569816501667192 0 0.033289730911027757 -0.0002793025192420383 0 0.033649148834646127 0.0020664001000822675 0 0.033586525908260979 0.0014811655326990268 0 0.033649148834646127 0.0020664001000822675 0 0.033786651815235436 0.0033860143912601282 0 0.031980727119613701 0.0029307201363341314 0 0.033087256705384621 0.003986073160470391 0 0.032081569335060948 0.0047644134196101751 0 0.033206111321256115 0.0015533712680188222 0 0.031980727119613701 0.0029307201363341314 0 0.033087256705384621 0.003986073160470391 0 0.032736862807168171 0.0050746064026658795 0 0.033087256705384621 0.003986073160470391 0 0.032081569335060948 0.0047644134196101751 0 0.036078834071925019 0.0012978000176291939 0 0.034896138543030565 0.0030686511183008387 0 0.034344803810148462 0.00018834872368470298 0 0.034812413047886556 -0.0007322205159502271 0 0.036078834071925019 0.0012978000176291939 0 0.034344803810148462 0.00018834872368470298 0 0.036078834071925019 0.0012978000176291939 0 0.034896138543030565 0.0030686511183008387 0 0.035740966462628081 0.004565171975036573 0 0.033786651815235436 0.0033860143912601282 0 0.033833620114367115 0.005059079646193493 0 0.036078834071925019 0.0012978000176291939 0 0.035740966462628081 0.004565171975036573 0 0.036303175883274197 0.0048585818514531292 0 0.032081569335060948 0.0047644134196101751 0 0.032405254367503786 0.0051918388440022299 0 0.032229151975147127 0.0054721907719736959 0 0.032736862807168171 0.0050746064026658795 0 0.032081569335060948 0.0047644134196101751 0 0.032405254367503786 0.0051918388440022299 0 0.032736862807168171 0.0050746064026658795 0 0.032405254367503786 0.0051918388440022299 0 0.032548833660483792 0.0053793798255642386 0 0.034255522188221033 0.0017513529403533673 0 0.034863091507026718 0.0014697825233669398 0 0.033925889151603161 0.0030492702592499507 0 0.033197950457098564 -0.00024467908439378231 0 0.030815115916196047 0.0028418925110642096 0 0.033925889151603161 0.0030492702592499507 0 0.032692631219213536 0.0041909950003258993 0 0.03330639753087461 0.0048030835925131155 0 0.033925889151603161 0.0030492702592499507 0 0.034896138543030565 0.0030686511183008387 0 0.034295464615626187 0.0044792935524630983 0 0.033925889151603161 0.0030492702592499507 0 0.034896138543030565 0.0030686511183008387 0 0.034344803810148462 0.00018834872368470298 0 0.034344803810148462 0.00018834872368470298 0 0.033197950457098564 -0.00024467908439378231 0 0.033774639658708944 -0.00075552909402745619 0 0.033925889151603161 0.0030492702592499507 0 0.034344803810148462 0.00018834872368470298 0 0.033197950457098564 -0.00024467908439378231 0 0.034344803810148462 0.00018834872368470298 0 0.033774639658708944 -0.00075552909402745619 0 0.034085809498290709 -0.00085630431320589449 0 0.034812413047886556 -0.0007322205159502271 0 0.034344803810148462 0.00018834872368470298 0 0.034085809498290709 -0.00085630431320589449 0 0.034812413047886556 -0.0007322205159502271 0 0.034085809498290709 -0.00085630431320589449 0 0.033962901965007765 -0.00078569816501667192 0 0.033774639658708944 -0.00075552909402745619 0 0.034085809498290709 -0.00085630431320589449 0 0.034075114158765067 -0.0010178408213892172 0 0.034085809498290709 -0.00085630431320589449 0 0.034098310613341842 -0.00097412368149512837 0 0.034075114158765067 -0.0010178408213892172 0 0.034098310613341842 -0.00097412368149512837 0 0.034247642695184849 -0.0010260959979736866 0 0.034269883250006086 -0.0011018220465266759 0 0.034098310613341842 -0.00097412368149512837 0 0.034269883250006086 -0.0011018220465266759 0 0.034075114158765067 -0.0010178408213892172 0 0.034098310613341842 -0.00097412368149512837 0 0.034247642695184849 -0.0010260959979736866 0 0.033925787669317545 -0.00083467342408273396 0 0.034247642695184849 -0.0010260959979736866 0 0.033925787669317545 -0.00083467342408273396 0 0.034024809349268541 -0.00084493031221486543 0 0.033925787669317545 -0.00083467342408273396 0 0.033962901965007765 -0.00078569816501667192 0 0.033541069998139966 -0.00058715382047557613 0 0.033925787669317545 -0.00083467342408273396 0 0.033541069998139966 -0.00058715382047557613 0 0.033599979502831799 -0.00067366183961910697 0 0.034098310613341842 -0.00097412368149512837 0 0.033925787669317545 -0.00083467342408273396 0 0.033962901965007765 -0.00078569816501667192 0 0.034085809498290709 -0.00085630431320589449 0 0.034098310613341842 -0.00097412368149512837 0 0.033962901965007765 -0.00078569816501667192 0 0.033962901965007765 -0.00078569816501667192 0 0.033289730911027757 -0.0002793025192420383 0 0.033541069998139966 -0.00058715382047557613 0 0.033206111321256115 0.0015533712680188222 0 0.033289730911027757 -0.0002793025192420383 0 0.033726002148405668 -4.6128748869795191e-05 0 0.034025556365383264 0.00227692428581029 0 0.033206111321256115 0.0015533712680188222 0 0.033726002148405668 -4.6128748869795191e-05 0 0.033289730911027757 -0.0002793025192420383 0 0.033726002148405668 -4.6128748869795191e-05 0 0.033417284127446989 -0.00065864457122448308 0 0.033566564019033858 0.0020615683598944981 0 0.032996673087071202 0.0035797193837540427 0 0.032522990090269398 0.001436730356654191 0 0.033366604764274083 0.0019217031607032258 0 0.03316914851253458 0.0012536629955946391 0 0.033289730911027757 -0.0002793025192420383 0 0.033541069998139966 -0.00058715382047557613 0 0.033417284127446989 -0.00065864457122448308 0 0.033541069998139966 -0.00058715382047557613 0 0.033417284127446989 -0.00065864457122448308 0 0.033599979502831799 -0.00067366183961910697 0 0.03316914851253458 0.0012536629955946391 0 0.033120224564027786 0.0010153796822212166 0 0.032522990090269398 0.001436730356654191 0 0.032979295352401808 0.00047133837929685881 0 0.033150886322146439 -0.00018187975723248616 0 0.033417284127446989 -0.00065864457122448308 0 0.033150886322146439 -0.00018187975723248616 0 0.033599979502831799 -0.00067366183961910697 0 0.033579449930697974 0.00087748904176916209 0 0.033566564019033858 0.0020615683598944981 0 0.032522990090269398 0.001436730356654191 0 0.033579449930697974 0.00087748904176916209 0 0.032522990090269398 0.001436730356654191 0 0.032979295352401808 0.00047133837929685881 0 0.033579449930697974 0.00087748904176916209 0 0.033299282671826871 0.00030703643997065638 0 0.032979295352401808 0.00047133837929685881 0 0.033744657682019522 -2.490849991991828e-05 0 0.033579449930697974 0.00087748904176916209 0 0.033299282671826871 0.00030703643997065638 0 0.033299282671826871 0.00030703643997065638 0 0.032979295352401808 0.00047133837929685881 0 0.032939261785614064 1.8451438364401612e-05 0 0.033225442908107056 -0.00038087948518542719 0 0.033299282671826871 0.00030703643997065638 0 0.032939261785614064 1.8451438364401612e-05 0 0.033225442908107056 -0.00038087948518542719 0 0.033744657682019522 -2.490849991991828e-05 0 0.033299282671826871 0.00030703643997065638 0 0.032979295352401808 0.00047133837929685881 0 0.032939261785614064 1.8451438364401612e-05 0 0.033150886322146439 -0.00018187975723248616 0 0.032935641593382588 0.00021064419400342824 0 0.032939261785614064 1.8451438364401612e-05 0 0.033150886322146439 -0.00018187975723248616 0 0.034410814385679979 -0.00053198076341980723 0 0.03344484104958198 0.00010328072486426285 0 0.033791078398844224 -0.00048306478028128149 0 0.033150886322146439 -0.00018187975723248616 0 0.033791078398844224 -0.00048306478028128149 0 0.033599979502831799 -0.00067366183961910697 0 0.03344484104958198 0.00010328072486426285 0 0.033150886322146439 -0.00018187975723248616 0 0.033791078398844224 -0.00048306478028128149 0 0.034410814385679979 -0.00053198076341980723 0 0.033791078398844224 -0.00048306478028128149 0 0.034291555439768091 -0.00089163021588992662 0 0.034410814385679979 -0.00053198076341980723 0 0.034291555439768091 -0.00089163021588992662 0 0.034700382164423581 -0.0012712010236196635 0 0.034291555439768091 -0.00089163021588992662 0 0.034024809349268541 -0.00084493031221486543 0 0.034467563081054579 -0.0010806551044213173 0 0.033791078398844224 -0.00048306478028128149 0 0.034291555439768091 -0.00089163021588992662 0 0.034024809349268541 -0.00084493031221486543 0 0.034247642695184849 -0.0010260959979736866 0 0.034024809349268541 -0.00084493031221486543 0 0.034467563081054579 -0.0010806551044213173 0 0.033925787669317545 -0.00083467342408273396 0 0.034024809349268541 -0.00084493031221486543 0 0.033599979502831799 -0.00067366183961910697 0 0.033791078398844224 -0.00048306478028128149 0 0.034024809349268541 -0.00084493031221486543 0 0.033599979502831799 -0.00067366183961910697 0 0.034668330151434716 -0.001227790430755218 0 0.034428177956543196 -0.001201659186479297 0 0.034674450520899319 -0.0012583946826489195 0 0.034668330151434716 -0.001227790430755218 0 0.034467563081054579 -0.0010806551044213173 0 0.034700382164423581 -0.0012712010236196635 0 0.034668330151434716 -0.001227790430755218 0 0.034467563081054579 -0.0010806551044213173 0 0.034494732613161112 -0.0011826349120687976 0 0.034291555439768091 -0.00089163021588992662 0 0.034467563081054579 -0.0010806551044213173 0 0.034700382164423581 -0.0012712010236196635 0 0.034410814385679979 -0.00053198076341980723 0 0.034700382164423581 -0.0012712010236196635 0 0.034970600139194882 -0.0021476317612443012 0 0.034668330151434716 -0.001227790430755218 0 0.034700382164423581 -0.0012712010236196635 0 0.034970600139194882 -0.0021476317612443012 0 0.034268853166689012 -0.0023456249377698571 0 0.034270879465637866 -0.0022846550326894358 0 0.034668330151434716 -0.001227790430755218 0 0.034970600139194882 -0.0021476317612443012 0 0.034428177956543196 -0.001201659186479297 0 0.035593492888942591 -0.0033824321923134359 0 0.03563556432503704 -0.0033274929104391382 0 0.034957354684355721 -0.0032110488122861981 0 0.034970600139194882 -0.0021476317612443012 0 0.034428177956543196 -0.001201659186479297 0 0.035682861670042407 -0.0042992803875719979 0 0.035922016799535453 -0.0053781542202386385 0 0.036220365060573592 -0.0048377367744622266 0 0.035682861670042407 -0.0042992803875719979 0 0.034957354684355721 -0.0032110488122861981 0 0.035922016799535453 -0.0053781542202386385 0 0.035922016799535453 -0.0053781542202386385 0 0.036643454769306257 -0.0054344506747001217 0 0.036220365060573592 -0.0048377367744622266 0 0.036643454769306257 -0.0054344506747001217 0 0.036220365060573592 -0.0048377367744622266 0 0.036596943322235814 -0.0053551842533921838 0 0.03563556432503704 -0.0033274929104391382 0 0.035808651934077326 -0.0032795323215669024 0 0.035922016799535453 -0.0053781542202386385 0 0.036643454769306257 -0.0054344506747001217 0 0.037116667654362674 -0.0052867795289011496 0 0.034428177956543196 -0.001201659186479297 0 0.034674450520899319 -0.0012583946826489195 0 0.035439975233877416 -0.0013875719160577758 0 0.034674450520899319 -0.0012583946826489195 0 0.035439975233877416 -0.0013875719160577758 0 0.034877206820354348 -0.0015901120658595948 0 0.035439975233877416 -0.0013875719160577758 0 0.035557200591229209 -0.0022205998985421068 0 0.034877206820354348 -0.0015901120658595948 0 0.035557200591229209 -0.0022205998985421068 0 0.034877206820354348 -0.0015901120658595948 0 0.03505338420536866 -0.001654717010068934 0 0.034877206820354348 -0.0015901120658595948 0 0.034495776605150998 -0.0012830558735653901 0 0.034494732613161112 -0.0011826349120687976 0 0.034674450520899319 -0.0012583946826489195 0 0.034877206820354348 -0.0015901120658595948 0 0.034494732613161112 -0.0011826349120687976 0 0.034668330151434716 -0.001227790430755218 0 0.034674450520899319 -0.0012583946826489195 0 0.034494732613161112 -0.0011826349120687976 0 0.034247642695184849 -0.0010260959979736866 0 0.034467563081054579 -0.0010806551044213173 0 0.034494732613161112 -0.0011826349120687976 0 0.034247642695184849 -0.0010260959979736866 0 0.034494732613161112 -0.0011826349120687976 0 0.034269883250006086 -0.0011018220465266759 0 0.034495776605150998 -0.0012830558735653901 0 0.034494732613161112 -0.0011826349120687976 0 0.034269883250006086 -0.0011018220465266759 0 0.034495776605150998 -0.0012830558735653901 0 0.034269883250006086 -0.0011018220465266759 0 0.034075114158765067 -0.0010178408213892172 0 0.033774639658708944 -0.00075552909402745619 0 0.034075114158765067 -0.0010178408213892172 0 0.034178454092889839 -0.0010591266099164987 0 0.034495776605150998 -0.0012830558735653901 0 0.034075114158765067 -0.0010178408213892172 0 0.034178454092889839 -0.0010591266099164987 0 0.034495776605150998 -0.0012830558735653901 0 0.034178454092889839 -0.0010591266099164987 0 0.03505338420536866 -0.001654717010068934 0 0.034178454092889839 -0.0010591266099164987 0 0.034661529099279699 -0.001419335432686253 0 0.03505338420536866 -0.001654717010068934 0 0.033197950457098564 -0.00024467908439378231 0 0.033774639658708944 -0.00075552909402745619 0 0.034178454092889839 -0.0010591266099164987 0 0.033197950457098564 -0.00024467908439378231 0 0.034178454092889839 -0.0010591266099164987 0 0.034661529099279699 -0.001419335432686253 0 0.033197950457098564 -0.00024467908439378231 0 0.034661529099279699 -0.001419335432686253 0 0.034031765765651791 -0.0021125328243853871 0 0.034661529099279699 -0.001419335432686253 0 0.034031765765651791 -0.0021125328243853871 0 0.035189129674844798 -0.0022586687955702543 0 0.034863091507026718 0.0014697825233669398 0 0.036011321103903531 0.00035650944845991441 0 0.034625937158735964 0.0011947890137174904 0 0.034863091507026718 0.0014697825233669398 0 0.035899016780967796 -0.0021542171898076847 0 0.035189129674844798 -0.0022586687955702543 0 0.035692796893389188 -0.0019128517100729795 0 0.036264098836171869 -0.00018210608169265331 0 0.036011321103903531 0.00035650944845991441 0 0.034661529099279699 -0.001419335432686253 0 0.035189129674844798 -0.0022586687955702543 0 0.035692796893389188 -0.0019128517100729795 0 0.035692796893389188 -0.0019128517100729795 0 0.03505338420536866 -0.001654717010068934 0 0.035843061650691441 -0.0022236772883247129 0 0.034661529099279699 -0.001419335432686253 0 0.035692796893389188 -0.0019128517100729795 0 0.03505338420536866 -0.001654717010068934 0 0.034877206820354348 -0.0015901120658595948 0 0.034495776605150998 -0.0012830558735653901 0 0.03505338420536866 -0.001654717010068934 0 0.035557200591229209 -0.0022205998985421068 0 0.03505338420536866 -0.001654717010068934 0 0.035843061650691441 -0.0022236772883247129 0 0.035557200591229209 -0.0022205998985421068 0 0.035843061650691441 -0.0022236772883247129 0 0.036509908305846279 -0.0033955069301223493 0 0.036166772915511014 -0.0022921574448564654 0 0.036001555995389532 -0.0031773687997353577 0 0.036509908305846279 -0.0033955069301223493 0 0.035843061650691441 -0.0022236772883247129 0 0.036166772915511014 -0.0022921574448564654 0 0.036509908305846279 -0.0033955069301223493 0 0.036166772915511014 -0.0022921574448564654 0 0.036064839204296137 -0.0020657315942799598 0 0.036001555995389532 -0.0031773687997353577 0 0.035692796893389188 -0.0019128517100729795 0 0.035843061650691441 -0.0022236772883247129 0 0.036166772915511014 -0.0022921574448564654 0 0.035899016780967796 -0.0021542171898076847 0 0.035692796893389188 -0.0019128517100729795 0 0.036173564560654063 -0.001890060471884554 0 0.035692796893389188 -0.0019128517100729795 0 0.036166772915511014 -0.0022921574448564654 0 0.036173564560654063 -0.001890060471884554 0 0.036166772915511014 -0.0022921574448564654 0 0.036173564560654063 -0.001890060471884554 0 0.036064839204296137 -0.0020657315942799598 0 0.036173564560654063 -0.001890060471884554 0 0.036110822459918666 -0.0015156615779640106 0 0.036064839204296137 -0.0020657315942799598 0 0.036173564560654063 -0.001890060471884554 0 0.036215995975785537 -0.00160930284102919 0 0.036110822459918666 -0.0015156615779640106 0 0.035899016780967796 -0.0021542171898076847 0 0.036173564560654063 -0.001890060471884554 0 0.036215995975785537 -0.00160930284102919 0 0.036264098836171869 -0.00018210608169265331 0 0.036092145730369639 -0.00037696761192993736 0 0.034999763237502479 -0.00063326241280504242 0 0.035811072457527342 -0.0004032258646776312 0 0.03565255164191327 -0.0014081429853916472 0 0.035811072457527342 -0.0004032258646776312 0 0.036110822459918666 -0.0015156615779640106 0 0.03565255164191327 -0.0014081429853916472 0 0.036215995975785537 -0.00160930284102919 0 0.035811072457527342 -0.0004032258646776312 0 0.036110822459918666 -0.0015156615779640106 0 0.036092145730369639 -0.00037696761192993736 0 0.035867049590427698 -0.0004000357140012214 0 0.036838933207837918 -0.00017393219429171861 0 0.035811072457527342 -0.0004032258646776312 0 0.036365537783563544 -3.2613205649943859e-05 0 0.036110822459918666 -0.0015156615779640106 0 0.036064839204296137 -0.0020657315942799598 0 0.03565255164191327 -0.0014081429853916472 0 0.036064839204296137 -0.0020657315942799598 0 0.03565255164191327 -0.0014081429853916472 0 0.034999853088021123 -0.0026693029449868936 0 0.034999763237502479 -0.00063326241280504242 0 0.03565255164191327 -0.0014081429853916472 0 0.034999853088021123 -0.0026693029449868936 0 0.036064839204296137 -0.0020657315942799598 0 0.034999853088021123 -0.0026693029449868936 0 0.036001555995389532 -0.0031773687997353577 0 0.034999853088021123 -0.0026693029449868936 0 0.036001555995389532 -0.0031773687997353577 0 0.034999536628886503 -0.0047056611992679215 0 0.036001555995389532 -0.0031773687997353577 0 0.034999536628886503 -0.0047056611992679215 0 0.035849066886407252 -0.0044858895849573194 0 0.034999536628886503 -0.0047056611992679215 0 0.035849066886407252 -0.0044858895849573194 0 0.034999866900464485 -0.0067424166572137394 0 0.035849066886407252 -0.0044858895849573194 0 0.034999866900464485 -0.0067424166572137394 0 0.036225285435181109 -0.0056601690790133068 0 0.036001555995389532 -0.0031773687997353577 0 0.035849066886407252 -0.0044858895849573194 0 0.036509908305846279 -0.0033955069301223493 0 0.036509908305846279 -0.0033955069301223493 0 0.036823223272809465 -0.0059331063406217891 0 0.036225285435181109 -0.0056601690790133068 0 0.037116667654362674 -0.0052867795289011496 0 0.036509908305846279 -0.0033955069301223493 0 0.036823223272809465 -0.0059331063406217891 0 0.035439975233877416 -0.0013875719160577758 0 0.035557200591229209 -0.0022205998985421068 0 0.036509908305846279 -0.0033955069301223493 0 0.035808651934077326 -0.0032795323215669024 0 0.035892175227349388 -0.003264237937759879 0 0.035849066886407252 -0.0044858895849573194 0 0.036509908305846279 -0.0033955069301223493 0 0.036225285435181109 -0.0056601690790133068 0 0.036823223272809465 -0.0059331063406217891 0 0.03706857862369433 -0.0068161999017104331 0 0.036225285435181109 -0.0056601690790133068 0 0.036643454769306257 -0.0054344506747001217 0 0.037116667654362674 -0.0052867795289011496 0 0.036823223272809465 -0.0059331063406217891 0 0.036856597245142536 -0.0060030291890143701 0 0.036823223272809465 -0.0059331063406217891 0 0.036596943322235814 -0.0053551842533921838 0 0.036643454769306257 -0.0054344506747001217 0 0.036823223272809465 -0.0059331063406217891 0 0.036596943322235814 -0.0053551842533921838 0 0.036856597245142536 -0.0060030291890143701 0 0.036823223272809465 -0.0059331063406217891 0 0.03706857862369433 -0.0068161999017104331 0 0.036511135072016455 -0.0085272795617704206 0 0.03706857862369433 -0.0068161999017104331 0 0.035912421824142969 -0.0073906024066651924 0 0.03706857862369433 -0.0068161999017104331 0 0.035912421824142969 -0.0073906024066651924 0 0.036225285435181109 -0.0056601690790133068 0 0.034999649985132351 -0.0087794091239238783 0 0.035912421824142969 -0.0073906024066651924 0 0.034999866900464485 -0.0067424166572137394 0 0.034999649985132351 -0.0087794091239238783 0 0.035811924085982938 -0.0088553484112841932 0 0.035912421824142969 -0.0073906024066651924 0 0.035912421824142969 -0.0073906024066651924 0 0.034999866900464485 -0.0067424166572137394 0 0.036225285435181109 -0.0056601690790133068 0 0.0195963556709794 0.011911748058935825 0 0.019769995438136189 0.011930760941112391 0 0.019599578854328979 0.011789427018517647 0 0.019769995438136189 0.011930760941112391 0 0.019599578854328979 0.011789427018517647 0 0.019871258251928474 0.011808605379549178 0 0.019599578854328979 0.011789427018517647 0 0.019871258251928474 0.011808605379549178 0 0.019686226010254226 0.011563464106139182 0 0.019599578854328979 0.011789427018517647 0 0.019458605679592927 0.011850613269542815 0 0.019425273052964612 0.011674708459726053 0 0.019458605679592927 0.011850613269542815 0 0.019425273052964612 0.011674708459726053 0 0.019300040661933617 0.011805169770836624 0 0.019458605679592927 0.011850613269542815 0 0.019331960219903559 0.011954555704006692 0 0.019300040661933617 0.011805169770836624 0 0.019504833524757865 0.011939064582867191 0 0.019458605679592927 0.011850613269542815 0 0.019331960219903559 0.011954555704006692 0 0.0195963556709794 0.011911748058935825 0 0.019504833524757865 0.011939064582867191 0 0.019458605679592927 0.011850613269542815 0 0.0195963556709794 0.011911748058935825 0 0.019599578854328979 0.011789427018517647 0 0.019458605679592927 0.011850613269542815 0 0.019331960219903559 0.011954555704006692 0 0.019632022174969354 0.012039882988296368 0 0.01914262525488894 0.011986408589186242 0 -0.0001663949004812037 -0.012374008194891368 0 0.0015146385657405521 -0.012944176235950858 0 -0.0018062180038872751 -0.012944408036061117 0 0.010774205948829489 -0.0032020739324202488 0 0.0071227059504986607 -4.6726761773402143e-05 0 0.019504833524757865 0.011939064582867191 0 0.019331960219903559 0.011954555704006692 0 0.019632022174969354 0.012039882988296368 0 -0.0001663949004812037 -0.012374008194891368 0 -0.0011131375470246586 -0.011979983063411763 0 -0.00046259103159152507 -0.011584328486834978 0 -0.0001663949004812037 -0.012374008194891368 0 0.0003816098116177534 -0.01141424617741885 0 -0.00046259103159152507 -0.011584328486834978 0 -0.0001663949004812037 -0.012374008194891368 0 0.00073685249175786617 -0.012436431771007367 0 0.0015146385657405521 -0.012944176235950858 0 -0.0001663949004812037 -0.012374008194891368 0 0.00073685249175786617 -0.012436431771007367 0 0.0003816098116177534 -0.01141424617741885 0 0.00073685249175786617 -0.012436431771007367 0 0.0010050952217970919 -0.011842502306077465 0 0.0003816098116177534 -0.01141424617741885 0 0.00073685249175786617 -0.012436431771007367 0 0.0010050952217970919 -0.011842502306077465 0 0.0012160686444041061 -0.01238505584888212 0 0.0016077437919054924 -0.012318592242732245 0 0.0015146385657405521 -0.012944176235950858 0 0.0049180566524838079 -0.012895843446537091 0 0.0010050952217970919 -0.011842502306077465 0 0.0016077437919054924 -0.012318592242732245 0 0.0012160686444041061 -0.01238505584888212 0 0.00073685249175786617 -0.012436431771007367 0 0.0012160686444041061 -0.01238505584888212 0 0.0015146385657405521 -0.012944176235950858 0 0.0016077437919054924 -0.012318592242732245 0 0.0012160686444041061 -0.01238505584888212 0 0.0015146385657405521 -0.012944176235950858 0 0.0195963556709794 0.011911748058935825 0 0.019769995438136189 0.011930760941112391 0 0.019632022174969354 0.012039882988296368 0 0.0195963556709794 0.011911748058935825 0 0.019504833524757865 0.011939064582867191 0 0.019632022174969354 0.012039882988296368 0 0.010774205948829489 -0.0032020739324202488 0 0.014794457746418655 -0.0077802503990712967 0 0.019769995438136189 0.011930760941112391 0 0.019632022174969354 0.012039882988296368 0 0.020171334720743544 0.012119479405447151 0 0.014794457746418655 -0.0077802503990712967 0 0.01225655401371885 -0.014340750838019653 0 0.0016077437919054924 -0.012318592242732245 0 0.0049180566524838079 -0.012895843446537091 0 0.0028793941302762663 -0.010896732200091189 0 0.014885101566110509 -0.027820599196709379 0 0.014850411455162115 -0.027880441441792397 0 0.014820974544543015 -0.027826591551796967 0 0.014794457746418655 -0.0077802503990712967 0 0.016777147921683545 -0.011035268056965307 0 0.014794457746418655 -0.0077802503990712967 0 0.016610064690372694 -0.0013403295285695175 0 0.020171334720743544 0.012119479405447151 0 0.020145821570489855 0.011640644142643042 0 0.020547315022267244 0.011879684387343362 0 0.020171334720743544 0.012119479405447151 0 0.019871258251928474 0.011808605379549178 0 0.020145821570489855 0.011640644142643042 0 0.019769995438136189 0.011930760941112391 0 0.020171334720743544 0.012119479405447151 0 0.019871258251928474 0.011808605379549178 0 0.019871258251928474 0.011808605379549178 0 0.020145821570489855 0.011640644142643042 0 0.019686226010254226 0.011563464106139182 0 0.020145821570489855 0.011640644142643042 0 0.019890366018143403 0.011346555423932772 0 0.019686226010254226 0.011563464106139182 0 0.020145821570489855 0.011640644142643042 0 0.020160923473287053 0.011232686439147169 0 0.020525375560428778 0.011490479541814726 0 0.020145821570489855 0.011640644142643042 0 0.020547315022267244 0.011879684387343362 0 0.020525375560428778 0.011490479541814726 0 0.020160923473287053 0.011232686439147169 0 0.020525375560428778 0.011490479541814726 0 0.020769081188201935 0.011019329697137384 0 0.020160923473287053 0.011232686439147169 0 0.019890366018143403 0.011346555423932772 0 0.019851545281829568 0.011156815228306333 0 0.020145821570489855 0.011640644142643042 0 0.020160923473287053 0.011232686439147169 0 0.019890366018143403 0.011346555423932772 0 0.019890366018143403 0.011346555423932772 0 0.01959955982409297 0.011243853539688155 0 0.019851545281829568 0.011156815228306333 0 0.019890366018143403 0.011346555423932772 0 0.01959955982409297 0.011243853539688155 0 0.019686226010254226 0.011563464106139182 0 0.019599578854328979 0.011789427018517647 0 0.019686226010254226 0.011563464106139182 0 0.019425273052964612 0.011674708459726053 0 0.019686226010254226 0.011563464106139182 0 0.019425273052964612 0.011674708459726053 0 0.019379505108899832 0.011453774768186986 0 0.01959955982409297 0.011243853539688155 0 0.019686226010254226 0.011563464106139182 0 0.019379505108899832 0.011453774768186986 0 0.01959955982409297 0.011243853539688155 0 0.019379505108899832 0.011453774768186986 0 0.019342577791313438 0.011250125275162315 0 0.019379505108899832 0.011453774768186986 0 0.019083836936374398 0.011399148101667788 0 0.019342577791313438 0.011250125275162315 0 0.019027551764350108 0.011160554410341781 0 0.018869950554165207 0.011124066178145113 0 0.018998577323316716 0.011103096264768519 0 0.019027551764350108 0.011160554410341781 0 0.018869950554165207 0.011124066178145113 0 0.018967200951943326 0.011317248835785568 0 0.019083836936374398 0.011399148101667788 0 0.019215481132160039 0.011644554641826977 0 0.018974116928300078 0.011725707892744623 0 0.013914444034019664 0.0092010102798215278 0 0.010757114536435682 0.0065315428579421023 0 0.019379505108899832 0.011453774768186986 0 0.019083836936374398 0.011399148101667788 0 0.019215481132160039 0.011644554641826977 0 0.019425273052964612 0.011674708459726053 0 0.019379505108899832 0.011453774768186986 0 0.019215481132160039 0.011644554641826977 0 0.0039569410875146017 0.0052359313631086353 0 0.0040032258456261056 0.0038529074367990349 0 0.018909357228630051 0.011156141891756972 0 0.018869950554165207 0.011124066178145113 0 0.01891765974736094 0.010826781492186717 0 0.018909357228630051 0.011156141891756972 0 0.018869950554165207 0.011124066178145113 0 0.018919107802881058 0.01112069413153092 0 0.018869950554165207 0.011124066178145113 0 0.01891765974736094 0.010826781492186717 0 0.018440861526319442 0.010630168364414399 0 0.014043554478263338 0.010143070269321834 0 0.010757114536435682 0.0065315428579421023 0 -0.010577940843880935 -0.00031595559347891665 0 -0.011110320835487495 -0.0014421672824176141 0 -0.010516298664522822 -0.001264948372778167 0 -0.011110320835487495 -0.0014421672824176141 0 -0.010516298664522822 -0.001264948372778167 0 -0.010650810884288609 -0.0019202590353854555 0 -0.010179774208641032 -0.0017259294054225566 0 -0.010516298664522822 -0.001264948372778167 0 -0.010650810884288609 -0.0019202590353854555 0 -0.011110320835487495 -0.0014421672824176141 0 -0.010650810884288609 -0.0019202590353854555 0 -0.01107238798391026 -0.0021948227199776989 0 -0.010152356481829775 -0.0021769578133399902 0 -0.010650810884288609 -0.0019202590353854555 0 -0.010678518926440282 -0.0026039739879328764 0 -0.010650810884288609 -0.0019202590353854555 0 -0.01107238798391026 -0.0021948227199776989 0 -0.010678518926440282 -0.0026039739879328764 0 0.0040032258456261056 0.0038529074367990349 0 0.0035495817539513662 0.0010223673491186499 0 0.01891765974736094 0.010826781492186717 0 0.018618790850909922 0.010211532807617775 0 0.018440861526319442 0.010630168364414399 0 -0.011110320835487495 -0.0014421672824176141 0 -0.01107238798391026 -0.0021948227199776989 0 -0.011668240374893214 -0.0025938797783180158 0 -0.013019580803518982 -0.0025183034469461307 0 -0.011490963786481756 -0.0035226627654886653 0 -0.010523817690889902 -0.0025654457376485373 0 0.0035495817539513662 0.0010223673491186499 0 -0.0053535185823954745 -0.00010016079295236703 0 -0.01107238798391026 -0.0021948227199776989 0 -0.011668240374893214 -0.0025938797783180158 0 -0.010678518926440282 -0.0026039739879328764 0 -0.013019580803518982 -0.0025183034469461307 0 -0.014149574995850437 -0.0046940294350694498 0 -0.012473597237029272 -0.0040901359008200817 0 -0.013019580803518982 -0.0025183034469461307 0 -0.011490963786481756 -0.0035226627654886653 0 -0.012473597237029272 -0.0040901359008200817 0 -0.011490963786481756 -0.0035226627654886653 0 -0.010583637577525415 -0.0036771382010869621 0 -0.010523817690889902 -0.0025654457376485373 0 -0.0097843615147252764 -0.0029498227861603937 0 -0.010583637577525415 -0.0036771382010869621 0 -0.010523817690889902 -0.0025654457376485373 0 0.019215481132160039 0.011644554641826977 0 0.019149370808162758 0.01181367570082114 0 0.018974116928300078 0.011725707892744623 0 0.019149370808162758 0.01181367570082114 0 0.019300040661933617 0.011805169770836624 0 0.019171455707537054 0.011948935009128834 0 0.019331960219903559 0.011954555704006692 0 0.019300040661933617 0.011805169770836624 0 0.01914262525488894 0.011986408589186242 0 0.0075833627061380688 0.00098446434003516842 0 0.0071227059504986607 -4.6726761773402143e-05 0 0.019215481132160039 0.011644554641826977 0 0.019149370808162758 0.01181367570082114 0 0.019300040661933617 0.011805169770836624 0 0.019425273052964612 0.011674708459726053 0 0.019215481132160039 0.011644554641826977 0 0.019300040661933617 0.011805169770836624 0 0.010757114536435682 0.0065315428579421023 0 0.006426550567390471 0.0013281850307780662 0 0.019149370808162758 0.01181367570082114 0 0.018974116928300078 0.011725707892744623 0 0.019101731291833068 0.011948517148290842 0 0.018618790850909922 0.010211532807617775 0 0.018440861526319442 0.010630168364414399 0 0.018504769864307317 0.010207998005088608 0 0.010757114536435682 0.0065315428579421023 0 0.0074958559697643409 0.00055717496975827836 0 0.0089756071645621799 0.00085078650830312493 0 0.0088178637627120537 0.0015281294028238004 0 0.0093838801540037271 0.0015348038155114981 0 0.0035495817539513662 0.0010223673491186499 0 0.0019149524112798005 -0.0035497308326326465 0 0.0040148833782700918 0.00017633349615506563 0 0.0042202552937556986 0.00015792821345074904 0 0.0041672276546677591 6.7734063990898151e-05 0 0.0037553760592150334 6.7949485881719241e-05 0 0.0038589808953507013 6.8327187086351306e-05 0 0.0039760283678178321 0.00049330673683912075 0 0.0038589808953507013 6.8327187086351306e-05 0 0.0040148833782700918 0.00017633349615506563 0 0.0039760283678178321 0.00049330673683912075 0 0.0038589808953507013 6.8327187086351306e-05 0 0.0040148833782700918 0.00017633349615506563 0 0.0041672276546677591 6.7734063990898151e-05 0 0.006426550567390471 0.0013281850307780662 0 0.0074958559697643409 0.00055717496975827836 0 0.0035495817539513662 0.0010223673491186499 0 0.006426550567390471 0.0013281850307780662 0 0.0040148833782700918 0.00017633349615506563 0 0.0042202552937556986 0.00015792821345074904 0 0.0039760283678178321 0.00049330673683912075 0 -0.0021065224505992263 -0.012502773358950161 0 -0.0018062180038872751 -0.012944408036061117 0 -0.0011131375470246586 -0.011979983063411763 0 0.0061143963601517541 -0.0013667443154153276 0 0.0074958559697643409 0.00055717496975827836 0 0.0074958559697643409 0.00055717496975827836 0 0.0071227059504986607 -4.6726761773402143e-05 0 0.019149370808162758 0.01181367570082114 0 0.019101731291833068 0.011948517148290842 0 0.019171455707537054 0.011948935009128834 0 0.0046745810451294875 0.0051164372241721285 0 0.0012611903448658361 -0.00064170155465661681 0 0.0086227840004421043 -0.00052614129211150256 0 0.0061143963601517541 -0.0013667443154153276 0 0.0071227059504986607 -4.6726761773402143e-05 0 -0.0001663949004812037 -0.012374008194891368 0 -0.0018062180038872751 -0.012944408036061117 0 -0.0011131375470246586 -0.011979983063411763 0 -0.0011131375470246586 -0.011979983063411763 0 -0.00095185939538202605 -0.010580880609886753 0 -0.00046259103159152507 -0.011584328486834978 0 -0.0022070445777674502 -0.012255543415878072 0 -0.0011648752067034537 -0.010526608619591708 0 -0.0022036725437557807 -0.010535493410380101 0 -0.0021065224505992263 -0.012502773358950161 0 -0.0011131375470246586 -0.011979983063411763 0 -0.00095185939538202605 -0.010580880609886753 0 0.0061143963601517541 -0.0013667443154153276 0 0.0024238202415798518 -0.0068422367901219798 0 -0.0011648752067034537 -0.010526608619591708 0 -0.0022036725437557807 -0.010535493410380101 0 -0.0017228308507714265 -0.0096367045010901844 0 -0.0022070445777674502 -0.012255543415878072 0 -0.0022036725437557807 -0.010535493410380101 0 -0.003294075763120565 -0.010735696116986071 0 0.0061143963601517541 -0.0013667443154153276 0 0.0019149524112798005 -0.0035497308326326465 0 0.0019149524112798005 -0.0035497308326326465 0 -0.002018886574131541 -0.0044465114567008614 0 -0.0022036725437557807 -0.010535493410380101 0 -0.003294075763120565 -0.010735696116986071 0 -0.0027127402701901176 -0.0095466558919503532 0 0.0019149524112798005 -0.0035497308326326465 0 0.0012529323345286804 -0.0046973186475295905 0 -0.0027127402701901176 -0.0095466558919503532 0 -0.0033753250258808927 -0.0085625304977589058 0 -0.0043023922532745311 -0.0092808767202315953 0 -0.0033061189231267623 -0.010691038703485247 0 -0.0027127402701901176 -0.0095466558919503532 0 -0.0043023922532745311 -0.0092808767202315953 0 -0.0033753250258808927 -0.0085625304977589058 0 -0.0043023922532745311 -0.0092808767202315953 0 -0.0037316931976281984 -0.0074342438780333831 0 -0.0027127402701901176 -0.0095466558919503532 0 -0.0033753250258808927 -0.0085625304977589058 0 -0.0027439696892793647 -0.0080079608949599149 0 -0.0027127402701901176 -0.0095466558919503532 0 -0.0016433876175362314 -0.008500953563141565 0 -0.0027439696892793647 -0.0080079608949599149 0 -0.0016433876175362314 -0.008500953563141565 0 -0.0011262113029969173 -0.0093491003725812705 0 -0.0017228308507714265 -0.0096367045010901844 0 -0.0016433876175362314 -0.008500953563141565 0 -0.0011262113029969173 -0.0093491003725812705 0 3.1547296059265504e-05 -0.0087205697661143014 0 -0.0011648752067034537 -0.010526608619591708 0 -0.0011262113029969173 -0.0093491003725812705 0 -0.0017228308507714265 -0.0096367045010901844 0 -0.0022036725437557807 -0.010535493410380101 0 -0.0027127402701901176 -0.0095466558919503532 0 -0.0017228308507714265 -0.0096367045010901844 0 -0.0027127402701901176 -0.0095466558919503532 0 -0.0016433876175362314 -0.008500953563141565 0 -0.0017228308507714265 -0.0096367045010901844 0 -0.0089474233982861258 -0.0050680181968431421 0 -0.01095937673857731 -0.004753093646909244 0 -0.0098443950601665286 -0.0060068474339643645 0 -0.0095183277686856724 -0.0040806246672400338 0 -0.010583637577525415 -0.0036771382010869621 0 -0.01095937673857731 -0.004753093646909244 0 -0.011490963786481756 -0.0035226627654886653 0 -0.010583637577525415 -0.0036771382010869621 0 -0.01095937673857731 -0.004753093646909244 0 -0.01095937673857731 -0.004753093646909244 0 -0.012301313007667472 -0.0052926436444698322 0 -0.011116511284035903 -0.0064028733288759142 0 -0.014149574995850437 -0.0046940294350694498 0 -0.012301313007667472 -0.0052926436444698322 0 -0.013090886431754413 -0.0062679060135096675 0 -0.014149574995850437 -0.0046940294350694498 0 -0.012301313007667472 -0.0052926436444698322 0 -0.012473597237029272 -0.0040901359008200817 0 -0.01095937673857731 -0.004753093646909244 0 -0.012301313007667472 -0.0052926436444698322 0 -0.012473597237029272 -0.0040901359008200817 0 -0.011490963786481756 -0.0035226627654886653 0 -0.01095937673857731 -0.004753093646909244 0 -0.012473597237029272 -0.0040901359008200817 0 -0.013090886431754413 -0.0062679060135096675 0 -0.011116511284035903 -0.0064028733288759142 0 -0.012016755829827939 -0.0078596249360916772 0 -0.012301313007667472 -0.0052926436444698322 0 -0.013090886431754413 -0.0062679060135096675 0 -0.011116511284035903 -0.0064028733288759142 0 -0.002018886574131541 -0.0044465114567008614 0 -0.0044721506780130505 -0.0052844746986291354 0 -0.0093322506687419614 -0.0071931000852956907 0 -0.011116511284035903 -0.0064028733288759142 0 -0.0098443950601665286 -0.0060068474339643645 0 -0.0093322506687419614 -0.0071931000852956907 0 -0.011116511284035903 -0.0064028733288759142 0 -0.012016755829827939 -0.0078596249360916772 0 -0.01095937673857731 -0.004753093646909244 0 -0.011116511284035903 -0.0064028733288759142 0 -0.0098443950601665286 -0.0060068474339643645 0 -0.005440712080701981 -0.0067402473733983899 0 -0.0049345971310048205 -0.0069314484271625447 0 -0.0051050291755762476 -0.0066562240898535279 0 -0.0064076921176328622 -0.0061183319776186912 0 -0.0044721506780130505 -0.0052844746986291354 0 -0.0057720662229206188 -0.0069472774859156488 0 -0.005440712080701981 -0.0067402473733983899 0 -0.0049345971310048205 -0.0069314484271625447 0 -0.0046373449869769635 -0.0074515896413255255 0 -0.0042761877887566406 -0.0064253783764135113 0 -0.0051050291755762476 -0.0066562240898535279 0 -0.0043023922532745311 -0.0092808767202315953 0 -0.0052805098745496385 -0.0078770059647097976 0 -0.0037316931976281984 -0.0074342438780333831 0 -0.0046373449869769635 -0.0074515896413255255 0 -0.0042761877887566406 -0.0064253783764135113 0 -0.0035794109533269533 -0.0072718253863221045 0 -0.0044721506780130505 -0.0052844746986291354 0 -0.0044264746741152017 -0.0054524962300171618 0 -0.0044721506780130505 -0.0052844746986291354 0 -0.0041149258757977054 -0.0055980224392657612 0 -0.0035719888440257411 -0.0056938026942203266 0 -0.0049920165422074518 -0.0058825612613842256 0 -0.0042761877887566406 -0.0064253783764135113 0 -0.0049920165422074518 -0.0058825612613842256 0 -0.0042761877887566406 -0.0064253783764135113 0 -0.0051050291755762476 -0.0066562240898535279 0 -0.0056348176278231358 -0.0058768505813001169 0 -0.0049920165422074518 -0.0058825612613842256 0 -0.0055279113400280439 -0.0063563812433939729 0 -0.0049920165422074518 -0.0058825612613842256 0 -0.0051050291755762476 -0.0066562240898535279 0 -0.0055279113400280439 -0.0063563812433939729 0 -0.005440712080701981 -0.0067402473733983899 0 -0.0051050291755762476 -0.0066562240898535279 0 -0.0055279113400280439 -0.0063563812433939729 0 -0.0016433876175362314 -0.008500953563141565 0 -0.0016671931854024865 -0.0069815367745947659 0 3.1547296059265504e-05 -0.0087205697661143014 0 -0.0022479320099084298 -0.0070016039591364416 0 -0.0020799834190065062 -0.0076179096922868216 0 -0.0027439696892793647 -0.0080079608949599149 0 -0.0022479320099084298 -0.0070016039591364416 0 -0.0016671931854024865 -0.0069815367745947659 0 -0.0020799834190065062 -0.0076179096922868216 0 -0.0016433876175362314 -0.008500953563141565 0 -0.0016671931854024865 -0.0069815367745947659 0 -0.0020799834190065062 -0.0076179096922868216 0 -0.0016433876175362314 -0.008500953563141565 0 -0.0020799834190065062 -0.0076179096922868216 0 -0.0027439696892793647 -0.0080079608949599149 0 -0.0033753250258808927 -0.0085625304977589058 0 -0.0027439696892793647 -0.0080079608949599149 0 -0.0037316931976281984 -0.0074342438780333831 0 -0.0022479320099084298 -0.0070016039591364416 0 -0.0027439696892793647 -0.0080079608949599149 0 -0.0037316931976281984 -0.0074342438780333831 0 -0.0038500896198247706 -0.0056557590374309219 0 -0.0041149258757977054 -0.0055980224392657612 0 -0.0035719888440257411 -0.0056938026942203266 0 -0.0042761877887566406 -0.0064253783764135113 0 -0.0035794109533269533 -0.0072718253863221045 0 -0.0035719888440257411 -0.0056938026942203266 0 -0.0022479320099084298 -0.0070016039591364416 0 -0.0035794109533269533 -0.0072718253863221045 0 -0.0035719888440257411 -0.0056938026942203266 0 -0.0022479320099084298 -0.0070016039591364416 0 -0.0016671931854024865 -0.0069815367745947659 0 0.0056298291714853912 -0.017296774811378958 0 0.0073429159122371558 -0.017538445617592706 0 0.014298770405241502 -0.028888233249655421 0 0.014606831056827153 -0.028975735837620822 0 0.014611640227336086 -0.028864046569077716 0 0.014606831056827153 -0.028975735837620822 0 0.014611640227336086 -0.028864046569077716 0 0.01467473505992991 -0.028949311506834503 0 0.014735845323591932 -0.028698367709550612 0 0.014611640227336086 -0.028864046569077716 0 0.01467473505992991 -0.028949311506834503 0 0.014919001030332151 -0.028161779415752642 0 0.014966762381351809 -0.028096806362190627 0 0.014932731542625114 -0.0280653041928366 0 0.014919001030332151 -0.028161779415752642 0 0.014932731542625114 -0.0280653041928366 0 0.014903319709005099 -0.028116970951545077 0 0.014932731542625114 -0.0280653041928366 0 0.014970120326430933 -0.02797517769223435 0 0.014908840336315097 -0.028015661317329618 0 0.014932731542625114 -0.0280653041928366 0 0.014908840336315097 -0.028015661317329618 0 0.014903319709005099 -0.028116970951545077 0 0.0073429159122371558 -0.017538445617592706 0 0.0096810654424636274 -0.017787447152339514 0 0.014966762381351809 -0.028096806362190627 0 0.014932731542625114 -0.0280653041928366 0 0.014970120326430933 -0.02797517769223435 0 0.014606831056827153 -0.028975735837620822 0 0.01467473505992991 -0.028949311506834503 0 0.014664735060899152 -0.02895126363097773 0 -0.0016671931854024865 -0.0069815367745947659 0 0.00069209681669846277 -0.0089929739107907653 0 3.1547296059265504e-05 -0.0087205697661143014 0 0.012560864045508314 -0.025641318766206365 0 0.0096810654424636274 -0.017787447152339514 0 -0.0011648752067034537 -0.010526608619591708 0 -0.0011262113029969173 -0.0093491003725812705 0 3.1547296059265504e-05 -0.0087205697661143014 0 -0.00095185939538202605 -0.010580880609886753 0 0.0001252656363724997 -0.010020270048857936 0 3.1547296059265504e-05 -0.0087205697661143014 0 0.0024238202415798518 -0.0068422367901219798 0 0.0016987574416114787 -0.0078343180549969929 0 0.0096810654424636274 -0.017787447152339514 0 0.0077935650426062004 -0.01435587423835326 0 0.0001252656363724997 -0.010020270048857936 0 0.00069209681669846277 -0.0089929739107907653 0 0.0011402809966574983 -0.010630288595550383 0 0.0001252656363724997 -0.010020270048857936 0 0.00069209681669846277 -0.0089929739107907653 0 3.1547296059265504e-05 -0.0087205697661143014 0 0.014970120326430933 -0.02797517769223435 0 0.014927710763330089 -0.027895972735821076 0 0.014908840336315097 -0.028015661317329618 0 0.0096810654424636274 -0.017787447152339514 0 0.01225655401371885 -0.014340750838019653 0 0.00097357503064578069 -0.0090316006734663078 0 0.0013147667265512794 -0.010645415802496594 0 0.0028793941302762663 -0.010896732200091189 0 0.0016077437919054924 -0.012318592242732245 0 0.0013147667265512794 -0.010645415802496594 0 0.0028793941302762663 -0.010896732200091189 0 0.0010050952217970919 -0.011842502306077465 0 0.0016077437919054924 -0.012318592242732245 0 0.0011402809966574983 -0.010630288595550383 0 0.0072631056350904678 -0.013593702757684737 0 0.0077935650426062004 -0.01435587423835326 0 0.0010050952217970919 -0.011842502306077465 0 0.0011402809966574983 -0.010630288595550383 0 0.0003816098116177534 -0.01141424617741885 0 -0.00095185939538202605 -0.010580880609886753 0 0.0003816098116177534 -0.01141424617741885 0 -0.00046259103159152507 -0.011584328486834978 0 -0.00095185939538202605 -0.010580880609886753 0 0.0001252656363724997 -0.010020270048857936 0 0.0003816098116177534 -0.01141424617741885 0 0.0001252656363724997 -0.010020270048857936 0 0.0011402809966574983 -0.010630288595550383 0 0.0003816098116177534 -0.01141424617741885 0 0.014885101566110509 -0.027820599196709379 0 0.014850411455162115 -0.027880441441792397 0 0.014927710763330089 -0.027895972735821076 0 0.014850411455162115 -0.027880441441792397 0 0.014927710763330089 -0.027895972735821076 0 0.014864590864538211 -0.02796078306121888 0 0.014927710763330089 -0.027895972735821076 0 0.014864590864538211 -0.02796078306121888 0 0.014908840336315097 -0.028015661317329618 0 0.014864590864538211 -0.02796078306121888 0 0.014867309304224181 -0.028070955867030654 0 0.014840358524564371 -0.028017676848992847 0 0.014864590864538211 -0.02796078306121888 0 0.014908840336315097 -0.028015661317329618 0 0.014867309304224181 -0.028070955867030654 0 0.014908840336315097 -0.028015661317329618 0 0.014903319709005099 -0.028116970951545077 0 0.014867309304224181 -0.028070955867030654 0 0.014878971949578402 -0.02813955806940717 0 0.014903319709005099 -0.028116970951545077 0 0.014867309304224181 -0.028070955867030654 0 0.01484965651941 -0.028168324780451771 0 0.014878971949578402 -0.02813955806940717 0 0.014867309304224181 -0.028070955867030654 0 0.01484965651941 -0.028168324780451771 0 0.014867309304224181 -0.028070955867030654 0 0.014820973476381848 -0.028074778767230395 0 0.014820973476381848 -0.028074778767230395 0 0.014840358524564371 -0.028017676848992847 0 0.014806597754692383 -0.027961492683620276 0 0.014867309304224181 -0.028070955867030654 0 0.014820973476381848 -0.028074778767230395 0 0.014840358524564371 -0.028017676848992847 0 0.014820973476381848 -0.028074778767230395 0 0.014766910960035967 -0.028011844463989414 0 0.014806597754692383 -0.027961492683620276 0 0.014820973476381848 -0.028074778767230395 0 0.014784210051577738 -0.028123997523538911 0 0.014766910960035967 -0.028011844463989414 0 0.014808133386794466 -0.028173377649882179 0 0.014820973476381848 -0.028074778767230395 0 0.014784210051577738 -0.028123997523538911 0 0.015200076656014368 -0.027336481520185713 0 0.015253068598611527 -0.027180942429286311 0 0.014784210051577738 -0.028123997523538911 0 0.014700532671073616 -0.02801847363686116 0 0.014766910960035967 -0.028011844463989414 0 0.014769747537798604 -0.028208278460090334 0 0.014784210051577738 -0.028123997523538911 0 0.014762722143043507 -0.028058076925659342 0 0.014700532671073616 -0.02801847363686116 0 0.014727829408077807 -0.027912055820092447 0 0.014660498214792983 -0.027937823331121641 0 0.014700532671073616 -0.02801847363686116 0 0.014766910960035967 -0.028011844463989414 0 0.014727829408077807 -0.027912055820092447 0 0.014766910960035967 -0.028011844463989414 0 0.014727829408077807 -0.027912055820092447 0 0.014806597754692383 -0.027961492683620276 0 0.014727829408077807 -0.027912055820092447 0 0.014793306154132631 -0.027879747714056376 0 0.01476066946304151 -0.027825254195123685 0 0.014850411455162115 -0.027880441441792397 0 0.014793306154132631 -0.027879747714056376 0 0.014806597754692383 -0.027961492683620276 0 0.014864590864538211 -0.02796078306121888 0 0.014840358524564371 -0.028017676848992847 0 0.014806597754692383 -0.027961492683620276 0 0.014850411455162115 -0.027880441441792397 0 0.014864590864538211 -0.02796078306121888 0 0.014806597754692383 -0.027961492683620276 0 0.014727829408077807 -0.027912055820092447 0 0.014793306154132631 -0.027879747714056376 0 0.014806597754692383 -0.027961492683620276 0 0.014328250105235019 -0.027794775092387338 0 0.014509891550056376 -0.027864690408223796 0 0.014310160029747662 -0.0276974843036547 0 0.014328250105235019 -0.027794775092387338 0 0.014315456108680671 -0.027945946158434432 0 0.014509891550056376 -0.027864690408223796 0 0.014455724837904695 -0.028087054248568773 0 0.014317007426296642 -0.028111044413389245 0 0.014315456108680671 -0.027945946158434432 0 0.014664840130920677 -0.0281260053420807 0 0.014455724837904695 -0.028087054248568773 0 0.014509891550056376 -0.027864690408223796 0 0.014455724837904695 -0.028087054248568773 0 0.014315456108680671 -0.027945946158434432 0 0.014509891550056376 -0.027864690408223796 0 0.014664840130920677 -0.0281260053420807 0 0.014762722143043507 -0.028058076925659342 0 0.01468769053630269 -0.027973783111931719 0 0.014664840130920677 -0.0281260053420807 0 0.01458647564619407 -0.02801330967413377 0 0.01468769053630269 -0.027973783111931719 0 0.01458647564619407 -0.02801330967413377 0 0.01468769053630269 -0.027973783111931719 0 0.014596660697890246 -0.027872049737552741 0 0.015748647490062852 -0.02703373968194096 0 0.015977420347134341 -0.02665617861806906 0 0.015253068598611527 -0.027180942429286311 0 0.015466798410618652 -0.026692385268831852 0 0.014727829408077807 -0.027912055820092447 0 0.014660498214792983 -0.027937823331121641 0 0.014666893376986194 -0.027864884113736454 0 0.014727829408077807 -0.027912055820092447 0 0.014666893376986194 -0.027864884113736454 0 0.014702406511977418 -0.027821277443398768 0 0.014666893376986194 -0.027864884113736454 0 0.014643842156306626 -0.027868838806126017 0 0.014650375431540068 -0.02783792230432058 0 0.014666893376986194 -0.027864884113736454 0 0.014650375431540068 -0.02783792230432058 0 0.014661503815891843 -0.027822388456884242 0 0.014660498214792983 -0.027937823331121641 0 0.014666893376986194 -0.027864884113736454 0 0.014643842156306626 -0.027868838806126017 0 0.015466798410618652 -0.026692385268831852 0 0.015947938343319677 -0.025727821361849108 0 0.015977420347134341 -0.02665617861806906 0 0.016798559016516282 -0.025338925177997823 0 0.01458647564619407 -0.02801330967413377 0 0.014596660697890246 -0.027872049737552741 0 0.014482993734325577 -0.02785726268438608 0 0.015947938343319677 -0.025727821361849108 0 0.016866283116333685 -0.023948806225296122 0 0.014643842156306626 -0.027868838806126017 0 0.014650375431540068 -0.02783792230432058 0 0.014653581361380941 -0.027820750074614133 0 0.014650375431540068 -0.02783792230432058 0 0.014653581361380941 -0.027820750074614133 0 0.014654225345371972 -0.027821755295987637 0 0.014596660697890246 -0.027872049737552741 0 0.014479363264680413 -0.02775362614900577 0 0.014482993734325577 -0.02785726268438608 0 0.014371572001237279 -0.027656116192771897 0 0.014479363264680413 -0.02775362614900577 0 0.014482993734325577 -0.02785726268438608 0 0.014298876939814438 -0.027683701157436406 0 0.014328250105235019 -0.027794775092387338 0 0.014310160029747662 -0.0276974843036547 0 0.028000468933230785 -0.002894995509656639 0 0.026914190935466133 -0.001048603326914608 0 0.026171955870509824 -0.0030553657574278791 0 0.014679519653082942 -0.027807218261608889 0 0.014653581361380941 -0.027820750074614133 0 0.014654225345371972 -0.027821755295987637 0 0.026914190935466133 -0.001048603326914608 0 0.025266608452507482 -0.002294584284652595 0 0.025077957792850034 -0.0010885725861552601 0 0.014650375431540068 -0.02783792230432058 0 0.014654225345371972 -0.027821755295987637 0 0.014661503815891843 -0.027822388456884242 0 0.020014284415370932 -0.01715350792496708 0 0.019668672369638866 -0.015504012062502247 0 0.026914190935466133 -0.001048603326914608 0 0.025266608452507482 -0.002294584284652595 0 0.026171955870509824 -0.0030553657574278791 0 0.025266608452507482 -0.002294584284652595 0 0.025077957792850034 -0.0010885725861552601 0 0.023256054579079796 -0.0011308045013813759 0 0.014666893376986194 -0.027864884113736454 0 0.014661503815891843 -0.027822388456884242 0 0.014702406511977418 -0.027821277443398768 0 0.019668672369638866 -0.015504012062502247 0 0.018896521108814606 -0.014266434307946071 0 0.025266608452507482 -0.002294584284652595 0 0.023256054579079796 -0.0011308045013813759 0 0.023206783133732038 -0.0025986796006138937 0 0.024529922691356568 -0.0032761116422156023 0 0.023206783133732038 -0.0025986796006138937 0 0.022853006406723528 -0.0039285716750293003 0 0.025266608452507482 -0.002294584284652595 0 0.024529922691356568 -0.0032761116422156023 0 0.023206783133732038 -0.0025986796006138937 0 0.022853006406723528 -0.0039285716750293003 0 0.022674679858059609 -0.0049199718636720527 0 0.024163089910911484 -0.0053144678047028051 0 0.024529922691356568 -0.0032761116422156023 0 0.022853006406723528 -0.0039285716750293003 0 0.024163089910911484 -0.0053144678047028051 0 0.024529922691356568 -0.0032761116422156023 0 0.025466009705643083 -0.0042085078160964719 0 0.024163089910911484 -0.0053144678047028051 0 0.025466009705643083 -0.0042085078160964719 0 0.025928420944276484 -0.0048349423505167979 0 0.024163089910911484 -0.0053144678047028051 0 0.025266608452507482 -0.002294584284652595 0 0.024529922691356568 -0.0032761116422156023 0 0.026171955870509824 -0.0030553657574278791 0 0.024529922691356568 -0.0032761116422156023 0 0.026171955870509824 -0.0030553657574278791 0 0.025466009705643083 -0.0042085078160964719 0 0.026171955870509824 -0.0030553657574278791 0 0.025466009705643083 -0.0042085078160964719 0 0.026093587736525186 -0.0039915197042350139 0 0.026171955870509824 -0.0030553657574278791 0 0.026093587736525186 -0.0039915197042350139 0 0.026708920986118323 -0.0039610417009433921 0 0.025466009705643083 -0.0042085078160964719 0 0.025928420944276484 -0.0048349423505167979 0 0.026093587736525186 -0.0039915197042350139 0 0.025928420944276484 -0.0048349423505167979 0 0.026093587736525186 -0.0039915197042350139 0 0.026708920986118323 -0.0039610417009433921 0 0.025928420944276484 -0.0048349423505167979 0 0.026708920986118323 -0.0039610417009433921 0 0.027679631141288057 -0.0043498299653315061 0 0.029484857866028023 0.0023930811218056342 0 0.031371069612035098 0.00035068221604174472 0 0.028000468933230785 -0.002894995509656639 0 0.026171955870509824 -0.0030553657574278791 0 0.026708920986118323 -0.0039610417009433921 0 0.028000468933230785 -0.002894995509656639 0 0.026708920986118323 -0.0039610417009433921 0 0.027679631141288057 -0.0043498299653315061 0 0.020500415781453611 -0.0022323511743554993 0 0.018984418679357486 -0.0023825887092479739 0 0.02012707694835604 -0.0035111183258945927 0 0.020500415781453611 -0.0022323511743554993 0 0.018984418679357486 -0.0023825887092479739 0 0.019643707884531399 -0.0012131234920429123 0 0.017843533477422575 -0.0012568304246946102 0 0.018984418679357486 -0.0023825887092479739 0 0.019643707884531399 -0.0012131234920429123 0 0.014850411455162115 -0.027880441441792397 0 0.014793306154132631 -0.027879747714056376 0 0.014820974544543015 -0.027826591551796967 0 0.020500415781453611 -0.0022323511743554993 0 0.019643707884531399 -0.0012131234920429123 0 0.021446191439331456 -0.001172144959894546 0 0.016777147921683545 -0.011035268056965307 0 0.017959602557070138 -0.012949554392530371 0 0.014793306154132631 -0.027879747714056376 0 0.014820974544543015 -0.027826591551796967 0 0.01476066946304151 -0.027825254195123685 0 0.014727829408077807 -0.027912055820092447 0 0.014702406511977418 -0.027821277443398768 0 0.01476066946304151 -0.027825254195123685 0 0.018896521108814606 -0.014266434307946071 0 0.017959602557070138 -0.012949554392530371 0 0.023256054579079796 -0.0011308045013813759 0 0.021446191439331456 -0.001172144959894546 0 0.023206783133732038 -0.0025986796006138937 0 0.021446191439331456 -0.001172144959894546 0 0.023206783133732038 -0.0025986796006138937 0 0.021624648749536127 -0.0029749393378369913 0 0.020500415781453611 -0.0022323511743554993 0 0.021446191439331456 -0.001172144959894546 0 0.021624648749536127 -0.0029749393378369913 0 0.023206783133732038 -0.0025986796006138937 0 0.021624648749536127 -0.0029749393378369913 0 0.022853006406723528 -0.0039285716750293003 0 0.022853006406723528 -0.0039285716750293003 0 0.021271205311034835 -0.0046479102419814695 0 0.022674679858059609 -0.0049199718636720527 0 0.021624648749536127 -0.0029749393378369913 0 0.022853006406723528 -0.0039285716750293003 0 0.021271205311034835 -0.0046479102419814695 0 0.021640076807309148 0.0031486427334726477 0 0.019104021025588131 0.0015437331010323167 0 0.021761555565775088 0.011046769292264589 0 0.021106526834389589 0.011560843492019912 0 0.021282111874634611 0.010783304580068487 0 0.020500415781453611 -0.0022323511743554993 0 0.021624648749536127 -0.0029749393378369913 0 0.02012707694835604 -0.0035111183258945927 0 0.021624648749536127 -0.0029749393378369913 0 0.021271205311034835 -0.0046479102419814695 0 0.02012707694835604 -0.0035111183258945927 0 0.020547315022267244 0.011879684387343362 0 0.021106526834389589 0.011560843492019912 0 0.020525375560428778 0.011490479541814726 0 0.016610064690372694 -0.0013403295285695175 0 0.019104021025588131 0.0015437331010323167 0 0.021106526834389589 0.011560843492019912 0 0.020769081188201935 0.011019329697137384 0 0.021282111874634611 0.010783304580068487 0 0.021106526834389589 0.011560843492019912 0 0.020525375560428778 0.011490479541814726 0 0.020769081188201935 0.011019329697137384 0 0.020769081188201935 0.011019329697137384 0 0.020978762522918061 0.010533565409577787 0 0.020576631621872721 0.010314071714836621 0 0.020769081188201935 0.011019329697137384 0 0.020978762522918061 0.010533565409577787 0 0.021282111874634611 0.010783304580068487 0 0.020213987199372192 0.011011374959328987 0 0.020393837689079007 0.010702473670764958 0 0.020195898626810295 0.010891379524196458 0 0.020576631621872721 0.010314071714836621 0 0.021047638296178582 0.010097083511006133 0 0.021063869079437313 0.0093947736152465607 0 0.020760991044634747 0.010690379939979436 0 0.021215941294462012 0.010246861166408291 0 0.020978762522918061 0.010533565409577787 0 0.020576631621872721 0.010314071714836621 0 0.021047638296178582 0.010097083511006133 0 0.020978762522918061 0.010533565409577787 0 0.021047638296178582 0.010097083511006133 0 0.021301882031468301 0.010354543498755052 0 0.02174209154417963 0.0098571595466424473 0 0.02130858282239096 0.0098650536052171511 0 0.021301882031468301 0.010354543498755052 0 0.021047638296178582 0.010097083511006133 0 0.02130858282239096 0.0098650536052171511 0 0.021301882031468301 0.010354543498755052 0 0.021761555565775088 0.011046769292264589 0 0.021282111874634611 0.010783304580068487 0 0.021773926991701314 0.010303222057261018 0 0.021301882031468301 0.010354543498755052 0 0.021282111874634611 0.010783304580068487 0 0.021773926991701314 0.010303222057261018 0 0.020978762522918061 0.010533565409577787 0 0.021301882031468301 0.010354543498755052 0 0.021282111874634611 0.010783304580068487 0 0.021271205311034835 -0.0046479102419814695 0 0.022674679858059609 -0.0049199718636720527 0 0.022415384616501922 -0.0057902420273304609 0 0.024297252094787399 0.004657293088423128 0 0.023978826819431153 0.0050876426448879953 0 0.021640076807309148 0.0031486427334726477 0 0.024297252094787399 0.004657293088423128 0 0.021761555565775088 0.011046769292264589 0 0.022368317191116406 0.010461697040308771 0 0.021773926991701314 0.010303222057261018 0 0.022674679858059609 -0.0049199718636720527 0 0.022415384616501922 -0.0057902420273304609 0 0.024163089910911484 -0.0053144678047028051 0 0.02245741390818792 0.010502991298089098 0 0.022146310597875793 0.010083647151371214 0 0.023207589388839586 0.0097585734013173799 0 0.023396967327348632 0.0078536204567515294 0 0.027087399016712553 0.0058316984848433293 0 0.024297252094787399 0.004657293088423128 0 0.027087399016712553 0.0058316984848433293 0 0.022279031788274395 0.010165682204387707 0 0.022723356297755206 0.0098128141544858161 0 0.023229971511622 0.0098800752123644961 0 0.022279031788274395 0.010165682204387707 0 0.02226013747581438 0.0096842366055486396 0 0.022723356297755206 0.0098128141544858161 0 0.02174209154417963 0.0098571595466424473 0 0.021301882031468301 0.010354543498755052 0 0.022279031788274395 0.010165682204387707 0 0.021301882031468301 0.010354543498755052 0 0.021773926991701314 0.010303222057261018 0 0.022146310597875793 0.010083647151371214 0 0.02245741390818792 0.010502991298089098 0 0.021773926991701314 0.010303222057261018 0 0.022146310597875793 0.010083647151371214 0 0.022488804089557324 0.0083596241888520342 0 0.023396967327348632 0.0078536204567515294 0 0.02174209154417963 0.0098571595466424473 0 0.022279031788274395 0.010165682204387707 0 0.02226013747581438 0.0096842366055486396 0 0.02174209154417963 0.0098571595466424473 0 0.02226013747581438 0.0096842366055486396 0 0.021909688516057776 0.0094896712830989539 0 0.02226013747581438 0.0096842366055486396 0 0.022184715099655396 0.0093073290203004727 0 0.021909688516057776 0.0094896712830989539 0 0.02226013747581438 0.0096842366055486396 0 0.022184715099655396 0.0093073290203004727 0 0.022642690288767073 0.0093493526036097403 0 0.022184715099655396 0.0093073290203004727 0 0.021909688516057776 0.0094896712830989539 0 0.021933970501745462 0.0091170881833725279 0 0.023096533470776465 0.0097562832854502408 0 0.024112124225195642 0.010701986942476777 0 0.02397479063534751 0.00921815363005438 0 0.02582287447810782 0.0065945713552214395 0 0.027087399016712553 0.0058316984848433293 0 0.022723356297755206 0.0098128141544858161 0 0.022642690288767073 0.0093493526036097403 0 0.023229971511622 0.0098800752123644961 0 0.02226013747581438 0.0096842366055486396 0 0.022723356297755206 0.0098128141544858161 0 0.022642690288767073 0.0093493526036097403 0 0.023183055668778464 0.0087830287349097962 0 0.022645105154367261 0.0089890365568480301 0 0.02359216892972682 0.0091143095879693634 0 0.023096533470776465 0.0097562832854502408 0 0.022645105154367261 0.0089890365568480301 0 0.02397479063534751 0.00921815363005438 0 0.025185195590004449 0.0068833233992527561 0 0.026099210109434699 0.0067714286694598828 0 0.023183055668778464 0.0087830287349097962 0 0.022645105154367261 0.0089890365568480301 0 0.022675695036846889 0.0086067354069870889 0 0.021909688516057776 0.0094896712830989539 0 0.021933970501745462 0.0091170881833725279 0 0.021579273471573464 0.0090988167493673399 0 0.022184715099655396 0.0093073290203004727 0 0.021933970501745462 0.0091170881833725279 0 0.022138316071754104 0.0088427406722275791 0 0.023096533470776465 0.0097562832854502408 0 0.022645105154367261 0.0089890365568480301 0 0.022138316071754104 0.0088427406722275791 0 0.022184715099655396 0.0093073290203004727 0 0.022642690288767073 0.0093493526036097403 0 0.022138316071754104 0.0088427406722275791 0 0.02582287447810782 0.0065945713552214395 0 0.025317707848068693 0.0067220040876573312 0 0.022645105154367261 0.0089890365568480301 0 0.022227354883162687 0.0085779881622409151 0 0.022675695036846889 0.0086067354069870889 0 0.022645105154367261 0.0089890365568480301 0 0.022138316071754104 0.0088427406722275791 0 0.022227354883162687 0.0085779881622409151 0 0.022138316071754104 0.0088427406722275791 0 0.021884865949475429 0.0088122469575048212 0 0.022227354883162687 0.0085779881622409151 0 0.021933970501745462 0.0091170881833725279 0 0.022138316071754104 0.0088427406722275791 0 0.021884865949475429 0.0088122469575048212 0 0.021215941294462012 0.010246861166408291 0 0.021916462181649887 0.0098523322027206147 0 0.021884865949475429 0.0088122469575048212 0 0.021579273471573464 0.0090988167493673399 0 0.021569931306548114 0.0083664212909326692 0 0.021579273471573464 0.0090988167493673399 0 0.021063869079437313 0.0093947736152465607 0 0.021569931306548114 0.0083664212909326692 0 0.020393837689079007 0.010702473670764958 0 0.020344506787947504 0.010407100328562652 0 0.020574665842926713 0.010358215932774997 0 0.021933970501745462 0.0091170881833725279 0 0.021884865949475429 0.0088122469575048212 0 0.021579273471573464 0.0090988167493673399 0 0.020254543898408955 0.010560970372499385 0 0.020393837689079007 0.010702473670764958 0 0.020159986984182105 0.010677582869731915 0 0.020254543898408955 0.010560970372499385 0 0.020393837689079007 0.010702473670764958 0 0.020344506787947504 0.010407100328562652 0 0.020254543898408955 0.010560970372499385 0 0.020344506787947504 0.010407100328562652 0 0.020120562999653271 0.010455884010432534 0 0.020393837689079007 0.010702473670764958 0 0.020159986984182105 0.010677582869731915 0 0.020195898626810295 0.010891379524196458 0 0.021047638296178582 0.010097083511006133 0 0.02130858282239096 0.0098650536052171511 0 0.021063869079437313 0.0093947736152465607 0 0.02130858282239096 0.0098650536052171511 0 0.021063869079437313 0.0093947736152465607 0 0.021483531768234077 0.0095208322165825643 0 0.02174209154417963 0.0098571595466424473 0 0.021909688516057776 0.0094896712830989539 0 0.021483531768234077 0.0095208322165825643 0 0.02174209154417963 0.0098571595466424473 0 0.02130858282239096 0.0098650536052171511 0 0.021483531768234077 0.0095208322165825643 0 0.021909688516057776 0.0094896712830989539 0 0.021579273471573464 0.0090988167493673399 0 0.021483531768234077 0.0095208322165825643 0 0.021579273471573464 0.0090988167493673399 0 0.021063869079437313 0.0093947736152465607 0 0.021483531768234077 0.0095208322165825643 0 0.038086778767754903 0.0012126078906514294 0 0.038582346216048287 0.0005743830038151726 0 0.038721290135714855 0.0015716739000488063 0 0.037344280501654677 0.001508659915393217 0 0.037987915567704561 0.0018562398854147352 0 0.038086778767754903 0.0012126078906514294 0 0.037987915567704561 0.0018562398854147352 0 0.038086778767754903 0.0012126078906514294 0 0.038721290135714855 0.0015716739000488063 0 0.037263706326770688 0.00039303297136163173 0 0.038086778767754903 0.0012126078906514294 0 0.038582346216048287 0.0005743830038151726 0 0.037263706326770688 0.00039303297136163173 0 0.037744706566954549 -0.00064579763696649998 0 0.038582346216048287 0.0005743830038151726 0 0.039245083663550048 -0.00011087476614765344 0 0.037744706566954549 -0.00064579763696649998 0 0.038582346216048287 0.0005743830038151726 0 0.038582346216048287 0.0005743830038151726 0 0.039355049631590519 0.00059548875908961791 0 0.039440245288230834 0.0010825949496291525 0 0.039245083663550048 -0.00011087476614765344 0 0.039355049631590519 0.00059548875908961791 0 0.04009704745669096 0.00084000585458647537 0 0.039245083663550048 -0.00011087476614765344 0 0.038582346216048287 0.0005743830038151726 0 0.039355049631590519 0.00059548875908961791 0 0.038582346216048287 0.0005743830038151726 0 0.039440245288230834 0.0010825949496291525 0 0.038721290135714855 0.0015716739000488063 0 0.039440245288230834 0.0010825949496291525 0 0.038721290135714855 0.0015716739000488063 0 0.039779007717026395 0.0021203532440782599 0 0.031972150141426521 0.0048227911850975838 0 0.031408969701292588 0.0053673574112702137 0 0.039972620021087771 0.0013784373258519428 0 0.040889985947710809 0.0016570236777462626 0 0.039709073098829754 0.001914804308594528 0 0.039440245288230834 0.0010825949496291525 0 0.039972620021087771 0.0013784373258519428 0 0.039709073098829754 0.001914804308594528 0 0.039972620021087771 0.0013784373258519428 0 0.04009704745669096 0.00084000585458647537 0 0.040889985947710809 0.0016570236777462626 0 0.039440245288230834 0.0010825949496291525 0 0.039972620021087771 0.0013784373258519428 0 0.04009704745669096 0.00084000585458647537 0 0.029484857866028023 0.0023930811218056342 0 0.026012379533099414 0.0026242936535842238 0 0.028216137025002423 0.0039334459831374489 0 0.027710095917031642 0.003473101993831414 0 0.027435134970814432 0.0037277011348079555 0 0.029484857866028023 0.0023930811218056342 0 0.029579293886882713 0.0043428017477849272 0 0.039355049631590519 0.00059548875908961791 0 0.039440245288230834 0.0010825949496291525 0 0.04009704745669096 0.00084000585458647537 0 0.024297252094787399 0.004657293088423128 0 0.026012379533099414 0.0026242936535842238 0 0.027710095917031642 0.003473101993831414 0 0.027435134970814432 0.0037277011348079555 0 0.027231850786670165 0.0033496910682848202 0 0.02665758028085248 0.0035162136653764443 0 0.027435134970814432 0.0037277011348079555 0 0.027231850786670165 0.0033496910682848202 0 0.029579293886882713 0.0043428017477849272 0 0.027087399016712553 0.0058316984848433293 0 0.027710095917031642 0.003473101993831414 0 0.027231850786670165 0.0033496910682848202 0 0.027184814314847861 0.0029875340829815613 0 0.02665758028085248 0.0035162136653764443 0 0.027231850786670165 0.0033496910682848202 0 0.027184814314847861 0.0029875340829815613 0 0.027087399016712553 0.0058316984848433293 0 0.029031262505624381 0.0064152504420354065 0 0.024112124225195642 0.010701986942476777 0 0.02397479063534751 0.00921815363005438 0 0.025325370724514889 0.0094812441381420531 0 0.028840942425735389 0.0050236057565116879 0 0.028862402598318855 0.005009756179463672 0 0.028855810408777226 0.005017467106437151 0 0.026099210109434699 0.0067714286694598828 0 0.029031262505624381 0.0064152504420354065 0 0.02359216892972682 0.0091143095879693634 0 0.023906709306291275 0.0090443761601528266 0 0.023803992518277632 0.0089476626636154303 0 0.023183055668778464 0.0087830287349097962 0 0.02359216892972682 0.0091143095879693634 0 0.023749992605364138 0.0088224321473424731 0 0.02359216892972682 0.0091143095879693634 0 0.023749992605364138 0.0088224321473424731 0 0.023803992518277632 0.0089476626636154303 0 0.023749992605364138 0.0088224321473424731 0 0.023803992518277632 0.0089476626636154303 0 0.023736614675374773 0.0088635937513249722 0 0.023803992518277632 0.0089476626636154303 0 0.023924593631971237 0.0090166376061823102 0 0.023736614675374773 0.0088635937513249722 0 0.029192856408565025 0.0067318415218129667 0 0.028914833870330135 0.0070148064666606591 0 0.029303636289194811 0.0070762029534889243 0 0.029364301711457829 0.0063877863055458294 0 0.02840163671834009 0.0070223258269577803 0 0.023906709306291275 0.0090443761601528266 0 0.023803992518277632 0.0089476626636154303 0 0.023924593631971237 0.0090166376061823102 0 0.031142381070647086 0.0058284994978262524 0 0.031166306240323207 0.0059018454586626037 0 0.031639378371856944 0.0053285094582751422 0 0.029364301711457829 0.0063877863055458294 0 0.029605024321294575 0.0062960905883451572 0 0.031996396172815911 0.0048434390156885205 0 0.029642989854777878 0.0072226690731965505 0 0.028652461484822707 0.004169684160953039 0 0.029031262505624381 0.0064152504420354065 0 0.029605024321294575 0.0062960905883451572 0 0.029031262505624381 0.0064152504420354065 0 0.029364301711457829 0.0063877863055458294 0 0.029605024321294575 0.0062960905883451572 0 0.031408969701292588 0.0053673574112702137 0 0.028864724317843236 0.0050101330127734628 0 0.028855810408777226 0.005017467106437151 0 0.0288688793542656 0.0050197834790246176 0 0.028840942425735389 0.0050236057565116879 0 0.028855810408777226 0.005017467106437151 0 0.0288688793542656 0.0050197834790246176 0 0.027087399016712553 0.0058316984848433293 0 0.031408969701292588 0.0053673574112702137 0 0.028862402598318855 0.005009756179463672 0 0.028864724317843236 0.0050101330127734628 0 0.028855810408777226 0.005017467106437151 0 0.029605024321294575 0.0062960905883451572 0 0.033522301596244815 0.0053173329790752793 0 0.031408969701292588 0.0053673574112702137 0 0.033522301596244815 0.0053173329790752793 0 0.030701407451502998 0.0058831688127757827 0 0.030918178522831279 0.0065462801012542487 0 0.032286887908519281 0.0062000741175585418 0 0.038721290135714855 0.0015716739000488063 0 0.039779007717026395 0.0021203532440782599 0 0.038268857285434929 0.0025376221906533471 0 0.031166306240323207 0.0059018454586626037 0 0.032130719400284544 0.0060950380202822998 0 0.031639378371856944 0.0053285094582751422 0 0.029364301711457829 0.0063877863055458294 0 0.030418079372904694 0.0063121511553181093 0 0.032368592790781539 0.0054411599926505348 0 0.032130719400284544 0.0060950380202822998 0 0.031639378371856944 0.0053285094582751422 0 0.034168948521994681 0.005270632561538157 0 0.033522301596244815 0.0053173329790752793 0 0.037987915567704561 0.0018562398854147352 0 0.038721290135714855 0.0015716739000488063 0 0.038268857285434929 0.0025376221906533471 0 0.037481455529937625 0.0024355580984667846 0 0.037987915567704561 0.0018562398854147352 0 0.038268857285434929 0.0025376221906533471 0 0.032749740250673801 0.0053112480818978602 0 0.032207015081537074 0.0056600270424081427 0 0.032455190502511354 0.0056331889367679244 0 0.032207015081537074 0.0056600270424081427 0 0.032455190502511354 0.0056331889367679244 0 0.032017077079885124 0.0058218277255103383 0 0.032592930564789464 0.0058386383169060476 0 0.032455190502511354 0.0056331889367679244 0 0.032119526431395123 0.0059222176991850098 0 0.032592930564789464 0.0058386383169060476 0 0.032119526431395123 0.0059222176991850098 0 0.032004091012434267 0.0060527735098877041 0 0.03189279318210448 0.0059605038621897309 0 0.030418079372904694 0.0063121511553181093 0 0.032455190502511354 0.0056331889367679244 0 0.032119526431395123 0.0059222176991850098 0 0.032017077079885124 0.0058218277255103383 0 0.032119526431395123 0.0059222176991850098 0 0.031858370792117036 0.0059626249418128921 0 0.032017077079885124 0.0058218277255103383 0 0.032119526431395123 0.0059222176991850098 0 0.03195325599496842 0.0060806351963640596 0 0.031858370792117036 0.0059626249418128921 0 0.030477838626006198 0.0062691423516177723 0 0.030418079372904694 0.0063121511553181093 0 0.031858370792117036 0.0059626249418128921 0 0.032017077079885124 0.0058218277255103383 0 0.03173983472457504 0.0059085258662847214 0 0.032017077079885124 0.0058218277255103383 0 0.031734003586800195 0.0058255204869260375 0 0.03173983472457504 0.0059085258662847214 0 0.032207015081537074 0.0056600270424081427 0 0.032017077079885124 0.0058218277255103383 0 0.031734003586800195 0.0058255204869260375 0 0.032207015081537074 0.0056600270424081427 0 0.031734003586800195 0.0058255204869260375 0 0.031538967853259277 0.0058362160726731357 0 0.031734003586800195 0.0058255204869260375 0 0.03173983472457504 0.0059085258662847214 0 0.031498586740297436 0.0059842184054601276 0 0.03173983472457504 0.0059085258662847214 0 0.031627920722343619 0.0060143222673546201 0 0.031498586740297436 0.0059842184054601276 0 0.03195325599496842 0.0060806351963640596 0 0.031858370792117036 0.0059626249418128921 0 0.031627920722343619 0.0060143222673546201 0 0.030418079372904694 0.0063121511553181093 0 0.02840163671834009 0.0070223258269577803 0 0.031858370792117036 0.0059626249418128921 0 0.03173983472457504 0.0059085258662847214 0 0.031627920722343619 0.0060143222673546201 0 0.023749992605364138 0.0088224321473424731 0 0.023736614675374773 0.0088635937513249722 0 0.023894072439932957 0.0091014471628659398 0 0.02481915701157902 0.009428085010217524 0 0.024662666501168606 0.0094074720256483932 0 0.024744917114003524 0.0091985066900281808 0 0.02840163671834009 0.0070223258269577803 0 0.026621475000693492 0.0072771901164932458 0 0.024662666501168606 0.0094074720256483932 0 0.024744917114003524 0.0091985066900281808 0 0.02460851427836553 0.0092712303755514858 0 0.02840163671834009 0.0070223258269577803 0 0.028085922259943556 0.0073864062984057392 0 0.028085922259943556 0.0073864062984057392 0 0.027693601199083224 0.007418121932359632 0 0.024744917114003524 0.0091985066900281808 0 0.024719536984204923 0.0089613435818023807 0 0.02455786239591801 0.0091520677838740228 0 0.031498586740297436 0.0059842184054601276 0 0.031078945955559656 0.006708258758219259 0 0.031274324973733392 0.0064355235137611233 0 0.031078945955559656 0.006708258758219259 0 0.031274324973733392 0.0064355235137611233 0 0.030973652335148649 0.0068628579372491307 0 0.031274324973733392 0.0064355235137611233 0 0.031009419032407049 0.006788341843691475 0 0.030973652335148649 0.0068628579372491307 0 0.031734003586800195 0.0058255204869260375 0 0.031498586740297436 0.0059842184054601276 0 0.031538967853259277 0.0058362160726731357 0 0.031498586740297436 0.0059842184054601276 0 0.031274324973733392 0.0064355235137611233 0 0.031538967853259277 0.0058362160726731357 0 0.032207015081537074 0.0056600270424081427 0 0.031538967853259277 0.0058362160726731357 0 0.032493901115057441 0.0054057007028050393 0 0.031868129445355185 0.0061743298532987287 0 0.031950576503849887 0.0061932651635422283 0 0.031538967853259277 0.0058362160726731357 0 0.032493901115057441 0.0054057007028050393 0 0.032677028338933184 0.0050774059083124176 0 0.031274324973733392 0.0064355235137611233 0 0.031538967853259277 0.0058362160726731357 0 0.031009419032407049 0.006788341843691475 0 0.032856381188269133 0.0051787531503906872 0 0.032677028338933184 0.0050774059083124176 0 0.032863647312067042 0.0053324441648071623 0 0.032856381188269133 0.0051787531503906872 0 0.032493901115057441 0.0054057007028050393 0 0.032677028338933184 0.0050774059083124176 0 0.032749740250673801 0.0053112480818978602 0 0.032207015081537074 0.0056600270424081427 0 0.032493901115057441 0.0054057007028050393 0 0.032749740250673801 0.0053112480818978602 0 0.032856381188269133 0.0051787531503906872 0 0.032493901115057441 0.0054057007028050393 0 0.024260756193126599 0.0093717495571925651 0 0.024367073281698751 0.0093125364946164031 0 0.024216411957844085 0.0092591488152062203 0 0.024260756193126599 0.0093717495571925651 0 0.024095655948217522 0.0093225567357865489 0 0.024216411957844085 0.0092591488152062203 0 0.022828132159702277 0.0096885831715326897 0 0.023265734731843787 0.0095017790245441828 0 0.022986345000606378 0.0096901042294966211 0 0.022828132159702277 0.0096885831715326897 0 0.022323378270757872 0.0097976716471127288 0 0.022239045514932609 0.0097680743352088727 0 0.02227358149763177 0.0098155754473579389 0 0.022239045514932609 0.0097680743352088727 0 0.02227358149763177 0.0098155754473579389 0 0.022234328962628846 0.0098219053980633415 0 0.02227358149763177 0.0098155754473579389 0 0.022267732205640128 0.0098594909643656241 0 0.02231332800439428 0.0098250123346835007 0 0.022234328962628846 0.0098219053980633415 0 0.022267732205640128 0.0098594909643656241 0 0.022202363141952241 0.0098734555597082656 0 0.021546802336116461 0.010099691674953762 0 0.021340939998761198 0.010315438504155856 0 0.02227358149763177 0.0098155754473579389 0 0.022234328962628846 0.0098219053980633415 0 0.022267732205640128 0.0098594909643656241 0 0.022267732205640128 0.0098594909643656241 0 0.02231332800439428 0.0098250123346835007 0 0.022334150903143855 0.0098450538860638693 0 0.021546802336116461 0.010099691674953762 0 0.021916462181649887 0.0098523322027206147 0 0.022323378270757872 0.0097976716471127288 0 0.02227358149763177 0.0098155754473579389 0 0.02231332800439428 0.0098250123346835007 0 0.022323378270757872 0.0097976716471127288 0 0.02231332800439428 0.0098250123346835007 0 0.022342354544106616 0.0098290833493124216 0 0.02231332800439428 0.0098250123346835007 0 0.022342354544106616 0.0098290833493124216 0 0.022334150903143855 0.0098450538860638693 0 0.021920033078452344 0.0098494493655974843 0 0.021916462181649887 0.0098523322027206147 0 0.021569931306548114 0.0083664212909326692 0 0.022227354883162687 0.0085779881622409151 0 0.022506390567096173 0.0081435478321772101 0 0.022342354544106616 0.0098290833493124216 0 0.02233426994359505 0.0098447464683810958 0 0.022410209428996727 0.0098272419933951374 0 0.022323378270757872 0.0097976716471127288 0 0.022342354544106616 0.0098290833493124216 0 0.022410209428996727 0.0098272419933951374 0 0.022986345000606378 0.0096901042294966211 0 0.022815029863095495 0.0096348571996583855 0 0.021916462181649887 0.0098523322027206147 0 0.022815029863095495 0.0096348571996583855 0 0.021884865949475429 0.0088122469575048212 0 0.021569931306548114 0.0083664212909326692 0 0.022227354883162687 0.0085779881622409151 0 0.022227354883162687 0.0085779881622409151 0 0.022506390567096173 0.0081435478321772101 0 0.022675695036846889 0.0086067354069870889 0 0.0244888093871155 0.0093637075554245872 0 0.02448833496029448 0.0093362905452903482 0 0.024367073281698751 0.0093125364946164031 0 0.024522637022820166 0.0093402953957542577 0 0.0244888093871155 0.0093637075554245872 0 0.02448833496029448 0.0093362905452903482 0 0.022824011497281041 0.009633068151658002 0 0.022815029863095495 0.0096348571996583855 0 0.024662666501168606 0.0094074720256483932 0 0.024459898186485342 0.0093437729232580743 0 0.024533397414052163 0.0093222416201139118 0 0.023749992605364138 0.0088224321473424731 0 0.023894072439932957 0.0091014471628659398 0 0.024459898186485342 0.0093437729232580743 0 0.023749992605364138 0.0088224321473424731 0 0.024522637022820166 0.0093402953957542577 0 0.024459898186485342 0.0093437729232580743 0 0.023183055668778464 0.0087830287349097962 0 0.023749992605364138 0.0088224321473424731 0 0.022506390567096173 0.0081435478321772101 0 0.023749992605364138 0.0088224321473424731 0 0.024522637022820166 0.0093402953957542577 0 0.024595697412172979 0.0093351564549114998 0 0.026621475000693492 0.0072771901164932458 0 0.026149463101730414 0.0073747133673717812 0 0.02308658225640689 0.0095286165661404975 0 0.022815029863095495 0.0096348571996583855 0 0.023183055668778464 0.0087830287349097962 0 0.022506390567096173 0.0081435478321772101 0 0.022675695036846889 0.0086067354069870889 0 0.024522637022820166 0.0093402953957542577 0 0.02448833496029448 0.0093362905452903482 0 0.024459898186485342 0.0093437729232580743 0 0.02448833496029448 0.0093362905452903482 0 0.024459898186485342 0.0093437729232580743 0 0.024533397414052163 0.0093222416201139118 0 0.024662666501168606 0.0094074720256483932 0 0.024533397414052163 0.0093222416201139118 0 0.02460851427836553 0.0092712303755514858 0 0.024744917114003524 0.0091985066900281808 0 0.02460851427836553 0.0092712303755514858 0 0.02455786239591801 0.0091520677838740228 0 0.024533397414052163 0.0093222416201139118 0 0.02460851427836553 0.0092712303755514858 0 0.024510644881309489 0.0092800492979308712 0 0.02448833496029448 0.0093362905452903482 0 0.024533397414052163 0.0093222416201139118 0 0.024510644881309489 0.0092800492979308712 0 0.024510644881309489 0.0092800492979308712 0 0.024457903808285501 0.0092288415794679231 0 0.02455786239591801 0.0091520677838740228 0 0.02460851427836553 0.0092712303755514858 0 0.024510644881309489 0.0092800492979308712 0 0.02455786239591801 0.0091520677838740228 0 0.024260756193126599 0.0093717495571925651 0 0.0244888093871155 0.0093637075554245872 0 0.024367073281698751 0.0093125364946164031 0 0.024367073281698751 0.0093125364946164031 0 0.024457903808285501 0.0092288415794679231 0 0.024379808972989074 0.0091604243656749004 0 0.02448833496029448 0.0093362905452903482 0 0.024510644881309489 0.0092800492979308712 0 0.024367073281698751 0.0093125364946164031 0 0.024510644881309489 0.0092800492979308712 0 0.024367073281698751 0.0093125364946164031 0 0.024457903808285501 0.0092288415794679231 0 0.024457903808285501 0.0092288415794679231 0 0.024379808972989074 0.0091604243656749004 0 0.02455786239591801 0.0091520677838740228 0 0.024379808972989074 0.0091604243656749004 0 0.02455786239591801 0.0091520677838740228 0 0.024427441701982754 0.0089299676867894175 0 0.024719536984204923 0.0089613435818023807 0 0.02455786239591801 0.0091520677838740228 0 0.024427441701982754 0.0089299676867894175 0 0.024427441701982754 0.0089299676867894175 0 0.024140229721259704 0.0089584246922208947 0 0.024050099866024639 0.0086418995042171435 0 0.024379808972989074 0.0091604243656749004 0 0.024427441701982754 0.0089299676867894175 0 0.024140229721259704 0.0089584246922208947 0 0.024367073281698751 0.0093125364946164031 0 0.024379808972989074 0.0091604243656749004 0 0.024216411957844085 0.0092591488152062203 0 0.024379808972989074 0.0091604243656749004 0 0.024140229721259704 0.0089584246922208947 0 0.024216411957844085 0.0092591488152062203 0 0.023693348981644265 0.0096431817672259553 0 0.023817183240166566 0.0090950870980203175 0 0.023449311347704425 0.009260894755502817 0 0.024140229721259704 0.0089584246922208947 0 0.024216411957844085 0.0092591488152062203 0 0.023817183240166566 0.0090950870980203175 0 0.023693348981644265 0.0096431817672259553 0 0.024216411957844085 0.0092591488152062203 0 0.023817183240166566 0.0090950870980203175 0 0.023861604192012869 0.0088446239543422643 0 0.023387516287246501 0.0087308408716219033 0 0.024050099866024639 0.0086418995042171435 0 0.024140229721259704 0.0089584246922208947 0 0.023861604192012869 0.0088446239543422643 0 0.024050099866024639 0.0086418995042171435 0 0.023817183240166566 0.0090950870980203175 0 0.023861604192012869 0.0088446239543422643 0 0.023387516287246501 0.0087308408716219033 0 0.024140229721259704 0.0089584246922208947 0 0.023817183240166566 0.0090950870980203175 0 0.023861604192012869 0.0088446239543422643 0 0.023402221252465404 0.0097486219075044161 0 0.022893224556691932 0.0096651210180155132 0 0.022813102660832359 0.0099301530522410923 0 0.023402221252465404 0.0097486219075044161 0 0.022893224556691932 0.0096651210180155132 0 0.023153448410676149 0.0094846823764841021 0 0.023402221252465404 0.0097486219075044161 0 0.022813102660832359 0.0099301530522410923 0 0.022871928915172486 0.010255693610271064 0 0.022512212581851515 0.0094328729017157283 0 0.023056904107506056 0.0091329856592542759 0 0.022509965946957266 0.0098347318589848288 0 0.023021841106254059 0.0092365199392544263 0 0.022218759220525863 0.0096124826037577646 0 0.023387516287246501 0.0087308408716219033 0 0.022342422583813654 0.0091949395505167876 0 0.022617718241423179 0.0091868987770434285 0 0.022234478877391203 0.0091949439279455005 0 0.022512212581851515 0.0094328729017157283 0 0.022137351521932042 0.0096768684537562929 0 0.022234478877391203 0.0091949439279455005 0 0.022512212581851515 0.0094328729017157283 0 0.022617718241423179 0.0091868987770434285 0 0.022218759220525863 0.0096124826037577646 0 0.022230758515104122 0.0096063391227980324 0 0.022512212581851515 0.0094328729017157283 0 0.022617718241423179 0.0091868987770434285 0 0.023056904107506056 0.0091329856592542759 0 0.023449311347704425 0.009260894755502817 0 0.023056904107506056 0.0091329856592542759 0 0.023209356696659449 0.0095350140077241023 0 0.023387516287246501 0.0087308408716219033 0 0.022617718241423179 0.0091868987770434285 0 0.023056904107506056 0.0091329856592542759 0 0.023817183240166566 0.0090950870980203175 0 0.023387516287246501 0.0087308408716219033 0 0.023449311347704425 0.009260894755502817 0 0.023387516287246501 0.0087308408716219033 0 0.023449311347704425 0.009260894755502817 0 0.023056904107506056 0.0091329856592542759 0 0.019207950163719897 0.010279021853066391 0 0.019125003627847154 0.010277856828549824 0 0.01914950607964578 0.010252503385825739 0 0.019173774202220224 0.010242889242169205 0 0.019207950163719897 0.010279021853066391 0 0.019199575580216899 0.010220528201365087 0 0.019173774202220224 0.010242889242169205 0 0.01914950607964578 0.010252503385825739 0 0.019137285970363141 0.010218672263780872 0 0.019173774202220224 0.010242889242169205 0 0.019207950163719897 0.010279021853066391 0 0.01914950607964578 0.010252503385825739 0 0.022893224556691932 0.0096651210180155132 0 0.0223052319616646 0.0098583880411482992 0 0.022785025729029709 0.0092380699568939857 0 0.022893224556691932 0.0096651210180155132 0 0.022813102660832359 0.0099301530522410923 0 0.0223052319616646 0.0098583880411482992 0 0.022813102660832359 0.0099301530522410923 0 0.0223052319616646 0.0098583880411482992 0 0.022585290358410202 0.01012093911181707 0 0.022871928915172486 0.010255693610271064 0 0.022585290358410202 0.01012093911181707 0 0.022350087396882413 0.01037421853838986 0 0.022135149919220953 0.0090739787105171797 0 0.021060518029796325 0.0093167899435800065 0 0.021459713813845552 0.0097122657487688311 0 0.0223052319616646 0.0098583880411482992 0 0.022585290358410202 0.01012093911181707 0 0.022350087396882413 0.01037421853838986 0 0.022218759220525863 0.0096124826037577646 0 0.021492352882540752 0.0098852027603089677 0 0.022813102660832359 0.0099301530522410923 0 0.022871928915172486 0.010255693610271064 0 0.022585290358410202 0.01012093911181707 0 0.022218759220525863 0.0096124826037577646 0 0.022129641970988049 0.0096559625301235949 0 0.020833327514476006 0.010008943313608611 0 0.020548994276157896 0.010203896297693643 0 0.0223052319616646 0.0098583880411482992 0 0.022350087396882413 0.01037421853838986 0 0.021823487027567461 0.010490614445613815 0 0.019207950163719897 0.010279021853066391 0 0.019125191081059596 0.010319144524278767 0 0.019125003627847154 0.010277856828549824 0 0.021492352882540752 0.0098852027603089677 0 0.020548994276157896 0.010203896297693643 0 0.021060518029796325 0.0093167899435800065 0 0.020481750303127544 0.0097222220538734933 0 0.020076151011843606 0.0095959226651561157 0 0.020313710224332437 0.010028247210545151 0 0.020481750303127544 0.0097222220538734933 0 0.020790924482570621 0.0097886831681470946 0 0.020313710224332437 0.010028247210545151 0 0.020790924482570621 0.0097886831681470946 0 0.020650312000931311 0.010162763058646836 0 0.020313710224332437 0.010028247210545151 0 0.020481750303127544 0.0097222220538734933 0 0.020176484700090383 0.0098548387948286416 0 0.021060518029796325 0.0093167899435800065 0 0.020481750303127544 0.0097222220538734933 0 0.020790924482570621 0.0097886831681470946 0 0.020790924482570621 0.0097886831681470946 0 0.020650312000931311 0.010162763058646836 0 0.021046623165383936 0.010054912964933573 0 0.020790924482570621 0.0097886831681470946 0 0.021046623165383936 0.010054912964933573 0 0.021459713813845552 0.0097122657487688311 0 0.021046623165383936 0.010054912964933573 0 0.021459713813845552 0.0097122657487688311 0 0.021415923617830415 0.01024126531952025 0 0.021060518029796325 0.0093167899435800065 0 0.020790924482570621 0.0097886831681470946 0 0.021459713813845552 0.0097122657487688311 0 0.022234478877391203 0.0091949439279455005 0 0.021459713813845552 0.0097122657487688311 0 0.022137351521932042 0.0096768684537562929 0 0.021459713813845552 0.0097122657487688311 0 0.021990685741244506 0.010126069635118711 0 0.022137351521932042 0.0096768684537562929 0 0.021459713813845552 0.0097122657487688311 0 0.021990685741244506 0.010126069635118711 0 0.021415923617830415 0.01024126531952025 0 0.021990685741244506 0.010126069635118711 0 0.021621362265358782 0.010782657212506061 0 0.021415923617830415 0.01024126531952025 0 0.021621362265358782 0.010782657212506061 0 0.021415923617830415 0.01024126531952025 0 0.020992385320344049 0.010515946389882 0 0.021046623165383936 0.010054912964933573 0 0.021415923617830415 0.01024126531952025 0 0.020992385320344049 0.010515946389882 0 0.020992385320344049 0.010515946389882 0 0.020117144857185687 0.011045627059806717 0 0.020176996322356398 0.0106693288458732 0 0.021621362265358782 0.010782657212506061 0 0.020992385320344049 0.010515946389882 0 0.020117144857185687 0.011045627059806717 0 0.020650312000931311 0.010162763058646836 0 0.021046623165383936 0.010054912964933573 0 0.020992385320344049 0.010515946389882 0 0.020650312000931311 0.010162763058646836 0 0.020992385320344049 0.010515946389882 0 0.020566821264212731 0.010434699018720921 0 0.020992385320344049 0.010515946389882 0 0.020566821264212731 0.010434699018720921 0 0.020176996322356398 0.0106693288458732 0 0.020566821264212731 0.010434699018720921 0 0.020230552638172399 0.010400334859515668 0 0.020176996322356398 0.0106693288458732 0 0.020650312000931311 0.010162763058646836 0 0.020566821264212731 0.010434699018720921 0 0.020230552638172399 0.010400334859515668 0 0.020313710224332437 0.010028247210545151 0 0.020650312000931311 0.010162763058646836 0 0.020230552638172399 0.010400334859515668 0 0.022189636490230234 0.0098113251950104861 0 0.022078017424193561 0.010010902416953725 0 0.023056904107506056 0.0091329856592542759 0 0.023258600196279611 0.009949561536099152 0 0.023209356696659449 0.0095350140077241023 0 0.022239045514932609 0.0097680743352088727 0 0.022234328962628846 0.0098219053980633415 0 0.022189195770468281 0.0097933802490322089 0 0.022828132159702277 0.0096885831715326897 0 0.022078017424193561 0.010010902416953725 0 0.022828132159702277 0.0096885831715326897 0 0.022913585808908586 0.0097039904405787584 0 0.023705530307658897 0.0097176550172439809 0 0.023258600196279611 0.009949561536099152 0 0.023209356696659449 0.0095350140077241023 0 0.023693348981644265 0.0096431817672259553 0 0.023449311347704425 0.009260894755502817 0 0.023209356696659449 0.0095350140077241023 0 0.023056904107506056 0.0091329856592542759 0 0.023155669109110922 0.010144399335725564 0 0.022509965946957266 0.0098347318589848288 0 0.021990685741244506 0.010126069635118711 0 0.023155669109110922 0.010144399335725564 0 0.022509965946957266 0.0098347318589848288 0 0.021990685741244506 0.010126069635118711 0 0.022509965946957266 0.0098347318589848288 0 0.022137351521932042 0.0096768684537562929 0 0.022512212581851515 0.0094328729017157283 0 0.022509965946957266 0.0098347318589848288 0 0.022137351521932042 0.0096768684537562929 0 0.021990685741244506 0.010126069635118711 0 0.021621362265358782 0.010782657212506061 0 0.023155669109110922 0.010144399335725564 0 0.021387545843983766 0.010454719768942853 0 0.022078017424193561 0.010010902416953725 0 0.02097543511499337 0.010615936119124002 0 0.021818751861474733 0.010192668776180967 0 0.02148839529627726 0.010585343839737823 0 0.02148839529627726 0.010585343839737823 0 0.021372373676568131 0.01076457581587814 0 0.021933136070815137 0.010837731287561336 0 0.02097543511499337 0.010615936119124002 0 0.02148839529627726 0.010585343839737823 0 0.021372373676568131 0.01076457581587814 0 0.022078017424193561 0.010010902416953725 0 0.021340939998761198 0.010315438504155856 0 0.022234328962628846 0.0098219053980633415 0 0.022189195770468281 0.0097933802490322089 0 0.022202363141952241 0.0098734555597082656 0 0.021818751861474733 0.010192668776180967 0 0.02148839529627726 0.010585343839737823 0 0.021933136070815137 0.010837731287561336 0 0.020254543898408955 0.010560970372499385 0 0.020120562999653271 0.010455884010432534 0 0.020159986984182105 0.010677582869731915 0 0.020128478691149761 0.010508700433293583 0 0.020160439347820667 0.010711645297883991 0 0.019972813522215686 0.010652837871229308 0 0.021340939998761198 0.010315438504155856 0 0.021134298811071473 0.010450190815063664 0 0.021134298811071473 0.010450190815063664 0 0.021072489694773058 0.010513540156984962 0 0.020160439347820667 0.010711645297883991 0 0.020059022880621658 0.010852222691679118 0 0.020195898626810295 0.010891379524196458 0 0.020160439347820667 0.010711645297883991 0 0.020028509827466175 0.010754883739999862 0 0.020059022880621658 0.010852222691679118 0 0.020160439347820667 0.010711645297883991 0 0.020028509827466175 0.010754883739999862 0 0.019972813522215686 0.010652837871229308 0 0.019917193903457073 0.010802654327719536 0 0.019821931495732328 0.010743456905590901 0 0.019784345664412208 0.010865797014153982 0 0.020028509827466175 0.010754883739999862 0 0.020059022880621658 0.010852222691679118 0 0.019917193903457073 0.010802654327719536 0 0.020028509827466175 0.010754883739999862 0 0.019917193903457073 0.010802654327719536 0 0.019972813522215686 0.010652837871229308 0 0.019917193903457073 0.010802654327719536 0 0.019821931495732328 0.010743456905590901 0 0.019972813522215686 0.010652837871229308 0 0.021340939998761198 0.010315438504155856 0 0.020544242038951031 0.010614975136786794 0 0.019821931495732328 0.010743456905590901 0 0.019972813522215686 0.010652837871229308 0 0.019786993967923674 0.010583240950005698 0 0.020128478691149761 0.010508700433293583 0 0.019972813522215686 0.010652837871229308 0 0.019786993967923674 0.010583240950005698 0 0.021372373676568131 0.01076457581587814 0 0.021933136070815137 0.010837731287561336 0 0.021090854435692325 0.011017843812768675 0 0.02097543511499337 0.010615936119124002 0 0.021372373676568131 0.01076457581587814 0 0.021090854435692325 0.011017843812768675 0 0.020544242038951031 0.010614975136786794 0 0.02003484139089504 0.010781187822156235 0 0.02097543511499337 0.010615936119124002 0 0.021090854435692325 0.011017843812768675 0 0.020603396256495009 0.01097153259666821 0 0.021090854435692325 0.011017843812768675 0 0.020603396256495009 0.01097153259666821 0 0.020229137471918124 0.011208629878618571 0 0.02097543511499337 0.010615936119124002 0 0.020603396256495009 0.01097153259666821 0 0.020117144857185687 0.011045627059806717 0 0.019786993967923674 0.010583240950005698 0 0.019418428415254717 0.010721571778358426 0 0.019533184744134468 0.010768445136716591 0 0.021387545843983766 0.010454719768942853 0 0.020925593826935408 0.010694348355057523 0 0.020603396256495009 0.01097153259666821 0 0.020229137471918124 0.011208629878618571 0 0.020117144857185687 0.011045627059806717 0 0.019466319176269332 0.010880817318340988 0 0.019652729187971143 0.010809801623388701 0 0.019681703936154496 0.010994584670149469 0 0.019533184744134468 0.010768445136716591 0 0.019466319176269332 0.010880817318340988 0 0.019367735497321504 0.010834937053628058 0 0.019418428415254717 0.010721571778358426 0 0.019533184744134468 0.010768445136716591 0 0.019367735497321504 0.010834937053628058 0 0.019533184744134468 0.010768445136716591 0 0.019466319176269332 0.010880817318340988 0 0.019652729187971143 0.010809801623388701 0 0.019786993967923674 0.010583240950005698 0 0.019533184744134468 0.010768445136716591 0 0.019652729187971143 0.010809801623388701 0 0.019821931495732328 0.010743456905590901 0 0.019786993967923674 0.010583240950005698 0 0.019652729187971143 0.010809801623388701 0 0.019821931495732328 0.010743456905590901 0 0.019652729187971143 0.010809801623388701 0 0.019784345664412208 0.010865797014153982 0 0.019784345664412208 0.010865797014153982 0 0.019681703936154496 0.010994584670149469 0 0.019927357968654077 0.010987909106612886 0 0.019652729187971143 0.010809801623388701 0 0.019784345664412208 0.010865797014153982 0 0.019681703936154496 0.010994584670149469 0 0.019681703936154496 0.010994584670149469 0 0.019851545281829568 0.011156815228306333 0 0.019927357968654077 0.010987909106612886 0 0.019466319176269332 0.010880817318340988 0 0.019681703936154496 0.010994584670149469 0 0.019425756074800869 0.011055853548984026 0 0.01959955982409297 0.011243853539688155 0 0.019681703936154496 0.010994584670149469 0 0.019425756074800869 0.011055853548984026 0 0.01959955982409297 0.011243853539688155 0 0.019425756074800869 0.011055853548984026 0 0.019342577791313438 0.011250125275162315 0 0.01959955982409297 0.011243853539688155 0 0.019681703936154496 0.010994584670149469 0 0.019851545281829568 0.011156815228306333 0 0.020160923473287053 0.011232686439147169 0 0.019851545281829568 0.011156815228306333 0 0.019927357968654077 0.010987909106612886 0 0.020160923473287053 0.011232686439147169 0 0.020769081188201935 0.011019329697137384 0 0.020576631621872721 0.010314071714836621 0 0.020160923473287053 0.011232686439147169 0 0.020213987199372192 0.011011374959328987 0 0.020108221842930301 0.011004447593936956 0 0.020160923473287053 0.011232686439147169 0 0.020108221842930301 0.011004447593936956 0 0.019927357968654077 0.010987909106612886 0 0.02057522298545551 0.010932119539479765 0 0.020760991044634747 0.010690379939979436 0 0.020213987199372192 0.011011374959328987 0 0.020108221842930301 0.011004447593936956 0 0.020195898626810295 0.010891379524196458 0 0.020059022880621658 0.010852222691679118 0 0.020108221842930301 0.011004447593936956 0 0.020195898626810295 0.010891379524196458 0 0.020059022880621658 0.010852222691679118 0 0.020108221842930301 0.011004447593936956 0 0.019927357968654077 0.010987909106612886 0 0.020059022880621658 0.010852222691679118 0 0.019917193903457073 0.010802654327719536 0 0.019927357968654077 0.010987909106612886 0 0.019917193903457073 0.010802654327719536 0 0.019784345664412208 0.010865797014153982 0 0.019927357968654077 0.010987909106612886 0 0.018967461994906783 0.011050254430115796 0 0.019115484078056116 0.011011312308639599 0 0.019028892528714873 0.010947023236987957 0 0.018967461994906783 0.011050254430115796 0 0.019028892528714873 0.010947023236987957 0 0.018839975406302324 0.010965255381168734 0 0.018967461994906783 0.011050254430115796 0 0.018998577323316716 0.011103096264768519 0 0.019115484078056116 0.011011312308639599 0 0.018967461994906783 0.011050254430115796 0 0.018866984565179296 0.011083101589355817 0 0.018839975406302324 0.010965255381168734 0 0.018699023466802505 0.011055432188063256 0 0.018866984565179296 0.011083101589355817 0 0.018839975406302324 0.010965255381168734 0 0.018967461994906783 0.011050254430115796 0 0.018866984565179296 0.011083101589355817 0 0.018919107802881058 0.01112069413153092 0 0.018699023466802505 0.011055432188063256 0 0.018909357228630051 0.011156141891756972 0 0.018866984565179296 0.011083101589355817 0 0.018909357228630051 0.011156141891756972 0 0.018866984565179296 0.011083101589355817 0 0.018919107802881058 0.01112069413153092 0 0.018869950554165207 0.011124066178145113 0 0.018919107802881058 0.01112069413153092 0 0.018998577323316716 0.011103096264768519 0 0.018967461994906783 0.011050254430115796 0 0.018919107802881058 0.01112069413153092 0 0.018998577323316716 0.011103096264768519 0 0.018998577323316716 0.011103096264768519 0 0.019141671819498902 0.011084781982545016 0 0.019115484078056116 0.011011312308639599 0 0.013914444034019664 0.0092010102798215278 0 0.01558699159508416 0.010024950491798473 0 0.019027551764350108 0.011160554410341781 0 0.018998577323316716 0.011103096264768519 0 0.019141671819498902 0.011084781982545016 0 0.019083836936374398 0.011399148101667788 0 0.019214728531049222 0.011106949597907343 0 0.019342577791313438 0.011250125275162315 0 0.019425756074800869 0.011055853548984026 0 0.019214728531049222 0.011106949597907343 0 0.019342577791313438 0.011250125275162315 0 0.01558699159508416 0.010024950491798473 0 0.016112218101379246 0.010188245678077228 0 0.019466319176269332 0.010880817318340988 0 0.019425756074800869 0.011055853548984026 0 0.019298884293074491 0.010914837078253872 0 0.019425756074800869 0.011055853548984026 0 0.019214728531049222 0.011106949597907343 0 0.019298884293074491 0.010914837078253872 0 0.019141671819498902 0.011084781982545016 0 0.019115484078056116 0.011011312308639599 0 0.019298884293074491 0.010914837078253872 0 0.019115484078056116 0.011011312308639599 0 0.019248005999136841 0.01096391954200495 0 0.019028892528714873 0.010947023236987957 0 0.019115484078056116 0.011011312308639599 0 0.019248005999136841 0.01096391954200495 0 0.019298884293074491 0.010914837078253872 0 0.019248005999136841 0.01096391954200495 0 0.019298884293074491 0.010914837078253872 0 0.019367735497321504 0.010834937053628058 0 0.019418428415254717 0.010721571778358426 0 0.019248005999136841 0.01096391954200495 0 0.019367735497321504 0.010834937053628058 0 0.019466319176269332 0.010880817318340988 0 0.019298884293074491 0.010914837078253872 0 0.019367735497321504 0.010834937053628058 0 0.020229137471918124 0.011208629878618571 0 0.019248005999136841 0.01096391954200495 0 0.019794304865249909 0.010955419128797434 0 0.02003484139089504 0.010781187822156235 0 0.019810102158453066 0.01083865072475435 0 0.020229137471918124 0.011208629878618571 0 0.020117144857185687 0.011045627059806717 0 0.019794304865249909 0.010955419128797434 0 0.019794304865249909 0.010955419128797434 0 0.019877611892577536 0.010799474830511689 0 0.019531230099115116 0.010753449090778295 0 0.020117144857185687 0.011045627059806717 0 0.019794304865249909 0.010955419128797434 0 0.019877611892577536 0.010799474830511689 0 0.020117144857185687 0.011045627059806717 0 0.019877611892577536 0.010799474830511689 0 0.020176996322356398 0.0106693288458732 0 0.019248005999136841 0.01096391954200495 0 0.019531230099115116 0.010753449090778295 0 0.019182607747366506 0.010669498494704449 0 0.019248005999136841 0.01096391954200495 0 0.019182607747366506 0.010669498494704449 0 0.019056873751651091 0.010813181372891979 0 0.019248005999136841 0.01096391954200495 0 0.019794304865249909 0.010955419128797434 0 0.019531230099115116 0.010753449090778295 0 0.019182607747366506 0.010669498494704449 0 0.019056873751651091 0.010813181372891979 0 0.018945100646124802 0.010630970343633634 0 0.019056873751651091 0.010813181372891979 0 0.01888108840722659 0.010825777022195398 0 0.018945100646124802 0.010630970343633634 0 0.019248005999136841 0.01096391954200495 0 0.019056873751651091 0.010813181372891979 0 0.019028892528714873 0.010947023236987957 0 0.019056873751651091 0.010813181372891979 0 0.019028892528714873 0.010947023236987957 0 0.01888108840722659 0.010825777022195398 0 0.019028892528714873 0.010947023236987957 0 0.018839975406302324 0.010965255381168734 0 0.01888108840722659 0.010825777022195398 0 0.018839975406302324 0.010965255381168734 0 0.018756280554865456 0.01083330580161904 0 0.01888108840722659 0.010825777022195398 0 0.018691861271572113 0.010901131144571636 0 0.018839975406302324 0.010965255381168734 0 0.018756280554865456 0.01083330580161904 0 0.018756280554865456 0.01083330580161904 0 0.01888108840722659 0.010825777022195398 0 0.018759415524705655 0.010711884363704753 0 0.018759415524705655 0.010711884363704753 0 0.018788640441594683 0.010577291930467313 0 0.018945100646124802 0.010630970343633634 0 0.01888108840722659 0.010825777022195398 0 0.018759415524705655 0.010711884363704753 0 0.018945100646124802 0.010630970343633634 0 0.018788640441594683 0.010577291930467313 0 0.018945100646124802 0.010630970343633634 0 0.018928867113222968 0.010323300583447449 0 0.018788640441594683 0.010577291930467313 0 0.018928867113222968 0.010323300583447449 0 0.018759103518382496 0.010408726523153337 0 0.019182607747366506 0.010669498494704449 0 0.018928867113222968 0.010323300583447449 0 0.019390697042954291 0.010407050385578443 0 0.019182607747366506 0.010669498494704449 0 0.018945100646124802 0.010630970343633634 0 0.018928867113222968 0.010323300583447449 0 0.019574983448139707 0.010321881446137509 0 0.019810633266798681 0.010289536426909095 0 0.018928867113222968 0.010323300583447449 0 0.01903448041341245 0.010327459083342127 0 0.018984116608238177 0.010268833295616418 0 0.018928867113222968 0.010323300583447449 0 0.018901914824777887 0.010257037190723264 0 0.018984116608238177 0.010268833295616418 0 0.018928867113222968 0.010323300583447449 0 0.018806674301635993 0.01028665473487842 0 0.018901914824777887 0.010257037190723264 0 0.018806674301635993 0.01028665473487842 0 0.018713175490958332 0.010331218709425959 0 0.018759103518382496 0.010408726523153337 0 0.018687073117454128 0.010256790496799721 0 0.018806674301635993 0.01028665473487842 0 0.018713175490958332 0.010331218709425959 0 0.018928867113222968 0.010323300583447449 0 0.018806674301635993 0.01028665473487842 0 0.018759103518382496 0.010408726523153337 0 0.020313710224332437 0.010028247210545151 0 0.019983954740279773 0.010240588576401782 0 0.020230552638172399 0.010400334859515668 0 0.019983954740279773 0.010240588576401782 0 0.020230552638172399 0.010400334859515668 0 0.019781750667240396 0.010508610935477428 0 0.019877611892577536 0.010799474830511689 0 0.020176996322356398 0.0106693288458732 0 0.019781750667240396 0.010508610935477428 0 0.020230552638172399 0.010400334859515668 0 0.020176996322356398 0.0106693288458732 0 0.019781750667240396 0.010508610935477428 0 0.019877611892577536 0.010799474830511689 0 0.019531230099115116 0.010753449090778295 0 0.019781750667240396 0.010508610935477428 0 0.019983954740279773 0.010240588576401782 0 0.019781750667240396 0.010508610935477428 0 0.019740802250389697 0.010198871612266843 0 0.019781750667240396 0.010508610935477428 0 0.019390697042954291 0.010407050385578443 0 0.019740802250389697 0.010198871612266843 0 0.019531230099115116 0.010753449090778295 0 0.019781750667240396 0.010508610935477428 0 0.019390697042954291 0.010407050385578443 0 0.019531230099115116 0.010753449090778295 0 0.019182607747366506 0.010669498494704449 0 0.019390697042954291 0.010407050385578443 0 0.018928867113222968 0.010323300583447449 0 0.019390697042954291 0.010407050385578443 0 0.01938971710060846 0.010013059481768389 0 0.019390697042954291 0.010407050385578443 0 0.01938971710060846 0.010013059481768389 0 0.019740802250389697 0.010198871612266843 0 0.019810633266798681 0.010289536426909095 0 0.020548994276157896 0.010203896297693643 0 0.01938971710060846 0.010013059481768389 0 0.019925099140959041 0.0098836728935688904 0 0.020040817286655015 0.0097015163229763075 0 0.01938971710060846 0.010013059481768389 0 0.019740802250389697 0.010198871612266843 0 0.019925099140959041 0.0098836728935688904 0 0.01903448041341245 0.010327459083342127 0 0.019125191081059596 0.010319144524278767 0 0.019088225617397762 0.01029747694634893 0 0.019740802250389697 0.010198871612266843 0 0.019925099140959041 0.0098836728935688904 0 0.020035958017114761 0.010042157515392289 0 0.020481750303127544 0.0097222220538734933 0 0.020076151011843606 0.0095959226651561157 0 0.020176484700090383 0.0098548387948286416 0 0.020544063047434131 0.010199430844430243 0 0.020548994276157896 0.010203896297693643 0 0.019925099140959041 0.0098836728935688904 0 0.020076151011843606 0.0095959226651561157 0 0.020176484700090383 0.0098548387948286416 0 0.020313710224332437 0.010028247210545151 0 0.020176484700090383 0.0098548387948286416 0 0.020035958017114761 0.010042157515392289 0 0.019925099140959041 0.0098836728935688904 0 0.020176484700090383 0.0098548387948286416 0 0.020035958017114761 0.010042157515392289 0 0.019983954740279773 0.010240588576401782 0 0.019740802250389697 0.010198871612266843 0 0.020035958017114761 0.010042157515392289 0 0.020313710224332437 0.010028247210545151 0 0.019983954740279773 0.010240588576401782 0 0.020035958017114761 0.010042157515392289 0 0.019125191081059596 0.010319144524278767 0 0.019125003627847154 0.010277856828549824 0 0.019088225617397762 0.01029747694634893 0 0.019125003627847154 0.010277856828549824 0 0.019088225617397762 0.01029747694634893 0 0.019064155249660326 0.010271877658894321 0 0.019125003627847154 0.010277856828549824 0 0.019064155249660326 0.010271877658894321 0 0.019093007204277264 0.010243551567515824 0 0.019064155249660326 0.010271877658894321 0 0.019019640800392288 0.010223721320670393 0 0.019093007204277264 0.010243551567515824 0 0.01903448041341245 0.010327459083342127 0 0.019088225617397762 0.01029747694634893 0 0.019064155249660326 0.010271877658894321 0 0.01903448041341245 0.010327459083342127 0 0.019064155249660326 0.010271877658894321 0 0.018984116608238177 0.010268833295616418 0 0.019064155249660326 0.010271877658894321 0 0.019019640800392288 0.010223721320670393 0 0.018984116608238177 0.010268833295616418 0 0.019019640800392288 0.010223721320670393 0 0.01907147393090694 0.010207951164227491 0 0.018994631707359128 0.010178627802623328 0 0.019019640800392288 0.010223721320670393 0 0.01907147393090694 0.010207951164227491 0 0.019093007204277264 0.010243551567515824 0 0.01907147393090694 0.010207951164227491 0 0.019093007204277264 0.010243551567515824 0 0.019137285970363141 0.010218672263780872 0 0.019093007204277264 0.010243551567515824 0 0.01914950607964578 0.010252503385825739 0 0.019137285970363141 0.010218672263780872 0 0.019125003627847154 0.010277856828549824 0 0.019093007204277264 0.010243551567515824 0 0.01914950607964578 0.010252503385825739 0 0.01882793943106097 0.01020006936557449 0 0.018737679954447091 0.010168976784968019 0 0.018833911388614552 0.010093720281227792 0 0.01882793943106097 0.01020006936557449 0 0.01892931565126096 0.010190573714491783 0 0.018833911388614552 0.010093720281227792 0 0.01882793943106097 0.01020006936557449 0 0.018737679954447091 0.010168976784968019 0 0.018765211290585497 0.010227059133723435 0 0.018687073117454128 0.010256790496799721 0 0.018737679954447091 0.010168976784968019 0 0.018765211290585497 0.010227059133723435 0 0.018687073117454128 0.010256790496799721 0 0.018806674301635993 0.01028665473487842 0 0.018765211290585497 0.010227059133723435 0 0.018806674301635993 0.01028665473487842 0 0.01882793943106097 0.01020006936557449 0 0.018765211290585497 0.010227059133723435 0 0.018806674301635993 0.01028665473487842 0 0.01882793943106097 0.01020006936557449 0 0.018901914824777887 0.010257037190723264 0 0.018901914824777887 0.010257037190723264 0 0.018984116608238177 0.010268833295616418 0 0.01892931565126096 0.010190573714491783 0 0.019019640800392288 0.010223721320670393 0 0.018984116608238177 0.010268833295616418 0 0.01892931565126096 0.010190573714491783 0 0.01882793943106097 0.01020006936557449 0 0.018901914824777887 0.010257037190723264 0 0.01892931565126096 0.010190573714491783 0 0.015869539303767437 0.011387767000787035 0 0.015205998259493621 0.012285171893531401 0 0.0085280951114544441 0.019548493913307843 0 0.0086419532556448152 0.018073283929286612 0 0.01034584137724264 0.01863246822827545 0 0.019019640800392288 0.010223721320670393 0 0.01892931565126096 0.010190573714491783 0 0.018994631707359128 0.010178627802623328 0 0.012805655626396267 0.012963402724565616 0 0.015205998259493621 0.012285171893531401 0 0.01892931565126096 0.010190573714491783 0 0.018833911388614552 0.010093720281227792 0 0.018996736503971465 0.010020063767365245 0 0.0068443915420245338 0.019391106203782271 0 0.0085280951114544441 0.019548493913307843 0 0.0071617327022626244 0.018553320354078445 0 0.0068443915420245338 0.019391106203782271 0 0.0070316845232718927 0.020024462014835574 0 0.0085280951114544441 0.019548493913307843 0 0.010279924954163088 0.013228426269362024 0 0.012805655626396267 0.012963402724565616 0 0.0067239222584120481 0.020394616923497633 0 0.0070316845232718927 0.020024462014835574 0 0.0085280951114544441 0.019548493913307843 0 0.0085280951114544441 0.019548493913307843 0 0.0086419532556448152 0.018073283929286612 0 0.0071617327022626244 0.018553320354078445 0 0.018650427910490909 0.010105723819488252 0 0.018737679954447091 0.010168976784968019 0 0.018833911388614552 0.010093720281227792 0 0.0086419532556448152 0.018073283929286612 0 0.0071617327022626244 0.018553320354078445 0 0.0061224597576332775 0.017379645488345211 0 0.0086419532556448152 0.018073283929286612 0 0.0088345385825568321 0.016592114975186797 0 0.0061224597576332775 0.017379645488345211 0 0.01034584137724264 0.01863246822827545 0 0.0098714090417778635 0.017078898015100187 0 0.011419086035160515 0.01638753267970269 0 0.0086419532556448152 0.018073283929286612 0 0.01034584137724264 0.01863246822827545 0 0.0098714090417778635 0.017078898015100187 0 0.0086419532556448152 0.018073283929286612 0 0.0098714090417778635 0.017078898015100187 0 0.0088345385825568321 0.016592114975186797 0 0.0098714090417778635 0.017078898015100187 0 0.010092378145539942 0.015731673112397503 0 0.0088345385825568321 0.016592114975186797 0 0.0098714090417778635 0.017078898015100187 0 0.010092378145539942 0.015731673112397503 0 0.011419086035160515 0.01638753267970269 0 0.0088345385825568321 0.016592114975186797 0 0.0079779173892948994 0.015016409712233419 0 0.0061224597576332775 0.017379645488345211 0 0.010092378145539942 0.015731673112397503 0 0.0088345385825568321 0.016592114975186797 0 0.0079779173892948994 0.015016409712233419 0 0.019137285970363141 0.010218672263780872 0 0.019115162418056147 0.01017133480790966 0 0.019199575580216899 0.010220528201365087 0 0.01907147393090694 0.010207951164227491 0 0.019137285970363141 0.010218672263780872 0 0.019115162418056147 0.01017133480790966 0 0.017261097479457206 0.011207349743126965 0 0.01831684369195825 0.010656795350435974 0 0.017716327640291647 0.010214301468314433 0 0.015205998259493621 0.012285171893531401 0 0.014947546103375807 0.012662677766724237 0 0.01907147393090694 0.010207951164227491 0 0.018994631707359128 0.010178627802623328 0 0.019115162418056147 0.01017133480790966 0 0.015205998259493621 0.012285171893531401 0 0.017811839449341779 0.010886260551176398 0 0.010092378145539942 0.015731673112397503 0 0.011419086035160515 0.01638753267970269 0 0.010971794054641435 0.014910132903827731 0 0.01831684369195825 0.010656795350435974 0 0.017716327640291647 0.010214301468314433 0 0.018345577842066682 0.010220182017823855 0 0.017716327640291647 0.010214301468314433 0 0.018345577842066682 0.010220182017823855 0 0.01798778850805588 0.0098501957681473521 0 0.018345577842066682 0.010220182017823855 0 0.01869296211070284 0.0098265956619624228 0 0.018982699760636962 0.01020678739606304 0 0.01831684369195825 0.010656795350435974 0 0.018345577842066682 0.010220182017823855 0 0.018982699760636962 0.01020678739606304 0 0.01798778850805588 0.0098501957681473521 0 0.017807836283275511 0.0098957206441833648 0 0.016734317561746644 0.010214710350772946 0 0.01798778850805588 0.0098501957681473521 0 0.019067390380511987 0.008111102763202805 0 0.018970794693274708 0.0091655012472910396 0 0.01869296211070284 0.0098265956619624228 0 0.01798778850805588 0.0098501957681473521 0 0.018970794693274708 0.0091655012472910396 0 0.018345577842066682 0.010220182017823855 0 0.01869296211070284 0.0098265956619624228 0 0.01798778850805588 0.0098501957681473521 0 0.014947546103375807 0.012662677766724237 0 0.015222660288395265 0.011913156222832184 0 0.017716327640291647 0.010214301468314433 0 0.01798778850805588 0.0098501957681473521 0 0.017807836283275511 0.0098957206441833648 0 0.011419086035160515 0.01638753267970269 0 0.012538526102481793 0.014291083352922375 0 0.010971794054641435 0.014910132903827731 0 0.012538526102481793 0.014291083352922375 0 0.010971794054641435 0.014910132903827731 0 0.011080134640629454 0.013872024264764101 0 0.011080134640629454 0.013872024264764101 0 0.011576014650231226 0.012727117775084082 0 0.012020360926762138 0.013596906162548109 0 0.011080134640629454 0.013872024264764101 0 0.011576014650231226 0.012727117775084082 0 0.0099088278620176762 0.01289411510622265 0 0.011576014650231226 0.012727117775084082 0 0.012020360926762138 0.013596906162548109 0 0.012628082562175791 0.012902224047968191 0 0.012538526102481793 0.014291083352922375 0 0.012020360926762138 0.013596906162548109 0 0.012628082562175791 0.012902224047968191 0 0.012538526102481793 0.014291083352922375 0 0.011080134640629454 0.013872024264764101 0 0.012020360926762138 0.013596906162548109 0 0.017807836283275511 0.0098957206441833648 0 0.016728942255110138 0.010335164571185943 0 0.016734317561746644 0.010214710350772946 0 0.017933730158786746 0.009610446108768109 0 0.018098897382803875 0.0092361828817815357 0 0.015222660288395265 0.011913156222832184 0 0.015540571108980855 0.011078558300357914 0 0.012538526102481793 0.014291083352922375 0 0.012628082562175791 0.012902224047968191 0 0.013880680259068858 0.012342322166579326 0 0.0079779173892948994 0.015016409712233419 0 0.008292585336403778 0.013198309277119524 0 0.0059267613703443767 0.01401731249306775 0 0.0079779173892948994 0.015016409712233419 0 0.0096712345436378855 0.014252253928910238 0 0.008292585336403778 0.013198309277119524 0 0.010092378145539942 0.015731673112397503 0 0.0079779173892948994 0.015016409712233419 0 0.0096712345436378855 0.014252253928910238 0 0.010092378145539942 0.015731673112397503 0 0.010971794054641435 0.014910132903827731 0 0.0096712345436378855 0.014252253928910238 0 0.010971794054641435 0.014910132903827731 0 0.011080134640629454 0.013872024264764101 0 0.0096712345436378855 0.014252253928910238 0 0.0099088278620176762 0.01289411510622265 0 0.008292585336403778 0.013198309277119524 0 0.0091410270416455251 0.011457252615988452 0 0.0096712345436378855 0.014252253928910238 0 0.0099088278620176762 0.01289411510622265 0 0.008292585336403778 0.013198309277119524 0 0.011080134640629454 0.013872024264764101 0 0.0096712345436378855 0.014252253928910238 0 0.0099088278620176762 0.01289411510622265 0 0.008292585336403778 0.013198309277119524 0 0.0091410270416455251 0.011457252615988452 0 0.0070642877497532125 0.011634023777862027 0 0.0079023257592431111 0.010204081334735028 0 0.0091410270416455251 0.011457252615988452 0 0.0070642877497532125 0.011634023777862027 0 0.0079023257592431111 0.010204081334735028 0 0.0075042574492772641 0.0088155475014918497 0 0.0096859394461777763 0.0092307424821189161 0 0.0079023257592431111 0.010204081334735028 0 0.0091410270416455251 0.011457252615988452 0 0.0096859394461777763 0.0092307424821189161 0 0.0091410270416455251 0.011457252615988452 0 0.010989750369027504 0.011329783170828478 0 0.0096859394461777763 0.0092307424821189161 0 0.010989750369027504 0.011329783170828478 0 0.011693199298971946 0.010075633460316355 0 0.0096859394461777763 0.0092307424821189161 0 0.0099088278620176762 0.01289411510622265 0 0.0091410270416455251 0.011457252615988452 0 0.010989750369027504 0.011329783170828478 0 0.011576014650231226 0.012727117775084082 0 0.0099088278620176762 0.01289411510622265 0 0.010989750369027504 0.011329783170828478 0 0.011576014650231226 0.012727117775084082 0 0.012434663821116907 0.011962456636831834 0 0.010989750369027504 0.011329783170828478 0 0.011576014650231226 0.012727117775084082 0 0.012628082562175791 0.012902224047968191 0 0.012434663821116907 0.011962456636831834 0 0.012434663821116907 0.011962456636831834 0 0.010989750369027504 0.011329783170828478 0 0.012518619236546418 0.010898090401478567 0 0.012628082562175791 0.012902224047968191 0 0.012434663821116907 0.011962456636831834 0 0.013063866740263559 0.012185864944605882 0 0.012628082562175791 0.012902224047968191 0 0.013880680259068858 0.012342322166579326 0 0.013063866740263559 0.012185864944605882 0 0.013880680259068858 0.012342322166579326 0 0.013063866740263559 0.012185864944605882 0 0.013305649094013768 0.01151080002338923 0 0.012434663821116907 0.011962456636831834 0 0.013063866740263559 0.012185864944605882 0 0.013305649094013768 0.01151080002338923 0 0.012434663821116907 0.011962456636831834 0 0.013305649094013768 0.01151080002338923 0 0.012518619236546418 0.010898090401478567 0 0.013880680259068858 0.012342322166579326 0 0.013305649094013768 0.01151080002338923 0 0.01426369614366404 0.010894959008870306 0 0.013880680259068858 0.012342322166579326 0 0.01426369614366404 0.010894959008870306 0 0.015807782733751413 0.010086834945362338 0 0.01426369614366404 0.010894959008870306 0 0.013662422149662366 0.010561344178210983 0 0.014401920235204877 0.0098197918446515375 0 0.013305649094013768 0.01151080002338923 0 0.013662422149662366 0.010561344178210983 0 0.012518619236546418 0.010898090401478567 0 0.013662422149662366 0.010561344178210983 0 0.013118152298482915 0.0098555400273546701 0 0.012518619236546418 0.010898090401478567 0 0.013305649094013768 0.01151080002338923 0 0.01426369614366404 0.010894959008870306 0 0.013662422149662366 0.010561344178210983 0 0.013662422149662366 0.010561344178210983 0 0.013118152298482915 0.0098555400273546701 0 0.014401920235204877 0.0098197918446515375 0 0.013118152298482915 0.0098555400273546701 0 0.014401920235204877 0.0098197918446515375 0 0.014124773569124826 0.0088318181979598828 0 0.01426369614366404 0.010894959008870306 0 0.014401920235204877 0.0098197918446515375 0 0.015807782733751413 0.010086834945362338 0 0.011693199298971946 0.010075633460316355 0 0.01230929908394029 0.0088394638730301886 0 0.0096859394461777763 0.0092307424821189161 0 0.010989750369027504 0.011329783170828478 0 0.012518619236546418 0.010898090401478567 0 0.011693199298971946 0.010075633460316355 0 0.013118152298482915 0.0098555400273546701 0 0.012518619236546418 0.010898090401478567 0 0.011693199298971946 0.010075633460316355 0 0.013118152298482915 0.0098555400273546701 0 0.011693199298971946 0.010075633460316355 0 0.01230929908394029 0.0088394638730301886 0 0.011197765978936383 0.0077061941951250589 0 0.01230929908394029 0.0088394638730301886 0 0.014049983138917524 0.0069781518434886714 0 0.011197765978936383 0.0077061941951250589 0 0.01230929908394029 0.0088394638730301886 0 0.0096859394461777763 0.0092307424821189161 0 0.01230929908394029 0.0088394638730301886 0 0.014124773569124826 0.0088318181979598828 0 0.014049983138917524 0.0069781518434886714 0 0.014124773569124826 0.0088318181979598828 0 0.014049983138917524 0.0069781518434886714 0 0.01608719423848309 0.0082545714030847536 0 0.014401920235204877 0.0098197918446515375 0 0.014124773569124826 0.0088318181979598828 0 0.015422293417695928 0.0093080243464838276 0 0.013118152298482915 0.0098555400273546701 0 0.01230929908394029 0.0088394638730301886 0 0.014124773569124826 0.0088318181979598828 0 0.011197765978936383 0.0077061941951250589 0 0.0098421166746683521 0.0065069985851248305 0 0.012015550519714079 0.0051530923069433429 0 0.011197765978936383 0.0077061941951250589 0 0.014049983138917524 0.0069781518434886714 0 0.012015550519714079 0.0051530923069433429 0 0.0098421166746683521 0.0065069985851248305 0 0.0076723772386642292 0.0071390358484029939 0 0.0096859394461777763 0.0092307424821189161 0 0.0098421166746683521 0.0065069985851248305 0 0.0076723772386642292 0.0071390358484029939 0 0.0096056745931757791 0.003918984480333388 0 0.0076723772386642292 0.0071390358484029939 0 0.0075042574492772641 0.0088155475014918497 0 0.0096859394461777763 0.0092307424821189161 0 0.011197765978936383 0.0077061941951250589 0 0.0098421166746683521 0.0065069985851248305 0 0.0096859394461777763 0.0092307424821189161 0 0.021439310746393523 0.0064332012078323749 0 0.021590796835481471 0.0059613889663138958 0 0.020860844681382804 0.0059085431649212742 0 0.022025114720353206 0.0063842577408112855 0 0.022096075700304925 0.0059308716160121362 0 0.021590796835481471 0.0059613889663138958 0 0.021439310746393523 0.0064332012078323749 0 0.022025114720353206 0.0063842577408112855 0 0.021590796835481471 0.0059613889663138958 0 0.021439310746393523 0.0064332012078323749 0 0.022025114720353206 0.0063842577408112855 0 0.022041437308769615 0.0069743578851910269 0 0.022025114720353206 0.0063842577408112855 0 0.022575651458279489 0.0065262683561183778 0 0.022041437308769615 0.0069743578851910269 0 0.022025114720353206 0.0063842577408112855 0 0.022575651458279489 0.0065262683561183778 0 0.022574511165790657 0.0061246898620710578 0 0.022575651458279489 0.0065262683561183778 0 0.022574511165790657 0.0061246898620710578 0 0.023077128952782005 0.0061958827641230068 0 0.022025114720353206 0.0063842577408112855 0 0.022574511165790657 0.0061246898620710578 0 0.022096075700304925 0.0059308716160121362 0 0.022574511165790657 0.0061246898620710578 0 0.022096075700304925 0.0059308716160121362 0 0.022466291421045642 0.0056462038654068987 0 0.022096075700304925 0.0059308716160121362 0 0.022466291421045642 0.0056462038654068987 0 0.02196329807925558 0.0055856577800305739 0 0.022574511165790657 0.0061246898620710578 0 0.022466291421045642 0.0056462038654068987 0 0.022881671382573101 0.005818001961202619 0 0.022466291421045642 0.0056462038654068987 0 0.022633413167034259 0.0052446483125637867 0 0.022267169060898172 0.0053037256863774336 0 0.022466291421045642 0.0056462038654068987 0 0.022823450860939596 0.0055173064359076056 0 0.022633413167034259 0.0052446483125637867 0 0.022466291421045642 0.0056462038654068987 0 0.022823450860939596 0.0055173064359076056 0 0.022881671382573101 0.005818001961202619 0 0.022466291421045642 0.0056462038654068987 0 0.02196329807925558 0.0055856577800305739 0 0.022267169060898172 0.0053037256863774336 0 0.021525540625825408 0.0054862931819955269 0 0.021590796835481471 0.0059613889663138958 0 0.020860844681382804 0.0059085431649212742 0 0.02196329807925558 0.0055856577800305739 0 0.021525540625825408 0.0054862931819955269 0 0.021838149305305841 0.0050871161470955033 0 0.021525540625825408 0.0054862931819955269 0 0.020860844681382804 0.0059085431649212742 0 0.021028742126910124 0.0047001265381301435 0 0.02196329807925558 0.0055856577800305739 0 0.021525540625825408 0.0054862931819955269 0 0.021590796835481471 0.0059613889663138958 0 0.022096075700304925 0.0059308716160121362 0 0.02196329807925558 0.0055856577800305739 0 0.021590796835481471 0.0059613889663138958 0 0.018316431304486614 0.007759127262811966 0 0.016826696457800338 0.0064864053404754081 0 0.018439887226071133 0.0053819761544860092 0 0.019489198796780866 0.0067008072149590718 0 0.020031148175410244 0.0057169332085629998 0 0.018316431304486614 0.007759127262811966 0 0.016826696457800338 0.0064864053404754081 0 0.01608719423848309 0.0082545714030847536 0 0.014049983138917524 0.0069781518434886714 0 0.016826696457800338 0.0064864053404754081 0 0.016139752238146825 0.0049077436059984927 0 0.014049983138917524 0.0069781518434886714 0 0.016826696457800338 0.0064864053404754081 0 0.01608719423848309 0.0082545714030847536 0 0.018316431304486614 0.007759127262811966 0 0.01608719423848309 0.0082545714030847536 0 0.016244373304017037 0.010312368514647048 0 0.01608719423848309 0.0082545714030847536 0 0.015422293417695928 0.0093080243464838276 0 0.016244373304017037 0.010312368514647048 0 0.014124773569124826 0.0088318181979598828 0 0.01608719423848309 0.0082545714030847536 0 0.015422293417695928 0.0093080243464838276 0 0.019489198796780866 0.0067008072149590718 0 0.018621611657266206 0.0082499215138543639 0 0.020860844681382804 0.0059085431649212742 0 0.02082904425812147 0.0066840257770576349 0 0.020144406140787822 0.0068450281758875072 0 0.021439310746393523 0.0064332012078323749 0 0.020860844681382804 0.0059085431649212742 0 0.02082904425812147 0.0066840257770576349 0 0.021439310746393523 0.0064332012078323749 0 0.02082904425812147 0.0066840257770576349 0 0.021113641749490229 0.0071433525127772941 0 0.02082904425812147 0.0066840257770576349 0 0.020574476813485447 0.007196864402416632 0 0.020144406140787822 0.0068450281758875072 0 0.02082904425812147 0.0066840257770576349 0 0.020574476813485447 0.007196864402416632 0 0.021113641749490229 0.0071433525127772941 0 0.016728942255110138 0.010335164571185943 0 0.015807782733751413 0.010086834945362338 0 0.016244373304017037 0.010312368514647048 0 0.015422293417695928 0.0093080243464838276 0 0.015807782733751413 0.010086834945362338 0 0.016244373304017037 0.010312368514647048 0 0.014401920235204877 0.0098197918446515375 0 0.015422293417695928 0.0093080243464838276 0 0.015807782733751413 0.010086834945362338 0 0.016728942255110138 0.010335164571185943 0 0.016244373304017037 0.010312368514647048 0 0.016734317561746644 0.010214710350772946 0 0.015540571108980855 0.011078558300357914 0 0.015726621460423324 0.010610984741840732 0 0.020144406140787822 0.0068450281758875072 0 0.020135447623853237 0.0076925638740859038 0 0.019067390380511987 0.008111102763202805 0 0.018621611657266206 0.0082499215138543639 0 0.018098897382803875 0.0092361828817815357 0 0.020574476813485447 0.007196864402416632 0 0.020144406140787822 0.0068450281758875072 0 0.020135447623853237 0.0076925638740859038 0 0.021113641749490229 0.0071433525127772941 0 0.020741079018638857 0.0076488324290355531 0 0.021175118452396863 0.0076969471712613957 0 0.020574476813485447 0.007196864402416632 0 0.021113641749490229 0.0071433525127772941 0 0.020741079018638857 0.0076488324290355531 0 0.020574476813485447 0.007196864402416632 0 0.020135447623853237 0.0076925638740859038 0 0.020741079018638857 0.0076488324290355531 0 0.020135447623853237 0.0076925638740859038 0 0.020741079018638857 0.0076488324290355531 0 0.020438784244626147 0.0081540656284728296 0 0.020741079018638857 0.0076488324290355531 0 0.021078827136812087 0.008071639916355863 0 0.020438784244626147 0.0081540656284728296 0 0.020741079018638857 0.0076488324290355531 0 0.021175118452396863 0.0076969471712613957 0 0.021078827136812087 0.008071639916355863 0 0.021175118452396863 0.0076969471712613957 0 0.021579927786189487 0.0075441906401266384 0 0.021567526845413163 0.0079938675910794579 0 0.021175118452396863 0.0076969471712613957 0 0.021567526845413163 0.0079938675910794579 0 0.021078827136812087 0.008071639916355863 0 0.021579927786189487 0.0075441906401266384 0 0.022081792022592112 0.0074827809319762727 0 0.022065294771537462 0.0078881456928396303 0 0.021579927786189487 0.0075441906401266384 0 0.022065294771537462 0.0078881456928396303 0 0.021567526845413163 0.0079938675910794579 0 0.021579927786189487 0.0075441906401266384 0 0.022041437308769615 0.0069743578851910269 0 0.022081792022592112 0.0074827809319762727 0 0.021113641749490229 0.0071433525127772941 0 0.021175118452396863 0.0076969471712613957 0 0.021579927786189487 0.0075441906401266384 0 0.021439310746393523 0.0064332012078323749 0 0.021113641749490229 0.0071433525127772941 0 0.022041437308769615 0.0069743578851910269 0 0.021113641749490229 0.0071433525127772941 0 0.021579927786189487 0.0075441906401266384 0 0.022041437308769615 0.0069743578851910269 0 0.022041437308769615 0.0069743578851910269 0 0.022602064115193304 0.0074097349357079975 0 0.022818907694455881 0.0069265620722962652 0 0.022575651458279489 0.0065262683561183778 0 0.022041437308769615 0.0069743578851910269 0 0.022818907694455881 0.0069265620722962652 0 0.022041437308769615 0.0069743578851910269 0 0.022602064115193304 0.0074097349357079975 0 0.022081792022592112 0.0074827809319762727 0 0.022602064115193304 0.0074097349357079975 0 0.022081792022592112 0.0074827809319762727 0 0.022065294771537462 0.0078881456928396303 0 0.022602064115193304 0.0074097349357079975 0 0.022065294771537462 0.0078881456928396303 0 0.022557748163380801 0.0080023995955673735 0 0.022602064115193304 0.0074097349357079975 0 0.022557748163380801 0.0080023995955673735 0 0.022990687098418405 0.0078786294617973138 0 0.022557748163380801 0.0080023995955673735 0 0.022906471243183218 0.008349399854480995 0 0.022219023721017812 0.0083355028726192302 0 0.022557748163380801 0.0080023995955673735 0 0.022906471243183218 0.008349399854480995 0 0.022990687098418405 0.0078786294617973138 0 0.022906471243183218 0.008349399854480995 0 0.022219023721017812 0.0083355028726192302 0 0.021992486335725134 0.0088719248405028633 0 0.022065294771537462 0.0078881456928396303 0 0.022557748163380801 0.0080023995955673735 0 0.022219023721017812 0.0083355028726192302 0 0.022065294771537462 0.0078881456928396303 0 0.021567526845413163 0.0079938675910794579 0 0.02163436030215389 0.0084753972646983648 0 0.022065294771537462 0.0078881456928396303 0 0.022219023721017812 0.0083355028726192302 0 0.02163436030215389 0.0084753972646983648 0 0.021078827136812087 0.008071639916355863 0 0.02163436030215389 0.0084753972646983648 0 0.020820561286682436 0.0086469749396158001 0 0.021567526845413163 0.0079938675910794579 0 0.021078827136812087 0.008071639916355863 0 0.02163436030215389 0.0084753972646983648 0 0.02163436030215389 0.0084753972646983648 0 0.021251168368786238 0.0091766447988649996 0 0.020820561286682436 0.0086469749396158001 0 0.02163436030215389 0.0084753972646983648 0 0.021992486335725134 0.0088719248405028633 0 0.021251168368786238 0.0091766447988649996 0 0.022219023721017812 0.0083355028726192302 0 0.02163436030215389 0.0084753972646983648 0 0.021992486335725134 0.0088719248405028633 0 0.021992486335725134 0.0088719248405028633 0 0.021251168368786238 0.0091766447988649996 0 0.022077828395075681 0.009727870658265388 0 0.021251168368786238 0.0091766447988649996 0 0.022077828395075681 0.009727870658265388 0 0.020669402486793529 0.010031562131965531 0 0.021836511885382454 0.0091401266142808017 0 0.020584528605159868 0.0095208657990358998 0 0.022906471243183218 0.008349399854480995 0 0.021992486335725134 0.0088719248405028633 0 0.022077828395075681 0.009727870658265388 0 0.023258327333535372 0.0086349450315688116 0 0.023612928511634258 0.0088779352863249186 0 0.023727937970168089 0.0085764923255245047 0 0.022906471243183218 0.008349399854480995 0 0.022388085132057998 0.0091010107926882671 0 0.023117623783942391 0.0089750795207384475 0 0.021836511885382454 0.0091401266142808017 0 0.022678558680096578 0.008971500974083637 0 0.022082818534159426 0.0089020825594653755 0 0.021836511885382454 0.0091401266142808017 0 0.019067390380511987 0.008111102763202805 0 0.019487017553220666 0.0086766930607136816 0 0.018970794693274708 0.0091655012472910396 0 0.019487017553220666 0.0086766930607136816 0 0.019509319172825744 0.009089219632959512 0 0.018970794693274708 0.0091655012472910396 0 0.019067390380511987 0.008111102763202805 0 0.019803243348363427 0.0082671797530725673 0 0.019487017553220666 0.0086766930607136816 0 0.020135447623853237 0.0076925638740859038 0 0.019067390380511987 0.008111102763202805 0 0.019803243348363427 0.0082671797530725673 0 0.019487017553220666 0.0086766930607136816 0 0.020045667467428915 0.0087899980378454007 0 0.019509319172825744 0.009089219632959512 0 0.019803243348363427 0.0082671797530725673 0 0.019487017553220666 0.0086766930607136816 0 0.020045667467428915 0.0087899980378454007 0 0.020045667467428915 0.0087899980378454007 0 0.020820561286682436 0.0086469749396158001 0 0.020445640424638159 0.0092722188805257066 0 0.020045667467428915 0.0087899980378454007 0 0.020438784244626147 0.0081540656284728296 0 0.020820561286682436 0.0086469749396158001 0 0.020135447623853237 0.0076925638740859038 0 0.019803243348363427 0.0082671797530725673 0 0.020438784244626147 0.0081540656284728296 0 0.019803243348363427 0.0082671797530725673 0 0.020045667467428915 0.0087899980378454007 0 0.020438784244626147 0.0081540656284728296 0 0.021078827136812087 0.008071639916355863 0 0.020438784244626147 0.0081540656284728296 0 0.020820561286682436 0.0086469749396158001 0 0.021251168368786238 0.0091766447988649996 0 0.020820561286682436 0.0086469749396158001 0 0.020445640424638159 0.0092722188805257066 0 0.021251168368786238 0.0091766447988649996 0 0.020445640424638159 0.0092722188805257066 0 0.020669402486793529 0.010031562131965531 0 0.020445640424638159 0.0092722188805257066 0 0.019638582867165463 0.0095592763302467746 0 0.020669402486793529 0.010031562131965531 0 0.020045667467428915 0.0087899980378454007 0 0.020445640424638159 0.0092722188805257066 0 0.019638582867165463 0.0095592763302467746 0 0.019638582867165463 0.0095592763302467746 0 0.018982699760636962 0.01020678739606304 0 0.020669402486793529 0.010031562131965531 0 0.020045667467428915 0.0087899980378454007 0 0.019509319172825744 0.009089219632959512 0 0.019638582867165463 0.0095592763302467746 0 0.019509319172825744 0.009089219632959512 0 0.019638582867165463 0.0095592763302467746 0 0.019159956327445542 0.009577685954885071 0 0.01869296211070284 0.0098265956619624228 0 0.019159956327445542 0.009577685954885071 0 0.018982699760636962 0.01020678739606304 0 0.019638582867165463 0.0095592763302467746 0 0.019159956327445542 0.009577685954885071 0 0.018982699760636962 0.01020678739606304 0 0.01869296211070284 0.0098265956619624228 0 0.019159956327445542 0.009577685954885071 0 0.018970794693274708 0.0091655012472910396 0 0.019509319172825744 0.009089219632959512 0 0.019159956327445542 0.009577685954885071 0 0.018970794693274708 0.0091655012472910396 0 0.020109097533282244 0.0096527101087313487 0 0.020584528605159868 0.0095208657990358998 0 0.017811839449341779 0.010886260551176398 0 0.018453201818741025 0.010545035549898754 0 0.01831684369195825 0.010656795350435974 0 0.018982699760636962 0.01020678739606304 0 0.019208835458046084 0.010172926273204414 0 0.018982699760636962 0.01020678739606304 0 0.019208835458046084 0.010172926273204414 0 0.01941880428942936 0.010062995632968929 0 0.019115162418056147 0.01017133480790966 0 0.019208835458046084 0.010172926273204414 0 0.019191422098719272 0.010189501710048121 0 0.019208835458046084 0.010172926273204414 0 0.019191422098719272 0.010189501710048121 0 0.019267646852836797 0.010197318932553736 0 0.019267646852836797 0.010197318932553736 0 0.01941880428942936 0.010062995632968929 0 0.019387085671651247 0.010230367492667465 0 0.019208835458046084 0.010172926273204414 0 0.019267646852836797 0.010197318932553736 0 0.01941880428942936 0.010062995632968929 0 0.019267646852836797 0.010197318932553736 0 0.019387085671651247 0.010230367492667465 0 0.019199575580216899 0.010220528201365087 0 0.019207950163719897 0.010279021853066391 0 0.019387085671651247 0.010230367492667465 0 0.019199575580216899 0.010220528201365087 0 0.020833327514476006 0.010008943313608611 0 0.021234198395908618 0.0096737779628606555 0 0.019115162418056147 0.01017133480790966 0 0.019191422098719272 0.010189501710048121 0 0.019199575580216899 0.010220528201365087 0 0.019191422098719272 0.010189501710048121 0 0.019267646852836797 0.010197318932553736 0 0.019199575580216899 0.010220528201365087 0 0.019173774202220224 0.010242889242169205 0 0.019137285970363141 0.010218672263780872 0 0.019199575580216899 0.010220528201365087 0 0.023258327333535372 0.0086349450315688116 0 0.023612928511634258 0.0088779352863249186 0 0.023353302858197925 0.0091880423999785039 0 0.023612928511634258 0.0088779352863249186 0 0.023353302858197925 0.0091880423999785039 0 0.02391666226463765 0.0092479687949530778 0 0.023258327333535372 0.0086349450315688116 0 0.022785025729029709 0.0092380699568939857 0 0.023353302858197925 0.0091880423999785039 0 0.021836511885382454 0.0091401266142808017 0 0.021234198395908618 0.0096737779628606555 0 0.01959782902300845 0.01003060659240052 0 0.01941880428942936 0.010062995632968929 0 0.019387085671651247 0.010230367492667465 0 0.022893224556691932 0.0096651210180155132 0 0.022785025729029709 0.0092380699568939857 0 0.023153448410676149 0.0094846823764841021 0 0.022785025729029709 0.0092380699568939857 0 0.023153448410676149 0.0094846823764841021 0 0.023353302858197925 0.0091880423999785039 0 0.023402221252465404 0.0097486219075044161 0 0.023153448410676149 0.0094846823764841021 0 0.023353302858197925 0.0091880423999785039 0 0.023402221252465404 0.0097486219075044161 0 0.023353302858197925 0.0091880423999785039 0 0.02391666226463765 0.0092479687949530778 0 0.023021841106254059 0.0092365199392544263 0 0.023578978717219493 0.0089442109918938806 0 0.023612928511634258 0.0088779352863249186 0 0.02391666226463765 0.0092479687949530778 0 0.02394647069055365 0.0087769897293872752 0 0.023612928511634258 0.0088779352863249186 0 0.02394647069055365 0.0087769897293872752 0 0.023727937970168089 0.0085764923255245047 0 0.024050099866024639 0.0086418995042171435 0 0.024401643152282052 0.0086947504635738158 0 0.024485477521668225 0.0087661393416239002 0 0.02391666226463765 0.0092479687949530778 0 0.02394647069055365 0.0087769897293872752 0 0.024401643152282052 0.0086947504635738158 0 0.023578978717219493 0.0089442109918938806 0 0.023811627551667245 0.0088069518743972963 0 0.024427441701982754 0.0089299676867894175 0 0.024050099866024639 0.0086418995042171435 0 0.024485477521668225 0.0087661393416239002 0 0.024719536984204923 0.0089613435818023807 0 0.024427441701982754 0.0089299676867894175 0 0.024485477521668225 0.0087661393416239002 0 0.024719536984204923 0.0089613435818023807 0 0.024485477521668225 0.0087661393416239002 0 0.024726822154514751 0.0087197305827137698 0 0.027693601199083224 0.007418121932359632 0 0.027197419810634317 0.007160615771938275 0 0.024401643152282052 0.0086947504635738158 0 0.024485477521668225 0.0087661393416239002 0 0.024726822154514751 0.0087197305827137698 0 0.024401643152282052 0.0086947504635738158 0 0.024921383341916216 0.0083640524366548775 0 0.024481032166364984 0.0082974823336082488 0 0.024401643152282052 0.0086947504635738158 0 0.024726822154514751 0.0087197305827137698 0 0.024921383341916216 0.0083640524366548775 0 0.027197419810634317 0.007160615771938275 0 0.026621399020353036 0.0065125070328312749 0 0.02990810751070961 0.0069859178378010737 0 0.028141924671352549 0.0061942768562348559 0 0.029664625772661934 0.0063589369042115927 0 0.028141924671352549 0.0061942768562348559 0 0.027995614257703142 0.0052948431687616562 0 0.029664625772661934 0.0063589369042115927 0 0.026621399020353036 0.0065125070328312749 0 0.026097752681308203 0.0056441167766589683 0 0.028141924671352549 0.0061942768562348559 0 0.027995614257703142 0.0052948431687616562 0 0.026407028297147053 0.0045763299069892655 0 0.024921383341916216 0.0083640524366548775 0 0.024759059045301179 0.007785161997657648 0 0.024481032166364984 0.0082974823336082488 0 0.024921383341916216 0.0083640524366548775 0 0.024759059045301179 0.007785161997657648 0 0.025235138980949683 0.0071862816142637936 0 0.024759059045301179 0.007785161997657648 0 0.024481032166364984 0.0082974823336082488 0 0.024266963292025483 0.0077815641116575325 0 0.024481032166364984 0.0082974823336082488 0 0.024143257136165122 0.0082468864020088135 0 0.024266963292025483 0.0077815641116575325 0 0.024143257136165122 0.0082468864020088135 0 0.024266963292025483 0.0077815641116575325 0 0.023700364184456049 0.0082343401702523814 0 0.024143257136165122 0.0082468864020088135 0 0.023700364184456049 0.0082343401702523814 0 0.02411486011512581 0.0085858644853917341 0 0.024266963292025483 0.0077815641116575325 0 0.023689607978358052 0.0077430892387874654 0 0.023700364184456049 0.0082343401702523814 0 0.023689607978358052 0.0077430892387874654 0 0.023283469714896182 0.0081770738018089265 0 0.023700364184456049 0.0082343401702523814 0 0.022906471243183218 0.008349399854480995 0 0.023283469714896182 0.0081770738018089265 0 0.022990687098418405 0.0078786294617973138 0 0.023689607978358052 0.0077430892387874654 0 0.023283469714896182 0.0081770738018089265 0 0.022990687098418405 0.0078786294617973138 0 0.022906471243183218 0.008349399854480995 0 0.023283469714896182 0.0081770738018089265 0 0.02334678032879178 0.0085301148255750078 0 0.023283469714896182 0.0081770738018089265 0 0.023700364184456049 0.0082343401702523814 0 0.02334678032879178 0.0085301148255750078 0 0.022678558680096578 0.008971500974083637 0 0.022981994245292986 0.0089099584163354149 0 0.02334678032879178 0.0085301148255750078 0 0.023117623783942391 0.0089750795207384475 0 0.02411486011512581 0.0085858644853917341 0 0.02394647069055365 0.0087769897293872752 0 0.023727937970168089 0.0085764923255245047 0 0.02411486011512581 0.0085858644853917341 0 0.023700364184456049 0.0082343401702523814 0 0.02334678032879178 0.0085301148255750078 0 0.02411486011512581 0.0085858644853917341 0 0.022906471243183218 0.008349399854480995 0 0.02334678032879178 0.0085301148255750078 0 0.023117623783942391 0.0089750795207384475 0 0.02394647069055365 0.0087769897293872752 0 0.024401643152282052 0.0086947504635738158 0 0.02411486011512581 0.0085858644853917341 0 0.024401643152282052 0.0086947504635738158 0 0.024481032166364984 0.0082974823336082488 0 0.02411486011512581 0.0085858644853917341 0 0.024481032166364984 0.0082974823336082488 0 0.024143257136165122 0.0082468864020088135 0 0.02411486011512581 0.0085858644853917341 0 0.031451193697986657 0.0069759135379403783 0 0.031009419032407049 0.006788341843691475 0 0.031096556924026721 0.0068798678669565166 0 0.032089664302030883 0.0062767755465350308 0 0.031950576503849887 0.0061932651635422283 0 0.033101290388986036 0.0058258979771873744 0 0.032677028338933184 0.0050774059083124176 0 0.032863647312067042 0.0053324441648071623 0 0.031009419032407049 0.006788341843691475 0 0.031096556924026721 0.0068798678669565166 0 0.030973652335148649 0.0068628579372491307 0 0.031451193697986657 0.0069759135379403783 0 0.031096556924026721 0.0068798678669565166 0 0.031191483961395143 0.0067448682656225537 0 0.031096556924026721 0.0068798678669565166 0 0.030973652335148649 0.0068628579372491307 0 0.03076539914776507 0.0067020723946932138 0 0.030973652335148649 0.0068628579372491307 0 0.030477982214493674 0.0068969994719037878 0 0.03076539914776507 0.0067020723946932138 0 0.031078945955559656 0.006708258758219259 0 0.030973652335148649 0.0068628579372491307 0 0.030477982214493674 0.0068969994719037878 0 0.031078945955559656 0.006708258758219259 0 0.02990810751070961 0.0069859178378010737 0 0.030477982214493674 0.0068969994719037878 0 0.02990810751070961 0.0069859178378010737 0 0.030477982214493674 0.0068969994719037878 0 0.029664625772661934 0.0063589369042115927 0 0.030477982214493674 0.0068969994719037878 0 0.029664625772661934 0.0063589369042115927 0 0.03076539914776507 0.0067020723946932138 0 0.029664625772661934 0.0063589369042115927 0 0.029693501530913977 0.0053517896770584666 0 0.030626893334219245 0.0058466751331742181 0 0.027995614257703142 0.0052948431687616562 0 0.029664625772661934 0.0063589369042115927 0 0.029693501530913977 0.0053517896770584666 0 0.029050246001871966 0.006383449545549107 0 0.028684023887371297 0.0064541867909304294 0 0.029693501530913977 0.0053517896770584666 0 0.030626893334219245 0.0058466751331742181 0 0.030613157170760033 0.0046955710449151939 0 0.030781326441531115 0.0064775651390513514 0 0.031268502849085542 0.0062696161843624303 0 0.030774383615843278 0.0061301110299433921 0 0.030781326441531115 0.0064775651390513514 0 0.03076539914776507 0.0067020723946932138 0 0.031191483961395143 0.0067448682656225537 0 0.029050246001871966 0.006383449545549107 0 0.029169470664479554 0.0064401100120135705 0 0.029664625772661934 0.0063589369042115927 0 0.030626893334219245 0.0058466751331742181 0 0.03076539914776507 0.0067020723946932138 0 0.031096556924026721 0.0068798678669565166 0 0.03076539914776507 0.0067020723946932138 0 0.031191483961395143 0.0067448682656225537 0 0.031191483961395143 0.0067448682656225537 0 0.031268502849085542 0.0062696161843624303 0 0.031678310009664354 0.0067984900275632459 0 0.030781326441531115 0.0064775651390513514 0 0.031191483961395143 0.0067448682656225537 0 0.031268502849085542 0.0062696161843624303 0 0.029940587372167676 0.0069735960436597385 0 0.030644360543561455 0.0072249814970448811 0 0.02929507264246348 0.0087644467203626363 0 0.03076644337192851 0.0087265510783691852 0 0.030712164967933008 0.0082128541036507428 0 0.031268502849085542 0.0062696161843624303 0 0.031678310009664354 0.0067984900275632459 0 0.032114950455479178 0.0065810869795884441 0 0.031451193697986657 0.0069759135379403783 0 0.031191483961395143 0.0067448682656225537 0 0.031678310009664354 0.0067984900275632459 0 0.029602425488700058 0.0076000295735056799 0 0.030121057211761202 0.0079569920443183124 0 0.030501202008988971 0.0075480793384387424 0 0.029602425488700058 0.0076000295735056799 0 0.030121057211761202 0.0079569920443183124 0 0.028919882477784983 0.0079571393873102362 0 0.02929507264246348 0.0087644467203626363 0 0.030121057211761202 0.0079569920443183124 0 0.030712164967933008 0.0082128541036507428 0 0.02929507264246348 0.0087644467203626363 0 0.030121057211761202 0.0079569920443183124 0 0.028919882477784983 0.0079571393873102362 0 0.02929507264246348 0.0087644467203626363 0 0.028919882477784983 0.0079571393873102362 0 0.028253579412176266 0.0085721312298252406 0 0.029940587372167676 0.0069735960436597385 0 0.028684023887371297 0.0064541867909304294 0 0.028919882477784983 0.0079571393873102362 0 0.028135270191595223 0.0076604193417803114 0 0.028253579412176266 0.0085721312298252406 0 0.027626978402446191 0.0061826969494845688 0 0.028684023887371297 0.0064541867909304294 0 0.024977851327238933 0.0049509622693914845 0 0.024926069695340874 0.0041334203517339853 0 0.025456881975850398 0.0042521244814693543 0 0.027995614257703142 0.0052948431687616562 0 0.029693501530913977 0.0053517896770584666 0 0.029088405559670714 0.0043490111292434691 0 0.028684023887371297 0.0064541867909304294 0 0.027825749873004513 0.0058642139096982291 0 0.029693501530913977 0.0053517896770584666 0 0.030613157170760033 0.0046955710449151939 0 0.029088405559670714 0.0043490111292434691 0 0.024977851327238933 0.0049509622693914845 0 0.025456881975850398 0.0042521244814693543 0 0.025582694412251722 0.0048262698085969067 0 0.024977851327238933 0.0049509622693914845 0 0.025582694412251722 0.0048262698085969067 0 0.025358439378894173 0.0051291297714781041 0 0.024977851327238933 0.0049509622693914845 0 0.025053203993996076 0.0053269806900351907 0 0.025358439378894173 0.0051291297714781041 0 0.025053203993996076 0.0053269806900351907 0 0.025358439378894173 0.0051291297714781041 0 0.025076940376613829 0.0053431804711122311 0 0.027626978402446191 0.0061826969494845688 0 0.026987714558503646 0.0059088620039628292 0 0.028135270191595223 0.0076604193417803114 0 0.027708699300902442 0.0070531727425020597 0 0.028703495793264852 0.007204367814854804 0 0.029602425488700058 0.0076000295735056799 0 0.028919882477784983 0.0079571393873102362 0 0.028703495793264852 0.007204367814854804 0 0.028919882477784983 0.0079571393873102362 0 0.028135270191595223 0.0076604193417803114 0 0.028703495793264852 0.007204367814854804 0 0.027708699300902442 0.0070531727425020597 0 0.028703495793264852 0.007204367814854804 0 0.027889433911207472 0.0066013748283578616 0 0.028703495793264852 0.007204367814854804 0 0.028994979276720505 0.0067512099054728601 0 0.029868608316663412 0.0071332461857320506 0 0.029602425488700058 0.0076000295735056799 0 0.028703495793264852 0.007204367814854804 0 0.029868608316663412 0.0071332461857320506 0 0.024841216605974208 0.006471048369464139 0 0.023976729286327998 0.0062232054111707319 0 0.02540946610710431 0.0052699516499071135 0 0.024841216605974208 0.006471048369464139 0 0.023976729286327998 0.0062232054111707319 0 0.024638763462720623 0.0071481631153155556 0 0.022602064115193304 0.0074097349357079975 0 0.022818907694455881 0.0069265620722962652 0 0.023415355758595734 0.0070647807825314785 0 0.022818907694455881 0.0069265620722962652 0 0.023415355758595734 0.0070647807825314785 0 0.023272300730991909 0.0065222882860195164 0 0.023689607978358052 0.0077430892387874654 0 0.022990687098418405 0.0078786294617973138 0 0.023976729286327998 0.0062232054111707319 0 0.022602064115193304 0.0074097349357079975 0 0.022990687098418405 0.0078786294617973138 0 0.023415355758595734 0.0070647807825314785 0 0.02357845337513427 0.0070845925473697344 0 0.023874859258258396 0.0066222202190661271 0 0.023689607978358052 0.0077430892387874654 0 0.023976729286327998 0.0062232054111707319 0 0.024154362568246521 0.0072455658999440262 0 0.024266963292025483 0.0077815641116575325 0 0.023689607978358052 0.0077430892387874654 0 0.024154362568246521 0.0072455658999440262 0 0.024266963292025483 0.0077815641116575325 0 0.024154362568246521 0.0072455658999440262 0 0.024638763462720623 0.0071481631153155556 0 0.023976729286327998 0.0062232054111707319 0 0.024154362568246521 0.0072455658999440262 0 0.024638763462720623 0.0071481631153155556 0 0.024759059045301179 0.007785161997657648 0 0.024266963292025483 0.0077815641116575325 0 0.024638763462720623 0.0071481631153155556 0 0.024759059045301179 0.007785161997657648 0 0.024638763462720623 0.0071481631153155556 0 0.025235138980949683 0.0071862816142637936 0 0.024841216605974208 0.006471048369464139 0 0.024638763462720623 0.0071481631153155556 0 0.025235138980949683 0.0071862816142637936 0 0.025456881975850398 0.0042521244814693543 0 0.026568578769424169 0.0044440707067345394 0 0.025582694412251722 0.0048262698085969067 0 0.027995614257703142 0.0052948431687616562 0 0.029088405559670714 0.0043490111292434691 0 0.026568578769424169 0.0044440707067345394 0 0.027825749873004513 0.0058642139096982291 0 0.027549932489315355 0.0056876144724312856 0 0.027995614257703142 0.0052948431687616562 0 0.026407028297147053 0.0045763299069892655 0 0.026568578769424169 0.0044440707067345394 0 0.025582694412251722 0.0048262698085969067 0 0.025886949198783447 0.0049328284413415694 0 0.025358439378894173 0.0051291297714781041 0 0.026568578769424169 0.0044440707067345394 0 0.025582694412251722 0.0048262698085969067 0 0.025886949198783447 0.0049328284413415694 0 0.024841216605974208 0.006471048369464139 0 0.025235138980949683 0.0071862816142637936 0 0.02540946610710431 0.0052699516499071135 0 0.026407028297147053 0.0045763299069892655 0 0.025886949198783447 0.0049328284413415694 0 0.02540946610710431 0.0052699516499071135 0 0.026407028297147053 0.0045763299069892655 0 0.026568578769424169 0.0044440707067345394 0 0.025886949198783447 0.0049328284413415694 0 0.026097752681308203 0.0056441167766589683 0 0.02587573817479101 0.0052355129982911757 0 0.025886949198783447 0.0049328284413415694 0 0.025436867014724591 0.005091931502221354 0 0.02540946610710431 0.0052699516499071135 0 0.025436867014724591 0.005091931502221354 0 0.025388827734708255 0.0049162487071548683 0 0.02540946610710431 0.0052699516499071135 0 0.025886949198783447 0.0049328284413415694 0 0.025436867014724591 0.005091931502221354 0 0.025358439378894173 0.0051291297714781041 0 0.025436867014724591 0.005091931502221354 0 0.024850714325728725 0.0053021658347335264 0 0.025076940376613829 0.0053431804711122311 0 0.025436867014724591 0.005091931502221354 0 0.025358439378894173 0.0051291297714781041 0 0.025076940376613829 0.0053431804711122311 0 0.025436867014724591 0.005091931502221354 0 0.025388827734708255 0.0049162487071548683 0 0.024850714325728725 0.0053021658347335264 0 0.024069980833041266 0.0062144035642514323 0 0.024149754145279718 0.005423156688196735 0 0.024850714325728725 0.0053021658347335264 0 0.024382764088552659 0.0058654678967379817 0 0.024598594968064106 0.005539464982661441 0 0.02385892325466716 0.0058734357117373667 0 0.024069980833041266 0.0062144035642514323 0 0.024149754145279718 0.005423156688196735 0 0.023619560161999904 0.0057202028881494383 0 0.02385892325466716 0.0058734357117373667 0 0.024149754145279718 0.005423156688196735 0 0.023619560161999904 0.0057202028881494383 0 0.023498972722355731 0.005345919381378645 0 0.024149754145279718 0.005423156688196735 0 0.02385892325466716 0.0058734357117373667 0 0.024069980833041266 0.0062144035642514323 0 0.02359792713496927 0.0061337873571560087 0 0.023619560161999904 0.0057202028881494383 0 0.02385892325466716 0.0058734357117373667 0 0.02359792713496927 0.0061337873571560087 0 0.023874859258258396 0.0066222202190661271 0 0.024382764088552659 0.0058654678967379817 0 0.024069980833041266 0.0062144035642514323 0 0.02359792713496927 0.0061337873571560087 0 0.023272300730991909 0.0065222882860195164 0 0.023415355758595734 0.0070647807825314785 0 0.024069980833041266 0.0062144035642514323 0 0.023272300730991909 0.0065222882860195164 0 0.023976729286327998 0.0062232054111707319 0 0.025388827734708255 0.0049162487071548683 0 0.02540946610710431 0.0052699516499071135 0 0.022575651458279489 0.0065262683561183778 0 0.023272300730991909 0.0065222882860195164 0 0.023077128952782005 0.0061958827641230068 0 0.022575651458279489 0.0065262683561183778 0 0.022818907694455881 0.0069265620722962652 0 0.023272300730991909 0.0065222882860195164 0 0.02359792713496927 0.0061337873571560087 0 0.023272300730991909 0.0065222882860195164 0 0.023077128952782005 0.0061958827641230068 0 0.02359792713496927 0.0061337873571560087 0 0.023077128952782005 0.0061958827641230068 0 0.023304556501557862 0.0059083504771507596 0 0.022574511165790657 0.0061246898620710578 0 0.023077128952782005 0.0061958827641230068 0 0.022881671382573101 0.005818001961202619 0 0.023077128952782005 0.0061958827641230068 0 0.022881671382573101 0.005818001961202619 0 0.023304556501557862 0.0059083504771507596 0 0.022881671382573101 0.005818001961202619 0 0.023304556501557862 0.0059083504771507596 0 0.023215250838008301 0.0056162113057968682 0 0.023619560161999904 0.0057202028881494383 0 0.02359792713496927 0.0061337873571560087 0 0.023304556501557862 0.0059083504771507596 0 0.023619560161999904 0.0057202028881494383 0 0.023215250838008301 0.0056162113057968682 0 0.023498972722355731 0.005345919381378645 0 0.023619560161999904 0.0057202028881494383 0 0.023304556501557862 0.0059083504771507596 0 0.023215250838008301 0.0056162113057968682 0 0.022823450860939596 0.0055173064359076056 0 0.022881671382573101 0.005818001961202619 0 0.023215250838008301 0.0056162113057968682 0 0.022823450860939596 0.0055173064359076056 0 0.023215250838008301 0.0056162113057968682 0 0.023058591770500972 0.0052948011234458378 0 0.023058591770500972 0.0052948011234458378 0 0.022937284826713485 0.0050240556677937764 0 0.022633413167034259 0.0052446483125637867 0 0.023058591770500972 0.0052948011234458378 0 0.023263099891317626 0.0050728962301343867 0 0.022937284826713485 0.0050240556677937764 0 0.023058591770500972 0.0052948011234458378 0 0.023498972722355731 0.005345919381378645 0 0.023263099891317626 0.0050728962301343867 0 0.023215250838008301 0.0056162113057968682 0 0.023058591770500972 0.0052948011234458378 0 0.023498972722355731 0.005345919381378645 0 0.023263099891317626 0.0050728962301343867 0 0.023101655683879604 0.0047120582504324429 0 0.023666252956634024 0.0049896460936389503 0 0.023498972722355731 0.005345919381378645 0 0.023263099891317626 0.0050728962301343867 0 0.023666252956634024 0.0049896460936389503 0 0.023263099891317626 0.0050728962301343867 0 0.022937284826713485 0.0050240556677937764 0 0.023101655683879604 0.0047120582504324429 0 0.023101655683879604 0.0047120582504324429 0 0.023631793528333136 0.0044804813086908564 0 0.023004427095746734 0.0043566447997195681 0 0.023101655683879604 0.0047120582504324429 0 0.023666252956634024 0.0049896460936389503 0 0.023631793528333136 0.0044804813086908564 0 0.023666252956634024 0.0049896460936389503 0 0.024249494728092898 0.0049538710931494156 0 0.023631793528333136 0.0044804813086908564 0 0.024249494728092898 0.0049538710931494156 0 0.024130587529913563 0.0047437696129114838 0 0.023631793528333136 0.0044804813086908564 0 0.023666252956634024 0.0049896460936389503 0 0.024149754145279718 0.005423156688196735 0 0.024249494728092898 0.0049538710931494156 0 0.023498972722355731 0.005345919381378645 0 0.023666252956634024 0.0049896460936389503 0 0.024149754145279718 0.005423156688196735 0 0.024149754145279718 0.005423156688196735 0 0.024850714325728725 0.0053021658347335264 0 0.024249494728092898 0.0049538710931494156 0 0.024850714325728725 0.0053021658347335264 0 0.025076940376613829 0.0053431804711122311 0 0.024748596853054233 0.0051722691501999325 0 0.024850714325728725 0.0053021658347335264 0 0.024748596853054233 0.0051722691501999325 0 0.024249494728092898 0.0049538710931494156 0 0.024748596853054233 0.0051722691501999325 0 0.024249494728092898 0.0049538710931494156 0 0.024130587529913563 0.0047437696129114838 0 0.024130587529913563 0.0047437696129114838 0 0.024209708623987455 0.00476303213943463 0 0.0237524130654342 0.0044144568959118748 0 0.024748596853054233 0.0051722691501999325 0 0.024130587529913563 0.0047437696129114838 0 0.024209708623987455 0.00476303213943463 0 0.024748596853054233 0.0051722691501999325 0 0.024209708623987455 0.00476303213943463 0 0.024400284657955903 0.00484034679500086 0 0.024209708623987455 0.00476303213943463 0 0.024400284657955903 0.00484034679500086 0 0.02381074448508259 0.0044932774734914079 0 0.024209708623987455 0.00476303213943463 0 0.0237524130654342 0.0044144568959118748 0 0.02381074448508259 0.0044932774734914079 0 0.0237524130654342 0.0044144568959118748 0 0.023719725066167111 0.004378053652918561 0 0.02381074448508259 0.0044932774734914079 0 0.0237524130654342 0.0044144568959118748 0 0.023606260700676496 0.0042950010476910218 0 0.023719725066167111 0.004378053652918561 0 0.0237524130654342 0.0044144568959118748 0 0.023606260700676496 0.0042950010476910218 0 0.023312402147109165 0.0041114458442682621 0 0.023631793528333136 0.0044804813086908564 0 0.023312402147109165 0.0041114458442682621 0 0.023004427095746734 0.0043566447997195681 0 0.0237524130654342 0.0044144568959118748 0 0.023631793528333136 0.0044804813086908564 0 0.023312402147109165 0.0041114458442682621 0 0.024130587529913563 0.0047437696129114838 0 0.0237524130654342 0.0044144568959118748 0 0.023631793528333136 0.0044804813086908564 0 0.028674088733197715 0.0063801381503892866 0 0.027889433911207472 0.0066013748283578616 0 0.02743781025604089 0.0061067600626647043 0 0.028674088733197715 0.0063801381503892866 0 0.028994979276720505 0.0067512099054728601 0 0.027889433911207472 0.0066013748283578616 0 0.028703495793264852 0.007204367814854804 0 0.028994979276720505 0.0067512099054728601 0 0.027889433911207472 0.0066013748283578616 0 0.027889433911207472 0.0066013748283578616 0 0.026856156796220696 0.0065253348937608048 0 0.02743781025604089 0.0061067600626647043 0 0.026592878385863696 0.005565160619130813 0 0.026436990436397245 0.0053393764910996669 0 0.027708699300902442 0.0070531727425020597 0 0.027889433911207472 0.0066013748283578616 0 0.026856156796220696 0.0065253348937608048 0 0.026987714558503646 0.0059088620039628292 0 0.026592878385863696 0.005565160619130813 0 0.025053203993996076 0.0053269806900351907 0 0.025076940376613829 0.0053431804711122311 0 0.025158007372558411 0.0053599270357551467 0 0.024748596853054233 0.0051722691501999325 0 0.025158007372558411 0.0053599270357551467 0 0.025475631413738906 0.0054399406234463795 0 0.025076940376613829 0.0053431804711122311 0 0.024748596853054233 0.0051722691501999325 0 0.025158007372558411 0.0053599270357551467 0 0.024748596853054233 0.0051722691501999325 0 0.024400284657955903 0.00484034679500086 0 0.025475631413738906 0.0054399406234463795 0 0.024400284657955903 0.00484034679500086 0 0.025475631413738906 0.0054399406234463795 0 0.025078952716750254 0.0049787280573695457 0 0.025475631413738906 0.0054399406234463795 0 0.026837593256404182 0.0054884131246160008 0 0.025078952716750254 0.0049787280573695457 0 0.026856156796220696 0.0065253348937608048 0 0.025475631413738906 0.0054399406234463795 0 0.02743781025604089 0.0061067600626647043 0 0.025475631413738906 0.0054399406234463795 0 0.02743781025604089 0.0061067600626647043 0 0.026837593256404182 0.0054884131246160008 0 0.026837593256404182 0.0054884131246160008 0 0.025877509850313472 0.0049730317631711965 0 0.025078952716750254 0.0049787280573695457 0 0.026837593256404182 0.0054884131246160008 0 0.027592966291607981 0.0053887269260563964 0 0.026630286121472186 0.0050281587041769568 0 0.026837593256404182 0.0054884131246160008 0 0.027592966291607981 0.0053887269260563964 0 0.028105498039600923 0.0059622207139586837 0 0.02743781025604089 0.0061067600626647043 0 0.026837593256404182 0.0054884131246160008 0 0.028105498039600923 0.0059622207139586837 0 0.028674088733197715 0.0063801381503892866 0 0.02743781025604089 0.0061067600626647043 0 0.028105498039600923 0.0059622207139586837 0 0.027078579182990028 0.0040199879263071768 0 0.026969598699932335 0.0046826804289129198 0 0.026447153484778455 0.0032687184940908103 0 0.02303255439827567 0.0064249975441261851 0 0.022301755260974054 0.0074481413374529034 0 0.027078579182990028 0.0040199879263071768 0 0.026969598699932335 0.0046826804289129198 0 0.027736117579064443 0.0047706552615475392 0 0.027592966291607981 0.0053887269260563964 0 0.026969598699932335 0.0046826804289129198 0 0.027736117579064443 0.0047706552615475392 0 0.027592966291607981 0.0053887269260563964 0 0.026630286121472186 0.0050281587041769568 0 0.026969598699932335 0.0046826804289129198 0 0.026837593256404182 0.0054884131246160008 0 0.026630286121472186 0.0050281587041769568 0 0.025877509850313472 0.0049730317631711965 0 0.026630286121472186 0.0050281587041769568 0 0.026969598699932335 0.0046826804289129198 0 0.025606668359902232 0.004592207461602711 0 0.026630286121472186 0.0050281587041769568 0 0.025877509850313472 0.0049730317631711965 0 0.025606668359902232 0.004592207461602711 0 0.026969598699932335 0.0046826804289129198 0 0.025606668359902232 0.004592207461602711 0 0.025700201698299546 0.0039112145172877019 0 0.025877509850313472 0.0049730317631711965 0 0.025606668359902232 0.004592207461602711 0 0.024538525479657909 0.0046497844239739936 0 0.025606668359902232 0.004592207461602711 0 0.024538525479657909 0.0046497844239739936 0 0.024033410276205258 0.0043444002090062724 0 0.025877509850313472 0.0049730317631711965 0 0.024538525479657909 0.0046497844239739936 0 0.025078952716750254 0.0049787280573695457 0 0.024400284657955903 0.00484034679500086 0 0.025078952716750254 0.0049787280573695457 0 0.023863267158812918 0.0046180973531247558 0 0.024538525479657909 0.0046497844239739936 0 0.025078952716750254 0.0049787280573695457 0 0.023863267158812918 0.0046180973531247558 0 0.024538525479657909 0.0046497844239739936 0 0.023863267158812918 0.0046180973531247558 0 0.023044813561075485 0.0045075019009046847 0 0.024538525479657909 0.0046497844239739936 0 0.024033410276205258 0.0043444002090062724 0 0.023044813561075485 0.0045075019009046847 0 0.021477213733206865 0.004395286988283442 0 0.024033410276205258 0.0043444002090062724 0 0.023044813561075485 0.0045075019009046847 0 0.020878661533478123 0.0071212291694909731 0 0.020273235365252888 0.0078460552864204457 0 0.021477213733206865 0.004395286988283442 0 0.024033410276205258 0.0043444002090062724 0 0.024215774517610967 0.0028704332327538426 0 0.025606668359902232 0.004592207461602711 0 0.024033410276205258 0.0043444002090062724 0 0.025700201698299546 0.0039112145172877019 0 0.022301755260974054 0.0074481413374529034 0 0.020273235365252888 0.0078460552864204457 0 0.021583122056621065 0.0081219775936369337 0 0.021133450987239968 0.0068509780242372422 0 0.020661916617306944 0.0069871898759875121 0 0.022301755260974054 0.0074481413374529034 0 0.019412159391079025 0.0088841325857388111 0 0.023312397466775079 0.010298452785737138 0 0.023188212131627438 0.010582891241705972 0 0.023459904631961039 0.010747909722388973 0 0.024033410276205258 0.0043444002090062724 0 0.025700201698299546 0.0039112145172877019 0 0.024215774517610967 0.0028704332327538426 0 0.023188212131627438 0.010582891241705972 0 0.022910260183188622 0.010414237302439884 0 0.023046904288275927 0.010883648215954868 0 0.023312397466775079 0.010298452785737138 0 0.023188212131627438 0.010582891241705972 0 0.022910260183188622 0.010414237302439884 0 0.023108346188675421 0.010033979962691732 0 0.023312397466775079 0.010298452785737138 0 0.022910260183188622 0.010414237302439884 0 0.023962804300478702 0.0073744315424324192 0 0.022301755260974054 0.0074481413374529034 0 0.023743510038591695 0.004459262552482096 0 0.024283052845294563 0.0048111782675910493 0 0.023920307833693033 0.0044295844110792794 0 0.023606260700676496 0.0042950010476910218 0 0.023719725066167111 0.004378053652918561 0 0.023920307833693033 0.0044295844110792794 0 0.023743510038591695 0.004459262552482096 0 0.023719725066167111 0.004378053652918561 0 0.023920307833693033 0.0044295844110792794 0 0.023743510038591695 0.004459262552482096 0 0.023719725066167111 0.004378053652918561 0 0.02381074448508259 0.0044932774734914079 0 0.024400284657955903 0.00484034679500086 0 0.023863267158812918 0.0046180973531247558 0 0.02381074448508259 0.0044932774734914079 0 0.023863267158812918 0.0046180973531247558 0 0.02381074448508259 0.0044932774734914079 0 0.023496920443173464 0.0044950789305372787 0 0.023863267158812918 0.0046180973531247558 0 0.023496920443173464 0.0044950789305372787 0 0.023044813561075485 0.0045075019009046847 0 0.023743510038591695 0.004459262552482096 0 0.023496920443173464 0.0044950789305372787 0 0.023238844875014795 0.004638976948032174 0 0.023743510038591695 0.004459262552482096 0 0.02381074448508259 0.0044932774734914079 0 0.023496920443173464 0.0044950789305372787 0 0.023496920443173464 0.0044950789305372787 0 0.023238844875014795 0.004638976948032174 0 0.023044813561075485 0.0045075019009046847 0 0.023238844875014795 0.004638976948032174 0 0.023044813561075485 0.0045075019009046847 0 0.022530283146355128 0.0047760600391883127 0 0.021477213733206865 0.004395286988283442 0 0.023044813561075485 0.0045075019009046847 0 0.022530283146355128 0.0047760600391883127 0 0.021477213733206865 0.004395286988283442 0 0.022530283146355128 0.0047760600391883127 0 0.02197583524630985 0.0059945399376499422 0 0.023238844875014795 0.004638976948032174 0 0.023037798898487671 0.0056066903803159984 0 0.023945837840360543 0.0052046918256545838 0 0.022530283146355128 0.0047760600391883127 0 0.023037798898487671 0.0056066903803159984 0 0.02197583524630985 0.0059945399376499422 0 0.023238844875014795 0.004638976948032174 0 0.022530283146355128 0.0047760600391883127 0 0.023037798898487671 0.0056066903803159984 0 0.023037798898487671 0.0056066903803159984 0 0.023757907168935735 0.0060033928164941663 0 0.023945837840360543 0.0052046918256545838 0 0.023757907168935735 0.0060033928164941663 0 0.023945837840360543 0.0052046918256545838 0 0.024466656481706341 0.0059544033924900435 0 0.023743510038591695 0.004459262552482096 0 0.023238844875014795 0.004638976948032174 0 0.023945837840360543 0.0052046918256545838 0 0.023743510038591695 0.004459262552482096 0 0.023945837840360543 0.0052046918256545838 0 0.024283052845294563 0.0048111782675910493 0 0.02159707671213627 0.0089422605648992806 0 0.023270764034322038 0.0098300128646237033 0 0.023945837840360543 0.0052046918256545838 0 0.024283052845294563 0.0048111782675910493 0 0.024652306869009825 0.0059034339414866591 0 0.023945837840360543 0.0052046918256545838 0 0.024466656481706341 0.0059544033924900435 0 0.024652306869009825 0.0059034339414866591 0 0.01753023166507164 0.01239644555410045 0 0.017403104379607983 0.012268470696294732 0 0.017629860486558506 0.01211163750144828 0 0.017403104379607983 0.012268470696294732 0 0.017424881559410115 0.012109688072004129 0 0.017629860486558506 0.01211163750144828 0 0.017403104379607983 0.012268470696294732 0 0.017225842111530769 0.012113116922437727 0 0.017424881559410115 0.012109688072004129 0 0.017403104379607983 0.012268470696294732 0 0.0172262809205916 0.012342399578293448 0 0.017225842111530769 0.012113116922437727 0 0.0172262809205916 0.012342399578293448 0 0.017327412741443667 0.012481261680669946 0 0.017141065298346327 0.012493466290235839 0 0.017403104379607983 0.012268470696294732 0 0.0172262809205916 0.012342399578293448 0 0.017327412741443667 0.012481261680669946 0 0.01753023166507164 0.01239644555410045 0 0.017403104379607983 0.012268470696294732 0 0.017327412741443667 0.012481261680669946 0 0.017327412741443667 0.012481261680669946 0 0.017215594740334173 0.012717595338155632 0 0.017438289225113805 0.012678540411225916 0 0.01753023166507164 0.01239644555410045 0 0.017327412741443667 0.012481261680669946 0 0.017438289225113805 0.012678540411225916 0 0.02159707671213627 0.0089422605648992806 0 0.020264394080343296 0.0079674036413929731 0 0.017215594740334173 0.012717595338155632 0 0.017006844295436838 0.012583924094724402 0 0.01703121071475169 0.012341444187225228 0 0.014565622747731934 0.014988557372561296 0 0.014419886069288235 0.015821584675661051 0 0.017327412741443667 0.012481261680669946 0 0.017215594740334173 0.012717595338155632 0 0.017141065298346327 0.012493466290235839 0 0.017215594740334173 0.012717595338155632 0 0.016968438037196183 0.01281193914226203 0 0.017348277471847539 0.013038119371432821 0 0.020264394080343296 0.0079674036413929731 0 0.019033400910203727 0.005824078451811647 0 0.017215594740334173 0.012717595338155632 0 0.017438289225113805 0.012678540411225916 0 0.017348277471847539 0.013038119371432821 0 0.016278419166834274 0.0072492288604996949 0 0.01291605454220026 0.010098752939291012 0 0.015818902436898489 -0.0035573425146635603 0 0.019240089403129702 -0.0037364056605881592 0 0.015892442020209903 -0.0061607458180644144 0 0.016968438037196183 0.01281193914226203 0 0.016809530570258437 0.012459244622685505 0 0.017006844295436838 0.012583924094724402 0 0.017215594740334173 0.012717595338155632 0 0.016968438037196183 0.01281193914226203 0 0.017006844295436838 0.012583924094724402 0 0.016968438037196183 0.01281193914226203 0 0.016809530570258437 0.012459244622685505 0 0.016509371762957119 0.012508311206122776 0 0.016809530570258437 0.012459244622685505 0 0.017006844295436838 0.012583924094724402 0 0.01703121071475169 0.012341444187225228 0 0.016809530570258437 0.012459244622685505 0 0.01703121071475169 0.012341444187225228 0 0.016716179222059063 0.012163924391404199 0 0.016809530570258437 0.012459244622685505 0 0.016509371762957119 0.012508311206122776 0 0.016716179222059063 0.012163924391404199 0 0.01291605454220026 0.010098752939291012 0 0.01337061816892062 0.010319732553832754 0 0.016378703169822862 0.012678709453643296 0 0.016514543277393628 0.01216776075592014 0 0.016127520675861241 0.012496823591098804 0 0.011303899509425749 0.017819764533445744 0 0.010758805234355543 0.013567790718864372 0 0.016378703169822862 0.012678709453643296 0 0.016514543277393628 0.01216776075592014 0 0.016716179222059063 0.012163924391404199 0 0.00028206793769057167 0.032046980798750194 0 0.0029619568548569708 0.031657858876179015 0 0.0042116338748047853 0.028308699651406234 0 0.016514543277393628 0.01216776075592014 0 0.016716179222059063 0.012163924391404199 0 0.016842586928249061 0.011916369504914176 0 0.00028206793769057167 0.032046980798750194 0 -0.0033813105157606375 0.035520289480698297 0 0.0003917526116444967 0.03570441507930628 0 0.011303899509425749 0.017819764533445744 0 0.01438270801711939 0.019505957854396905 0 0.00028206793769057167 0.032046980798750194 0 0.0020643275958343501 0.034227183698700279 0 0.0029619568548569708 0.031657858876179015 0 0.00028206793769057167 0.032046980798750194 0 0.0020643275958343501 0.034227183698700279 0 0.0003917526116444967 0.03570441507930628 0 0.0172262809205916 0.012342399578293448 0 0.017141065298346327 0.012493466290235839 0 0.017044068757878381 0.012279644276210385 0 0.01703121071475169 0.012341444187225228 0 0.016716179222059063 0.012163924391404199 0 0.016842586928249061 0.011916369504914176 0 0.014419886069288235 0.015821584675661051 0 0.01438270801711939 0.019505957854396905 0 0.01438270801711939 0.019505957854396905 0 0.020677232044581634 0.015516188456806742 0 0.014854668953617887 0.0194186217767492 0 0.014866599114842449 0.019447677332214301 0 0.014838182102243892 0.019437121978455766 0 0.0172262809205916 0.012342399578293448 0 0.017044068757878381 0.012279644276210385 0 0.017225842111530769 0.012113116922437727 0 0.01438270801711939 0.019505957854396905 0 0.014051184110132361 0.022270411882576124 0 0.002004307226198751 0.036151469132853116 0 0.0003917526116444967 0.03570441507930628 0 0.0016032076061669586 0.037812350798619498 0 0.0020643275958343501 0.034227183698700279 0 0.002004307226198751 0.036151469132853116 0 0.003380984646843898 0.035634892275513856 0 0.0020643275958343501 0.034227183698700279 0 0.002004307226198751 0.036151469132853116 0 0.0003917526116444967 0.03570441507930628 0 -0.0033813105157606375 0.035520289480698297 0 0.0003917526116444967 0.03570441507930628 0 -0.00030919334160412344 0.03755541942530246 0 -0.00030919334160412344 0.03755541942530246 0 0.00077542124756060612 0.038751136492170164 0 -0.001231199105299395 0.039917199813266829 0 -0.0033813105157606375 0.035520289480698297 0 -0.00030919334160412344 0.03755541942530246 0 -0.001231199105299395 0.039917199813266829 0 0.00077542124756060612 0.038751136492170164 0 0.0022592223703589709 0.038812284844812882 0 0.0012767190471044587 0.03992937677705817 0 0.0003917526116444967 0.03570441507930628 0 -0.00030919334160412344 0.03755541942530246 0 0.0016032076061669586 0.037812350798619498 0 -0.00030919334160412344 0.03755541942530246 0 0.00077542124756060612 0.038751136492170164 0 0.0016032076061669586 0.037812350798619498 0 0.002004307226198751 0.036151469132853116 0 0.0016032076061669586 0.037812350798619498 0 0.0026228491291538283 0.037314441403177287 0 0.0016032076061669586 0.037812350798619498 0 0.0024548062568271879 0.038175170432620587 0 0.0026228491291538283 0.037314441403177287 0 0.0016032076061669586 0.037812350798619498 0 0.0024548062568271879 0.038175170432620587 0 0.0022592223703589709 0.038812284844812882 0 0.00077542124756060612 0.038751136492170164 0 0.0016032076061669586 0.037812350798619498 0 0.0022592223703589709 0.038812284844812882 0 0.0033182129063003283 0.038729941935691937 0 0.0026228491291538283 0.037314441403177287 0 0.003380984646843898 0.035634892275513856 0 0.0033182129063003283 0.038729941935691937 0 0.0041826949352262366 0.038598040159112681 0 0.0038973680240801229 0.037444092734146082 0 0.0033182129063003283 0.038729941935691937 0 0.003380984646843898 0.035634892275513856 0 0.0055984097030407536 0.033574320641926642 0 0.0013355696078154995 0.030540527749897659 0 0.0017452113093548815 0.028305986883874656 0 0.0022592223703589709 0.038812284844812882 0 0.0033182129063003283 0.038729941935691937 0 0.0032104567245162846 0.03964357103934394 0 0.0024548062568271879 0.038175170432620587 0 0.0022592223703589709 0.038812284844812882 0 0.0033182129063003283 0.038729941935691937 0 0.0024548062568271879 0.038175170432620587 0 0.0033182129063003283 0.038729941935691937 0 0.0026228491291538283 0.037314441403177287 0 0.002004307226198751 0.036151469132853116 0 0.0026228491291538283 0.037314441403177287 0 0.003380984646843898 0.035634892275513856 0 0.0041826949352262366 0.038598040159112681 0 0.0050544260551636739 0.038197482244419108 0 0.0038973680240801229 0.037444092734146082 0 0.0033182129063003283 0.038729941935691937 0 0.0041826949352262366 0.038598040159112681 0 0.0039155275449410595 0.039288615249212677 0 0.0041826949352262366 0.038598040159112681 0 0.0046862957850342252 0.039379688500614393 0 0.0039155275449410595 0.039288615249212677 0 0.0050544260551636739 0.038197482244419108 0 0.0067592957138422104 0.037545689065640764 0 0.0057045678285628908 0.039270644179453286 0 0.0050544260551636739 0.038197482244419108 0 0.0057045678285628908 0.039270644179453286 0 0.0046862957850342252 0.039379688500614393 0 0.0041826949352262366 0.038598040159112681 0 0.0050544260551636739 0.038197482244419108 0 0.0046862957850342252 0.039379688500614393 0 0.0051544880076152154 0.037000719861111801 0 0.0067592957138422104 0.037545689065640764 0 0.0051190257362525044 0.035474312720747046 0 0.0050544260551636739 0.038197482244419108 0 0.0051544880076152154 0.037000719861111801 0 0.0067592957138422104 0.037545689065640764 0 0.0051544880076152154 0.037000719861111801 0 0.0038973680240801229 0.037444092734146082 0 0.004467665448486524 0.035930330290140471 0 0.0050544260551636739 0.038197482244419108 0 0.0051544880076152154 0.037000719861111801 0 0.0038973680240801229 0.037444092734146082 0 0.0017452113093548815 0.028305986883874656 0 0.0028616677349063997 0.021637904742311576 0 0.0029619568548569708 0.031657858876179015 0 0.0055984097030407536 0.033574320641926642 0 0.0076099001638808127 0.028435079559856632 0 0.0023720727076465523 0.022848405636815197 0 0.0028616677349063997 0.021637904742311576 0 0.0020643275958343501 0.034227183698700279 0 0.0029619568548569708 0.031657858876179015 0 0.0035869274457207214 0.033729049490253259 0 0.0029619568548569708 0.031657858876179015 0 0.0035869274457207214 0.033729049490253259 0 0.0055984097030407536 0.033574320641926642 0 0.0020643275958343501 0.034227183698700279 0 0.003380984646843898 0.035634892275513856 0 0.0035869274457207214 0.033729049490253259 0 0.003380984646843898 0.035634892275513856 0 0.0035869274457207214 0.033729049490253259 0 0.0055984097030407536 0.033574320641926642 0 -0.020353767378649312 0.019104720451599146 0 -0.020934349961097585 0.019177155931365823 0 -0.020939430191033677 0.018453408928819935 0 0.0067592957138422104 0.037545689065640764 0 0.0068726907607805704 0.040190588579203199 0 0.00841624550095341 0.0396608668040083 0 -0.020934349961097585 0.019177155931365823 0 -0.020939430191033677 0.018453408928819935 0 -0.021241034196598337 0.01884330816011168 0 -0.0037135711715037996 0.027720987795418751 0 -0.0071094451975878842 0.038084642078475089 0 0.0067592957138422104 0.037545689065640764 0 0.0068726907607805704 0.040190588579203199 0 0.0057045678285628908 0.039270644179453286 0 -0.0037135711715037996 0.027720987795418751 0 0.0032485567846745199 0.019528292475239205 0 -0.020934349961097585 0.019177155931365823 0 -0.020753736551237193 0.019699172066523295 0 -0.021165436496071666 0.019692755766518376 0 -0.020353767378649312 0.019104720451599146 0 -0.020934349961097585 0.019177155931365823 0 -0.020753736551237193 0.019699172066523295 0 -0.020753736551237193 0.019699172066523295 0 -0.020999562219565379 0.020141732579574054 0 -0.021165436496071666 0.019692755766518376 0 -0.020753736551237193 0.019699172066523295 0 -0.020647339819261579 0.020019478708842214 0 -0.020299125508844509 0.019872508894924815 0 -0.020753736551237193 0.019699172066523295 0 -0.020647339819261579 0.020019478708842214 0 -0.020999562219565379 0.020141732579574054 0 -0.020353767378649312 0.019104720451599146 0 -0.020299125508844509 0.019872508894924815 0 -0.019687105416938938 0.019829226339596225 0 -0.020353767378649312 0.019104720451599146 0 -0.020753736551237193 0.019699172066523295 0 -0.020299125508844509 0.019872508894924815 0 -0.020299125508844509 0.019872508894924815 0 -0.020538832424745471 0.020372732519890011 0 -0.019687105416938938 0.019829226339596225 0 0.0076697476336644492 0.0030787916377098537 0 0.0085602409785879054 0.0029446522514293321 0 0.0078702369263496611 0.0036052942880446734 0 0.0062489274903070532 0.013323148302712319 0 0.0087242930495062786 0.0095612201283241764 0 -0.002729351871804224 0.016244566270435089 0 0.0032485567846745199 0.019528292475239205 0 -0.020647339819261579 0.020019478708842214 0 -0.020299125508844509 0.019872508894924815 0 -0.020538832424745471 0.020372732519890011 0 -0.020538832424745471 0.020372732519890011 0 -0.020999562219565379 0.020141732579574054 0 -0.021476301780759464 0.020857118369747209 0 -0.020647339819261579 0.020019478708842214 0 -0.020538832424745471 0.020372732519890011 0 -0.020999562219565379 0.020141732579574054 0 0.010758805234355543 0.013567790718864372 0 0.0052288168476612813 0.015432039814638459 0 0.0085327167745489797 0.004650066952799339 0 0.0085697366182016406 0.0045949638625993484 0 0.0085421797825892647 0.0045904742968271928 0 0.0042116338748047853 0.028308699651406234 0 0.0077561530783357641 0.02830620143072294 0 0.0083097859319476806 0.024538782143384855 0 0.0085010720709419573 0.0046196106828348144 0 0.0085327167745489797 0.004650066952799339 0 0.0085421797825892647 0.0045904742968271928 0 0.0029619568548569708 0.031657858876179015 0 0.0042116338748047853 0.028308699651406234 0 0.0077561530783357641 0.02830620143072294 0 0.01291605454220026 0.010098752939291012 0 0.010758805234355543 0.013567790718864372 0 0.0051544880076152154 0.037000719861111801 0 0.004467665448486524 0.035930330290140471 0 0.0051190257362525044 0.035474312720747046 0 0.0028616677349063997 0.021637904742311576 0 0.0032485567846745199 0.019528292475239205 0 0.0077561530783357641 0.02830620143072294 0 0.0089301579476174318 0.025300461372515778 0 0.0083097859319476806 0.024538782143384855 0 0.0085226587090930731 0.0025961602103688843 0 0.0086410978432039653 0.0027403378238502109 0 0.0085602409785879054 0.0029446522514293321 0 0.0028616677349063997 0.021637904742311576 0 0.0045459193737693556 0.016782157924093717 0 0.007800929554380583 0.018309891572574479 0 0.0035703493652110953 0.021209208949362488 0 0.0056470221310889112 0.023757572234074004 0 0.0032485567846745199 0.019528292475239205 0 0.0045459193737693556 0.016782157924093717 0 0.0045459193737693556 0.016782157924093717 0 0.0052288168476612813 0.015432039814638459 0 0.0062489274903070532 0.013323148302712319 0 0.0080681521628146249 0.0076143672859480451 0 0.0085520323601839601 0.0045696914010005764 0 0.0085507879841229695 0.0045546636791265714 0 0.0085548410289277895 0.0045731485431157858 0 0.0085507879841229695 0.0045546636791265714 0 0.0085489100942595635 0.0045497319813752593 0 0.0085548410289277895 0.0045731485431157858 0 0.0052288168476612813 0.015432039814638459 0 0.0051877696469061658 0.015309413175925862 0 0.0076697476336644492 0.0030787916377098537 0 0.0085226587090930731 0.0025961602103688843 0 0.0085602409785879054 0.0029446522514293321 0 0.0085507879841229695 0.0045546636791265714 0 0.0085489100942595635 0.0045497319813752593 0 0.0085188095781403642 0.0045481105877688147 0 0.0038393066937145713 0.011211180038461567 0 0.0057057084778119518 0.013502228753990238 0 0.0013965514845424572 0.017393119353973478 0 0.0045459193737693556 0.016782157924093717 0 0.0062489274903070532 0.013323148302712319 0 0.0052288168476612813 0.015432039814638459 0 0.0062489274903070532 0.013323148302712319 0 0.01291605454220026 0.010098752939291012 0 0.012834614261484328 0.0046133972103226759 0 0.0085421797825892647 0.0045904742968271928 0 0.0085548410289277895 0.0045731485431157858 0 0.0085626910138038789 0.0045354507150116036 0 0.0085010720709419573 0.0046196106828348144 0 0.0085421797825892647 0.0045904742968271928 0 0.0085626910138038789 0.0045354507150116036 0 0.015818902436898489 -0.0035573425146635603 0 0.015892442020209903 -0.0061607458180644144 0 0.013682470319292329 -0.0027141733220271552 0 0.0085489100942595635 0.0045497319813752593 0 0.0085548410289277895 0.0045731485431157858 0 0.0085626910138038789 0.0045354507150116036 0 0.0085697366182016406 0.0045949638625993484 0 0.0085421797825892647 0.0045904742968271928 0 0.0085548410289277895 0.0045731485431157858 0 0.015102082755683087 -0.0015727182990192914 0 0.013682470319292329 -0.0027141733220271552 0 0.013950329261507445 -7.5570183821726554e-05 0 0.015818902436898489 -0.0035573425146635603 0 0.015102082755683087 -0.0015727182990192914 0 0.013682470319292329 -0.0027141733220271552 0 0.0085188095781403642 0.0045481105877688147 0 0.0084616930515945422 0.004548922289446926 0 0.0085160512454744881 0.0047294055334504391 0 0.0085489100942595635 0.0045497319813752593 0 0.0085626910138038789 0.0045354507150116036 0 0.0085188095781403642 0.0045481105877688147 0 0.0085626910138038789 0.0045354507150116036 0 0.0085188095781403642 0.0045481105877688147 0 0.0085160512454744881 0.0047294055334504391 0 0.0085507879841229695 0.0045546636791265714 0 0.0085188095781403642 0.0045481105877688147 0 0.0084616930515945422 0.004548922289446926 0 0.012834614261484328 0.0046133972103226759 0 0.011317074670658915 0.0042131641382378762 0 0.011572561870596932 0.00071178009124714544 0 0.013950329261507445 -7.5570183821726554e-05 0 0.013069441815931152 0.0016400121021531433 0 0.013682470319292329 -0.0027141733220271552 0 0.011572561870596932 0.00071178009124714544 0 0.013950329261507445 -7.5570183821726554e-05 0 0.013950329261507445 -7.5570183821726554e-05 0 0.014656599600284509 0.0016972800233033558 0 0.013069441815931152 0.0016400121021531433 0 0.013950329261507445 -7.5570183821726554e-05 0 0.014656599600284509 0.0016972800233033558 0 0.016091230298681022 0.0001889716437618951 0 0.015102082755683087 -0.0015727182990192914 0 0.013950329261507445 -7.5570183821726554e-05 0 0.016091230298681022 0.0001889716437618951 0 0.0078702369263496611 0.0036052942880446734 0 0.0073105057030281514 0.0043113584429775864 0 0.0064119215506407562 0.0036179362192520015 0 -0.002729351871804224 0.016244566270435089 0 -0.0058581414850678946 0.014520989336411456 0 0.0076697476336644492 0.0030787916377098537 0 0.0078702369263496611 0.0036052942880446734 0 0.0064119215506407562 0.0036179362192520015 0 0.0088641197806582969 0.002776086350560173 0 0.0084658522645348691 0.0037573534550881843 0 0.0078702369263496611 0.0036052942880446734 0 0.0084658522645348691 0.0037573534550881843 0 0.0078702369263496611 0.0036052942880446734 0 0.0079309768397328052 0.0041693724786266038 0 0.0080681521628146249 0.0076143672859480451 0 0.008377023023348423 0.0064930569618823148 0 0.0084616930515945422 0.004548922289446926 0 0.0085160512454744881 0.0047294055334504391 0 0.0081306459444158291 0.0049119250483033632 0 0.0084658522645348691 0.0037573534550881843 0 0.0079309768397328052 0.0041693724786266038 0 0.0081306459444158291 0.0049119250483033632 0 0.0079309768397328052 0.0041693724786266038 0 0.0073105057030281514 0.0043113584429775864 0 0.0081306459444158291 0.0049119250483033632 0 0.0078702369263496611 0.0036052942880446734 0 0.0079309768397328052 0.0041693724786266038 0 0.0073105057030281514 0.0043113584429775864 0 0.0073105057030281514 0.0043113584429775864 0 0.0075416246087584076 0.0052210380729000808 0 0.006807966429939436 0.0048671339803152093 0 0.0073105057030281514 0.0043113584429775864 0 0.0075416246087584076 0.0052210380729000808 0 0.0081306459444158291 0.0049119250483033632 0 0.0075416246087584076 0.0052210380729000808 0 0.0070600129052272604 0.0060087267720852133 0 0.006807966429939436 0.0048671339803152093 0 0.0075416246087584076 0.0052210380729000808 0 0.0081281078179721421 0.0056937513139367684 0 0.0070600129052272604 0.0060087267720852133 0 0.011317074670658915 0.0042131641382378762 0 0.0098708879522878667 0.0052565239677545188 0 0.0075416246087584076 0.0052210380729000808 0 0.0081306459444158291 0.0049119250483033632 0 0.0081281078179721421 0.0056937513139367684 0 0.0085160512454744881 0.0047294055334504391 0 0.0081306459444158291 0.0049119250483033632 0 0.0081281078179721421 0.0056937513139367684 0 0.0098421166746683521 0.0065069985851248305 0 0.0096056745931757791 0.003918984480333388 0 0.012015550519714079 0.0051530923069433429 0 0.0091518879473909409 0.0060610046234430082 0 0.0098708879522878667 0.0052565239677545188 0 0.0076723772386642292 0.0071390358484029939 0 0.0081281078179721421 0.0056937513139367684 0 0.0070600129052272604 0.0060087267720852133 0 0.013292139958752039 0.0034127414566045918 0 0.01522914588180076 0.003445357237614426 0 0.014656599600284509 0.0016972800233033558 0 0.013292139958752039 0.0034127414566045918 0 0.014656599600284509 0.0016972800233033558 0 0.013069441815931152 0.0016400121021531433 0 0.011572561870596932 0.00071178009124714544 0 0.0096056745931757791 0.003918984480333388 0 0.011906093605643481 0.00298101063712653 0 0.011572561870596932 0.00071178009124714544 0 0.013069441815931152 0.0016400121021531433 0 0.011906093605643481 0.00298101063712653 0 0.013292139958752039 0.0034127414566045918 0 0.013069441815931152 0.0016400121021531433 0 0.011906093605643481 0.00298101063712653 0 0.013292139958752039 0.0034127414566045918 0 0.011906093605643481 0.00298101063712653 0 0.012015550519714079 0.0051530923069433429 0 0.0096056745931757791 0.003918984480333388 0 0.011906093605643481 0.00298101063712653 0 0.012015550519714079 0.0051530923069433429 0 0.014049983138917524 0.0069781518434886714 0 0.012015550519714079 0.0051530923069433429 0 0.014136183943785453 0.0047997008662409475 0 0.014049983138917524 0.0069781518434886714 0 0.014136183943785453 0.0047997008662409475 0 0.016139752238146825 0.0049077436059984927 0 0.013292139958752039 0.0034127414566045918 0 0.012015550519714079 0.0051530923069433429 0 0.014136183943785453 0.0047997008662409475 0 0.013292139958752039 0.0034127414566045918 0 0.01522914588180076 0.003445357237614426 0 0.014136183943785453 0.0047997008662409475 0 0.01522914588180076 0.003445357237614426 0 0.014136183943785453 0.0047997008662409475 0 0.016139752238146825 0.0049077436059984927 0 0.016826696457800338 0.0064864053404754081 0 0.016139752238146825 0.0049077436059984927 0 0.017483601480051975 0.0045435934395131267 0 0.016139752238146825 0.0049077436059984927 0 0.017483601480051975 0.0045435934395131267 0 0.016841916476029863 0.0034707387801102426 0 0.01522914588180076 0.003445357237614426 0 0.016139752238146825 0.0049077436059984927 0 0.016841916476029863 0.0034707387801102426 0 0.01522914588180076 0.003445357237614426 0 0.016841916476029863 0.0034707387801102426 0 0.016305873575254502 0.0020750461441319847 0 0.016841916476029863 0.0034707387801102426 0 0.017412120408875371 0.002523893646714227 0 0.018422256663167533 0.0031728461132209717 0 0.017483601480051975 0.0045435934395131267 0 0.016841916476029863 0.0034707387801102426 0 0.018422256663167533 0.0031728461132209717 0 0.016841916476029863 0.0034707387801102426 0 0.017412120408875371 0.002523893646714227 0 0.016305873575254502 0.0020750461441319847 0 0.017412120408875371 0.002523893646714227 0 0.016305873575254502 0.0020750461441319847 0 0.017996273474227543 0.0014783021484657695 0 0.01522914588180076 0.003445357237614426 0 0.014656599600284509 0.0016972800233033558 0 0.016305873575254502 0.0020750461441319847 0 0.019269792639149203 0.0024455494260815121 0 0.020495508325691806 0.0028384984121618819 0 0.019923710532758206 0.0013306751161544772 0 0.019269792639149203 0.0024455494260815121 0 0.017996273474227543 0.0014783021484657695 0 0.019923710532758206 0.0013306751161544772 0 0.017412120408875371 0.002523893646714227 0 0.018422256663167533 0.0031728461132209717 0 0.017996273474227543 0.0014783021484657695 0 0.019269792639149203 0.0024455494260815121 0 0.018422256663167533 0.0031728461132209717 0 0.017996273474227543 0.0014783021484657695 0 0.018422256663167533 0.0031728461132209717 0 0.019586331248967932 0.0034331718567147383 0 0.019228325189948714 0.0042172582536083138 0 0.019269792639149203 0.0024455494260815121 0 0.018422256663167533 0.0031728461132209717 0 0.019586331248967932 0.0034331718567147383 0 0.019586331248967932 0.0034331718567147383 0 0.020354233365459874 0.003897232258170142 0 0.020495508325691806 0.0028384984121618819 0 0.019269792639149203 0.0024455494260815121 0 0.019586331248967932 0.0034331718567147383 0 0.020495508325691806 0.0028384984121618819 0 0.019586331248967932 0.0034331718567147383 0 0.019228325189948714 0.0042172582536083138 0 0.020354233365459874 0.003897232258170142 0 0.019228325189948714 0.0042172582536083138 0 0.021028742126910124 0.0047001265381301435 0 0.020354233365459874 0.003897232258170142 0 0.019228325189948714 0.0042172582536083138 0 0.018439887226071133 0.0053819761544860092 0 0.021028742126910124 0.0047001265381301435 0 0.018316431304486614 0.007759127262811966 0 0.018439887226071133 0.0053819761544860092 0 0.021028742126910124 0.0047001265381301435 0 0.017483601480051975 0.0045435934395131267 0 0.019228325189948714 0.0042172582536083138 0 0.018439887226071133 0.0053819761544860092 0 0.017483601480051975 0.0045435934395131267 0 0.018422256663167533 0.0031728461132209717 0 0.019228325189948714 0.0042172582536083138 0 0.016826696457800338 0.0064864053404754081 0 0.017483601480051975 0.0045435934395131267 0 0.018439887226071133 0.0053819761544860092 0 0.021525540625825408 0.0054862931819955269 0 0.021838149305305841 0.0050871161470955033 0 0.021028742126910124 0.0047001265381301435 0 0.021838149305305841 0.0050871161470955033 0 0.021675509412274675 0.0046187033244949873 0 0.021028742126910124 0.0047001265381301435 0 0.021838149305305841 0.0050871161470955033 0 0.021973250974178623 0.0047647964763369906 0 0.021675509412274675 0.0046187033244949873 0 0.021973250974178623 0.0047647964763369906 0 0.021675509412274675 0.0046187033244949873 0 0.021971394849822481 0.0043643127034261138 0 0.021675509412274675 0.0046187033244949873 0 0.021028742126910124 0.0047001265381301435 0 0.021412744053749509 0.0041719221665001789 0 0.021028742126910124 0.0047001265381301435 0 0.020354233365459874 0.003897232258170142 0 0.021412744053749509 0.0041719221665001789 0 0.022633413167034259 0.0052446483125637867 0 0.022248137461331051 0.0050004785685042142 0 0.02260185751184899 0.0048367563529873705 0 0.022823450860939596 0.0055173064359076056 0 0.023058591770500972 0.0052948011234458378 0 0.022633413167034259 0.0052446483125637867 0 0.02196329807925558 0.0055856577800305739 0 0.021838149305305841 0.0050871161470955033 0 0.022267169060898172 0.0053037256863774336 0 0.022633413167034259 0.0052446483125637867 0 0.022267169060898172 0.0053037256863774336 0 0.022248137461331051 0.0050004785685042142 0 0.021838149305305841 0.0050871161470955033 0 0.022267169060898172 0.0053037256863774336 0 0.022248137461331051 0.0050004785685042142 0 0.022251775577038668 0.0046759075073167337 0 0.02260185751184899 0.0048367563529873705 0 0.022491471283588312 0.0044589284761185717 0 0.021973250974178623 0.0047647964763369906 0 0.022248137461331051 0.0050004785685042142 0 0.022251775577038668 0.0046759075073167337 0 0.021838149305305841 0.0050871161470955033 0 0.021973250974178623 0.0047647964763369906 0 0.022248137461331051 0.0050004785685042142 0 0.021973250974178623 0.0047647964763369906 0 0.022251775577038668 0.0046759075073167337 0 0.021971394849822481 0.0043643127034261138 0 0.022248137461331051 0.0050004785685042142 0 0.022251775577038668 0.0046759075073167337 0 0.02260185751184899 0.0048367563529873705 0 0.022937284826713485 0.0050240556677937764 0 0.023101655683879604 0.0047120582504324429 0 0.02260185751184899 0.0048367563529873705 0 0.022937284826713485 0.0050240556677937764 0 0.022633413167034259 0.0052446483125637867 0 0.02260185751184899 0.0048367563529873705 0 0.022491471283588312 0.0044589284761185717 0 0.023004427095746734 0.0043566447997195681 0 0.022139230231691863 0.004069776516753886 0 0.023101655683879604 0.0047120582504324429 0 0.02260185751184899 0.0048367563529873705 0 0.022491471283588312 0.0044589284761185717 0 0.023101655683879604 0.0047120582504324429 0 0.022491471283588312 0.0044589284761185717 0 0.023004427095746734 0.0043566447997195681 0 0.022251775577038668 0.0046759075073167337 0 0.022491471283588312 0.0044589284761185717 0 0.021971394849822481 0.0043643127034261138 0 0.022491471283588312 0.0044589284761185717 0 0.021971394849822481 0.0043643127034261138 0 0.022139230231691863 0.004069776516753886 0 0.02006108127609051 0.004161524283599464 0 0.01989283450011255 0.0043138035618794429 0 0.021412744053749509 0.0041719221665001789 0 0.021971394849822481 0.0043643127034261138 0 0.022139230231691863 0.004069776516753886 0 0.021412744053749509 0.0041719221665001789 0 0.020495508325691806 0.0028384984121618819 0 0.021992875972439315 0.0012282541361579033 0 0.020354233365459874 0.003897232258170142 0 0.021412744053749509 0.0041719221665001789 0 0.020495508325691806 0.0028384984121618819 0 0.021675509412274675 0.0046187033244949873 0 0.021412744053749509 0.0041719221665001789 0 0.021971394849822481 0.0043643127034261138 0 0.020495508325691806 0.0028384984121618819 0 0.021992875972439315 0.0012282541361579033 0 0.019923710532758206 0.0013306751161544772 0 0.01989283450011255 0.0043138035618794429 0 0.019033400910203727 0.005824078451811647 0 0.021992875972439315 0.0012282541361579033 0 0.020444080956460022 -0.00060291756883749362 0 0.019923710532758206 0.0013306751161544772 0 0.021992875972439315 0.0012282541361579033 0 0.020444080956460022 -0.00060291756883749362 0 0.022666839171658217 -0.0012788063026553064 0 0.023312402147109165 0.0041114458442682621 0 0.022139230231691863 0.004069776516753886 0 0.022456828697477581 0.0033309087344070695 0 0.023312402147109165 0.0041114458442682621 0 0.023004427095746734 0.0043566447997195681 0 0.022139230231691863 0.004069776516753886 0 0.019778965118037162 0.0059528189443472674 0 0.019033400910203727 0.005824078451811647 0 0.023606260700676496 0.0042950010476910218 0 0.023312402147109165 0.0041114458442682621 0 0.023726039554560159 0.0042450705848471049 0 0.023606260700676496 0.0042950010476910218 0 0.023920307833693033 0.0044295844110792794 0 0.023726039554560159 0.0042450705848471049 0 0.019240089403129702 -0.0037364056605881592 0 0.020444080956460022 -0.00060291756883749362 0 0.022666839171658217 -0.0012788063026553064 0 0.016278419166834274 0.0072492288604996949 0 0.019033400910203727 0.005824078451811647 0 0.019240089403129702 -0.0037364056605881592 0 0.016687969409865354 -0.0018873541855509229 0 0.018414091451823916 -0.00049108212138230644 0 0.019240089403129702 -0.0037364056605881592 0 0.020444080956460022 -0.00060291756883749362 0 0.018414091451823916 -0.00049108212138230644 0 0.015818902436898489 -0.0035573425146635603 0 0.019240089403129702 -0.0037364056605881592 0 0.016687969409865354 -0.0018873541855509229 0 0.015818902436898489 -0.0035573425146635603 0 0.015102082755683087 -0.0015727182990192914 0 0.016687969409865354 -0.0018873541855509229 0 0.015102082755683087 -0.0015727182990192914 0 0.016687969409865354 -0.0018873541855509229 0 0.016091230298681022 0.0001889716437618951 0 0.016687969409865354 -0.0018873541855509229 0 0.016091230298681022 0.0001889716437618951 0 0.018414091451823916 -0.00049108212138230644 0 0.014656599600284509 0.0016972800233033558 0 0.016305873575254502 0.0020750461441319847 0 0.016091230298681022 0.0001889716437618951 0 0.016305873575254502 0.0020750461441319847 0 0.016091230298681022 0.0001889716437618951 0 0.017996273474227543 0.0014783021484657695 0 0.016091230298681022 0.0001889716437618951 0 0.017996273474227543 0.0014783021484657695 0 0.018414091451823916 -0.00049108212138230644 0 0.017996273474227543 0.0014783021484657695 0 0.019923710532758206 0.0013306751161544772 0 0.018414091451823916 -0.00049108212138230644 0 0.020444080956460022 -0.00060291756883749362 0 0.019923710532758206 0.0013306751161544772 0 0.018414091451823916 -0.00049108212138230644 0 0.035162882553891377 0.0072360602173098003 0 0.035115734073768924 0.007921269190028439 0 0.035052377466620203 0.0078404249695265809 0 0.035162882553891377 0.0072360602173098003 0 0.035052377466620203 0.0078404249695265809 0 0.035037021568458095 0.0072948019261562108 0 0.035162882553891377 0.0072360602173098003 0 0.034998895347300309 0.0075467238031606716 0 0.035000167214821375 0.0054834861001680727 0 0.035162882553891377 0.0072360602173098003 0 0.034998895347300309 0.0075467238031606716 0 0.035115734073768924 0.007921269190028439 0 0.034998895347300309 0.0075467238031606716 0 0.035107712708149476 0.0085733118247638771 0 0.035115734073768924 0.007921269190028439 0 0.035107712708149476 0.0085733118247638771 0 0.035115734073768924 0.007921269190028439 0 0.0349898779108389 0.0082961957980771731 0 0.034998895347300309 0.0075467238031606716 0 0.035107712708149476 0.0085733118247638771 0 0.034999716092244761 0.009616490260827823 0 0.035115734073768924 0.007921269190028439 0 0.035052377466620203 0.0078404249695265809 0 0.0349898779108389 0.0082961957980771731 0 0.035052377466620203 0.0078404249695265809 0 0.035005254034290251 0.0082876471630792398 0 0.0349898779108389 0.0082961957980771731 0 0.035052377466620203 0.0078404249695265809 0 0.03503655531549716 0.0081726590537808171 0 0.034963244142483189 0.0075111046862101627 0 0.035052377466620203 0.0078404249695265809 0 0.03503655531549716 0.0081726590537808171 0 0.035005254034290251 0.0082876471630792398 0 0.03503655531549716 0.0081726590537808171 0 0.034963244142483189 0.0075111046862101627 0 0.035139280961649227 0.0083142889745982471 0 0.034963244142483189 0.0075111046862101627 0 0.035037021568458095 0.0072948019261562108 0 0.034887237715957337 0.0070985914403130347 0 0.035052377466620203 0.0078404249695265809 0 0.034963244142483189 0.0075111046862101627 0 0.035037021568458095 0.0072948019261562108 0 0.034887237715957337 0.0070985914403130347 0 0.034930300718191407 0.0069761723448021739 0 0.03508386720633918 0.0066955109438652698 0 0.035037021568458095 0.0072948019261562108 0 0.034887237715957337 0.0070985914403130347 0 0.03508386720633918 0.0066955109438652698 0 0.034887237715957337 0.0070985914403130347 0 0.034543687663953083 0.0072236444866979272 0 0.034674697491471493 0.0071857431095076292 0 0.034963244142483189 0.0075111046862101627 0 0.034887237715957337 0.0070985914403130347 0 0.034543687663953083 0.0072236444866979272 0 0.034963244142483189 0.0075111046862101627 0 0.034543687663953083 0.0072236444866979272 0 0.034097307243725457 0.007047526550076246 0 0.034674697491471493 0.0071857431095076292 0 0.034459950350717125 0.0074152589837393392 0 0.034291139471454027 0.0073033037238382217 0 0.034543687663953083 0.0072236444866979272 0 0.034674697491471493 0.0071857431095076292 0 0.034291139471454027 0.0073033037238382217 0 0.034674697491471493 0.0071857431095076292 0 0.034930300718191407 0.0069761723448021739 0 0.034763999186879391 0.0072762045985053881 0 0.034887237715957337 0.0070985914403130347 0 0.034674697491471493 0.0071857431095076292 0 0.034930300718191407 0.0069761723448021739 0 0.034930300718191407 0.0069761723448021739 0 0.03508386720633918 0.0066955109438652698 0 0.035119361414548654 0.0068720009313273924 0 0.034930300718191407 0.0069761723448021739 0 0.035119361414548654 0.0068720009313273924 0 0.034763999186879391 0.0072762045985053881 0 0.035162882553891377 0.0072360602173098003 0 0.035037021568458095 0.0072948019261562108 0 0.03508386720633918 0.0066955109438652698 0 0.035162882553891377 0.0072360602173098003 0 0.03508386720633918 0.0066955109438652698 0 0.035000167214821375 0.0054834861001680727 0 0.034999986090873639 0.0054787279846656685 0 0.03500001564307343 0.0034416875286471006 0 0.036174004663057577 0.0043106582419406908 0 0.03508386720633918 0.0066955109438652698 0 0.035000167214821375 0.0054834861001680727 0 0.035119361414548654 0.0068720009313273924 0 0.034999948256759277 0.0054783409493571562 0 0.035179359285066429 0.0050727749661388837 0 0.03500001564307343 0.0034416875286471006 0 0.036174004663057577 0.0043106582419406908 0 0.036179748632107274 0.0026574856663130271 0 0.035119361414548654 0.0068720009313273924 0 0.03489490826230042 0.0075701356357586831 0 0.034763999186879391 0.0072762045985053881 0 0.035179359285066429 0.0050727749661388837 0 0.03547182338607377 0.0042585486648013546 0 0.036174004663057577 0.0043106582419406908 0 0.036179748632107274 0.0026574856663130271 0 0.037377525940107841 0.0031346394108349245 0 0.036179748632107274 0.0026574856663130271 0 0.037177011598219969 0.0020293999127356894 0 0.037377525940107841 0.0031346394108349245 0 0.03500001564307343 0.0034416875286471006 0 0.036179748632107274 0.0026574856663130271 0 0.034999847708240855 0.001404513264312587 0 0.036179748632107274 0.0026574856663130271 0 0.034999847708240855 0.001404513264312587 0 0.036284375354909824 0.0014111526364222965 0 0.036179748632107274 0.0026574856663130271 0 0.037177011598219969 0.0020293999127356894 0 0.036284375354909824 0.0014111526364222965 0 0.037177011598219969 0.0020293999127356894 0 0.036284375354909824 0.0014111526364222965 0 0.037419879423118356 0.00098729645686323423 0 0.036284375354909824 0.0014111526364222965 0 0.036050113297688736 -5.6382020220257709e-05 0 0.037419879423118356 0.00098729645686323423 0 0.035850458999313342 0.0017203327636034216 0 0.035973801199191136 0.0020565838506805723 0 0.036365537783563544 -3.2613205649943859e-05 0 0.036050113297688736 -5.6382020220257709e-05 0 0.036667932011104749 0.00034061904733712051 0 0.035811072457527342 -0.0004032258646776312 0 0.036365537783563544 -3.2613205649943859e-05 0 0.036050113297688736 -5.6382020220257709e-05 0 0.034999847708240855 0.001404513264312587 0 0.036284375354909824 0.0014111526364222965 0 0.036050113297688736 -5.6382020220257709e-05 0 0.034999763237502479 -0.00063326241280504242 0 0.035811072457527342 -0.0004032258646776312 0 0.034999847708240855 0.001404513264312587 0 0.035811072457527342 -0.0004032258646776312 0 0.034999847708240855 0.001404513264312587 0 0.036050113297688736 -5.6382020220257709e-05 0 0.037377207850469843 -9.1592108814596724e-05 0 0.036838933207837918 -0.00017393219429171861 0 0.037060775777638701 0.00018298986297182119 0 0.037377207850469843 -9.1592108814596724e-05 0 0.037060775777638701 0.00018298986297182119 0 0.037321104407798629 0.00035103403374179773 0 0.036838933207837918 -0.00017393219429171861 0 0.037060775777638701 0.00018298986297182119 0 0.036667932011104749 0.00034061904733712051 0 0.036838933207837918 -0.00017393219429171861 0 0.036365537783563544 -3.2613205649943859e-05 0 0.036667932011104749 0.00034061904733712051 0 0.037060775777638701 0.00018298986297182119 0 0.036667932011104749 0.00034061904733712051 0 0.037093534376429101 0.00061276342032512453 0 0.037177011598219969 0.0020293999127356894 0 0.037419879423118356 0.00098729645686323423 0 0.038624034651143224 0.0019225398341728445 0 0.035973801199191136 0.0020565838506805723 0 0.035867797417909492 0.002772948713539689 0 0.037060775777638701 0.00018298986297182119 0 0.037093534376429101 0.00061276342032512453 0 0.037321104407798629 0.00035103403374179773 0 0.037114381900935883 0.00055402082183031085 0 0.037321104407798629 0.00035103403374179773 0 0.037370666464546134 0.00074571830305819316 0 0.035867797417909492 0.002772948713539689 0 0.036219119816684298 0.0023700321496465154 0 0.034532824817855953 0.0080100413776440227 0 0.034519615608395615 0.0076183128216541444 0 0.034238799610710961 0.0078195288936374115 0 0.035867797417909492 0.002772948713539689 0 0.035921100162551872 0.0037121989419533915 0 0.034519615608395615 0.0076183128216541444 0 0.034238198410721309 0.0076044700047834647 0 0.034238799610710961 0.0078195288936374115 0 0.037177011598219969 0.0020293999127356894 0 0.038624034651143224 0.0019225398341728445 0 0.037377525940107841 0.0031346394108349245 0 0.034532824817855953 0.0080100413776440227 0 0.034519615608395615 0.0076183128216541444 0 0.03489490826230042 0.0075701356357586831 0 0.035867797417909492 0.002772948713539689 0 0.03547182338607377 0.0042585486648013546 0 0.034519615608395615 0.0076183128216541444 0 0.03489490826230042 0.0075701356357586831 0 0.034763999186879391 0.0072762045985053881 0 0.034519615608395615 0.0076183128216541444 0 0.034459950350717125 0.0074152589837393392 0 0.034238198410721309 0.0076044700047834647 0 0.034519615608395615 0.0076183128216541444 0 0.034763999186879391 0.0072762045985053881 0 0.034459950350717125 0.0074152589837393392 0 0.034674697491471493 0.0071857431095076292 0 0.034763999186879391 0.0072762045985053881 0 0.034459950350717125 0.0074152589837393392 0 0.034459950350717125 0.0074152589837393392 0 0.034230254781035967 0.007450343422204327 0 0.034291139471454027 0.0073033037238382217 0 0.034459950350717125 0.0074152589837393392 0 0.034230254781035967 0.007450343422204327 0 0.034238198410721309 0.0076044700047834647 0 0.034230254781035967 0.007450343422204327 0 0.033998349103420103 0.0075481099662259897 0 0.03382798953667681 0.0073392956169057661 0 0.033998349103420103 0.0075481099662259897 0 0.033926219340814551 0.0076588776917735583 0 0.034238198410721309 0.0076044700047834647 0 0.035772306250419099 0.0046814652197000994 0 0.035899865875476333 0.0044936668685096881 0 0.034230254781035967 0.007450343422204327 0 0.033998349103420103 0.0075481099662259897 0 0.034238198410721309 0.0076044700047834647 0 0.032710044612036804 0.0070455836610590367 0 0.033253510809666861 0.0073575073540947692 0 0.033080284121396568 0.006901243109394134 0 0.033253510809666861 0.0073575073540947692 0 0.033329936754469228 0.0072416151098560564 0 0.033477268234256265 0.0073647829629770257 0 0.033998349103420103 0.0075481099662259897 0 0.033253510809666861 0.0073575073540947692 0 0.03382798953667681 0.0073392956169057661 0 0.035899865875476333 0.0044936668685096881 0 0.035752439577982305 0.004589994102389197 0 0.033998349103420103 0.0075481099662259897 0 0.033772743281010195 0.0078412005405790811 0 0.033253510809666861 0.0073575073540947692 0 0.033253510809666861 0.0073575073540947692 0 0.033080284121396568 0.006901243109394134 0 0.033329936754469228 0.0072416151098560564 0 0.032710044612036804 0.0070455836610590367 0 0.032705551794041283 0.0063706540141167164 0 0.033080284121396568 0.006901243109394134 0 0.037625797151145363 0.0009418181808991859 0 0.037602889853015159 0.00069930706040846158 0 0.037863103107834833 0.00059260833506694088 0 0.035899865875476333 0.0044936668685096881 0 0.035552851432806738 0.0034589161900988592 0 0.033926219340814551 0.0076588776917735583 0 0.034238198410721309 0.0076044700047834647 0 0.034238799610710961 0.0078195288936374115 0 0.035899865875476333 0.0044936668685096881 0 0.035921100162551872 0.0037121989419533915 0 0.037625797151145363 0.0009418181808991859 0 0.037602889853015159 0.00069930706040846158 0 0.037370666464546134 0.00074571830305819316 0 0.037602889853015159 0.00069930706040846158 0 0.037370666464546134 0.00074571830305819316 0 0.037551263446720932 0.00051771210950724825 0 0.037321104407798629 0.00035103403374179773 0 0.037551263446720932 0.00051771210950724825 0 0.037685278382842607 0.00025782004983837965 0 0.037321104407798629 0.00035103403374179773 0 0.037370666464546134 0.00074571830305819316 0 0.037551263446720932 0.00051771210950724825 0 0.037863103107834833 0.00059260833506694088 0 0.037685278382842607 0.00025782004983837965 0 0.03808805065643335 0.00024858154041130983 0 0.037551263446720932 0.00051771210950724825 0 0.037863103107834833 0.00059260833506694088 0 0.037685278382842607 0.00025782004983837965 0 0.037602889853015159 0.00069930706040846158 0 0.037551263446720932 0.00051771210950724825 0 0.037863103107834833 0.00059260833506694088 0 0.037850453812518912 -7.18542038053205e-05 0 0.037685278382842607 0.00025782004983837965 0 0.03808805065643335 0.00024858154041130983 0 0.037377207850469843 -9.1592108814596724e-05 0 0.037321104407798629 0.00035103403374179773 0 0.037685278382842607 0.00025782004983837965 0 0.037377207850469843 -9.1592108814596724e-05 0 0.037850453812518912 -7.18542038053205e-05 0 0.037685278382842607 0.00025782004983837965 0 0.032692631219213536 0.0041909950003258993 0 0.032552965963469238 0.0054153244421412741 0 0.03330639753087461 0.0048030835925131155 0 0.032552965963469238 0.0054153244421412741 0 0.033290930569797296 0.0060237916005486218 0 0.03330639753087461 0.0048030835925131155 0 0.034863091507026718 0.0014697825233669398 0 0.035240111955934864 0.0024814012429991085 0 0.03830509991508025 -7.5473484125598904e-05 0 0.037850453812518912 -7.18542038053205e-05 0 0.03808805065643335 0.00024858154041130983 0 0.035552851432806738 0.0034589161900988592 0 0.035240111955934864 0.0024814012429991085 0 0.032705551794041283 0.0063706540141167164 0 0.032552965963469238 0.0054153244421412741 0 0.032981148114014008 0.0062840458956090837 0 0.032552965963469238 0.0054153244421412741 0 0.032981148114014008 0.0062840458956090837 0 0.033290930569797296 0.0060237916005486218 0 0.033290930569797296 0.0060237916005486218 0 0.033260218045636489 0.006905621989881169 0 0.033674236525900111 0.0069587232819228895 0 0.032981148114014008 0.0062840458956090837 0 0.033290930569797296 0.0060237916005486218 0 0.033260218045636489 0.006905621989881169 0 0.032705551794041283 0.0063706540141167164 0 0.032981148114014008 0.0062840458956090837 0 0.033080284121396568 0.006901243109394134 0 0.032981148114014008 0.0062840458956090837 0 0.033260218045636489 0.006905621989881169 0 0.033080284121396568 0.006901243109394134 0 0.033260218045636489 0.006905621989881169 0 0.033329936754469228 0.0072416151098560564 0 0.03353668021502431 0.0073879200195379356 0 0.033260218045636489 0.006905621989881169 0 0.033080284121396568 0.006901243109394134 0 0.033329936754469228 0.0072416151098560564 0 0.033260218045636489 0.006905621989881169 0 0.03353668021502431 0.0073879200195379356 0 0.033674236525900111 0.0069587232819228895 0 0.03353668021502431 0.0073879200195379356 0 0.034046493644430055 0.0075326799592601301 0 0.033674236525900111 0.0069587232819228895 0 0.03353668021502431 0.0073879200195379356 0 0.034084834280125036 0.0078919679350274909 0 0.034046493644430055 0.0075326799592601301 0 0.034739032705026089 0.00826539103619966 0 0.034476317802040593 0.0081349139345798897 0 0.034084834280125036 0.0078919679350274909 0 0.03353668021502431 0.0073879200195379356 0 0.033537879342958002 0.0074504559781532293 0 0.034084834280125036 0.0078919679350274909 0 0.034387929329154077 0.007728923537776362 0 0.034387455364037943 0.0077448778476523518 0 0.03353668021502431 0.0073879200195379356 0 0.033537879342958002 0.0074504559781532293 0 0.033477268234256265 0.0073647829629770257 0 0.033329936754469228 0.0072416151098560564 0 0.03353668021502431 0.0073879200195379356 0 0.033477268234256265 0.0073647829629770257 0 0.033253510809666861 0.0073575073540947692 0 0.033477268234256265 0.0073647829629770257 0 0.03382798953667681 0.0073392956169057661 0 0.033477268234256265 0.0073647829629770257 0 0.033888909775744241 0.0072836390985229022 0 0.03382798953667681 0.0073392956169057661 0 0.034543687663953083 0.0072236444866979272 0 0.033888909775744241 0.0072836390985229022 0 0.034291139471454027 0.0073033037238382217 0 0.034230254781035967 0.007450343422204327 0 0.034291139471454027 0.0073033037238382217 0 0.03382798953667681 0.0073392956169057661 0 0.033888909775744241 0.0072836390985229022 0 0.034291139471454027 0.0073033037238382217 0 0.03382798953667681 0.0073392956169057661 0 0.034543687663953083 0.0072236444866979272 0 0.033888909775744241 0.0072836390985229022 0 0.034097307243725457 0.007047526550076246 0 0.033537879342958002 0.0074504559781532293 0 0.033477268234256265 0.0073647829629770257 0 0.033888909775744241 0.0072836390985229022 0 0.034387929329154077 0.007728923537776362 0 0.03442677120874385 0.0076864241790688273 0 0.033537879342958002 0.0074504559781532293 0 0.033888909775744241 0.0072836390985229022 0 0.034097307243725457 0.007047526550076246 0 0.034739032705026089 0.00826539103619966 0 0.035056891172674451 0.0080756614458299143 0 0.03488054543561557 0.00827591754476599 0 0.034963244142483189 0.0075111046862101627 0 0.035056891172674451 0.0080756614458299143 0 0.035139280961649227 0.0083142889745982471 0 0.034462332447158531 0.0076665343501539935 0 0.03442677120874385 0.0076864241790688273 0 0.035056891172674451 0.0080756614458299143 0 0.035139280961649227 0.0083142889745982471 0 0.03488054543561557 0.00827591754476599 0 0.03488054543561557 0.00827591754476599 0 0.034628218303553032 0.0083012291834574509 0 0.034854508984227289 0.0086085848530877904 0 0.034628218303553032 0.0083012291834574509 0 0.034476317802040593 0.0081349139345798897 0 0.034346596106690157 0.0081082871273325634 0 0.03488054543561557 0.00827591754476599 0 0.034628218303553032 0.0083012291834574509 0 0.034476317802040593 0.0081349139345798897 0 0.034476317802040593 0.0081349139345798897 0 0.034346596106690157 0.0081082871273325634 0 0.034084834280125036 0.0078919679350274909 0 0.034739032705026089 0.00826539103619966 0 0.03488054543561557 0.00827591754476599 0 0.034476317802040593 0.0081349139345798897 0 0.034346596106690157 0.0081082871273325634 0 0.034215776166249941 0.0079900947766026447 0 0.034165791538742919 0.0078339685752244984 0 0.034346596106690157 0.0081082871273325634 0 0.034165791538742919 0.0078339685752244984 0 0.034084834280125036 0.0078919679350274909 0 0.034628218303553032 0.0083012291834574509 0 0.034346596106690157 0.0081082871273325634 0 0.034516739689477174 0.0083674873115975445 0 0.034346596106690157 0.0081082871273325634 0 0.034215776166249941 0.0079900947766026447 0 0.034516739689477174 0.0083674873115975445 0 0.034215776166249941 0.0079900947766026447 0 0.03363266827380116 0.007584638362571121 0 0.034121380205020792 0.0079574322376791597 0 0.034215776166249941 0.0079900947766026447 0 0.033973660508175907 0.0077725787932172233 0 0.03363266827380116 0.007584638362571121 0 0.033973660508175907 0.0077725787932172233 0 0.033787735276754827 0.0076930319495515992 0 0.03363266827380116 0.007584638362571121 0 0.034215776166249941 0.0079900947766026447 0 0.033973660508175907 0.0077725787932172233 0 0.034165791538742919 0.0078339685752244984 0 0.033787735276754827 0.0076930319495515992 0 0.034091889522327674 0.0076284648971413852 0 0.034165791538742919 0.0078339685752244984 0 0.033973660508175907 0.0077725787932172233 0 0.033787735276754827 0.0076930319495515992 0 0.034165791538742919 0.0078339685752244984 0 0.033787735276754827 0.0076930319495515992 0 0.033893772375081184 0.007564191211378901 0 0.033214136319670712 0.0076983143370292382 0 0.033787735276754827 0.0076930319495515992 0 0.033893772375081184 0.007564191211378901 0 0.034091889522327674 0.0076284648971413852 0 0.033893772375081184 0.007564191211378901 0 0.034091889522327674 0.0076284648971413852 0 0.034209790091355101 0.0073759061037118948 0 0.034091889522327674 0.0076284648971413852 0 0.034046493644430055 0.0075326799592601301 0 0.034209790091355101 0.0073759061037118948 0 0.034091889522327674 0.0076284648971413852 0 0.034165791538742919 0.0078339685752244984 0 0.034046493644430055 0.0075326799592601301 0 0.034165791538742919 0.0078339685752244984 0 0.034084834280125036 0.0078919679350274909 0 0.034046493644430055 0.0075326799592601301 0 0.034046493644430055 0.0075326799592601301 0 0.034129638141430885 0.0070788489620473771 0 0.033674236525900111 0.0069587232819228895 0 0.034046493644430055 0.0075326799592601301 0 0.034129638141430885 0.0070788489620473771 0 0.034209790091355101 0.0073759061037118948 0 0.034129638141430885 0.0070788489620473771 0 0.034067757668418908 0.0059488564366731583 0 0.034521136489173869 0.0069853576169002941 0 0.034129638141430885 0.0070788489620473771 0 0.034521136489173869 0.0069853576169002941 0 0.034209790091355101 0.0073759061037118948 0 0.034129638141430885 0.0070788489620473771 0 0.033674236525900111 0.0069587232819228895 0 0.034067757668418908 0.0059488564366731583 0 0.033290930569797296 0.0060237916005486218 0 0.034067757668418908 0.0059488564366731583 0 0.03330639753087461 0.0048030835925131155 0 0.033290930569797296 0.0060237916005486218 0 0.033674236525900111 0.0069587232819228895 0 0.034067757668418908 0.0059488564366731583 0 0.034067757668418908 0.0059488564366731583 0 0.035007435941676414 0.0059306608818574299 0 0.034521136489173869 0.0069853576169002941 0 0.034067757668418908 0.0059488564366731583 0 0.034777436798998473 0.0049442104866180255 0 0.035007435941676414 0.0059306608818574299 0 0.034067757668418908 0.0059488564366731583 0 0.034777436798998473 0.0049442104866180255 0 0.034295464615626187 0.0044792935524630983 0 0.034896138543030565 0.0030686511183008387 0 0.034777436798998473 0.0049442104866180255 0 0.034295464615626187 0.0044792935524630983 0 0.034067757668418908 0.0059488564366731583 0 0.034295464615626187 0.0044792935524630983 0 0.03330639753087461 0.0048030835925131155 0 0.033925889151603161 0.0030492702592499507 0 0.034295464615626187 0.0044792935524630983 0 0.03330639753087461 0.0048030835925131155 0 0.033833620114367115 0.005059079646193493 0 0.033479735454174368 0.0058008573448633327 0 0.032548833660483792 0.0053793798255642386 0 0.032229151975147127 0.0054721907719736959 0 0.032583938216586228 0.0056036332908951658 0 0.032405254367503786 0.0051918388440022299 0 0.032548833660483792 0.0053793798255642386 0 0.032229151975147127 0.0054721907719736959 0 0.03386891202001862 0.0050681704822232356 0 0.033833620114367115 0.005059079646193493 0 0.034896138543030565 0.0030686511183008387 0 0.034777436798998473 0.0049442104866180255 0 0.035740966462628081 0.004565171975036573 0 0.034777436798998473 0.0049442104866180255 0 0.035740966462628081 0.004565171975036573 0 0.035007435941676414 0.0059306608818574299 0 0.035740966462628081 0.004565171975036573 0 0.03607146464195711 0.0049192278502697331 0 0.035007435941676414 0.0059306608818574299 0 0.03607146464195711 0.0049192278502697331 0 0.034883527041236109 0.0069716550131336706 0 0.035007435941676414 0.0059306608818574299 0 0.033833620114367115 0.005059079646193493 0 0.033927923780301746 0.0053697823792766856 0 0.034883527041236109 0.0069716550131336706 0 0.035007435941676414 0.0059306608818574299 0 0.034521136489173869 0.0069853576169002941 0 0.034912967698686681 0.0080439029592658112 0 0.034883527041236109 0.0069716550131336706 0 0.033667837484263226 0.0077626831151216807 0 0.034883527041236109 0.0069716550131336706 0 0.033553994991747493 0.0075107649311073749 0 0.033667837484263226 0.0077626831151216807 0 0.034883527041236109 0.0069716550131336706 0 0.034147344709947479 0.0073366297664797389 0 0.033553994991747493 0.0075107649311073749 0 0.034883527041236109 0.0069716550131336706 0 0.034147344709947479 0.0073366297664797389 0 0.034521136489173869 0.0069853576169002941 0 0.034147344709947479 0.0073366297664797389 0 0.034521136489173869 0.0069853576169002941 0 0.034209790091355101 0.0073759061037118948 0 0.033893772375081184 0.007564191211378901 0 0.034147344709947479 0.0073366297664797389 0 0.034209790091355101 0.0073759061037118948 0 0.033893772375081184 0.007564191211378901 0 0.034147344709947479 0.0073366297664797389 0 0.033395784012356385 0.0075822077104058024 0 0.033395784012356385 0.0075822077104058024 0 0.03284002961665658 0.0076413261297313658 0 0.033553994991747493 0.0075107649311073749 0 0.033395784012356385 0.0075822077104058024 0 0.03284002961665658 0.0076413261297313658 0 0.032497547889316282 0.0078236279033282261 0 0.03284002961665658 0.0076413261297313658 0 0.032312245527759756 0.007650161465409264 0 0.032497547889316282 0.0078236279033282261 0 0.03284002961665658 0.0076413261297313658 0 0.032734375383959229 0.0077906711811766517 0 0.033553994991747493 0.0075107649311073749 0 0.03284002961665658 0.0076413261297313658 0 0.032734375383959229 0.0077906711811766517 0 0.032312245527759756 0.007650161465409264 0 0.034147344709947479 0.0073366297664797389 0 0.033395784012356385 0.0075822077104058024 0 0.033553994991747493 0.0075107649311073749 0 0.032734375383959229 0.0077906711811766517 0 0.033553994991747493 0.0075107649311073749 0 0.033667837484263226 0.0077626831151216807 0 0.033257520869993659 0.0061994974467430531 0 0.033479735454174368 0.0058008573448633327 0 0.032483496709474084 0.0058846994773894034 0 0.032583938216586228 0.0056036332908951658 0 0.032752696583594108 0.0054361089832167236 0 0.032483496709474084 0.0058846994773894034 0 0.032752696583594108 0.0054361089832167236 0 0.032635945334681879 0.005723561234952176 0 0.032736862807168171 0.0050746064026658795 0 0.032548833660483792 0.0053793798255642386 0 0.032752696583594108 0.0054361089832167236 0 0.032548833660483792 0.0053793798255642386 0 0.032583938216586228 0.0056036332908951658 0 0.032752696583594108 0.0054361089832167236 0 0.032863647312067042 0.0053324441648071623 0 0.032890597733328773 0.0052461590854609502 0 0.032635945334681879 0.005723561234952176 0 0.032752696583594108 0.0054361089832167236 0 0.032890597733328773 0.0052461590854609502 0 0.032635945334681879 0.005723561234952176 0 0.033101290388986036 0.0058258979771873744 0 0.032863647312067042 0.0053324441648071623 0 0.032635945334681879 0.005723561234952176 0 0.033101290388986036 0.0058258979771873744 0 0.032635945334681879 0.005723561234952176 0 0.032403189792891696 0.0068848706727106142 0 0.031451193697986657 0.0069759135379403783 0 0.031678310009664354 0.0067984900275632459 0 0.032303568353443064 0.0069781947606987254 0 0.032089664302030883 0.0062767755465350308 0 0.032132856607898476 0.0063675588270502457 0 0.033101290388986036 0.0058258979771873744 0 0.032403189792891696 0.0068848706727106142 0 0.032303568353443064 0.0069781947606987254 0 0.033257520869993659 0.0061994974467430531 0 0.033224151133658765 0.0063512959459493812 0 0.032483496709474084 0.0058846994773894034 0 0.032635945334681879 0.005723561234952176 0 0.032403189792891696 0.0068848706727106142 0 0.032734375383959229 0.0077906711811766517 0 0.032403189792891696 0.0068848706727106142 0 0.032312245527759756 0.007650161465409264 0 0.032312245527759756 0.007650161465409264 0 0.031698538798568682 0.0080142901883270209 0 0.032497547889316282 0.0078236279033282261 0 0.032403189792891696 0.0068848706727106142 0 0.032312245527759756 0.007650161465409264 0 0.032303568353443064 0.0069781947606987254 0 0.032312245527759756 0.007650161465409264 0 0.03076644337192851 0.0087265510783691852 0 0.031698538798568682 0.0080142901883270209 0 0.032312245527759756 0.007650161465409264 0 0.032303568353443064 0.0069781947606987254 0 0.032114950455479178 0.0065810869795884441 0 0.031678310009664354 0.0067984900275632459 0 0.032303568353443064 0.0069781947606987254 0 0.032114950455479178 0.0065810869795884441 0 0.030897516188285692 0.0072988579605275218 0 0.030644360543561455 0.0072249814970448811 0 0.030121057211761202 0.0079569920443183124 0 0.030712164967933008 0.0082128541036507428 0 0.031513846094831502 0.0078205605104697089 0 0.030712164967933008 0.0082128541036507428 0 0.031513846094831502 0.0078205605104697089 0 0.031698538798568682 0.0080142901883270209 0 0.03076644337192851 0.0087265510783691852 0 0.030712164967933008 0.0082128541036507428 0 0.031698538798568682 0.0080142901883270209 0 0.030121057211761202 0.0079569920443183124 0 0.031513846094831502 0.0078205605104697089 0 0.030501202008988971 0.0075480793384387424 0 0.031513846094831502 0.0078205605104697089 0 0.031698538798568682 0.0080142901883270209 0 0.032497547889316282 0.0078236279033282261 0 0.031513846094831502 0.0078205605104697089 0 0.032497547889316282 0.0078236279033282261 0 0.032938451104593487 0.0077035470743539716 0 0.032497547889316282 0.0078236279033282261 0 0.033214136319670712 0.0076983143370292382 0 0.032938451104593487 0.0077035470743539716 0 0.033395784012356385 0.0075822077104058024 0 0.032497547889316282 0.0078236279033282261 0 0.033214136319670712 0.0076983143370292382 0 0.033893772375081184 0.007564191211378901 0 0.033395784012356385 0.0075822077104058024 0 0.033214136319670712 0.0076983143370292382 0 0.033787735276754827 0.0076930319495515992 0 0.032938451104593487 0.0077035470743539716 0 0.03363266827380116 0.007584638362571121 0 0.033787735276754827 0.0076930319495515992 0 0.033214136319670712 0.0076983143370292382 0 0.032938451104593487 0.0077035470743539716 0 0.031513846094831502 0.0078205605104697089 0 0.032938451104593487 0.0077035470743539716 0 0.031444931600506147 0.0072173119837565525 0 0.032938451104593487 0.0077035470743539716 0 0.03363266827380116 0.007584638362571121 0 0.031444931600506147 0.0072173119837565525 0 0.03363266827380116 0.007584638362571121 0 0.031444931600506147 0.0072173119837565525 0 0.033301224195429795 0.0073540770312850376 0 0.03130864287748502 0.0078092555603442356 0 0.031415445619379312 0.0077039215965807855 0 0.029868608316663412 0.0071332461857320506 0 0.031444931600506147 0.0072173119837565525 0 0.029815203578343351 0.0065267534251786524 0 0.028994979276720505 0.0067512099054728601 0 0.029868608316663412 0.0071332461857320506 0 0.029815203578343351 0.0065267534251786524 0 0.029602425488700058 0.0076000295735056799 0 0.029868608316663412 0.0071332461857320506 0 0.030501202008988971 0.0075480793384387424 0 0.029868608316663412 0.0071332461857320506 0 0.030501202008988971 0.0075480793384387424 0 0.031444931600506147 0.0072173119837565525 0 0.031513846094831502 0.0078205605104697089 0 0.030501202008988971 0.0075480793384387424 0 0.031444931600506147 0.0072173119837565525 0 0.029815203578343351 0.0065267534251786524 0 0.029596221010571733 0.0062046338015686441 0 0.029097157236603728 0.0061758544064635717 0 0.028674088733197715 0.0063801381503892866 0 0.029815203578343351 0.0065267534251786524 0 0.029097157236603728 0.0061758544064635717 0 0.028674088733197715 0.0063801381503892866 0 0.028994979276720505 0.0067512099054728601 0 0.029815203578343351 0.0065267534251786524 0 0.031444931600506147 0.0072173119837565525 0 0.029815203578343351 0.0065267534251786524 0 0.030091465980912838 0.0064679752128158022 0 0.03363266827380116 0.007584638362571121 0 0.033301224195429795 0.0073540770312850376 0 0.034121380205020792 0.0079574322376791597 0 0.033301224195429795 0.0073540770312850376 0 0.034255681266917991 0.0081433220532549956 0 0.034121380205020792 0.0079574322376791597 0 0.031415445619379312 0.0077039215965807855 0 0.031453182898064105 0.0078593060708487608 0 0.030091465980912838 0.0064679752128158022 0 0.029596221010571733 0.0062046338015686441 0 0.029390365499758833 0.0060047071615173192 0 0.029815203578343351 0.0065267534251786524 0 0.030091465980912838 0.0064679752128158022 0 0.029596221010571733 0.0062046338015686441 0 0.029596221010571733 0.0062046338015686441 0 0.029413771351401916 0.0061862168258202789 0 0.029390365499758833 0.0060047071615173192 0 0.029596221010571733 0.0062046338015686441 0 0.029413771351401916 0.0061862168258202789 0 0.029210388759670608 0.0060639796582358753 0 0.029413771351401916 0.0061862168258202789 0 0.029390365499758833 0.0060047071615173192 0 0.029295412407054945 0.0063617578632236436 0 0.029390365499758833 0.0060047071615173192 0 0.029295412407054945 0.0063617578632236436 0 0.028862137333667603 0.0069652392159882818 0 0.029295412407054945 0.0063617578632236436 0 0.029105857869128084 0.0065574639890104841 0 0.029132088171363417 0.0062775443360879625 0 0.029295412407054945 0.0063617578632236436 0 0.029105857869128084 0.0065574639890104841 0 0.028862137333667603 0.0069652392159882818 0 0.029413771351401916 0.0061862168258202789 0 0.029258996961235711 0.0061655798570656737 0 0.029210388759670608 0.0060639796582358753 0 0.029413771351401916 0.0061862168258202789 0 0.029295412407054945 0.0063617578632236436 0 0.029258996961235711 0.0061655798570656737 0 0.029295412407054945 0.0063617578632236436 0 0.029258996961235711 0.0061655798570656737 0 0.029132088171363417 0.0062775443360879625 0 0.029258996961235711 0.0061655798570656737 0 0.029075800393018669 0.0059439951241606901 0 0.029132088171363417 0.0062775443360879625 0 0.028994976098735338 0.0058680935608546921 0 0.029210388759670608 0.0060639796582358753 0 0.029075800393018669 0.0059439951241606901 0 0.029258996961235711 0.0061655798570656737 0 0.029210388759670608 0.0060639796582358753 0 0.029075800393018669 0.0059439951241606901 0 0.028994976098735338 0.0058680935608546921 0 0.029210388759670608 0.0060639796582358753 0 0.028688681966576687 0.0058889251539862011 0 0.029210388759670608 0.0060639796582358753 0 0.029097157236603728 0.0061758544064635717 0 0.028688681966576687 0.0058889251539862011 0 0.029596221010571733 0.0062046338015686441 0 0.029210388759670608 0.0060639796582358753 0 0.029097157236603728 0.0061758544064635717 0 0.028105498039600923 0.0059622207139586837 0 0.029097157236603728 0.0061758544064635717 0 0.028688681966576687 0.0058889251539862011 0 0.028674088733197715 0.0063801381503892866 0 0.028105498039600923 0.0059622207139586837 0 0.029097157236603728 0.0061758544064635717 0 0.027592966291607981 0.0053887269260563964 0 0.028105498039600923 0.0059622207139586837 0 0.028688681966576687 0.0058889251539862011 0 0.027592966291607981 0.0053887269260563964 0 0.028688681966576687 0.0058889251539862011 0 0.028931210688206824 0.005592842871445106 0 0.028994976098735338 0.0058680935608546921 0 0.028688681966576687 0.0058889251539862011 0 0.028931210688206824 0.005592842871445106 0 0.027592966291607981 0.0053887269260563964 0 0.028931210688206824 0.005592842871445106 0 0.028445727554812755 0.0049201330351380679 0 0.025775846629478742 0.006522318685676657 0 0.025202926657404805 0.0071282707204481811 0 0.028931210688206824 0.005592842871445106 0 0.029144568035387879 0.0058852194691231714 0 0.028982123224030824 0.0059141086092363206 0 0.025385015933237783 0.0071472317122024459 0 0.025202926657404805 0.0071282707204481811 0 0.028931210688206824 0.005592842871445106 0 0.029075800393018669 0.0059439951241606901 0 0.028982123224030824 0.0059141086092363206 0 0.028994976098735338 0.0058680935608546921 0 0.028931210688206824 0.005592842871445106 0 0.029075800393018669 0.0059439951241606901 0 0.029075800393018669 0.0059439951241606901 0 0.028982123224030824 0.0059141086092363206 0 0.02900330929461303 0.0060826292569326392 0 0.028982123224030824 0.0059141086092363206 0 0.028996363117336544 0.0061136429279393719 0 0.02900330929461303 0.0060826292569326392 0 0.028996363117336544 0.0061136429279393719 0 0.02900330929461303 0.0060826292569326392 0 0.029012569639465368 0.0061445523840940102 0 0.023108346188675421 0.010033979962691732 0 0.022900075800697785 0.009766492309407581 0 0.022655825062932164 0.010075530279968638 0 0.025202926657404805 0.0071282707204481811 0 0.025663642496743116 0.0083540365267964108 0 0.029144568035387879 0.0058852194691231714 0 0.028982123224030824 0.0059141086092363206 0 0.028996363117336544 0.0061136429279393719 0 0.023962804300478702 0.0073744315424324192 0 0.025202926657404805 0.0071282707204481811 0 0.023108346188675421 0.010033979962691732 0 0.022655825062932164 0.010075530279968638 0 0.022910260183188622 0.010414237302439884 0 0.022655825062932164 0.010075530279968638 0 0.022910260183188622 0.010414237302439884 0 0.02241392809977168 0.010385382306299699 0 0.028996363117336544 0.0061136429279393719 0 0.029007178857343826 0.0061027932625555871 0 0.029012569639465368 0.0061445523840940102 0 0.025663642496743116 0.0083540365267964108 0 0.025883313945187374 0.0098966513618049361 0 0.022910260183188622 0.010414237302439884 0 0.02241392809977168 0.010385382306299699 0 0.022683953210830735 0.010686423957210419 0 0.02241392809977168 0.010385382306299699 0 0.022424244493300848 0.010846343864818911 0 0.022683953210830735 0.010686423957210419 0 0.022910260183188622 0.010414237302439884 0 0.022683953210830735 0.010686423957210419 0 0.023046904288275927 0.010883648215954868 0 0.02663098528064169 0.010735844625629647 0 0.025436161200018587 0.012768721582104464 0 0.028037767246786846 0.015725716244835247 0 0.029285239517156454 0.013875352068085531 0 0.027420897865514268 0.014661231348259283 0 0.028037767246786846 0.015725716244835247 0 0.029285239517156454 0.013875352068085531 0 0.029382721556183707 0.015998464339342523 0 0.029007178857343826 0.0061027932625555871 0 0.029075008082213496 0.0061056300516453979 0 0.029043374408327487 0.0060682562022200881 0 0.025883313945187374 0.0098966513618049361 0 0.025436161200018587 0.012768721582104464 0 0.02241392809977168 0.010385382306299699 0 0.022424244493300848 0.010846343864818911 0 0.022171823308755834 0.010695902164854882 0 0.029007178857343826 0.0061027932625555871 0 0.029075008082213496 0.0061056300516453979 0 0.029012569639465368 0.0061445523840940102 0 0.02663098528064169 0.010735844625629647 0 0.027190495208771155 0.0093256551560084756 0 0.029285239517156454 0.013875352068085531 0 0.029552052314481606 0.011163381686388462 0 0.027804072380327064 0.012851553056057737 0 0.029159291887511946 0.0062504800575163503 0 0.029012569639465368 0.0061445523840940102 0 0.029044907399060429 0.0062634556866028113 0 0.029075008082213496 0.0061056300516453979 0 0.029159291887511946 0.0062504800575163503 0 0.029012569639465368 0.0061445523840940102 0 0.02900330929461303 0.0060826292569326392 0 0.029012569639465368 0.0061445523840940102 0 0.029044907399060429 0.0062634556866028113 0 0.02900330929461303 0.0060826292569326392 0 0.029044907399060429 0.0062634556866028113 0 0.029132088171363417 0.0062775443360879625 0 0.029044907399060429 0.0062634556866028113 0 0.029132088171363417 0.0062775443360879625 0 0.029056277534780389 0.0064997706025679775 0 0.029075800393018669 0.0059439951241606901 0 0.02900330929461303 0.0060826292569326392 0 0.029132088171363417 0.0062775443360879625 0 0.027190495208771155 0.0093256551560084756 0 0.027303536329145124 0.0086550844418986569 0 0.029159291887511946 0.0062504800575163503 0 0.029056277534780389 0.0064997706025679775 0 0.028862137333667603 0.0069652392159882818 0 0.029159291887511946 0.0062504800575163503 0 0.029044907399060429 0.0062634556866028113 0 0.029056277534780389 0.0064997706025679775 0 0.029105857869128084 0.0065574639890104841 0 0.029132088171363417 0.0062775443360879625 0 0.029056277534780389 0.0064997706025679775 0 0.029105857869128084 0.0065574639890104841 0 0.029056277534780389 0.0064997706025679775 0 0.028862137333667603 0.0069652392159882818 0 0.028067614290332912 0.0098920401211173119 0 0.028862137333667603 0.0069652392159882818 0 0.027937763026111884 0.006950937068737225 0 0.029552052314481606 0.011163381686388462 0 0.028067614290332912 0.0098920401211173119 0 0.028862137333667603 0.0069652392159882818 0 0.028067614290332912 0.0098920401211173119 0 0.025596453606040584 0.012207148909043931 0 0.027937763026111884 0.006950937068737225 0 0.030667462923458864 0.010137289135304586 0 0.0311644332447285 0.0087039470764538433 0 0.034456353137665367 0.009237763628171464 0 0.034467288455606142 0.009542599318913712 0 0.034614791396479085 0.0089854091631499915 0 0.029552052314481606 0.011163381686388462 0 0.028067614290332912 0.0098920401211173119 0 0.027804072380327064 0.012851553056057737 0 0.028067614290332912 0.0098920401211173119 0 0.025596453606040584 0.012207148909043931 0 0.027804072380327064 0.012851553056057737 0 0.027804072380327064 0.012851553056057737 0 0.026691778003603908 0.013905669529887784 0 0.027420897865514268 0.014661231348259283 0 0.029285239517156454 0.013875352068085531 0 0.027804072380327064 0.012851553056057737 0 0.027420897865514268 0.014661231348259283 0 0.025596453606040584 0.012207148909043931 0 0.027804072380327064 0.012851553056057737 0 0.026691778003603908 0.013905669529887784 0 0.025596453606040584 0.012207148909043931 0 0.02640358326996858 0.014085971066685096 0 0.026691778003603908 0.013905669529887784 0 0.025596453606040584 0.012207148909043931 0 0.02640358326996858 0.014085971066685096 0 0.027125474941084818 0.014879724310192417 0 0.02640358326996858 0.014085971066685096 0 0.026691778003603908 0.013905669529887784 0 0.026048117371325633 0.014907965206135911 0 0.02640358326996858 0.014085971066685096 0 0.026048117371325633 0.014907965206135911 0 0.027125474941084818 0.014879724310192417 0 0.028037767246786846 0.015725716244835247 0 0.027420897865514268 0.014661231348259283 0 0.026810510897493586 0.016382735089918627 0 0.026048117371325633 0.014907965206135911 0 0.027420897865514268 0.014661231348259283 0 0.026810510897493586 0.016382735089918627 0 0.026691778003603908 0.013905669529887784 0 0.026048117371325633 0.014907965206135911 0 0.027420897865514268 0.014661231348259283 0 0.033485359612734703 0.011377615498302834 0 0.033408542793765553 0.011634608625348051 0 0.03235909533013815 0.010590517784058036 0 0.033516130138430841 0.0097085654583186319 0 0.030296110774699962 0.010483561612855274 0 0.031281567454834326 0.011240081178035313 0 0.03235909533013815 0.010590517784058036 0 0.030296110774699962 0.010483561612855274 0 0.031281567454834326 0.011240081178035313 0 0.030296110774699962 0.010483561612855274 0 0.030314835130026276 0.011621972795189629 0 0.03235909533013815 0.010590517784058036 0 0.033779117213412257 0.0099736598645258669 0 0.030080322654307205 0.012461602348837838 0 0.026048117371325633 0.014907965206135911 0 0.027125474941084818 0.014879724310192417 0 0.029082260312504805 0.012564380146014496 0 0.03235909533013815 0.010590517784058036 0 0.033779117213412257 0.0099736598645258669 0 0.033516130138430841 0.0097085654583186319 0 0.034467288455606142 0.009542599318913712 0 0.033779117213412257 0.0099736598645258669 0 0.034067886598042663 0.0096369026138105086 0 0.033779117213412257 0.0099736598645258669 0 0.033516130138430841 0.0097085654583186319 0 0.034067886598042663 0.0096369026138105086 0 0.030667462923458864 0.010137289135304586 0 0.030478088434729607 0.011093190726392296 0 0.033516130138430841 0.0097085654583186319 0 0.034287552443875061 0.0096956657457740354 0 0.034671445676469355 0.0090840825552978462 0 0.033516130138430841 0.0097085654583186319 0 0.034287552443875061 0.0096956657457740354 0 0.034067886598042663 0.0096369026138105086 0 0.034287552443875061 0.0096956657457740354 0 0.034524878767565388 0.0097935743150240496 0 0.034878915901969246 0.0098806114650143214 0 0.034287552443875061 0.0096956657457740354 0 0.034524878767565388 0.0097935743150240496 0 0.034067886598042663 0.0096369026138105086 0 0.034524878767565388 0.0097935743150240496 0 0.034067886598042663 0.0096369026138105086 0 0.034365443764186765 0.0095185889100761045 0 0.034467288455606142 0.009542599318913712 0 0.034067886598042663 0.0096369026138105086 0 0.034365443764186765 0.0095185889100761045 0 0.034456353137665367 0.009237763628171464 0 0.034365443764186765 0.0095185889100761045 0 0.034549403014543872 0.0092732086604046179 0 0.034456353137665367 0.009237763628171464 0 0.034467288455606142 0.009542599318913712 0 0.034365443764186765 0.0095185889100761045 0 0.034524878767565388 0.0097935743150240496 0 0.034365443764186765 0.0095185889100761045 0 0.034718358334610198 0.0096483340024865298 0 0.034524878767565388 0.0097935743150240496 0 0.034718358334610198 0.0096483340024865298 0 0.035070637550062067 0.01007476828338867 0 0.034365443764186765 0.0095185889100761045 0 0.034718358334610198 0.0096483340024865298 0 0.034549403014543872 0.0092732086604046179 0 0.034718358334610198 0.0096483340024865298 0 0.034759613510940909 0.0092291045584022482 0 0.034549403014543872 0.0092732086604046179 0 0.034759613510940909 0.0092291045584022482 0 0.034518935344601938 0.0089074118014042924 0 0.034549403014543872 0.0092732086604046179 0 0.034759613510940909 0.0092291045584022482 0 0.034518935344601938 0.0089074118014042924 0 0.034524053943045134 0.0086124056821680183 0 0.034759613510940909 0.0092291045584022482 0 0.034524053943045134 0.0086124056821680183 0 0.034797524779869617 0.0088424702696816015 0 0.034518935344601938 0.0089074118014042924 0 0.034388515763401385 0.0085041098635084515 0 0.034524053943045134 0.0086124056821680183 0 0.034518935344601938 0.0089074118014042924 0 0.034549403014543872 0.0092732086604046179 0 0.034453224472883216 0.0089359596370336084 0 0.034456353137665367 0.009237763628171464 0 0.034549403014543872 0.0092732086604046179 0 0.034453224472883216 0.0089359596370336084 0 0.034453224472883216 0.0089359596370336084 0 0.034614791396479085 0.0089854091631499915 0 0.034383300054633491 0.0085145438627924792 0 0.034456353137665367 0.009237763628171464 0 0.034453224472883216 0.0089359596370336084 0 0.034614791396479085 0.0089854091631499915 0 0.031453182898064105 0.0078593060708487608 0 0.0311644332447285 0.0087039470764538433 0 0.029390365499758833 0.0060047071615173192 0 0.028862137333667603 0.0069652392159882818 0 0.027937763026111884 0.006950937068737225 0 0.034255681266917991 0.0081433220532549956 0 0.034614791396479085 0.0089854091631499915 0 0.034383300054633491 0.0085145438627924792 0 0.034453224472883216 0.0089359596370336084 0 0.034383300054633491 0.0085145438627924792 0 0.034388515763401385 0.0085041098635084515 0 0.034518935344601938 0.0089074118014042924 0 0.034453224472883216 0.0089359596370336084 0 0.034388515763401385 0.0085041098635084515 0 0.034383300054633491 0.0085145438627924792 0 0.034388515763401385 0.0085041098635084515 0 0.034121380205020792 0.0079574322376791597 0 0.034388515763401385 0.0085041098635084515 0 0.034121380205020792 0.0079574322376791597 0 0.034349581353890005 0.0082557356662095634 0 0.034255681266917991 0.0081433220532549956 0 0.034383300054633491 0.0085145438627924792 0 0.034121380205020792 0.0079574322376791597 0 0.034215776166249941 0.0079900947766026447 0 0.034121380205020792 0.0079574322376791597 0 0.034349581353890005 0.0082557356662095634 0 0.034215776166249941 0.0079900947766026447 0 0.034349581353890005 0.0082557356662095634 0 0.034516739689477174 0.0083674873115975445 0 0.034516739689477174 0.0083674873115975445 0 0.034524053943045134 0.0086124056821680183 0 0.034797524779869617 0.0088424702696816015 0 0.034349581353890005 0.0082557356662095634 0 0.034516739689477174 0.0083674873115975445 0 0.034524053943045134 0.0086124056821680183 0 0.034388515763401385 0.0085041098635084515 0 0.034349581353890005 0.0082557356662095634 0 0.034524053943045134 0.0086124056821680183 0 0.035121917358332491 0.0090507543300725104 0 0.034854508984227289 0.0086085848530877904 0 0.035093813824598794 0.0087173754892887825 0 0.035121917358332491 0.0090507543300725104 0 0.034797524779869617 0.0088424702696816015 0 0.034854508984227289 0.0086085848530877904 0 0.034516739689477174 0.0083674873115975445 0 0.034797524779869617 0.0088424702696816015 0 0.034854508984227289 0.0086085848530877904 0 0.034628218303553032 0.0083012291834574509 0 0.034516739689477174 0.0083674873115975445 0 0.034854508984227289 0.0086085848530877904 0 0.03488054543561557 0.00827591754476599 0 0.034854508984227289 0.0086085848530877904 0 0.035093813824598794 0.0087173754892887825 0 0.035139280961649227 0.0083142889745982471 0 0.035093813824598794 0.0087173754892887825 0 0.035204556838318107 0.0088104361323956531 0 0.035139280961649227 0.0083142889745982471 0 0.03488054543561557 0.00827591754476599 0 0.035093813824598794 0.0087173754892887825 0 0.035139280961649227 0.0083142889745982471 0 0.035204556838318107 0.0088104361323956531 0 0.035121232953091754 0.0085641786825025688 0 0.035204556838318107 0.0088104361323956531 0 0.035385767051471853 0.0095466149320330863 0 0.03514721245819992 0.0089947172133569824 0 0.035204556838318107 0.0088104361323956531 0 0.035264548849878653 0.0091651383771766005 0 0.035385767051471853 0.0095466149320330863 0 0.035204556838318107 0.0088104361323956531 0 0.03514721245819992 0.0089947172133569824 0 0.035121232953091754 0.0085641786825025688 0 0.035093813824598794 0.0087173754892887825 0 0.035204556838318107 0.0088104361323956531 0 0.035264548849878653 0.0091651383771766005 0 0.035121917358332491 0.0090507543300725104 0 0.035093813824598794 0.0087173754892887825 0 0.035264548849878653 0.0091651383771766005 0 0.035264548849878653 0.0091651383771766005 0 0.035401309059404681 0.0096640599241615589 0 0.035385767051471853 0.0095466149320330863 0 0.035121917358332491 0.0090507543300725104 0 0.035264548849878653 0.0091651383771766005 0 0.035401309059404681 0.0096640599241615589 0 0.035385767051471853 0.0095466149320330863 0 0.035502131977667668 0.010332566951787714 0 0.035264160573251171 0.0095918184787132342 0 0.035385767051471853 0.0095466149320330863 0 0.035628180158193745 0.010304504752931804 0 0.035502131977667668 0.010332566951787714 0 0.035401309059404681 0.0096640599241615589 0 0.035385767051471853 0.0095466149320330863 0 0.035628180158193745 0.010304504752931804 0 0.035401309059404681 0.0096640599241615589 0 0.035628180158193745 0.010304504752931804 0 0.035422446745653709 0.0099885891461656134 0 0.035401309059404681 0.0096640599241615589 0 0.035422446745653709 0.0099885891461656134 0 0.035124041956438957 0.0094297434463798679 0 0.035422446745653709 0.0099885891461656134 0 0.035124041956438957 0.0094297434463798679 0 0.035111820235976865 0.0098002670490484924 0 0.035121917358332491 0.0090507543300725104 0 0.035401309059404681 0.0096640599241615589 0 0.035124041956438957 0.0094297434463798679 0 0.035121917358332491 0.0090507543300725104 0 0.034797524779869617 0.0088424702696816015 0 0.035124041956438957 0.0094297434463798679 0 0.034759613510940909 0.0092291045584022482 0 0.034797524779869617 0.0088424702696816015 0 0.035124041956438957 0.0094297434463798679 0 0.034759613510940909 0.0092291045584022482 0 0.035124041956438957 0.0094297434463798679 0 0.035111820235976865 0.0098002670490484924 0 0.034718358334610198 0.0096483340024865298 0 0.034759613510940909 0.0092291045584022482 0 0.035111820235976865 0.0098002670490484924 0 0.035111820235976865 0.0098002670490484924 0 0.035070637550062067 0.01007476828338867 0 0.035431385740853902 0.010233492699832418 0 0.034718358334610198 0.0096483340024865298 0 0.035111820235976865 0.0098002670490484924 0 0.035070637550062067 0.01007476828338867 0 0.035431385740853902 0.010233492699832418 0 0.035694828563612911 0.01049078089470697 0 0.035728417668833015 0.010639443821949172 0 0.035422446745653709 0.0099885891461656134 0 0.035431385740853902 0.010233492699832418 0 0.035728417668833015 0.010639443821949172 0 0.035422446745653709 0.0099885891461656134 0 0.035111820235976865 0.0098002670490484924 0 0.035431385740853902 0.010233492699832418 0 0.035070637550062067 0.01007476828338867 0 0.035431385740853902 0.010233492699832418 0 0.035694828563612911 0.01049078089470697 0 0.034524878767565388 0.0097935743150240496 0 0.035070637550062067 0.01007476828338867 0 0.034878915901969246 0.0098806114650143214 0 0.035070637550062067 0.01007476828338867 0 0.035694828563612911 0.01049078089470697 0 0.034878915901969246 0.0098806114650143214 0 0.034287552443875061 0.0096956657457740354 0 0.034878915901969246 0.0098806114650143214 0 0.034671445676469355 0.0090840825552978462 0 0.034878915901969246 0.0098806114650143214 0 0.035457518883830544 0.0095469725051763078 0 0.034671445676469355 0.0090840825552978462 0 0.035694828563612911 0.01049078089470697 0 0.034878915901969246 0.0098806114650143214 0 0.035457518883830544 0.0095469725051763078 0 0.035694828563612911 0.01049078089470697 0 0.035457518883830544 0.0095469725051763078 0 0.036326328572078521 0.0094974147401776163 0 0.035742807758803376 0.011834441286285609 0 0.035590406108607656 0.012180164750620382 0 0.035457518883830544 0.0095469725051763078 0 0.035763205867484348 0.0088185568991770279 0 0.036326328572078521 0.0094974147401776163 0 0.033661016463236285 0.012386562868119433 0 0.033408542793765553 0.011634608625348051 0 0.035457518883830544 0.0095469725051763078 0 0.035763205867484348 0.0088185568991770279 0 0.034671445676469355 0.0090840825552978462 0 0.029605029491007184 0.011104329904782752 0 0.030296110774699962 0.010483561612855274 0 0.029921306328363088 0.011534435246620137 0 0.030296110774699962 0.010483561612855274 0 0.030314835130026276 0.011621972795189629 0 0.029921306328363088 0.011534435246620137 0 0.034625948478972129 0.013832083267911991 0 0.035361952464842812 0.014046098018658738 0 0.038128475591608819 0.016032583434557428 0 0.039658127981147116 0.015585582641720643 0 0.036474687296795427 0.013243924756705175 0 0.036054107724556528 0.012022641986678443 0 0.036081320809800844 0.012298885694301048 0 0.036474687296795427 0.013243924756705175 0 0.035012881498876075 0.013820666238332845 0 0.034625948478972129 0.013832083267911991 0 0.033661016463236285 0.012386562868119433 0 0.034625948478972129 0.013832083267911991 0 0.036054107724556528 0.012022641986678443 0 0.036021561398659037 0.011937630993667228 0 0.036081320809800844 0.012298885694301048 0 0.034625948478972129 0.013832083267911991 0 0.035590406108607656 0.012180164750620382 0 0.035763205867484348 0.0088185568991770279 0 0.036948017475032922 0.0086446735059409596 0 0.036326328572078521 0.0094974147401776163 0 0.035694828563612911 0.01049078089470697 0 0.036021561398659037 0.011937630993667228 0 0.035923086408489235 0.01143858278185305 0 0.036021561398659037 0.011937630993667228 0 0.036081320809800844 0.012298885694301048 0 0.035923086408489235 0.01143858278185305 0 0.036081320809800844 0.012298885694301048 0 0.036069223790334448 0.012161772626878441 0 0.036474687296795427 0.013243924756705175 0 0.036081320809800844 0.012298885694301048 0 0.036069223790334448 0.012161772626878441 0 0.035923086408489235 0.01143858278185305 0 0.036069223790334448 0.012161772626878441 0 0.035832088993504055 0.011221806652377963 0 0.035886856127854153 0.012205079565880147 0 0.036069223790334448 0.012161772626878441 0 0.035923086408489235 0.01143858278185305 0 0.035832088993504055 0.011221806652377963 0 0.035923086408489235 0.01143858278185305 0 0.035728417668833015 0.010639443821949172 0 0.035832088993504055 0.011221806652377963 0 0.035694828563612911 0.01049078089470697 0 0.035923086408489235 0.01143858278185305 0 0.035728417668833015 0.010639443821949172 0 0.035628180158193745 0.010304504752931804 0 0.035728417668833015 0.010639443821949172 0 0.035832088993504055 0.011221806652377963 0 0.035628180158193745 0.010304504752931804 0 0.035422446745653709 0.0099885891461656134 0 0.035728417668833015 0.010639443821949172 0 0.035628180158193745 0.010304504752931804 0 0.035832088993504055 0.011221806652377963 0 0.035502131977667668 0.010332566951787714 0 0.035832088993504055 0.011221806652377963 0 0.03540541104483598 0.011375579437118684 0 0.035886856127854153 0.012205079565880147 0 0.035832088993504055 0.011221806652377963 0 0.03540541104483598 0.011375579437118684 0 0.035502131977667668 0.010332566951787714 0 0.03540541104483598 0.011375579437118684 0 0.035418787886648297 0.012926355008125234 0 0.034258858058773094 0.011532789354712284 0 0.03540541104483598 0.011375579437118684 0 0.034258858058773094 0.011532789354712284 0 0.034896200210615777 0.010763910807610768 0 0.035418787886648297 0.012926355008125234 0 0.035886856127854153 0.012205079565880147 0 0.036474687296795427 0.013243924756705175 0 0.03540541104483598 0.011375579437118684 0 0.035418787886648297 0.012926355008125234 0 0.035886856127854153 0.012205079565880147 0 0.036069223790334448 0.012161772626878441 0 0.035886856127854153 0.012205079565880147 0 0.036474687296795427 0.013243924756705175 0 0.036474687296795427 0.013243924756705175 0 0.03544887404800727 0.014309530453179389 0 0.035865139797785668 0.015291316850980147 0 0.035418787886648297 0.012926355008125234 0 0.03544887404800727 0.014309530453179389 0 0.034850021415446755 0.014189496769172942 0 0.035418787886648297 0.012926355008125234 0 0.036474687296795427 0.013243924756705175 0 0.03544887404800727 0.014309530453179389 0 0.035865139797785668 0.015291316850980147 0 0.035101724798957866 0.015527897864174151 0 0.035400361818517301 0.016565682150329428 0 0.03544887404800727 0.014309530453179389 0 0.035865139797785668 0.015291316850980147 0 0.035101724798957866 0.015527897864174151 0 0.035865139797785668 0.015291316850980147 0 0.035400361818517301 0.016565682150329428 0 0.035908080622017828 0.01669067552248512 0 0.035865139797785668 0.015291316850980147 0 0.03648533181944081 0.016380717329368352 0 0.035908080622017828 0.01669067552248512 0 0.036474687296795427 0.013243924756705175 0 0.035865139797785668 0.015291316850980147 0 0.036748815319546331 0.015554506809183822 0 0.038128475591608819 0.016032583434557428 0 0.036474687296795427 0.013243924756705175 0 0.036748815319546331 0.015554506809183822 0 0.035865139797785668 0.015291316850980147 0 0.036748815319546331 0.015554506809183822 0 0.03648533181944081 0.016380717329368352 0 0.035092610889567208 0.016920536949130632 0 0.035101724798957866 0.015527897864174151 0 0.034996543706011303 0.016344816180008569 0 0.035092610889567208 0.016920536949130632 0 0.034996543706011303 0.016344816180008569 0 0.035000276453011916 0.017627323928122361 0 0.035092610889567208 0.016920536949130632 0 0.035101724798957866 0.015527897864174151 0 0.035400361818517301 0.016565682150329428 0 0.035101724798957866 0.015527897864174151 0 0.034850021415446755 0.014189496769172942 0 0.034996543706011303 0.016344816180008569 0 0.03544887404800727 0.014309530453179389 0 0.035101724798957866 0.015527897864174151 0 0.034850021415446755 0.014189496769172942 0 0.035000004526021172 0.016346985309639638 0 0.035766308557783753 0.014892986856281513 0 0.034999989492832999 0.015192017592561554 0 0.034999922324038937 0.016343600947735095 0 0.035356827644926557 0.014337248586751594 0 0.034850021415446755 0.014189496769172942 0 0.034996543706011303 0.016344816180008569 0 0.034134278058540378 0.01366092317791145 0 0.035766308557783753 0.014892986856281513 0 0.034999989492832999 0.015192017592561554 0 0.035000006934439568 0.014037110902436211 0 0.035418787886648297 0.012926355008125234 0 0.034850021415446755 0.014189496769172942 0 0.034258858058773094 0.011532789354712284 0 0.034850021415446755 0.014189496769172942 0 0.034134278058540378 0.01366092317791145 0 0.034258858058773094 0.011532789354712284 0 0.035356827644926557 0.014337248586751594 0 0.035566049421903299 0.012808834799453545 0 0.035766308557783753 0.014892986856281513 0 0.035000006934439568 0.014037110902436211 0 0.035651212226318355 0.013517737165365659 0 0.035766308557783753 0.014892986856281513 0 0.03651281840634811 0.01345844529857825 0 0.035651212226318355 0.013517737165365659 0 0.034999666108221923 0.0140441924712713 0 0.035463220560500268 0.012855300539658469 0 0.035000006934439568 0.014037110902436211 0 0.035651212226318355 0.013517737165365659 0 0.035101268197193176 0.01290106644307654 0 0.03651281840634811 0.01345844529857825 0 0.035651212226318355 0.013517737165365659 0 0.035980173144609197 0.012699817109339791 0 0.035101268197193176 0.01290106644307654 0 0.035980173144609197 0.012699817109339791 0 0.035196931000087625 0.01177287150587052 0 0.035463220560500268 0.012855300539658469 0 0.035066452018674081 0.011631025439108598 0 0.034903134366041061 0.012874583022536249 0 0.03499990630260217 0.011686000111282626 0 0.03518415068319037 0.011712303971037103 0 0.035651212226318355 0.013517737165365659 0 0.035101268197193176 0.01290106644307654 0 0.035980173144609197 0.012699817109339791 0 0.035980173144609197 0.012699817109339791 0 0.035196931000087625 0.01177287150587052 0 0.03622721910944434 0.011912408108528463 0 0.034556296079116776 0.0091276139548890373 0 0.034731267366498238 0.0089791082003808417 0 0.034667525782256473 0.0087413992825890238 0 0.035066452018674081 0.011631025439108598 0 0.035108437499221608 0.010347529329952523 0 0.035000184620086618 0.011686246722608613 0 0.035193709820534609 0.011712307544747008 0 0.035344924433552437 0.010236879397228504 0 0.035000797078141695 0.011684757241670523 0 0.035066452018674081 0.011631025439108598 0 0.035066452018674081 0.011631025439108598 0 0.035344591753947517 0.011638137755260326 0 0.034556296079116776 0.0091276139548890373 0 0.034731267366498238 0.0089791082003808417 0 0.034757957480182421 0.0091636122666492389 0 0.034796790877506603 0.0091557807226242231 0 0.034825108903054736 0.0091036027139074233 0 0.034810665391909627 0.0089384118422716295 0 0.034731267366498238 0.0089791082003808417 0 0.034796790877506603 0.0091557807226242231 0 0.034810665391909627 0.0089384118422716295 0 0.034731267366498238 0.0089791082003808417 0 0.034796790877506603 0.0091557807226242231 0 0.034757957480182421 0.0091636122666492389 0 0.035344591753947517 0.011638137755260326 0 0.035599432438230966 0.011790726803409382 0 0.034796790877506603 0.0091557807226242231 0 0.034757957480182421 0.0091636122666492389 0 0.034804002221950375 0.0092399015408593937 0 0.035980173144609197 0.012699817109339791 0 0.03622721910944434 0.011912408108528463 0 0.037256059845908643 0.012050337296922202 0 0.03651281840634811 0.01345844529857825 0 0.035980173144609197 0.012699817109339791 0 0.037256059845908643 0.012050337296922202 0 0.035566049421903299 0.012808834799453545 0 0.035599432438230966 0.011790726803409382 0 0.03540541104483598 0.011375579437118684 0 0.034896200210615777 0.010763910807610768 0 0.035141811305036241 0.0099978652946756466 0 0.034258858058773094 0.011532789354712284 0 0.034896200210615777 0.010763910807610768 0 0.034582350243970134 0.010102780977980777 0 0.034896200210615777 0.010763910807610768 0 0.035141811305036241 0.0099978652946756466 0 0.034582350243970134 0.010102780977980777 0 0.035473218305428073 0.011667775743387263 0 0.035599432438230966 0.011790726803409382 0 0.03540541104483598 0.011375579437118684 0 0.035502131977667668 0.010332566951787714 0 0.035141811305036241 0.0099978652946756466 0 0.035502131977667668 0.010332566951787714 0 0.035141811305036241 0.0099978652946756466 0 0.035264160573251171 0.0095918184787132342 0 0.035141811305036241 0.0099978652946756466 0 0.035264160573251171 0.0095918184787132342 0 0.035075779799180098 0.009261903389967855 0 0.035264160573251171 0.0095918184787132342 0 0.035075779799180098 0.009261903389967855 0 0.03514721245819992 0.0089947172133569824 0 0.035385767051471853 0.0095466149320330863 0 0.035264160573251171 0.0095918184787132342 0 0.03514721245819992 0.0089947172133569824 0 0.034796790877506603 0.0091557807226242231 0 0.034776621528944306 0.0093325714044026099 0 0.034804002221950375 0.0092399015408593937 0 0.035620728757564994 0.011695850182475338 0 0.035599432438230966 0.011790726803409382 0 0.035141811305036241 0.0099978652946756466 0 0.034776621528944306 0.0093325714044026099 0 0.034605737072586684 0.0096492246871602693 0 0.035141811305036241 0.0099978652946756466 0 0.035075779799180098 0.009261903389967855 0 0.034776621528944306 0.0093325714044026099 0 0.035075779799180098 0.009261903389967855 0 0.034776621528944306 0.0093325714044026099 0 0.034907561313474986 0.0091585726295758275 0 0.034796790877506603 0.0091557807226242231 0 0.034776621528944306 0.0093325714044026099 0 0.034825108903054736 0.0091036027139074233 0 0.034776621528944306 0.0093325714044026099 0 0.034907561313474986 0.0091585726295758275 0 0.034825108903054736 0.0091036027139074233 0 0.034912446224606597 0.0088970622844356841 0 0.03514721245819992 0.0089947172133569824 0 0.035015796281014325 0.0085529005712975305 0 0.034907561313474986 0.0091585726295758275 0 0.034825108903054736 0.0091036027139074233 0 0.034912446224606597 0.0088970622844356841 0 0.034825108903054736 0.0091036027139074233 0 0.034912446224606597 0.0088970622844356841 0 0.034810665391909627 0.0089384118422716295 0 0.035075779799180098 0.009261903389967855 0 0.034907561313474986 0.0091585726295758275 0 0.034912446224606597 0.0088970622844356841 0 0.034912446224606597 0.0088970622844356841 0 0.035015796281014325 0.0085529005712975305 0 0.034933226704013332 0.0085512520831151611 0 0.035075779799180098 0.009261903389967855 0 0.034912446224606597 0.0088970622844356841 0 0.03514721245819992 0.0089947172133569824 0 0.03514721245819992 0.0089947172133569824 0 0.035121232953091754 0.0085641786825025688 0 0.035015796281014325 0.0085529005712975305 0 0.03503655531549716 0.0081726590537808171 0 0.035139280961649227 0.0083142889745982471 0 0.035121232953091754 0.0085641786825025688 0 0.03503655531549716 0.0081726590537808171 0 0.035121232953091754 0.0085641786825025688 0 0.035015796281014325 0.0085529005712975305 0 0.035015796281014325 0.0085529005712975305 0 0.035005254034290251 0.0082876471630792398 0 0.034933226704013332 0.0085512520831151611 0 0.03503655531549716 0.0081726590537808171 0 0.035015796281014325 0.0085529005712975305 0 0.035005254034290251 0.0082876471630792398 0 0.035005254034290251 0.0082876471630792398 0 0.0349898779108389 0.0082961957980771731 0 0.034933226704013332 0.0085512520831151611 0 0.0349898779108389 0.0082961957980771731 0 0.034933226704013332 0.0085512520831151611 0 0.034878450811270487 0.0085821299583877346 0 0.034933226704013332 0.0085512520831151611 0 0.034878450811270487 0.0085821299583877346 0 0.034857522085838206 0.0087189581533455834 0 0.035107712708149476 0.0085733118247638771 0 0.034878450811270487 0.0085821299583877346 0 0.034667525782256473 0.0087413992825890238 0 0.035127251817172363 0.0099035451101085262 0 0.035108437499221608 0.010347529329952523 0 0.035107712708149476 0.0085733118247638771 0 0.0349898779108389 0.0082961957980771731 0 0.034878450811270487 0.0085821299583877346 0 0.035107712708149476 0.0085733118247638771 0 0.034999716092244761 0.009616490260827823 0 0.035344924433552437 0.010236879397228504 0 0.034878450811270487 0.0085821299583877346 0 0.034667525782256473 0.0087413992825890238 0 0.034793416095074289 0.0087863974526540232 0 0.035000184620086618 0.011686246722608613 0 0.034999716092244761 0.009616490260827823 0 0.035344924433552437 0.010236879397228504 0 0.034731267366498238 0.0089791082003808417 0 0.034667525782256473 0.0087413992825890238 0 0.034793416095074289 0.0087863974526540232 0 0.034731267366498238 0.0089791082003808417 0 0.034810665391909627 0.0089384118422716295 0 0.034793416095074289 0.0087863974526540232 0 0.034912446224606597 0.0088970622844356841 0 0.034810665391909627 0.0089384118422716295 0 0.034857522085838206 0.0087189581533455834 0 0.034912446224606597 0.0088970622844356841 0 0.034933226704013332 0.0085512520831151611 0 0.034857522085838206 0.0087189581533455834 0 0.034878450811270487 0.0085821299583877346 0 0.034857522085838206 0.0087189581533455834 0 0.034793416095074289 0.0087863974526540232 0 0.034810665391909627 0.0089384118422716295 0 0.034857522085838206 0.0087189581533455834 0 0.034793416095074289 0.0087863974526540232 0 0.036319557026902316 0.025246998371356997 0 0.037293791221139357 0.024358448922553143 0 0.036127625401922651 0.023690348246694051 0 0.036319557026902316 0.025246998371356997 0 0.034999861956836624 0.025095663173479266 0 0.036127625401922651 0.023690348246694051 0 0.034999861956836624 0.025095663173479266 0 0.036230597002333623 0.026597245731711263 0 0.034999993604961088 0.027158187945181246 0 0.036319557026902316 0.025246998371356997 0 0.034999861956836624 0.025095663173479266 0 0.036230597002333623 0.026597245731711263 0 0.036319557026902316 0.025246998371356997 0 0.037389423193382995 0.026322627596015651 0 0.036230597002333623 0.026597245731711263 0 0.037389423193382995 0.026322627596015651 0 0.037787650071221403 0.025824607215053835 0 0.038096916786700553 0.026531442880399134 0 0.036319557026902316 0.025246998371356997 0 0.037389423193382995 0.026322627596015651 0 0.037293791221139357 0.024358448922553143 0 0.037389423193382995 0.026322627596015651 0 0.037787650071221403 0.025824607215053835 0 0.037286193455268124 0.025830474968162327 0 0.037153156265688637 0.025187389555363576 0 0.037025434405754662 0.024656874397749294 0 0.037286193455268124 0.025830474968162327 0 0.037522873272284651 0.025472316589469197 0 0.037122803531179048 0.025225786509699512 0 0.037787650071221403 0.025824607215053835 0 0.037286193455268124 0.025830474968162327 0 0.037522873272284651 0.025472316589469197 0 0.037025434405754662 0.024656874397749294 0 0.036694593068187717 0.023449414552865821 0 0.037787650071221403 0.025824607215053835 0 0.037522873272284651 0.025472316589469197 0 0.037874568709425689 0.025291529669501354 0 0.037787650071221403 0.025824607215053835 0 0.037874568709425689 0.025291529669501354 0 0.038141656277078627 0.025583518549937383 0 0.036367093315788523 0.021189863875008933 0 0.035559863789383667 0.020439247901468602 0 0.037522873272284651 0.025472316589469197 0 0.037874568709425689 0.025291529669501354 0 0.037636848165222392 0.024920172963181692 0 0.037874568709425689 0.025291529669501354 0 0.037636848165222392 0.024920172963181692 0 0.03828171118480829 0.025232188416418222 0 0.037522873272284651 0.025472316589469197 0 0.037122803531179048 0.025225786509699512 0 0.037636848165222392 0.024920172963181692 0 0.036977998516156609 0.022601824139870923 0 0.036127625401922651 0.023690348246694051 0 0.035834271785925582 0.021972090291654107 0 0.037293791221139357 0.024358448922553143 0 0.036977998516156609 0.022601824139870923 0 0.036127625401922651 0.023690348246694051 0 0.034999861956836624 0.025095663173479266 0 0.036127625401922651 0.023690348246694051 0 0.03499997157393709 0.023032811154612903 0 0.03499997157393709 0.023032811154612903 0 0.035834271785925582 0.021972090291654107 0 0.034999951014550411 0.02097003082122665 0 0.036127625401922651 0.023690348246694051 0 0.03499997157393709 0.023032811154612903 0 0.035834271785925582 0.021972090291654107 0 0.035834271785925582 0.021972090291654107 0 0.035774612936249471 0.021090086379522869 0 0.034999951014550411 0.02097003082122665 0 0.035834271785925582 0.021972090291654107 0 0.035774612936249471 0.021090086379522869 0 0.036628448648761094 0.02091258930517266 0 0.035774612936249471 0.021090086379522869 0 0.034999951014550411 0.02097003082122665 0 0.035323484667554708 0.02023934194103244 0 0.036694593068187717 0.023449414552865821 0 0.036090291158280934 0.021421393563239639 0 0.036977998516156609 0.022601824139870923 0 0.035834271785925582 0.021972090291654107 0 0.036628448648761094 0.02091258930517266 0 0.036947082123176794 0.020864471944616065 0 0.036634247327754832 0.019508522561289245 0 0.035323484667554708 0.02023934194103244 0 0.036737060818240685 0.018675079980610416 0 0.03653266686883698 0.019013800469620125 0 0.036366552459288562 0.018600731291037977 0 0.036737060818240685 0.018675079980610416 0 0.03653266686883698 0.019013800469620125 0 0.036634247327754832 0.019508522561289245 0 0.036090291158280934 0.021421393563239639 0 0.036063606907208397 0.021029655140478824 0 0.03653266686883698 0.019013800469620125 0 0.036634247327754832 0.019508522561289245 0 0.036700175252993988 0.019337235520648196 0 0.036634247327754832 0.019508522561289245 0 0.035323484667554708 0.02023934194103244 0 0.035000202005382175 0.01890696468437136 0 0.034999951014550411 0.02097003082122665 0 0.035323484667554708 0.02023934194103244 0 0.035000202005382175 0.01890696468437136 0 0.035774612936249471 0.021090086379522869 0 0.036628448648761094 0.02091258930517266 0 0.035323484667554708 0.02023934194103244 0 0.036090291158280934 0.021421393563239639 0 0.035885707633068406 0.021231365470193744 0 0.036634247327754832 0.019508522561289245 0 0.035000202005382175 0.01890696468437136 0 0.036700175252993988 0.019337235520648196 0 0.034999012906647142 0.018904932712496967 0 0.035213819113952737 0.018161370651989216 0 0.035102601577565958 0.01796890798660393 0 0.034999012906647142 0.018904932712496967 0 0.035264425772606606 0.018228335153203132 0 0.035213819113952737 0.018161370651989216 0 0.035000774671448118 0.01890729789512546 0 0.035573348299380927 0.018984538298837533 0 0.035264425772606606 0.018228335153203132 0 0.035320734044888051 0.018095387601555678 0 0.035213819113952737 0.018161370651989216 0 0.035264425772606606 0.018228335153203132 0 0.035320734044888051 0.018095387601555678 0 0.035657410050910131 0.018213688406912457 0 0.035405556525844296 0.017860458762325084 0 0.035320734044888051 0.018095387601555678 0 0.035657410050910131 0.018213688406912457 0 0.035405556525844296 0.017860458762325084 0 0.035213819113952737 0.018161370651989216 0 0.035258725179724705 0.017503491523522281 0 0.035405556525844296 0.017860458762325084 0 0.035320734044888051 0.018095387601555678 0 0.035213819113952737 0.018161370651989216 0 0.035092610889567208 0.016920536949130632 0 0.035258725179724705 0.017503491523522281 0 0.035400361818517301 0.016565682150329428 0 0.035405556525844296 0.017860458762325084 0 0.035258725179724705 0.017503491523522281 0 0.035616145548303543 0.017350543639610843 0 0.035258725179724705 0.017503491523522281 0 0.035400361818517301 0.016565682150329428 0 0.035616145548303543 0.017350543639610843 0 0.034999012906647142 0.018904932712496967 0 0.035000276453011916 0.017627323928122361 0 0.035102601577565958 0.01796890798660393 0 0.035092610889567208 0.016920536949130632 0 0.035258725179724705 0.017503491523522281 0 0.035102601577565958 0.01796890798660393 0 0.035092610889567208 0.016920536949130632 0 0.035000276453011916 0.017627323928122361 0 0.035102601577565958 0.01796890798660393 0 0.035213819113952737 0.018161370651989216 0 0.035258725179724705 0.017503491523522281 0 0.035102601577565958 0.01796890798660393 0 0.036297175311560091 0.017542357709837787 0 0.037221801369274297 0.01664608402105246 0 0.037806698436389126 0.017398079165699742 0 0.038128475591608819 0.016032583434557428 0 0.036748815319546331 0.015554506809183822 0 0.037221801369274297 0.01664608402105246 0 0.036748815319546331 0.015554506809183822 0 0.037221801369274297 0.01664608402105246 0 0.03648533181944081 0.016380717329368352 0 0.036297175311560091 0.017542357709837787 0 0.037221801369274297 0.01664608402105246 0 0.03648533181944081 0.016380717329368352 0 0.036297175311560091 0.017542357709837787 0 0.03648533181944081 0.016380717329368352 0 0.035908080622017828 0.01669067552248512 0 0.035400361818517301 0.016565682150329428 0 0.035908080622017828 0.01669067552248512 0 0.035616145548303543 0.017350543639610843 0 0.036297175311560091 0.017542357709837787 0 0.035908080622017828 0.01669067552248512 0 0.035616145548303543 0.017350543639610843 0 0.036297175311560091 0.017542357709837787 0 0.035792307711912205 0.017996723911292561 0 0.036075090061702307 0.018370969258942025 0 0.036297175311560091 0.017542357709837787 0 0.035616145548303543 0.017350543639610843 0 0.035792307711912205 0.017996723911292561 0 0.035405556525844296 0.017860458762325084 0 0.035792307711912205 0.017996723911292561 0 0.035657410050910131 0.018213688406912457 0 0.035405556525844296 0.017860458762325084 0 0.035616145548303543 0.017350543639610843 0 0.035792307711912205 0.017996723911292561 0 0.035792307711912205 0.017996723911292561 0 0.035657410050910131 0.018213688406912457 0 0.036075090061702307 0.018370969258942025 0 0.035657410050910131 0.018213688406912457 0 0.036075090061702307 0.018370969258942025 0 0.036197032636868944 0.018779111590126223 0 0.034706230430669761 0.016229742537090554 0 0.034681789721122583 0.015720868543740902 0 0.036297175311560091 0.017542357709837787 0 0.036412676873176987 0.018747116127700369 0 0.037806698436389126 0.017398079165699742 0 0.036297175311560091 0.017542357709837787 0 0.036075090061702307 0.018370969258942025 0 0.036412676873176987 0.018747116127700369 0 0.036412676873176987 0.018747116127700369 0 0.036100512914994061 0.018569029108308679 0 0.035526053174252829 0.01888693079761445 0 0.036075090061702307 0.018370969258942025 0 0.036412676873176987 0.018747116127700369 0 0.036197032636868944 0.018779111590126223 0 0.036412676873176987 0.018747116127700369 0 0.036100512914994061 0.018569029108308679 0 0.036197032636868944 0.018779111590126223 0 0.036100512914994061 0.018569029108308679 0 0.036197032636868944 0.018779111590126223 0 0.036183436400569299 0.018475590792829399 0 0.035264425772606606 0.018228335153203132 0 0.035657410050910131 0.018213688406912457 0 0.036197032636868944 0.018779111590126223 0 0.03653266686883698 0.019013800469620125 0 0.036700175252993988 0.019337235520648196 0 0.036197032636868944 0.018779111590126223 0 0.035573348299380927 0.018984538298837533 0 0.03583265322622356 0.019030574716838746 0 0.036197032636868944 0.018779111590126223 0 0.036366552459288562 0.018600731291037977 0 0.036183436400569299 0.018475590792829399 0 0.03653266686883698 0.019013800469620125 0 0.036197032636868944 0.018779111590126223 0 0.036366552459288562 0.018600731291037977 0 0.036737060818240685 0.018675079980610416 0 0.036366552459288562 0.018600731291037977 0 0.036253016717922151 0.018054028000366467 0 0.036090291158280934 0.021421393563239639 0 0.036367093315788523 0.021189863875008933 0 0.037122803531179048 0.025225786509699512 0 0.036975278845609263 0.024593290807722164 0 0.037636848165222392 0.024920172963181692 0 0.036366552459288562 0.018600731291037977 0 0.036183436400569299 0.018475590792829399 0 0.036253016717922151 0.018054028000366467 0 0.035989363436663632 0.018281363028056444 0 0.036253016717922151 0.018054028000366467 0 0.035694760187565441 0.017912155693469514 0 0.036100512914994061 0.018569029108308679 0 0.035989363436663632 0.018281363028056444 0 0.035585766202373616 0.018339283821438925 0 0.036100512914994061 0.018569029108308679 0 0.035989363436663632 0.018281363028056444 0 0.036183436400569299 0.018475590792829399 0 0.035989363436663632 0.018281363028056444 0 0.036183436400569299 0.018475590792829399 0 0.036253016717922151 0.018054028000366467 0 0.035694760187565441 0.017912155693469514 0 0.035585766202373616 0.018339283821438925 0 0.035061317135288365 0.017883649669589944 0 0.035585766202373616 0.018339283821438925 0 0.035061317135288365 0.017883649669589944 0 0.034939302466065011 0.018500450252558101 0 0.035989363436663632 0.018281363028056444 0 0.035694760187565441 0.017912155693469514 0 0.035585766202373616 0.018339283821438925 0 0.035061317135288365 0.017883649669589944 0 0.034290850099519654 0.018330939238057516 0 0.033768573000307833 0.016780352467027096 0 0.035061317135288365 0.017883649669589944 0 0.034290850099519654 0.018330939238057516 0 0.034939302466065011 0.018500450252558101 0 0.034290850099519654 0.018330939238057516 0 0.034416001537262826 0.01869285171096062 0 0.034939302466065011 0.018500450252558101 0 0.034416001537262826 0.01869285171096062 0 0.034939302466065011 0.018500450252558101 0 0.034790403888103887 0.018948314616373529 0 0.034939302466065011 0.018500450252558101 0 0.034790403888103887 0.018948314616373529 0 0.035526053174252829 0.01888693079761445 0 0.034416001537262826 0.01869285171096062 0 0.034790403888103887 0.018948314616373529 0 0.034250790797270253 0.019079249345660611 0 0.035585766202373616 0.018339283821438925 0 0.034939302466065011 0.018500450252558101 0 0.035526053174252829 0.01888693079761445 0 0.036100512914994061 0.018569029108308679 0 0.035585766202373616 0.018339283821438925 0 0.035526053174252829 0.01888693079761445 0 0.035526053174252829 0.01888693079761445 0 0.034913194949016679 0.019461566570973105 0 0.035740640375850487 0.01977228730596545 0 0.036412676873176987 0.018747116127700369 0 0.035526053174252829 0.01888693079761445 0 0.035740640375850487 0.01977228730596545 0 0.034913194949016679 0.019461566570973105 0 0.034184139287734887 0.019742510343407193 0 0.034250790797270253 0.019079249345660611 0 0.034790403888103887 0.018948314616373529 0 0.035526053174252829 0.01888693079761445 0 0.034913194949016679 0.019461566570973105 0 0.034790403888103887 0.018948314616373529 0 0.034913194949016679 0.019461566570973105 0 0.034250790797270253 0.019079249345660611 0 0.035137052110585799 0.020543484535900807 0 0.035068871293468161 0.020157758855622144 0 0.034184139287734887 0.019742510343407193 0 0.034913194949016679 0.019461566570973105 0 0.035068871293468161 0.020157758855622144 0 0.034184139287734887 0.019742510343407193 0 0.034625948478972129 0.013832083267911991 0 0.032293143967092999 0.015389672608302882 0 0.029605029491007184 0.011104329904782752 0 0.028780359746048041 0.011253629879172609 0 0.029679114078860511 0.011932108644276301 0 0.038128475591608819 0.016032583434557428 0 0.039183839228244269 0.015739238483710581 0 0.037806698436389126 0.017398079165699742 0 0.035137052110585799 0.020543484535900807 0 0.035068871293468161 0.020157758855622144 0 0.035740640375850487 0.01977228730596545 0 0.034625948478972129 0.013832083267911991 0 0.034681789721122583 0.015720868543740902 0 0.034913194949016679 0.019461566570973105 0 0.035068871293468161 0.020157758855622144 0 0.035740640375850487 0.01977228730596545 0 0.038128475591608819 0.016032583434557428 0 0.037221801369274297 0.01664608402105246 0 0.037806698436389126 0.017398079165699742 0 0.030350431020567347 0.011991491280384148 0 0.029921306328363088 0.011534435246620137 0 0.029679114078860511 0.011932108644276301 0 0.030350431020567347 0.011991491280384148 0 0.030314835130026276 0.011621972795189629 0 0.030460408083105617 0.011907007124048952 0 0.030350431020567347 0.011991491280384148 0 0.030314835130026276 0.011621972795189629 0 0.029921306328363088 0.011534435246620137 0 0.029605029491007184 0.011104329904782752 0 0.029921306328363088 0.011534435246620137 0 0.029679114078860511 0.011932108644276301 0 0.034184139287734887 0.019742510343407193 0 0.034250790797270253 0.019079249345660611 0 0.033395316486358385 0.019068476368125288 0 0.030350431020567347 0.011991491280384148 0 0.030739309410032063 0.011806492693117425 0 0.030080322654307205 0.012461602348837838 0 0.032293143967092999 0.015389672608302882 0 0.03041919308458018 0.016872960289907687 0 0.030350431020567347 0.011991491280384148 0 0.029679114078860511 0.011932108644276301 0 0.030739309410032063 0.011806492693117425 0 0.030635161816700257 0.021846705980983868 0 0.032571380889976707 0.020157553390707864 0 0.030567041351259341 0.019242411763846182 0 0.03041919308458018 0.016872960289907687 0 0.031204507348394615 0.01722989392507213 0 0.034250790797270253 0.019079249345660611 0 0.033395316486358385 0.019068476368125288 0 0.033945772554380395 0.01864697157034214 0 0.034416001537262826 0.01869285171096062 0 0.034250790797270253 0.019079249345660611 0 0.033945772554380395 0.01864697157034214 0 0.034290850099519654 0.018330939238057516 0 0.034416001537262826 0.01869285171096062 0 0.033945772554380395 0.01864697157034214 0 0.034290850099519654 0.018330939238057516 0 0.032398950072535279 0.018157278512459268 0 0.033768573000307833 0.016780352467027096 0 0.031590380292143269 0.017220740779894567 0 0.031204507348394615 0.01722989392507213 0 0.034290850099519654 0.018330939238057516 0 0.032571380889976707 0.020157553390707864 0 0.032398950072535279 0.018157278512459268 0 0.032398950072535279 0.018157278512459268 0 0.030567041351259341 0.019242411763846182 0 0.030567854235923606 0.01675514587656788 0 0.032571380889976707 0.020157553390707864 0 0.032398950072535279 0.018157278512459268 0 0.030567041351259341 0.019242411763846182 0 0.029549994773265739 0.017072844910184095 0 0.030473219984004742 0.01585049370204538 0 0.031909068523949584 0.016795591317927738 0 0.029549994773265739 0.017072844910184095 0 0.030473219984004742 0.01585049370204538 0 0.028256125271530354 0.015357080207224124 0 0.030473219984004742 0.01585049370204538 0 0.030070252836483003 0.014507283984912316 0 0.028256125271530354 0.015357080207224124 0 0.030473219984004742 0.01585049370204538 0 0.030070252836483003 0.014507283984912316 0 0.032171737661550771 0.015487695353521248 0 0.034608989545846888 0.020941559157986546 0 0.035227776661679713 0.020706421157386849 0 0.039455774234194704 0.025845885305264382 0 0.038871262408451894 0.025539736208195881 0 0.038790467614979542 0.025942179970542014 0 0.030834708890412427 0.018594497836210016 0 0.03302478121528446 0.019145113569760824 0 0.030473219984004742 0.01585049370204538 0 0.032171737661550771 0.015487695353521248 0 0.031909068523949584 0.016795591317927738 0 0.032398950072535279 0.018157278512459268 0 0.030567854235923606 0.01675514587656788 0 0.033768573000307833 0.016780352467027096 0 0.03302478121528446 0.019145113569760824 0 0.035559863789383667 0.020439247901468602 0 0.035061317135288365 0.017883649669589944 0 0.033768573000307833 0.016780352467027096 0 0.035415192134603021 0.017093897226600138 0 0.032171737661550771 0.015487695353521248 0 0.031909068523949584 0.016795591317927738 0 0.034294819579778847 0.016499141534184854 0 0.035227776661679713 0.020706421157386849 0 0.035559863789383667 0.020439247901468602 0 0.036035954304681164 0.020730442827796826 0 0.035559863789383667 0.020439247901468602 0 0.036253016717922151 0.018054028000366467 0 0.035694760187565441 0.017912155693469514 0 0.035415192134603021 0.017093897226600138 0 0.037874568709425689 0.025291529669501354 0 0.038300343458818935 0.025245314936994508 0 0.038141656277078627 0.025583518549937383 0 0.035694760187565441 0.017912155693469514 0 0.035061317135288365 0.017883649669589944 0 0.035415192134603021 0.017093897226600138 0 0.037787650071221403 0.025824607215053835 0 0.038141656277078627 0.025583518549937383 0 0.038320837975815029 0.025953047517531976 0 0.038300343458818935 0.025245314936994508 0 0.038141656277078627 0.025583518549937383 0 0.038468342510009912 0.025638117812035503 0 0.038141656277078627 0.025583518549937383 0 0.038468342510009912 0.025638117812035503 0 0.038320837975815029 0.025953047517531976 0 0.038871262408451894 0.025539736208195881 0 0.038300343458818935 0.025245314936994508 0 0.038468342510009912 0.025638117812035503 0 0.038871262408451894 0.025539736208195881 0 0.038468342510009912 0.025638117812035503 0 0.038790467614979542 0.025942179970542014 0 0.038468342510009912 0.025638117812035503 0 0.038790467614979542 0.025942179970542014 0 0.038320837975815029 0.025953047517531976 0 0.038790467614979542 0.025942179970542014 0 0.038320837975815029 0.025953047517531976 0 0.038617680620671578 0.026414594725054336 0 0.038790467614979542 0.025942179970542014 0 0.038617680620671578 0.026414594725054336 0 0.039043263568365266 0.026252882890873335 0 0.037787650071221403 0.025824607215053835 0 0.038320837975815029 0.025953047517531976 0 0.038096916786700553 0.026531442880399134 0 0.038320837975815029 0.025953047517531976 0 0.038096916786700553 0.026531442880399134 0 0.038617680620671578 0.026414594725054336 0 0.038096916786700553 0.026531442880399134 0 0.038617680620671578 0.026414594725054336 0 0.038698593753706031 0.027072216877768347 0 0.038617680620671578 0.026414594725054336 0 0.039176339256908783 0.026763032761023865 0 0.038698593753706031 0.027072216877768347 0 0.039176339256908783 0.026763032761023865 0 0.039544501239787734 0.02637413454335653 0 0.039043263568365266 0.026252882890873335 0 0.038617680620671578 0.026414594725054336 0 0.039176339256908783 0.026763032761023865 0 0.039043263568365266 0.026252882890873335 0 0.039176339256908783 0.026763032761023865 0 0.039544501239787734 0.02637413454335653 0 0.039907637674208594 0.026828221019423056 0 0.039455774234194704 0.025845885305264382 0 0.039544501239787734 0.02637413454335653 0 0.039043263568365266 0.026252882890873335 0 0.039455774234194704 0.025845885305264382 0 0.039544501239787734 0.02637413454335653 0 0.040071985685244907 0.026171072091301192 0 0.039455774234194704 0.025845885305264382 0 0.038790467614979542 0.025942179970542014 0 0.039043263568365266 0.026252882890873335 0 0.034133571210709479 0.021509692050487497 0 0.03452686624154188 0.023003416896796407 0 0.026982181226623183 0.013767799049520616 0 0.02806714893203419 0.013567890032853669 0 0.026217933874361506 0.012523658893627937 0 0.026982181226623183 0.013767799049520616 0 0.02634185459830542 0.013632219811284452 0 0.026217933874361506 0.012523658893627937 0 0.026982181226623183 0.013767799049520616 0 0.02634185459830542 0.013632219811284452 0 0.026373869129853969 0.01451980547011422 0 0.026982181226623183 0.013767799049520616 0 0.02806714893203419 0.013567890032853669 0 0.028256125271530354 0.015357080207224124 0 0.034608989545846888 0.020941559157986546 0 0.034133571210709479 0.021509692050487497 0 0.039544501239787734 0.02637413454335653 0 0.040071985685244907 0.026171072091301192 0 0.039907637674208594 0.026828221019423056 0 0.040071985685244907 0.026171072091301192 0 0.039907637674208594 0.026828221019423056 0 0.040289992450493028 0.0265073574633524 0 0.039907637674208594 0.026828221019423056 0 0.040331422434692288 0.026796826068795375 0 0.040289992450493028 0.0265073574633524 0 0.040071985685244907 0.026171072091301192 0 0.040289992450493028 0.0265073574633524 0 0.040698450258218631 0.026527343426767117 0 0.040331422434692288 0.026796826068795375 0 0.040289992450493028 0.0265073574633524 0 0.040567453951981282 0.026691476994793351 0 0.040289992450493028 0.0265073574633524 0 0.040567453951981282 0.026691476994793351 0 0.040698450258218631 0.026527343426767117 0 0.040567453951981282 0.026691476994793351 0 0.040698450258218631 0.026527343426767117 0 0.040680893422875258 0.026621413004827572 0 0.040331422434692288 0.026796826068795375 0 0.040567453951981282 0.026691476994793351 0 0.040559296649442134 0.026888248113506399 0 0.040559296649442134 0.026888248113506399 0 0.040670692653240026 0.026822407441416309 0 0.040706813765850079 0.026950627111114442 0 0.040567453951981282 0.026691476994793351 0 0.040559296649442134 0.026888248113506399 0 0.040670692653240026 0.026822407441416309 0 0.025518163367232834 0.012577764056109653 0 0.026217933874361506 0.012523658893627937 0 0.024621739252783412 0.012146587921552088 0 0.040670692653240026 0.026822407441416309 0 0.04071616429030428 0.026721055326038374 0 0.040800976519513941 0.026860878070541942 0 0.040670692653240026 0.026822407441416309 0 0.040800976519513941 0.026860878070541942 0 0.040706813765850079 0.026950627111114442 0 0.03452686624154188 0.023003416896796407 0 0.030653693491317722 0.023530994878045882 0 0.040854213606813836 0.026682811889712558 0 0.040698450258218631 0.026527343426767117 0 0.04130363349273062 0.026880159229041075 0 0.040854213606813836 0.026682811889712558 0 0.040940390775404428 0.026750104569523793 0 0.04130363349273062 0.026880159229041075 0 0.03452686624154188 0.023003416896796407 0 0.037774125440452978 0.024650719741465744 0 0.026217933874361506 0.012523658893627937 0 0.023618737019098057 0.011335295147141917 0 0.024621739252783412 0.012146587921552088 0 0.040567453951981282 0.026691476994793351 0 0.04071616429030428 0.026721055326038374 0 0.040680893422875258 0.026621413004827572 0 0.040567453951981282 0.026691476994793351 0 0.040670692653240026 0.026822407441416309 0 0.04071616429030428 0.026721055326038374 0 0.04071616429030428 0.026721055326038374 0 0.040680893422875258 0.026621413004827572 0 0.040758460925471439 0.026660494680141485 0 0.04071616429030428 0.026721055326038374 0 0.040826978060769313 0.026753267470803345 0 0.040758460925471439 0.026660494680141485 0 0.04071616429030428 0.026721055326038374 0 0.040826978060769313 0.026753267470803345 0 0.040800976519513941 0.026860878070541942 0 0.040854213606813836 0.026682811889712558 0 0.040826978060769313 0.026753267470803345 0 0.040758460925471439 0.026660494680141485 0 0.040826978060769313 0.026753267470803345 0 0.040800976519513941 0.026860878070541942 0 0.040911797530541957 0.026821382828820878 0 0.040911797530541957 0.026821382828820878 0 0.041043935495264666 0.026831117283494185 0 0.040943668722615963 0.026912560366450896 0 0.040800976519513941 0.026860878070541942 0 0.040911797530541957 0.026821382828820878 0 0.040943668722615963 0.026912560366450896 0 0.040911797530541957 0.026821382828820878 0 0.041043935495264666 0.026831117283494185 0 0.040940390775404428 0.026750104569523793 0 0.041043935495264666 0.026831117283494185 0 0.041084147883887097 0.026930780612765194 0 0.040943668722615963 0.026912560366450896 0 0.040826978060769313 0.026753267470803345 0 0.040911797530541957 0.026821382828820878 0 0.040940390775404428 0.026750104569523793 0 0.040854213606813836 0.026682811889712558 0 0.040826978060769313 0.026753267470803345 0 0.040940390775404428 0.026750104569523793 0 0.025111091600174818 0.012522075947131428 0 0.025518163367232834 0.012577764056109653 0 0.024621739252783412 0.012146587921552088 0 0.024895747344706527 0.012471480029280047 0 0.025111091600174818 0.012522075947131428 0 0.024621739252783412 0.012146587921552088 0 0.024895747344706527 0.012471480029280047 0 0.024629301637617014 0.012617014466000168 0 0.025034230164643685 0.012832479115577142 0 0.025111091600174818 0.012522075947131428 0 0.025417971196442121 0.012804372941168062 0 0.025034230164643685 0.012832479115577142 0 0.024895747344706527 0.012471480029280047 0 0.025111091600174818 0.012522075947131428 0 0.025034230164643685 0.012832479115577142 0 0.025111091600174818 0.012522075947131428 0 0.025518163367232834 0.012577764056109653 0 0.025417971196442121 0.012804372941168062 0 0.025518163367232834 0.012577764056109653 0 0.025764159460831149 0.012736871757732729 0 0.025417971196442121 0.012804372941168062 0 0.025518163367232834 0.012577764056109653 0 0.025764159460831149 0.012736871757732729 0 0.026217933874361506 0.012523658893627937 0 0.025764159460831149 0.012736871757732729 0 0.026217933874361506 0.012523658893627937 0 0.025863978588448043 0.01292997603984998 0 0.040698450258218631 0.026527343426767117 0 0.040680893422875258 0.026621413004827572 0 0.040758460925471439 0.026660494680141485 0 0.040854213606813836 0.026682811889712558 0 0.040698450258218631 0.026527343426767117 0 0.040758460925471439 0.026660494680141485 0 0.039856078997091648 0.026122712054204498 0 0.04130363349273062 0.026880159229041075 0 0.041440310557455853 0.026694229637487875 0 0.023618737019098057 0.011335295147141917 0 0.023412443217587179 0.011803699332121919 0 0.022925487760381991 0.011733978991348053 0 0.041435538053895347 0.026899050218497454 0 0.041440310557455853 0.026694229637487875 0 0.041592534579198107 0.02695415999188808 0 0.041435538053895347 0.026899050218497454 0 0.04130363349273062 0.026880159229041075 0 0.041440310557455853 0.026694229637487875 0 0.023618737019098057 0.011335295147141917 0 0.02397447918943427 0.011803821290879514 0 0.023717693833336089 0.011842700745838484 0 0.023618737019098057 0.011335295147141917 0 0.023717693833336089 0.011842700745838484 0 0.023412443217587179 0.011803699332121919 0 0.041043935495264666 0.026831117283494185 0 0.040940390775404428 0.026750104569523793 0 0.04130363349273062 0.026880159229041075 0 0.041043935495264666 0.026831117283494185 0 0.04130363349273062 0.026880159229041075 0 0.041165873854078751 0.0269123830892962 0 0.041043935495264666 0.026831117283494185 0 0.041084147883887097 0.026930780612765194 0 0.041165873854078751 0.0269123830892962 0 0.023618737019098057 0.011335295147141917 0 0.024621739252783412 0.012146587921552088 0 0.02397447918943427 0.011803821290879514 0 0.024621739252783412 0.012146587921552088 0 0.024629301637617014 0.012617014466000168 0 0.024275830895709533 0.0124263239060838 0 0.024895747344706527 0.012471480029280047 0 0.024621739252783412 0.012146587921552088 0 0.024629301637617014 0.012617014466000168 0 0.024275830895709533 0.0124263239060838 0 0.024011118708894025 0.012152888277341756 0 0.023845875556746339 0.012582059035750952 0 0.024621739252783412 0.012146587921552088 0 0.024275830895709533 0.0124263239060838 0 0.024011118708894025 0.012152888277341756 0 0.024621739252783412 0.012146587921552088 0 0.024011118708894025 0.012152888277341756 0 0.02397447918943427 0.011803821290879514 0 0.024011118708894025 0.012152888277341756 0 0.02397447918943427 0.011803821290879514 0 0.023717693833336089 0.011842700745838484 0 0.023717693833336089 0.011842700745838484 0 0.023598120015901648 0.012121701911162337 0 0.023412443217587179 0.011803699332121919 0 0.024011118708894025 0.012152888277341756 0 0.023717693833336089 0.011842700745838484 0 0.023598120015901648 0.012121701911162337 0 0.024011118708894025 0.012152888277341756 0 0.023598120015901648 0.012121701911162337 0 0.023845875556746339 0.012582059035750952 0 0.023598120015901648 0.012121701911162337 0 0.023845875556746339 0.012582059035750952 0 0.023193838164798905 0.012628758026129802 0 0.023598120015901648 0.012121701911162337 0 0.023160160887097301 0.012101997669414973 0 0.023193838164798905 0.012628758026129802 0 0.023160160887097301 0.012101997669414973 0 0.023412443217587179 0.011803699332121919 0 0.022925487760381991 0.011733978991348053 0 0.023598120015901648 0.012121701911162337 0 0.023160160887097301 0.012101997669414973 0 0.023412443217587179 0.011803699332121919 0 0.023193838164798905 0.012628758026129802 0 0.023663763796289698 0.013083550225390836 0 0.023057565569159839 0.013529530598373168 0 0.023663763796289698 0.013083550225390836 0 0.023924549639406881 0.013698793958608697 0 0.023057565569159839 0.013529530598373168 0 0.023845875556746339 0.012582059035750952 0 0.023193838164798905 0.012628758026129802 0 0.023663763796289698 0.013083550225390836 0 0.023845875556746339 0.012582059035750952 0 0.023663763796289698 0.013083550225390836 0 0.024205855116724486 0.012940207229101646 0 0.023663763796289698 0.013083550225390836 0 0.024205855116724486 0.012940207229101646 0 0.023924549639406881 0.013698793958608697 0 0.024205855116724486 0.012940207229101646 0 0.024584380627738218 0.013647342929442148 0 0.023924549639406881 0.013698793958608697 0 0.024629301637617014 0.012617014466000168 0 0.024275830895709533 0.0124263239060838 0 0.024205855116724486 0.012940207229101646 0 0.024275830895709533 0.0124263239060838 0 0.023845875556746339 0.012582059035750952 0 0.024205855116724486 0.012940207229101646 0 0.024629301637617014 0.012617014466000168 0 0.024205855116724486 0.012940207229101646 0 0.024694545183122606 0.013030189768674627 0 0.024629301637617014 0.012617014466000168 0 0.024694545183122606 0.013030189768674627 0 0.025034230164643685 0.012832479115577142 0 0.024694545183122606 0.013030189768674627 0 0.024584380627738218 0.013647342929442148 0 0.025086904560899688 0.013309764387856115 0 0.024205855116724486 0.012940207229101646 0 0.024694545183122606 0.013030189768674627 0 0.024584380627738218 0.013647342929442148 0 0.024584380627738218 0.013647342929442148 0 0.024917895901597785 0.014253922241462672 0 0.024383498853163554 0.014491368790394091 0 0.024584380627738218 0.013647342929442148 0 0.023924549639406881 0.013698793958608697 0 0.024383498853163554 0.014491368790394091 0 0.023924549639406881 0.013698793958608697 0 0.023590917876852975 0.014251952433047367 0 0.023057565569159839 0.013529530598373168 0 0.023924549639406881 0.013698793958608697 0 0.023590917876852975 0.014251952433047367 0 0.024383498853163554 0.014491368790394091 0 0.02634185459830542 0.013632219811284452 0 0.026217933874361506 0.012523658893627937 0 0.025998621189054286 0.01320176811016972 0 0.025581394845182622 0.013443084000754748 0 0.025998621189054286 0.01320176811016972 0 0.025667515344311619 0.013065814600168091 0 0.025923886477880406 0.0135624152832219 0 0.025581394845182622 0.013443084000754748 0 0.025998621189054286 0.01320176811016972 0 0.02634185459830542 0.013632219811284452 0 0.025923886477880406 0.0135624152832219 0 0.025998621189054286 0.01320176811016972 0 0.026217933874361506 0.012523658893627937 0 0.025998621189054286 0.01320176811016972 0 0.025863978588448043 0.01292997603984998 0 0.025998621189054286 0.01320176811016972 0 0.025863978588448043 0.01292997603984998 0 0.025667515344311619 0.013065814600168091 0 0.025764159460831149 0.012736871757732729 0 0.025863978588448043 0.01292997603984998 0 0.025667515344311619 0.013065814600168091 0 0.025764159460831149 0.012736871757732729 0 0.025667515344311619 0.013065814600168091 0 0.025417971196442121 0.012804372941168062 0 0.025417971196442121 0.012804372941168062 0 0.025369720593475729 0.013073090824389106 0 0.025034230164643685 0.012832479115577142 0 0.025667515344311619 0.013065814600168091 0 0.025417971196442121 0.012804372941168062 0 0.025369720593475729 0.013073090824389106 0 0.024694545183122606 0.013030189768674627 0 0.025034230164643685 0.012832479115577142 0 0.025086904560899688 0.013309764387856115 0 0.025369720593475729 0.013073090824389106 0 0.025034230164643685 0.012832479115577142 0 0.025086904560899688 0.013309764387856115 0 0.025581394845182622 0.013443084000754748 0 0.025369720593475729 0.013073090824389106 0 0.025086904560899688 0.013309764387856115 0 0.025581394845182622 0.013443084000754748 0 0.025086904560899688 0.013309764387856115 0 0.025238126403974648 0.013825046899606935 0 0.025581394845182622 0.013443084000754748 0 0.025667515344311619 0.013065814600168091 0 0.025369720593475729 0.013073090824389106 0 0.025581394845182622 0.013443084000754748 0 0.025238126403974648 0.013825046899606935 0 0.025835137595183938 0.013986751026986705 0 0.024584380627738218 0.013647342929442148 0 0.025238126403974648 0.013825046899606935 0 0.024917895901597785 0.014253922241462672 0 0.024584380627738218 0.013647342929442148 0 0.025086904560899688 0.013309764387856115 0 0.025238126403974648 0.013825046899606935 0 0.025238126403974648 0.013825046899606935 0 0.024917895901597785 0.014253922241462672 0 0.025408028979372305 0.014306543156439474 0 0.025238126403974648 0.013825046899606935 0 0.025408028979372305 0.014306543156439474 0 0.025835137595183938 0.013986751026986705 0 0.025408028979372305 0.014306543156439474 0 0.025835137595183938 0.013986751026986705 0 0.02574664657260109 0.014741774394772452 0 0.02634185459830542 0.013632219811284452 0 0.025835137595183938 0.013986751026986705 0 0.026373869129853969 0.01451980547011422 0 0.025923886477880406 0.0135624152832219 0 0.025581394845182622 0.013443084000754748 0 0.025835137595183938 0.013986751026986705 0 0.02634185459830542 0.013632219811284452 0 0.025923886477880406 0.0135624152832219 0 0.025835137595183938 0.013986751026986705 0 0.02574664657260109 0.014741774394772452 0 0.026202130707581098 0.015480713869504385 0 0.026373869129853969 0.01451980547011422 0 0.025835137595183938 0.013986751026986705 0 0.02574664657260109 0.014741774394772452 0 0.026373869129853969 0.01451980547011422 0 0.025408028979372305 0.014306543156439474 0 0.02574664657260109 0.014741774394772452 0 0.025091520470756343 0.014860065767451957 0 0.024917895901597785 0.014253922241462672 0 0.025408028979372305 0.014306543156439474 0 0.025091520470756343 0.014860065767451957 0 0.02574664657260109 0.014741774394772452 0 0.025091520470756343 0.014860065767451957 0 0.025425756283675906 0.015542597485139274 0 0.025091520470756343 0.014860065767451957 0 0.025425756283675906 0.015542597485139274 0 0.024668969124812083 0.015370539598328768 0 0.025425756283675906 0.015542597485139274 0 0.024668969124812083 0.015370539598328768 0 0.025018070379054954 0.016338004863970152 0 0.02574664657260109 0.014741774394772452 0 0.025425756283675906 0.015542597485139274 0 0.026202130707581098 0.015480713869504385 0 0.025425756283675906 0.015542597485139274 0 0.026202130707581098 0.015480713869504385 0 0.025828762336379377 0.016193669363575133 0 0.023590917876852975 0.014251952433047367 0 0.023860760431042464 0.015049273656580585 0 0.022673239913249956 0.01456589548638231 0 0.023590917876852975 0.014251952433047367 0 0.023860760431042464 0.015049273656580585 0 0.024383498853163554 0.014491368790394091 0 0.025091520470756343 0.014860065767451957 0 0.024383498853163554 0.014491368790394091 0 0.024668969124812083 0.015370539598328768 0 0.023860760431042464 0.015049273656580585 0 0.024383498853163554 0.014491368790394091 0 0.024668969124812083 0.015370539598328768 0 0.024917895901597785 0.014253922241462672 0 0.025091520470756343 0.014860065767451957 0 0.024383498853163554 0.014491368790394091 0 0.023860760431042464 0.015049273656580585 0 0.024668969124812083 0.015370539598328768 0 0.024159088432325868 0.015872354952147005 0 0.024668969124812083 0.015370539598328768 0 0.024159088432325868 0.015872354952147005 0 0.025018070379054954 0.016338004863970152 0 0.023860760431042464 0.015049273656580585 0 0.024159088432325868 0.015872354952147005 0 0.023134441527854262 0.016060831776405049 0 0.024192684418551769 0.016681435823521738 0 0.023616888775504087 0.017389675902864363 0 0.023134441527854262 0.016060831776405049 0 0.024159088432325868 0.015872354952147005 0 0.024192684418551769 0.016681435823521738 0 0.023134441527854262 0.016060831776405049 0 0.024192684418551769 0.016681435823521738 0 0.024948980056774553 0.017288202142849273 0 0.025018070379054954 0.016338004863970152 0 0.024159088432325868 0.015872354952147005 0 0.024192684418551769 0.016681435823521738 0 0.025018070379054954 0.016338004863970152 0 0.024192684418551769 0.016681435823521738 0 0.024948980056774553 0.017288202142849273 0 0.023616888775504087 0.017389675902864363 0 0.025828762336379377 0.016193669363575133 0 0.025018070379054954 0.016338004863970152 0 0.025682679482394853 0.017024350919624877 0 0.025828762336379377 0.016193669363575133 0 0.025682679482394853 0.017024350919624877 0 0.026548274728073515 0.016419434290527071 0 0.025425756283675906 0.015542597485139274 0 0.025828762336379377 0.016193669363575133 0 0.025018070379054954 0.016338004863970152 0 0.024948980056774553 0.017288202142849273 0 0.025682679482394853 0.017024350919624877 0 0.025741342759748837 0.017998131965009521 0 0.024948980056774553 0.017288202142849273 0 0.025018070379054954 0.016338004863970152 0 0.025682679482394853 0.017024350919624877 0 0.025682679482394853 0.017024350919624877 0 0.026193383319632974 0.017423099404545256 0 0.026548274728073515 0.016419434290527071 0 0.026193383319632974 0.017423099404545256 0 0.027083394450151271 0.017278597286440368 0 0.026548274728073515 0.016419434290527071 0 0.026548274728073515 0.016419434290527071 0 0.026981163104707908 0.015329242912512616 0 0.027650817931373962 0.016280118108937456 0 0.027083394450151271 0.017278597286440368 0 0.026548274728073515 0.016419434290527071 0 0.027650817931373962 0.016280118108937456 0 0.026202130707581098 0.015480713869504385 0 0.025828762336379377 0.016193669363575133 0 0.026548274728073515 0.016419434290527071 0 0.026982181226623183 0.013767799049520616 0 0.026981163104707908 0.015329242912512616 0 0.028256125271530354 0.015357080207224124 0 0.026202130707581098 0.015480713869504385 0 0.026548274728073515 0.016419434290527071 0 0.026981163104707908 0.015329242912512616 0 0.026982181226623183 0.013767799049520616 0 0.026981163104707908 0.015329242912512616 0 0.026373869129853969 0.01451980547011422 0 0.026202130707581098 0.015480713869504385 0 0.026981163104707908 0.015329242912512616 0 0.026373869129853969 0.01451980547011422 0 0.030070252836483003 0.014507283984912316 0 0.02806714893203419 0.013567890032853669 0 0.028256125271530354 0.015357080207224124 0 0.026981163104707908 0.015329242912512616 0 0.028256125271530354 0.015357080207224124 0 0.027650817931373962 0.016280118108937456 0 0.029549994773265739 0.017072844910184095 0 0.028256125271530354 0.015357080207224124 0 0.027650817931373962 0.016280118108937456 0 0.029549994773265739 0.017072844910184095 0 0.027083394450151271 0.017278597286440368 0 0.027650817931373962 0.016280118108937456 0 0.030834708890412427 0.018594497836210016 0 0.029706328625850521 0.018485406802050883 0 0.030567854235923606 0.01675514587656788 0 0.027083394450151271 0.017278597286440368 0 0.028582537965516245 0.018316136783918236 0 0.030567041351259341 0.019242411763846182 0 0.030567854235923606 0.01675514587656788 0 0.028582537965516245 0.018316136783918236 0 0.028582537965516245 0.018316136783918236 0 0.026206935253609627 0.018428948625725798 0 0.028534510198912365 0.02024226163065113 0 0.030567041351259341 0.019242411763846182 0 0.028582537965516245 0.018316136783918236 0 0.028534510198912365 0.02024226163065113 0 0.026193383319632974 0.017423099404545256 0 0.026206935253609627 0.018428948625725798 0 0.025741342759748837 0.017998131965009521 0 0.026193383319632974 0.017423099404545256 0 0.027083394450151271 0.017278597286440368 0 0.026206935253609627 0.018428948625725798 0 0.027083394450151271 0.017278597286440368 0 0.028582537965516245 0.018316136783918236 0 0.026206935253609627 0.018428948625725798 0 0.028615361556976648 0.01695963882364504 0 0.029119416856800306 0.017011220888843326 0 0.026206935253609627 0.018428948625725798 0 0.025807855903346402 0.01847194510658752 0 0.025557794019696302 0.01842768566089269 0 0.026206935253609627 0.018428948625725798 0 0.025807855903346402 0.01847194510658752 0 0.025741342759748837 0.017998131965009521 0 0.025807855903346402 0.01847194510658752 0 0.025557794019696302 0.01842768566089269 0 0.025649638039003938 0.018524509964276837 0 0.026206935253609627 0.018428948625725798 0 0.025557794019696302 0.01842768566089269 0 0.024982009624724064 0.018479864030294394 0 0.025557794019696302 0.01842768566089269 0 0.024982009624724064 0.018479864030294394 0 0.025070128708368316 0.018085035992434342 0 0.025557794019696302 0.01842768566089269 0 0.025070128708368316 0.018085035992434342 0 0.025523745595252598 0.018329949815555097 0 0.025557794019696302 0.01842768566089269 0 0.025523745595252598 0.018329949815555097 0 0.025649638039003938 0.018524509964276837 0 0.024422444891749308 0.018127805294673976 0 0.024982009624724064 0.018479864030294394 0 0.025070128708368316 0.018085035992434342 0 0.030635161816700257 0.021846705980983868 0 0.030567041351259341 0.019242411763846182 0 0.028534510198912365 0.02024226163065113 0 0.03041919308458018 0.016872960289907687 0 0.029119416856800306 0.017011220888843326 0 0.024422444891749308 0.018127805294673976 0 0.025070128708368316 0.018085035992434342 0 0.024699579117259049 0.017365125409252724 0 0.03041919308458018 0.016872960289907687 0 0.028526534494294608 0.016345416714050893 0 0.030739309410032063 0.011806492693117425 0 0.029082260312504805 0.012564380146014496 0 0.030080322654307205 0.012461602348837838 0 0.025070128708368316 0.018085035992434342 0 0.025223320993130838 0.017788743768647662 0 0.024699579117259049 0.017365125409252724 0 0.025070128708368316 0.018085035992434342 0 0.025223320993130838 0.017788743768647662 0 0.025523745595252598 0.018329949815555097 0 0.027950289712934027 0.016157505720605831 0 0.028526534494294608 0.016345416714050893 0 0.025223320993130838 0.017788743768647662 0 0.024699579117259049 0.017365125409252724 0 0.025714360169324716 0.017163953320489155 0 0.027125474941084818 0.014879724310192417 0 0.029082260312504805 0.012564380146014496 0 0.030080322654307205 0.012461602348837838 0 0.030478088434729607 0.011093190726392296 0 0.030419010718361929 0.011383909654525884 0 0.031281567454834326 0.011240081178035313 0 0.03235909533013815 0.010590517784058036 0 0.030080322654307205 0.012461602348837838 0 0.031281567454834326 0.011240081178035313 0 0.030460408083105617 0.011907007124048952 0 0.030080322654307205 0.012461602348837838 0 0.031281567454834326 0.011240081178035313 0 0.030314835130026276 0.011621972795189629 0 0.030460408083105617 0.011907007124048952 0 0.030350431020567347 0.011991491280384148 0 0.030460408083105617 0.011907007124048952 0 0.030080322654307205 0.012461602348837838 0 0.028037767246786846 0.015725716244835247 0 0.026810510897493586 0.016382735089918627 0 0.027246428119096545 0.0176332818832713 0 0.026810510897493586 0.016382735089918627 0 0.025714360169324716 0.017163953320489155 0 0.02635999860060451 0.017569094960925472 0 0.026810510897493586 0.016382735089918627 0 0.02635999860060451 0.017569094960925472 0 0.027246428119096545 0.0176332818832713 0 0.026048117371325633 0.014907965206135911 0 0.026810510897493586 0.016382735089918627 0 0.025714360169324716 0.017163953320489155 0 0.026048117371325633 0.014907965206135911 0 0.024699579117259049 0.017365125409252724 0 0.025714360169324716 0.017163953320489155 0 0.025714360169324716 0.017163953320489155 0 0.025568474077179982 0.017934396930643803 0 0.02577012315788867 0.018246512764714146 0 0.025714360169324716 0.017163953320489155 0 0.02577012315788867 0.018246512764714146 0 0.02635999860060451 0.017569094960925472 0 0.025223320993130838 0.017788743768647662 0 0.025714360169324716 0.017163953320489155 0 0.025568474077179982 0.017934396930643803 0 0.025223320993130838 0.017788743768647662 0 0.025568474077179982 0.017934396930643803 0 0.025523745595252598 0.018329949815555097 0 0.025568474077179982 0.017934396930643803 0 0.025523745595252598 0.018329949815555097 0 0.02577012315788867 0.018246512764714146 0 0.025523745595252598 0.018329949815555097 0 0.02577012315788867 0.018246512764714146 0 0.025605418354743899 0.018696997853792294 0 0.02577012315788867 0.018246512764714146 0 0.02635999860060451 0.017569094960925472 0 0.02561288950243765 0.019439659451755111 0 0.02577012315788867 0.018246512764714146 0 0.02561288950243765 0.019439659451755111 0 0.025605418354743899 0.018696997853792294 0 0.02635999860060451 0.017569094960925472 0 0.02561288950243765 0.019439659451755111 0 0.027246428119096545 0.0176332818832713 0 0.02561288950243765 0.019439659451755111 0 0.025326179380810835 0.018740840598995116 0 0.023781263678706966 0.018593553871721614 0 0.02561288950243765 0.019439659451755111 0 0.025326179380810835 0.018740840598995116 0 0.025605418354743899 0.018696997853792294 0 0.025523745595252598 0.018329949815555097 0 0.025605418354743899 0.018696997853792294 0 0.025649638039003938 0.018524509964276837 0 0.025326179380810835 0.018740840598995116 0 0.025605418354743899 0.018696997853792294 0 0.025577770334045295 0.018509091095628448 0 0.025807855903346402 0.01847194510658752 0 0.025577770334045295 0.018509091095628448 0 0.025649638039003938 0.018524509964276837 0 0.025605418354743899 0.018696997853792294 0 0.025577770334045295 0.018509091095628448 0 0.025649638039003938 0.018524509964276837 0 0.025807855903346402 0.01847194510658752 0 0.025577770334045295 0.018509091095628448 0 0.025741342759748837 0.017998131965009521 0 0.025577770334045295 0.018509091095628448 0 0.025741342759748837 0.017998131965009521 0 0.02499086162232883 0.018060402835125638 0 0.025326179380810835 0.018740840598995116 0 0.025577770334045295 0.018509091095628448 0 0.02499086162232883 0.018060402835125638 0 0.024948980056774553 0.017288202142849273 0 0.025741342759748837 0.017998131965009521 0 0.02499086162232883 0.018060402835125638 0 0.025682679482394853 0.017024350919624877 0 0.026193383319632974 0.017423099404545256 0 0.025741342759748837 0.017998131965009521 0 0.02499086162232883 0.018060402835125638 0 0.023781263678706966 0.018593553871721614 0 0.023616888775504087 0.017389675902864363 0 0.025326179380810835 0.018740840598995116 0 0.02499086162232883 0.018060402835125638 0 0.023781263678706966 0.018593553871721614 0 0.024948980056774553 0.017288202142849273 0 0.02499086162232883 0.018060402835125638 0 0.023616888775504087 0.017389675902864363 0 0.022448966906113078 0.01791803814306581 0 0.023781263678706966 0.018593553871721614 0 0.023616888775504087 0.017389675902864363 0 0.022448966906113078 0.01791803814306581 0 0.020824056147711212 0.018671170724855128 0 0.023781263678706966 0.018593553871721614 0 0.022448966906113078 0.01791803814306581 0 0.020824056147711212 0.018671170724855128 0 0.021499721864070041 0.017063647103364565 0 0.020824056147711212 0.018671170724855128 0 0.023781263678706966 0.018593553871721614 0 0.021975129336430834 0.021023248976875419 0 0.018050931321629521 0.021774085403644165 0 0.018277401205864189 0.024217785743809624 0 0.016365158885260443 0.023234412487835771 0 0.02121240301546904 0.01801974602627426 0 0.022268949091965938 0.01629183257348427 0 0.02561288950243765 0.019439659451755111 0 0.023781263678706966 0.018593553871721614 0 0.021975129336430834 0.021023248976875419 0 0.02561288950243765 0.019439659451755111 0 0.027246428119096545 0.0176332818832713 0 0.030432555831881609 0.018597748954002267 0 0.023728374366516519 0.016631089264396978 0 0.022268949091965938 0.01629183257348427 0 0.022268949091965938 0.01629183257348427 0 0.025436161200018587 0.012768721582104464 0 0.022278565912440009 0.01112132893525832 0 0.022424244493300848 0.010846343864818911 0 0.022171823308755834 0.010695902164854882 0 0.027246428119096545 0.0176332818832713 0 0.030432555831881609 0.018597748954002267 0 0.029454265759200668 0.014859657315191928 0 0.025524748746535323 0.013556328533776351 0 0.025436161200018587 0.012768721582104464 0 0.028037767246786846 0.015725716244835247 0 0.027246428119096545 0.0176332818832713 0 0.029382721556183707 0.015998464339342523 0 0.022683953210830735 0.010686423957210419 0 0.022674627326154446 0.01099671627764605 0 0.023046904288275927 0.010883648215954868 0 0.019730170439693117 0.014988729185378448 0 0.01852269423904682 0.012695126950871648 0 0.022424244493300848 0.010846343864818911 0 0.022683953210830735 0.010686423957210419 0 0.022674627326154446 0.01099671627764605 0 0.018277401205864189 0.024217785743809624 0 0.016048221099222031 0.02468137157703806 0 0.016365158885260443 0.023234412487835771 0 0.022278565912440009 0.01112132893525832 0 0.022424244493300848 0.010846343864818911 0 0.022674627326154446 0.01099671627764605 0 0.022268949091965938 0.01629183257348427 0 0.019730170439693117 0.014988729185378448 0 0.016048221099222031 0.02468137157703806 0 0.014531104186135986 0.023248090871143642 0 0.014004688642735312 0.024998834245798553 0 0.016048221099222031 0.02468137157703806 0 0.014531104186135986 0.023248090871143642 0 0.016365158885260443 0.023234412487835771 0 0.014531104186135986 0.023248090871143642 0 0.016365158885260443 0.023234412487835771 0 0.015002585644181695 0.021858517410555906 0 0.014531104186135986 0.023248090871143642 0 0.015002585644181695 0.021858517410555906 0 0.013528164064037047 0.021309313008353963 0 0.018050931321629521 0.021774085403644165 0 0.016365158885260443 0.023234412487835771 0 0.015002585644181695 0.021858517410555906 0 0.018050931321629521 0.021774085403644165 0 0.015002585644181695 0.021858517410555906 0 0.013862661552364614 0.019791333264396263 0 0.015002585644181695 0.021858517410555906 0 0.013862661552364614 0.019791333264396263 0 0.013528164064037047 0.021309313008353963 0 0.013862661552364614 0.019791333264396263 0 0.013013032903892609 0.021239302075538775 0 0.01339075762900545 0.020657763041321213 0 0.013862661552364614 0.019791333264396263 0 0.012303921629571795 0.021638094070537465 0 0.010612185837392119 0.022107748598099778 0 0.017444860883557282 0.021359281548876351 0 0.018125054849447628 0.021347296511165979 0 0.013862661552364614 0.019791333264396263 0 0.012303921629571795 0.021638094070537465 0 0.013013032903892609 0.021239302075538775 0 0.012303921629571795 0.021638094070537465 0 0.010612185837392119 0.022107748598099778 0 0.011466343708635722 0.022794214276875731 0 0.012303921629571795 0.021638094070537465 0 0.012330188996774029 0.022517465208787345 0 0.013013032903892609 0.021239302075538775 0 0.012303921629571795 0.021638094070537465 0 0.012330188996774029 0.022517465208787345 0 0.011466343708635722 0.022794214276875731 0 0.013862661552364614 0.019791333264396263 0 0.016472958807189977 0.014694313453479083 0 0.018341554716018366 0.017190767188776889 0 0.016472958807189977 0.014694313453479083 0 0.018341554716018366 0.017190767188776889 0 0.019200791867518198 0.014683660483895784 0 0.02121240301546904 0.01801974602627426 0 0.020593885323444947 0.017407690044106021 0 0.018050931321629521 0.021774085403644165 0 0.013862661552364614 0.019791333264396263 0 0.018341554716018366 0.017190767188776889 0 0.018341554716018366 0.017190767188776889 0 0.021499721864070041 0.017063647103364565 0 0.020320461787528318 0.015875559968572428 0 0.020824056147711212 0.018671170724855128 0 0.018341554716018366 0.017190767188776889 0 0.021499721864070041 0.017063647103364565 0 0.021499721864070041 0.017063647103364565 0 0.023616888775504087 0.017389675902864363 0 0.023134441527854262 0.016060831776405049 0 0.022448966906113078 0.01791803814306581 0 0.021499721864070041 0.017063647103364565 0 0.023616888775504087 0.017389675902864363 0 0.023134441527854262 0.016060831776405049 0 0.02158096097479309 0.015473190870884454 0 0.022673239913249956 0.01456589548638231 0 0.021499721864070041 0.017063647103364565 0 0.023134441527854262 0.016060831776405049 0 0.02158096097479309 0.015473190870884454 0 0.02158096097479309 0.015473190870884454 0 0.021704928631434278 0.01443776076339205 0 0.022673239913249956 0.01456589548638231 0 0.023860760431042464 0.015049273656580585 0 0.023134441527854262 0.016060831776405049 0 0.022673239913249956 0.01456589548638231 0 0.018341554716018366 0.017190767188776889 0 0.020320461787528318 0.015875559968572428 0 0.019200791867518198 0.014683660483895784 0 0.021499721864070041 0.017063647103364565 0 0.02158096097479309 0.015473190870884454 0 0.020320461787528318 0.015875559968572428 0 0.02158096097479309 0.015473190870884454 0 0.020320461787528318 0.015875559968572428 0 0.020794729074087224 0.014223125361607816 0 0.02158096097479309 0.015473190870884454 0 0.021704928631434278 0.01443776076339205 0 0.020794729074087224 0.014223125361607816 0 0.020320461787528318 0.015875559968572428 0 0.019200791867518198 0.014683660483895784 0 0.020794729074087224 0.014223125361607816 0 0.019200791867518198 0.014683660483895784 0 0.019985144877714786 0.01342570654267166 0 0.020794729074087224 0.014223125361607816 0 0.019200791867518198 0.014683660483895784 0 0.019985144877714786 0.01342570654267166 0 0.01888180270177631 0.013019376254592251 0 0.020794729074087224 0.014223125361607816 0 0.020898740121335697 0.013080671571594069 0 0.021906531442019941 0.013597517393369264 0 0.019985144877714786 0.01342570654267166 0 0.020794729074087224 0.014223125361607816 0 0.020898740121335697 0.013080671571594069 0 0.019985144877714786 0.01342570654267166 0 0.020898740121335697 0.013080671571594069 0 0.020115531603350795 0.012554490806946076 0 0.020898740121335697 0.013080671571594069 0 0.021669019680925716 0.012565920733502765 0 0.020898012609551316 0.012194556790562286 0 0.020898740121335697 0.013080671571594069 0 0.020115531603350795 0.012554490806946076 0 0.020898012609551316 0.012194556790562286 0 0.019985144877714786 0.01342570654267166 0 0.020115531603350795 0.012554490806946076 0 0.01888180270177631 0.013019376254592251 0 0.020115531603350795 0.012554490806946076 0 0.019521628518725919 0.012052591592073844 0 0.01888180270177631 0.013019376254592251 0 0.023590917876852975 0.014251952433047367 0 0.022673239913249956 0.01456589548638231 0 0.023057565569159839 0.013529530598373168 0 0.022673239913249956 0.01456589548638231 0 0.023057565569159839 0.013529530598373168 0 0.021906531442019941 0.013597517393369264 0 0.021704928631434278 0.01443776076339205 0 0.020794729074087224 0.014223125361607816 0 0.021906531442019941 0.013597517393369264 0 0.021704928631434278 0.01443776076339205 0 0.022673239913249956 0.01456589548638231 0 0.021906531442019941 0.013597517393369264 0 0.021906531442019941 0.013597517393369264 0 0.021669019680925716 0.012565920733502765 0 0.022439994776361147 0.012752667229160535 0 0.020898740121335697 0.013080671571594069 0 0.021906531442019941 0.013597517393369264 0 0.021669019680925716 0.012565920733502765 0 0.023057565569159839 0.013529530598373168 0 0.021906531442019941 0.013597517393369264 0 0.022439994776361147 0.012752667229160535 0 0.023193838164798905 0.012628758026129802 0 0.023057565569159839 0.013529530598373168 0 0.022439994776361147 0.012752667229160535 0 0.030653693491317722 0.023530994878045882 0 0.025555132020661078 0.025862495480633109 0 0.023618737019098057 0.011335295147141917 0 0.021608289231462571 0.011060205595871297 0 0.022325636367184994 0.011429667882259364 0 0.041440310557455853 0.026694229637487875 0 0.042203021162778992 0.026999007900886048 0 0.041592534579198107 0.02695415999188808 0 0.023618737019098057 0.011335295147141917 0 0.021608289231462571 0.011060205595871297 0 0.020455484297575877 0.010183182523191628 0 0.022925487760381991 0.011733978991348053 0 0.022705300945777062 0.012184155129608345 0 0.022395890960658513 0.011790711641780768 0 0.023160160887097301 0.012101997669414973 0 0.022925487760381991 0.011733978991348053 0 0.022705300945777062 0.012184155129608345 0 0.023160160887097301 0.012101997669414973 0 0.023193838164798905 0.012628758026129802 0 0.022705300945777062 0.012184155129608345 0 0.023193838164798905 0.012628758026129802 0 0.022439994776361147 0.012752667229160535 0 0.022705300945777062 0.012184155129608345 0 0.022439994776361147 0.012752667229160535 0 0.022705300945777062 0.012184155129608345 0 0.022101700037369585 0.012086781317058428 0 0.022925487760381991 0.011733978991348053 0 0.022395890960658513 0.011790711641780768 0 0.022325636367184994 0.011429667882259364 0 0.022705300945777062 0.012184155129608345 0 0.022395890960658513 0.011790711641780768 0 0.022101700037369585 0.012086781317058428 0 0.022395890960658513 0.011790711641780768 0 0.022030233368225207 0.011683706745205816 0 0.022325636367184994 0.011429667882259364 0 0.022030233368225207 0.011683706745205816 0 0.022101700037369585 0.012086781317058428 0 0.021563443730409651 0.01170322953682108 0 0.022030233368225207 0.011683706745205816 0 0.021563443730409651 0.01170322953682108 0 0.021760491709447244 0.011408428665591157 0 0.022395890960658513 0.011790711641780768 0 0.022030233368225207 0.011683706745205816 0 0.022101700037369585 0.012086781317058428 0 0.021669019680925716 0.012565920733502765 0 0.022439994776361147 0.012752667229160535 0 0.022101700037369585 0.012086781317058428 0 0.021669019680925716 0.012565920733502765 0 0.022101700037369585 0.012086781317058428 0 0.021563443730409651 0.01170322953682108 0 0.021669019680925716 0.012565920733502765 0 0.021563443730409651 0.01170322953682108 0 0.020898012609551316 0.012194556790562286 0 0.021368732732386771 0.011323252064758364 0 0.021608289231462571 0.011060205595871297 0 0.021067090789901766 0.011133358841994474 0 0.021563443730409651 0.01170322953682108 0 0.021368732732386771 0.011323252064758364 0 0.020862847010384742 0.011450138587141974 0 0.021563443730409651 0.01170322953682108 0 0.021368732732386771 0.011323252064758364 0 0.021760491709447244 0.011408428665591157 0 0.021368732732386771 0.011323252064758364 0 0.021608289231462571 0.011060205595871297 0 0.021760491709447244 0.011408428665591157 0 0.021608289231462571 0.011060205595871297 0 0.021760491709447244 0.011408428665591157 0 0.022325636367184994 0.011429667882259364 0 0.022030233368225207 0.011683706745205816 0 0.021760491709447244 0.011408428665591157 0 0.022325636367184994 0.011429667882259364 0 0.023618737019098057 0.011335295147141917 0 0.022925487760381991 0.011733978991348053 0 0.022325636367184994 0.011429667882259364 0 0.019628546610703703 0.011307950964929637 0 0.018664755157057986 0.012131635181799147 0 0.019591879157027588 0.0099705297067270108 0 0.019521628518725919 0.012052591592073844 0 0.019628546610703703 0.011307950964929637 0 0.018664755157057986 0.012131635181799147 0 0.020266280202547612 0.011786219620820772 0 0.0203301650900128 0.011217087604030836 0 0.019628546610703703 0.011307950964929637 0 0.019521628518725919 0.012052591592073844 0 0.020266280202547612 0.011786219620820772 0 0.019628546610703703 0.011307950964929637 0 0.020115531603350795 0.012554490806946076 0 0.019521628518725919 0.012052591592073844 0 0.020266280202547612 0.011786219620820772 0 0.020115531603350795 0.012554490806946076 0 0.020898012609551316 0.012194556790562286 0 0.020266280202547612 0.011786219620820772 0 0.021563443730409651 0.01170322953682108 0 0.020898012609551316 0.012194556790562286 0 0.020862847010384742 0.011450138587141974 0 0.020898012609551316 0.012194556790562286 0 0.020266280202547612 0.011786219620820772 0 0.020862847010384742 0.011450138587141974 0 0.020266280202547612 0.011786219620820772 0 0.0203301650900128 0.011217087604030836 0 0.020862847010384742 0.011450138587141974 0 0.0203301650900128 0.011217087604030836 0 0.020697381671815486 0.01109868973677588 0 0.020862847010384742 0.011450138587141974 0 0.021608289231462571 0.011060205595871297 0 0.020777746096324864 0.010765066049146087 0 0.020455484297575877 0.010183182523191628 0 0.0203301650900128 0.011217087604030836 0 0.020697381671815486 0.01109868973677588 0 0.02041980365091204 0.01083498216773408 0 0.021368732732386771 0.011323252064758364 0 0.020862847010384742 0.011450138587141974 0 0.021067090789901766 0.011133358841994474 0 0.020697381671815486 0.01109868973677588 0 0.020862847010384742 0.011450138587141974 0 0.021067090789901766 0.011133358841994474 0 0.021608289231462571 0.011060205595871297 0 0.021067090789901766 0.011133358841994474 0 0.020777746096324864 0.010765066049146087 0 0.020697381671815486 0.01109868973677588 0 0.021067090789901766 0.011133358841994474 0 0.020777746096324864 0.010765066049146087 0 0.0203301650900128 0.011217087604030836 0 0.02041980365091204 0.01083498216773408 0 0.020084243916415223 0.010710579568671436 0 0.020777746096324864 0.010765066049146087 0 0.02041980365091204 0.01083498216773408 0 0.020455484297575877 0.010183182523191628 0 0.02041980365091204 0.01083498216773408 0 0.020084243916415223 0.010710579568671436 0 0.020455484297575877 0.010183182523191628 0 0.020697381671815486 0.01109868973677588 0 0.020777746096324864 0.010765066049146087 0 0.02041980365091204 0.01083498216773408 0 0.020084243916415223 0.010710579568671436 0 0.019628546610703703 0.011307950964929637 0 0.019591879157027588 0.0099705297067270108 0 0.0203301650900128 0.011217087604030836 0 0.020084243916415223 0.010710579568671436 0 0.019628546610703703 0.011307950964929637 0 0.020085330505892934 0.022318726809356138 0 0.022991445027752598 0.02550633853305909 0 0.0093178323078391672 0.024618448435305675 0 0.01072788873486291 0.025931388569719802 0 0.010642248772381751 0.023738175735429745 0 0.020085330505892934 0.022318726809356138 0 0.019710290595504595 0.025971428235100714 0 0.0093178323078391672 0.024618448435305675 0 0.01072788873486291 0.025931388569719802 0 0.010682887496884452 0.027939807173114683 0 0.010642248772381751 0.023738175735429745 0 0.010353400089876789 0.026895897250152869 0 0.011268127543409305 0.025775100122426904 0 0.01072788873486291 0.025931388569719802 0 0.010642248772381751 0.023738175735429745 0 0.012268429426485126 0.027471149378634135 0 0.010642248772381751 0.023738175735429745 0 0.011268127543409305 0.025775100122426904 0 0.011682946822580288 0.024655212579027908 0 0.011094514723547718 0.026465782641901005 0 0.011545996659995656 0.027968946015190021 0 0.010642248772381751 0.023738175735429745 0 0.011717179151583166 0.023484585286625052 0 0.011682946822580288 0.024655212579027908 0 0.012330188996774029 0.022517465208787345 0 0.011717179151583166 0.023484585286625052 0 0.011466343708635722 0.022794214276875731 0 0.010612185837392119 0.022107748598099778 0 0.010642248772381751 0.023738175735429745 0 0.011466343708635722 0.022794214276875731 0 0.010642248772381751 0.023738175735429745 0 0.011717179151583166 0.023484585286625052 0 0.011466343708635722 0.022794214276875731 0 0.018125054849447628 0.021347296511165979 0 0.020085330505892934 0.022318726809356138 0 0.010612185837392119 0.022107748598099778 0 0.0093178323078391672 0.024618448435305675 0 0.010642248772381751 0.023738175735429745 0 0.016472958807189977 0.014694313453479083 0 0.018369687218295249 0.011584566462334219 0 0.01888180270177631 0.013019376254592251 0 0.016472958807189977 0.014694313453479083 0 0.019200791867518198 0.014683660483895784 0 0.01888180270177631 0.013019376254592251 0 0.019521628518725919 0.012052591592073844 0 0.018664755157057986 0.012131635181799147 0 0.01888180270177631 0.013019376254592251 0 0.020085330505892934 0.022318726809356138 0 0.019803944861954022 0.021440084471428537 0 0.023421333808408846 0.028297351748109996 0 0.023486277281984904 0.028141212296762582 0 0.023577937075549178 0.028387594844438615 0 0.023421333808408846 0.028297351748109996 0 0.023475293003855841 0.028403175818787676 0 0.023577937075549178 0.028387594844438615 0 0.023421333808408846 0.028297351748109996 0 0.023486277281984904 0.028141212296762582 0 0.023402033675849251 0.02820237186544939 0 0.023421333808408846 0.028297351748109996 0 0.023402033675849251 0.02820237186544939 0 0.023339308962943561 0.028246567625432328 0 0.023421333808408846 0.028297351748109996 0 0.023329607021100224 0.028338712531378908 0 0.023368123404929299 0.028402476619723054 0 0.023421333808408846 0.028297351748109996 0 0.023475293003855841 0.028403175818787676 0 0.023368123404929299 0.028402476619723054 0 0.023421333808408846 0.028297351748109996 0 0.023339308962943561 0.028246567625432328 0 0.023329607021100224 0.028338712531378908 0 0.01230018653244336 0.028324358459468242 0 0.012268429426485126 0.027471149378634135 0 0.013581912436670602 0.031004761420771541 0 0.019710290595504595 0.025971428235100714 0 0.019638778528248371 0.029717322981756025 0 0.01230018653244336 0.028324358459468242 0 0.012148647017201525 0.030845549744576432 0 0.013581912436670602 0.031004761420771541 0 0.01230018653244336 0.028324358459468242 0 0.010901730890227626 0.027914115521353301 0 0.012148647017201525 0.030845549744576432 0 0.011545996659995656 0.027968946015190021 0 0.012384451628522242 0.030651231293865596 0 0.01230018653244336 0.028324358459468242 0 0.012268429426485126 0.027471149378634135 0 0.010682887496884452 0.027939807173114683 0 0.018751211180357674 0.025856886284344342 0 0.019710290595504595 0.025971428235100714 0 0.010353400089876789 0.026895897250152869 0 0.011268127543409305 0.025775100122426904 0 0.011420233737871989 0.026957039142188062 0 0.01072788873486291 0.025931388569719802 0 0.012268429426485126 0.027471149378634135 0 0.010682887496884452 0.027939807173114683 0 0.020062470951881298 0.024824074662927256 0 0.020649340726889072 0.026331047780012242 0 0.019584373226999987 0.026018997474038675 0 0.023486277281984904 0.028141212296762582 0 0.023402033675849251 0.02820237186544939 0 0.023317700939563649 0.028092141617655865 0 0.019710290595504595 0.025971428235100714 0 0.022991445027752598 0.02550633853305909 0 0.023402033675849251 0.02820237186544939 0 0.023317700939563649 0.028092141617655865 0 0.023339308962943561 0.028246567625432328 0 0.023390946507097492 0.02793706936878804 0 0.023273291622303661 0.027904703172103484 0 0.023232448581944634 0.028320518757221851 0 0.025555132020661078 0.025862495480633109 0 0.027687557874305227 0.027657837451447724 0 0.022991445027752598 0.02550633853305909 0 0.025555132020661078 0.025862495480633109 0 0.020084243916415223 0.010710579568671436 0 0.019591879157027588 0.0099705297067270108 0 0.020455484297575877 0.010183182523191628 0 0.042203021162778992 0.026999007900886048 0 0.041592534579198107 0.02695415999188808 0 0.041804249116745795 0.027253461028052837 0 0.042203021162778992 0.026999007900886048 0 0.041804249116745795 0.027253461028052837 0 0.041881146248960048 0.027775836904784308 0 0.041592534579198107 0.02695415999188808 0 0.041804249116745795 0.027253461028052837 0 0.041541900065181062 0.027303387362130019 0 0.041804249116745795 0.027253461028052837 0 0.041881146248960048 0.027775836904784308 0 0.041541900065181062 0.027303387362130019 0 0.041881146248960048 0.027775836904784308 0 0.041262634973697407 0.027556079745364486 0 0.041541900065181062 0.027303387362130019 0 0.022991445027752598 0.02550633853305909 0 0.022751747799137387 0.026620714577370225 0 0.023317700939563649 0.028092141617655865 0 0.023339308962943561 0.028246567625432328 0 0.023232448581944634 0.028320518757221851 0 0.023273291622303661 0.027904703172103484 0 0.023115213786443128 0.028323548483591261 0 0.023232448581944634 0.028320518757221851 0 0.023115213786443128 0.028323548483591261 0 0.023232448581944634 0.028320518757221851 0 0.023235137280425162 0.028426687362041646 0 0.023232448581944634 0.028320518757221851 0 0.023329607021100224 0.028338712531378908 0 0.023235137280425162 0.028426687362041646 0 0.023339308962943561 0.028246567625432328 0 0.023232448581944634 0.028320518757221851 0 0.023329607021100224 0.028338712531378908 0 0.023329607021100224 0.028338712531378908 0 0.023235137280425162 0.028426687362041646 0 0.023368123404929299 0.028402476619723054 0 0.023235137280425162 0.028426687362041646 0 0.023012832381891002 0.028625834766422893 0 0.023326570928084614 0.028545290381256683 0 0.023235137280425162 0.028426687362041646 0 0.023326570928084614 0.028545290381256683 0 0.023368123404929299 0.028402476619723054 0 0.023115213786443128 0.028323548483591261 0 0.023235137280425162 0.028426687362041646 0 0.023012832381891002 0.028625834766422893 0 0.041881146248960048 0.027775836904784308 0 0.041556515338376607 0.028547579148852902 0 0.041256135159055317 0.028118234169837657 0 0.027687557874305227 0.027657837451447724 0 0.02657599641189537 0.03188637747093135 0 0.02657599641189537 0.03188637747093135 0 0.022080126081831429 0.032325910151584189 0 0.021846856881231943 0.039946476888161657 0 0.019845827151978492 0.040321782186322909 0 0.0201337585310007 0.039030927242138032 0 0.019845827151978492 0.040321782186322909 0 0.018953003618394897 0.039772950914001605 0 0.0201337585310007 0.039030927242138032 0 0.019845827151978492 0.040321782186322909 0 0.018953003618394897 0.039772950914001605 0 0.01783391961312682 0.040697387258478768 0 0.018953003618394897 0.039772950914001605 0 0.018531801439563997 0.039316102041471755 0 0.018957550082580696 0.038854797939158241 0 0.023326570928084614 0.028545290381256683 0 0.023475293003855841 0.028403175818787676 0 0.0236114547094626 0.028479910761050834 0 0.022080126081831429 0.032325910151584189 0 0.019838348263339408 0.031264897956381842 0 0.023326570928084614 0.028545290381256683 0 0.023475293003855841 0.028403175818787676 0 0.023368123404929299 0.028402476619723054 0 0.012148647017201525 0.030845549744576432 0 0.012686761369398765 0.031828697802724085 0 0.013581912436670602 0.031004761420771541 0 0.019638778528248371 0.029717322981756025 0 0.019838348263339408 0.031264897956381842 0 0.023475293003855841 0.028403175818787676 0 0.023577937075549178 0.028387594844438615 0 0.0236114547094626 0.028479910761050834 0 0.018023521932868831 0.039951877225301378 0 0.017578121313833409 0.038273939055281335 0 0.01743540806218637 0.039721973436535211 0 0.01783391961312682 0.040697387258478768 0 0.018023521932868831 0.039951877225301378 0 0.01743540806218637 0.039721973436535211 0 0.018953003618394897 0.039772950914001605 0 0.01783391961312682 0.040697387258478768 0 0.018023521932868831 0.039951877225301378 0 0.019838348263339408 0.031264897956381842 0 0.018731949932883015 0.033419257126038993 0 0.018023521932868831 0.039951877225301378 0 0.018531801439563997 0.039316102041471755 0 0.018262781624433164 0.038797614550845815 0 0.018953003618394897 0.039772950914001605 0 0.018023521932868831 0.039951877225301378 0 0.018531801439563997 0.039316102041471755 0 0.017666232031765854 0.038629233662804199 0 0.017489346969241953 0.037928212565536197 0 0.018023521932868831 0.039951877225301378 0 0.018262781624433164 0.038797614550845815 0 0.017622585867478793 0.038317443652875503 0 0.018531801439563997 0.039316102041471755 0 0.018262781624433164 0.038797614550845815 0 0.018957550082580696 0.038854797939158241 0 0.018262781624433164 0.038797614550845815 0 0.018957550082580696 0.038854797939158241 0 0.018507994354258376 0.038083911368286406 0 0.018262781624433164 0.038797614550845815 0 0.017622585867478793 0.038317443652875503 0 0.018507994354258376 0.038083911368286406 0 0.018957550082580696 0.038854797939158241 0 0.019327126339527288 0.038107900209417386 0 0.0201337585310007 0.039030927242138032 0 0.018953003618394897 0.039772950914001605 0 0.018957550082580696 0.038854797939158241 0 0.0201337585310007 0.039030927242138032 0 0.018957550082580696 0.038854797939158241 0 0.019327126339527288 0.038107900209417386 0 0.018507994354258376 0.038083911368286406 0 0.019327126339527288 0.038107900209417386 0 0.019005356727744616 0.037294096910167017 0 0.020180201052139701 0.037618101121815871 0 0.019327126339527288 0.038107900209417386 0 0.019005356727744616 0.037294096910167017 0 0.018507994354258376 0.038083911368286406 0 0.017622585867478793 0.038317443652875503 0 0.018107770254172751 0.037303172166749006 0 0.017189728660217344 0.036667625845744602 0 0.017622585867478793 0.038317443652875503 0 0.018507994354258376 0.038083911368286406 0 0.018107770254172751 0.037303172166749006 0 0.019005356727744616 0.037294096910167017 0 0.018507994354258376 0.038083911368286406 0 0.018107770254172751 0.037303172166749006 0 0.019005356727744616 0.037294096910167017 0 0.018107770254172751 0.037303172166749006 0 0.018215268219682144 0.036145332903985167 0 0.018107770254172751 0.037303172166749006 0 0.018215268219682144 0.036145332903985167 0 0.017189728660217344 0.036667625845744602 0 0.019005356727744616 0.037294096910167017 0 0.018215268219682144 0.036145332903985167 0 0.01969752278197608 0.036283480974622404 0 0.019005356727744616 0.037294096910167017 0 0.01969752278197608 0.036283480974622404 0 0.020180201052139701 0.037618101121815871 0 0.018669961596812924 0.034999986847683365 0 0.02059480549838643 0.034999989904541999 0 0.01969752278197608 0.036283480974622404 0 0.018215268219682144 0.036145332903985167 0 0.018669961596812924 0.034999986847683365 0 0.01969752278197608 0.036283480974622404 0 0.018215268219682144 0.036145332903985167 0 0.018669961596812924 0.034999986847683365 0 0.016745134573135336 0.034999994937221141 0 0.02059480549838643 0.034999989904541999 0 0.021514123811607513 0.036684680487177303 0 0.022519680209902412 0.034999976166210159 0 0.02059480549838643 0.034999989904541999 0 0.01969752278197608 0.036283480974622404 0 0.021514123811607513 0.036684680487177303 0 0.01969752278197608 0.036283480974622404 0 0.021514123811607513 0.036684680487177303 0 0.020180201052139701 0.037618101121815871 0 0.021514123811607513 0.036684680487177303 0 0.021260752386433324 0.038288683154571797 0 0.022629039622814425 0.038152431584566299 0 0.021514123811607513 0.036684680487177303 0 0.020180201052139701 0.037618101121815871 0 0.021260752386433324 0.038288683154571797 0 0.020180201052139701 0.037618101121815871 0 0.0201337585310007 0.039030927242138032 0 0.021260752386433324 0.038288683154571797 0 0.019327126339527288 0.038107900209417386 0 0.020180201052139701 0.037618101121815871 0 0.0201337585310007 0.039030927242138032 0 0.021846856881231943 0.039946476888161657 0 0.0201337585310007 0.039030927242138032 0 0.021260752386433324 0.038288683154571797 0 0.022038467897380759 0.039832260723173932 0 0.022755117629493407 0.038111941429909618 0 0.023806321666951548 0.039522351772063535 0 0.021846856881231943 0.039946476888161657 0 0.021260752386433324 0.038288683154571797 0 0.022629039622814425 0.038152431584566299 0 0.02657599641189537 0.03188637747093135 0 0.024056624545866778 0.036622415401413942 0 0.022755117629493407 0.038111941429909618 0 0.024320873391563514 0.037751762206337032 0 0.023806321666951548 0.039522351772063535 0 0.024056624545866778 0.036622415401413942 0 0.023800431845798463 0.036883902127511484 0 0.022755117629493407 0.038111941429909618 0 0.023443975138251746 0.036337035175723953 0 0.024320873391563514 0.037751762206337032 0 0.021514123811607513 0.036684680487177303 0 0.022629039622814425 0.038152431584566299 0 0.023443975138251746 0.036337035175723953 0 0.023443975138251746 0.036337035175723953 0 0.022519680209902412 0.034999976166210159 0 0.024444554157006405 0.034999988172149825 0 0.021514123811607513 0.036684680487177303 0 0.023443975138251746 0.036337035175723953 0 0.022519680209902412 0.034999976166210159 0 0.024444554157006405 0.034999988172149825 0 0.024669083383274521 0.036200511053584197 0 0.026369387180789003 0.034999983888508793 0 0.023443975138251746 0.036337035175723953 0 0.024444554157006405 0.034999988172149825 0 0.024669083383274521 0.036200511053584197 0 0.024669083383274521 0.036200511053584197 0 0.025653778755112017 0.037075400425164592 0 0.024320873391563514 0.037751762206337032 0 0.023443975138251746 0.036337035175723953 0 0.024669083383274521 0.036200511053584197 0 0.024320873391563514 0.037751762206337032 0 0.024669083383274521 0.036200511053584197 0 0.025653778755112017 0.037075400425164592 0 0.026369387180789003 0.034999983888508793 0 0.025653778755112017 0.037075400425164592 0 0.02563557522737394 0.0392153120147525 0 0.026801265941817577 0.037842564708322063 0 0.025653778755112017 0.037075400425164592 0 0.024320873391563514 0.037751762206337032 0 0.02563557522737394 0.0392153120147525 0 0.024320873391563514 0.037751762206337032 0 0.02563557522737394 0.0392153120147525 0 0.023806321666951548 0.039522351772063535 0 0.040103187516297024 0.028910163418473921 0 0.040231769342335959 0.028293317679383725 0 0.039727886814767376 0.028571137866264775 0 0.039836011375735919 0.027928732382477183 0 0.039496777584749253 0.027692936781395391 0 0.040231769342335959 0.028293317679383725 0 0.040215304291095655 0.02775113106936964 0 0.039401711553231834 0.027653221699853764 0 0.040231769342335959 0.028293317679383725 0 0.040808214409709991 0.027981838204507916 0 0.040215304291095655 0.02775113106936964 0 0.040231769342335959 0.028293317679383725 0 0.040787045768562229 0.028719015678402439 0 0.040808214409709991 0.027981838204507916 0 0.040103187516297024 0.028910163418473921 0 0.040231769342335959 0.028293317679383725 0 0.040787045768562229 0.028719015678402439 0 0.032458911379540642 0.032991800052892706 0 0.030866382095995844 0.03258558314983373 0 0.02657599641189537 0.03188637747093135 0 0.030866382095995844 0.03258558314983373 0 0.041556515338376607 0.028547579148852902 0 0.040787045768562229 0.028719015678402439 0 0.041256135159055317 0.028118234169837657 0 0.040787045768562229 0.028719015678402439 0 0.041256135159055317 0.028118234169837657 0 0.040808214409709991 0.027981838204507916 0 0.040808214409709991 0.027981838204507916 0 0.040888229056780266 0.027491949269425033 0 0.040533624948123535 0.027434999069027556 0 0.040808214409709991 0.027981838204507916 0 0.040888229056780266 0.027491949269425033 0 0.041262634973697407 0.027556079745364486 0 0.040888229056780266 0.027491949269425033 0 0.041262634973697407 0.027556079745364486 0 0.041057649586590778 0.027172318656997384 0 0.040888229056780266 0.027491949269425033 0 0.040793465513354589 0.027255569949992158 0 0.040533624948123535 0.027434999069027556 0 0.041256135159055317 0.028118234169837657 0 0.040808214409709991 0.027981838204507916 0 0.041262634973697407 0.027556079745364486 0 0.041881146248960048 0.027775836904784308 0 0.041256135159055317 0.028118234169837657 0 0.041262634973697407 0.027556079745364486 0 0.041262634973697407 0.027556079745364486 0 0.041541900065181062 0.027303387362130019 0 0.041299830465571112 0.02721289789337281 0 0.041541900065181062 0.027303387362130019 0 0.041299830465571112 0.02721289789337281 0 0.041405700658136819 0.027034949507411733 0 0.041262634973697407 0.027556079745364486 0 0.041299830465571112 0.02721289789337281 0 0.041057649586590778 0.027172318656997384 0 0.041299830465571112 0.02721289789337281 0 0.041230639939075893 0.02700926440324956 0 0.041057649586590778 0.027172318656997384 0 0.041084147883887097 0.026930780612765194 0 0.041230639939075893 0.02700926440324956 0 0.041057649586590778 0.027172318656997384 0 0.041084147883887097 0.026930780612765194 0 0.041165873854078751 0.0269123830892962 0 0.041230639939075893 0.02700926440324956 0 0.04130363349273062 0.026880159229041075 0 0.041165873854078751 0.0269123830892962 0 0.041230639939075893 0.02700926440324956 0 0.041592534579198107 0.02695415999188808 0 0.041541900065181062 0.027303387362130019 0 0.041405700658136819 0.027034949507411733 0 0.041299830465571112 0.02721289789337281 0 0.041230639939075893 0.02700926440324956 0 0.041405700658136819 0.027034949507411733 0 0.04130363349273062 0.026880159229041075 0 0.041230639939075893 0.02700926440324956 0 0.041405700658136819 0.027034949507411733 0 0.041435538053895347 0.026899050218497454 0 0.04130363349273062 0.026880159229041075 0 0.041405700658136819 0.027034949507411733 0 0.041435538053895347 0.026899050218497454 0 0.041592534579198107 0.02695415999188808 0 0.041405700658136819 0.027034949507411733 0 0.040793465513354589 0.027255569949992158 0 0.040857822898342611 0.02704332772305347 0 0.040625486322325856 0.027138149829815373 0 0.040888229056780266 0.027491949269425033 0 0.040793465513354589 0.027255569949992158 0 0.041057649586590778 0.027172318656997384 0 0.040793465513354589 0.027255569949992158 0 0.041057649586590778 0.027172318656997384 0 0.040857822898342611 0.02704332772305347 0 0.041084147883887097 0.026930780612765194 0 0.041057649586590778 0.027172318656997384 0 0.040988561355540361 0.027018307076310078 0 0.041057649586590778 0.027172318656997384 0 0.040988561355540361 0.027018307076310078 0 0.040857822898342611 0.02704332772305347 0 0.041084147883887097 0.026930780612765194 0 0.040988561355540361 0.027018307076310078 0 0.040943668722615963 0.026912560366450896 0 0.040988561355540361 0.027018307076310078 0 0.040943668722615963 0.026912560366450896 0 0.040857822898342611 0.02704332772305347 0 0.040800976519513941 0.026860878070541942 0 0.040857822898342611 0.02704332772305347 0 0.040706813765850079 0.026950627111114442 0 0.040857822898342611 0.02704332772305347 0 0.040706813765850079 0.026950627111114442 0 0.040625486322325856 0.027138149829815373 0 0.040800976519513941 0.026860878070541942 0 0.040943668722615963 0.026912560366450896 0 0.040857822898342611 0.02704332772305347 0 0.040328343374216133 0.027069036136383541 0 0.040016996723375692 0.027359764808888177 0 0.040533624948123535 0.027434999069027556 0 0.040559296649442134 0.026888248113506399 0 0.040706813765850079 0.026950627111114442 0 0.040625486322325856 0.027138149829815373 0 0.040559296649442134 0.026888248113506399 0 0.040625486322325856 0.027138149829815373 0 0.040328343374216133 0.027069036136383541 0 0.040625486322325856 0.027138149829815373 0 0.040328343374216133 0.027069036136383541 0 0.040533624948123535 0.027434999069027556 0 0.040793465513354589 0.027255569949992158 0 0.040625486322325856 0.027138149829815373 0 0.040533624948123535 0.027434999069027556 0 0.040331422434692288 0.026796826068795375 0 0.040559296649442134 0.026888248113506399 0 0.040328343374216133 0.027069036136383541 0 0.039907637674208594 0.026828221019423056 0 0.040328343374216133 0.027069036136383541 0 0.040016996723375692 0.027359764808888177 0 0.039907637674208594 0.026828221019423056 0 0.040016996723375692 0.027359764808888177 0 0.039401711553231834 0.027653221699853764 0 0.039907637674208594 0.026828221019423056 0 0.040331422434692288 0.026796826068795375 0 0.040328343374216133 0.027069036136383541 0 0.040016996723375692 0.027359764808888177 0 0.040215304291095655 0.02775113106936964 0 0.039401711553231834 0.027653221699853764 0 0.040016996723375692 0.027359764808888177 0 0.040215304291095655 0.02775113106936964 0 0.040533624948123535 0.027434999069027556 0 0.040808214409709991 0.027981838204507916 0 0.040215304291095655 0.02775113106936964 0 0.040533624948123535 0.027434999069027556 0 0.039496777584749253 0.027692936781395391 0 0.038903948792306228 0.027267769486632114 0 0.03971155954664065 0.027963698388402021 0 0.039035568511573832 0.027342024982326754 0 0.039191187010093324 0.028390816247332813 0 0.039176339256908783 0.026763032761023865 0 0.039907637674208594 0.026828221019423056 0 0.039401711553231834 0.027653221699853764 0 0.039176339256908783 0.026763032761023865 0 0.039401711553231834 0.027653221699853764 0 0.038698593753706031 0.027072216877768347 0 0.038538655364341957 0.027005777589601484 0 0.038903948792306228 0.027267769486632114 0 0.038096916786700553 0.026531442880399134 0 0.039035568511573832 0.027342024982326754 0 0.038298215456212509 0.027386607349578374 0 0.038298215456212509 0.027386607349578374 0 0.038590972463750879 0.027988802678952891 0 0.038048301535613137 0.027812094061555787 0 0.038590972463750879 0.027988802678952891 0 0.038230491204387596 0.028348415479416311 0 0.038048301535613137 0.027812094061555787 0 0.039035568511573832 0.027342024982326754 0 0.038298215456212509 0.027386607349578374 0 0.038590972463750879 0.027988802678952891 0 0.039035568511573832 0.027342024982326754 0 0.038590972463750879 0.027988802678952891 0 0.039191187010093324 0.028390816247332813 0 0.038590972463750879 0.027988802678952891 0 0.038563708883380045 0.028686375272490072 0 0.039191187010093324 0.028390816247332813 0 0.038590972463750879 0.027988802678952891 0 0.038230491204387596 0.028348415479416311 0 0.038563708883380045 0.028686375272490072 0 0.038230491204387596 0.028348415479416311 0 0.038563708883380045 0.028686375272490072 0 0.037976021569277332 0.028802437328020344 0 0.038563708883380045 0.028686375272490072 0 0.038101213929361041 0.029292285384780833 0 0.037976021569277332 0.028802437328020344 0 0.038563708883380045 0.028686375272490072 0 0.038101213929361041 0.029292285384780833 0 0.038639376341685586 0.029192243337924667 0 0.038563708883380045 0.028686375272490072 0 0.038981962718898894 0.028841971834424603 0 0.039191187010093324 0.028390816247332813 0 0.038563708883380045 0.028686375272490072 0 0.038981962718898894 0.028841971834424603 0 0.038639376341685586 0.029192243337924667 0 0.038981962718898894 0.028841971834424603 0 0.038639376341685586 0.029192243337924667 0 0.039098203704614823 0.029186090134877093 0 0.039305391812337852 0.028833789185051716 0 0.039727886814767376 0.028571137866264775 0 0.039462326269087432 0.029204486110186553 0 0.039305391812337852 0.028833789185051716 0 0.039191187010093324 0.028390816247332813 0 0.039727886814767376 0.028571137866264775 0 0.038981962718898894 0.028841971834424603 0 0.039305391812337852 0.028833789185051716 0 0.039098203704614823 0.029186090134877093 0 0.038981962718898894 0.028841971834424603 0 0.039305391812337852 0.028833789185051716 0 0.039191187010093324 0.028390816247332813 0 0.040231769342335959 0.028293317679383725 0 0.03971155954664065 0.027963698388402021 0 0.039727886814767376 0.028571137866264775 0 0.03971155954664065 0.027963698388402021 0 0.039191187010093324 0.028390816247332813 0 0.039727886814767376 0.028571137866264775 0 0.040103187516297024 0.028910163418473921 0 0.039727886814767376 0.028571137866264775 0 0.039462326269087432 0.029204486110186553 0 0.032458911379540642 0.032991800052892706 0 0.033535450099734368 0.032979172646426608 0 0.02563557522737394 0.0392153120147525 0 0.027505680122062361 0.038885967589840573 0 0.026801265941817577 0.037842564708322063 0 0.027505680122062361 0.038885967589840573 0 0.028267821958611234 0.037830128040707102 0 0.029378959662351559 0.038535380235762327 0 0.033535450099734368 0.032979172646426608 0 0.035190907809608353 0.032384679776599395 0 0.039305391812337852 0.028833789185051716 0 0.039462326269087432 0.029204486110186553 0 0.039098203704614823 0.029186090134877093 0 0.027505680122062361 0.038885967589840573 0 0.028267821958611234 0.037830128040707102 0 0.026801265941817577 0.037842564708322063 0 0.028267821958611234 0.037830128040707102 0 0.026801265941817577 0.037842564708322063 0 0.027342385165690489 0.036563273578781606 0 0.025653778755112017 0.037075400425164592 0 0.026801265941817577 0.037842564708322063 0 0.027342385165690489 0.036563273578781606 0 0.025653778755112017 0.037075400425164592 0 0.027342385165690489 0.036563273578781606 0 0.026369387180789003 0.034999983888508793 0 0.027342385165690489 0.036563273578781606 0 0.028294254994636631 0.034999982007325466 0 0.029042021055872166 0.036831169356136048 0 0.028267821958611234 0.037830128040707102 0 0.027342385165690489 0.036563273578781606 0 0.029042021055872166 0.036831169356136048 0 0.027342385165690489 0.036563273578781606 0 0.028294254994636631 0.034999982007325466 0 0.026369387180789003 0.034999983888508793 0 0.029796529535003547 0.035996491867369397 0 0.03021905569216167 0.034999979860413685 0 0.030906823296605854 0.036023401035878547 0 0.030224404041185576 0.034998078669705411 0 0.032065244891698957 0.034688366565261496 0 0.028294254994636631 0.034999982007325466 0 0.029796529535003547 0.035996491867369397 0 0.029042021055872166 0.036831169356136048 0 0.028294254994636631 0.034999982007325466 0 0.029796529535003547 0.035996491867369397 0 0.03021905569216167 0.034999979860413685 0 0.029796529535003547 0.035996491867369397 0 0.030370854488752888 0.036738243984519858 0 0.030906823296605854 0.036023401035878547 0 0.029042021055872166 0.036831169356136048 0 0.030370854488752888 0.036738243984519858 0 0.030495815034560916 0.037793524186854929 0 0.029796529535003547 0.035996491867369397 0 0.029042021055872166 0.036831169356136048 0 0.030370854488752888 0.036738243984519858 0 0.034403510947133537 0.033308420480010412 0 0.035190907809608353 0.032384679776599395 0 0.029042021055872166 0.036831169356136048 0 0.030495815034560916 0.037793524186854929 0 0.029378959662351559 0.038535380235762327 0 0.038040470824675265 0.030173668814957491 0 0.038616551227789224 0.029774830929251157 0 0.038034327506784406 0.029886097121358826 0 0.028267821958611234 0.037830128040707102 0 0.029042021055872166 0.036831169356136048 0 0.029378959662351559 0.038535380235762327 0 0.039462326269087432 0.029204486110186553 0 0.038736344056882421 0.029482935009812892 0 0.039098203704614823 0.029186090134877093 0 0.038639376341685586 0.029192243337924667 0 0.038665473651627043 0.029660481725750518 0 0.039098203704614823 0.029186090134877093 0 0.035190907809608353 0.032384679776599395 0 0.036121953342681007 0.031725365048740697 0 0.038665473651627043 0.029660481725750518 0 0.038034327506784406 0.029886097121358826 0 0.038294889402537745 0.029532928771764611 0 0.035190907809608353 0.032384679776599395 0 0.036030863360554888 0.032077610323369553 0 0.038034327506784406 0.029886097121358826 0 0.038294889402537745 0.029532928771764611 0 0.0379776545781857 0.029630578569516685 0 0.038639376341685586 0.029192243337924667 0 0.038665473651627043 0.029660481725750518 0 0.038294889402537745 0.029532928771764611 0 0.038101213929361041 0.029292285384780833 0 0.038639376341685586 0.029192243337924667 0 0.038294889402537745 0.029532928771764611 0 0.038101213929361041 0.029292285384780833 0 0.038294889402537745 0.029532928771764611 0 0.0379776545781857 0.029630578569516685 0 0.038101213929361041 0.029292285384780833 0 0.0379776545781857 0.029630578569516685 0 0.037683475359748725 0.029605949936828635 0 0.038101213929361041 0.029292285384780833 0 0.037683475359748725 0.029605949936828635 0 0.037589975785925434 0.029247841687908841 0 0.037683475359748725 0.029605949936828635 0 0.037309356828616198 0.029556618935756999 0 0.037589975785925434 0.029247841687908841 0 0.037683475359748725 0.029605949936828635 0 0.037438563112114118 0.02995003871926414 0 0.037762846525595556 0.029919043288333034 0 0.037683475359748725 0.029605949936828635 0 0.037438563112114118 0.02995003871926414 0 0.037309356828616198 0.029556618935756999 0 0.0379776545781857 0.029630578569516685 0 0.037683475359748725 0.029605949936828635 0 0.037762846525595556 0.029919043288333034 0 0.038034327506784406 0.029886097121358826 0 0.0379776545781857 0.029630578569516685 0 0.037762846525595556 0.029919043288333034 0 0.037438563112114118 0.02995003871926414 0 0.036849824559569963 0.029719447652066015 0 0.037309356828616198 0.029556618935756999 0 0.036849824559569963 0.029719447652066015 0 0.037309356828616198 0.029556618935756999 0 0.037027262061282359 0.029261684961177224 0 0.034265709054892957 0.033767811279716523 0 0.034646163569290678 0.033114848931533325 0 0.037438563112114118 0.02995003871926414 0 0.036849824559569963 0.029719447652066015 0 0.037445433512553992 0.030566676541949184 0 0.038467508487686493 0.033014052708736689 0 0.038157687011688035 0.03322031655542948 0 0.036932696033047267 0.032489879880073791 0 0.037240835423977568 0.03115375203103261 0 0.038467508487686493 0.033014052708736689 0 0.036932696033047267 0.032489879880073791 0 0.034944616458417836 0.031922342032303049 0 0.033953375080488825 0.033880533702300583 0 0.034403510947133537 0.033308420480010412 0 0.033953375080488825 0.033880533702300583 0 0.038040470824675265 0.030173668814957491 0 0.037657612544971318 0.030181581623124842 0 0.037445433512553992 0.030566676541949184 0 0.030370854488752888 0.036738243984519858 0 0.030495815034560916 0.037793524186854929 0 0.031607285578644555 0.037049706082742231 0 0.037438563112114118 0.02995003871926414 0 0.037657612544971318 0.030181581623124842 0 0.037445433512553992 0.030566676541949184 0 0.038040470824675265 0.030173668814957491 0 0.037762846525595556 0.029919043288333034 0 0.037657612544971318 0.030181581623124842 0 0.038040470824675265 0.030173668814957491 0 0.038034327506784406 0.029886097121358826 0 0.037762846525595556 0.029919043288333034 0 0.037438563112114118 0.02995003871926414 0 0.037762846525595556 0.029919043288333034 0 0.037657612544971318 0.030181581623124842 0 0.030370854488752888 0.036738243984519858 0 0.031607285578644555 0.037049706082742231 0 0.030906823296605854 0.036023401035878547 0 0.03157859281040213 0.036253719965510231 0 0.031737545432247737 0.036763658311114042 0 0.030933218406276611 0.036038611540732728 0 0.033953375080488825 0.033880533702300583 0 0.032065244891698957 0.034688366565261496 0 0.031643162428181493 0.037070444434126139 0 0.031737545432247737 0.036763658311114042 0 0.030933218406276611 0.036038611540732728 0 0.034040200624444725 0.03333947190794536 0 0.034425631246256971 0.033081967125490282 0 0.034599619142911972 0.03366922243448367 0 0.033953375080488825 0.033880533702300583 0 0.034265709054892957 0.033767811279716523 0 0.031643162428181493 0.037070444434126139 0 0.031737545432247737 0.036763658311114042 0 0.031931529616938382 0.036876801094583876 0 0.031737545432247737 0.036763658311114042 0 0.031931478736043947 0.036878015089417654 0 0.031960350849008862 0.036417979725993255 0 0.034254176843095355 0.033774158477600021 0 0.034265709054892957 0.033767811279716523 0 0.034265709054892957 0.033767811279716523 0 0.033759911482765664 0.034146624348266388 0 0.031931478736043947 0.036878015089417654 0 0.032724746866927092 0.036348855470084845 0 0.031960350849008862 0.036417979725993255 0 0.03157859281040213 0.036253719965510231 0 0.031960350849008862 0.036417979725993255 0 0.031829092838337202 0.035845052226186704 0 0.032724746866927092 0.036348855470084845 0 0.031960350849008862 0.036417979725993255 0 0.031829092838337202 0.035845052226186704 0 0.03157859281040213 0.036253719965510231 0 0.031737545432247737 0.036763658311114042 0 0.031960350849008862 0.036417979725993255 0 0.032724746866927092 0.036348855470084845 0 0.031829092838337202 0.035845052226186704 0 0.032328012773712778 0.034999988121024291 0 0.033759911482765664 0.034146624348266388 0 0.032332356674286897 0.034998507964242191 0 0.030219131328306149 0.034999996619628417 0 0.031829092838337202 0.035845052226186704 0 0.032328012773712778 0.034999988121024291 0 0.030219131328306149 0.034999996619628417 0 0.031829092838337202 0.035845052226186704 0 0.030933218406276611 0.036038611540732728 0 0.03157859281040213 0.036253719965510231 0 0.031829092838337202 0.035845052226186704 0 0.030933218406276611 0.036038611540732728 0 0.032329057421645331 0.034999536528510282 0 0.034999760799572066 0.034999865105642597 0 0.034691132608144798 0.034986997992462035 0 0.034999760799572066 0.034999865105642597 0 0.035582025176348613 0.033349546485369128 0 0.034999437166561391 0.03128407959894073 0 0.034999760799572066 0.034999865105642597 0 0.034691132608144798 0.034986997992462035 0 0.035582025176348613 0.033349546485369128 0 0.034691132608144798 0.034986997992462035 0 0.035970390356094582 0.034386238718546118 0 0.035582025176348613 0.033349546485369128 0 0.03410959609336723 0.034250511405049353 0 0.034032799195032097 0.034223058140349948 0 0.032778919299113085 0.036366626847473368 0 0.032329057421645331 0.034999536528510282 0 0.033718449984333862 0.035728147038685015 0 0.032329057421645331 0.034999536528510282 0 0.034691132608144798 0.034986997992462035 0 0.033718449984333862 0.035728147038685015 0 0.033759911482765664 0.034146624348266388 0 0.034032799195032097 0.034223058140349948 0 0.033759911482765664 0.034146624348266388 0 0.034646163569290678 0.033114848931533325 0 0.035970390356094582 0.034386238718546118 0 0.036283145653737144 0.033488642489522172 0 0.035582025176348613 0.033349546485369128 0 0.036964926945380644 0.033754566743727711 0 0.036283145653737144 0.033488642489522172 0 0.03661166078500204 0.032492693650134845 0 0.036964926945380644 0.033754566743727711 0 0.035970390356094582 0.034386238718546118 0 0.036283145653737144 0.033488642489522172 0 0.036283145653737144 0.033488642489522172 0 0.035582025176348613 0.033349546485369128 0 0.03661166078500204 0.032492693650134845 0 0.035582025176348613 0.033349546485369128 0 0.03574139256887069 0.031917872072243891 0 0.034999437166561391 0.03128407959894073 0 0.035582025176348613 0.033349546485369128 0 0.03574139256887069 0.031917872072243891 0 0.03661166078500204 0.032492693650134845 0 0.034986905876541345 0.032235036782117692 0 0.034646163569290678 0.033114848931533325 0 0.034646163569290678 0.033114848931533325 0 0.034870756413955602 0.032270314487796034 0 0.037240835423977568 0.03115375203103261 0 0.036932696033047267 0.032489879880073791 0 0.036363845487419617 0.03046233115265046 0 0.035957409302255355 0.031835461514192566 0 0.036949665553014814 0.032425048503755105 0 0.036363845487419617 0.03046233115265046 0 0.035957409302255355 0.031835461514192566 0 0.034999985976653977 0.031283474002913154 0 0.036363845487419617 0.03046233115265046 0 0.034986905876541345 0.032235036782117692 0 0.034999262885854053 0.031286457251858357 0 0.036031211055680731 0.029222330079278713 0 0.034999974389502954 0.029220133642578961 0 0.036363845487419617 0.03046233115265046 0 0.034999985976653977 0.031283474002913154 0 0.034999974389502954 0.029220133642578961 0 0.036363845487419617 0.03046233115265046 0 0.036031211055680731 0.029222330079278713 0 0.034999974389502954 0.029220133642578961 0 0.03596975132866187 0.028026953257338338 0 0.036031211055680731 0.029222330079278713 0 0.03649264500398481 0.028479622284861453 0 0.03596975132866187 0.028026953257338338 0 0.036031211055680731 0.029222330079278713 0 0.03649264500398481 0.028479622284861453 0 0.036878498401663351 0.028801109944862485 0 0.036849824559569963 0.029719447652066015 0 0.036031211055680731 0.029222330079278713 0 0.037027262061282359 0.029261684961177224 0 0.037240835423977568 0.03115375203103261 0 0.036031211055680731 0.029222330079278713 0 0.036363845487419617 0.03046233115265046 0 0.034944616458417836 0.031922342032303049 0 0.034971286899418877 0.031017676162491816 0 0.036031211055680731 0.029222330079278713 0 0.037027262061282359 0.029261684961177224 0 0.036878498401663351 0.028801109944862485 0 0.037309356828616198 0.029556618935756999 0 0.037027262061282359 0.029261684961177224 0 0.037589975785925434 0.029247841687908841 0 0.037027262061282359 0.029261684961177224 0 0.037589975785925434 0.029247841687908841 0 0.037433082336037454 0.028789134380841321 0 0.037027262061282359 0.029261684961177224 0 0.036878498401663351 0.028801109944862485 0 0.037433082336037454 0.028789134380841321 0 0.038101213929361041 0.029292285384780833 0 0.037589975785925434 0.029247841687908841 0 0.037976021569277332 0.028802437328020344 0 0.037589975785925434 0.029247841687908841 0 0.037976021569277332 0.028802437328020344 0 0.037433082336037454 0.028789134380841321 0 0.038230491204387596 0.028348415479416311 0 0.037976021569277332 0.028802437328020344 0 0.037808222873887486 0.028377944866682551 0 0.037976021569277332 0.028802437328020344 0 0.037808222873887486 0.028377944866682551 0 0.037433082336037454 0.028789134380841321 0 0.037808222873887486 0.028377944866682551 0 0.037433082336037454 0.028789134380841321 0 0.037279488616942247 0.028156171013676304 0 0.038230491204387596 0.028348415479416311 0 0.037808222873887486 0.028377944866682551 0 0.038048301535613137 0.027812094061555787 0 0.03649264500398481 0.028479622284861453 0 0.036878498401663351 0.028801109944862485 0 0.037279488616942247 0.028156171013676304 0 0.036878498401663351 0.028801109944862485 0 0.037433082336037454 0.028789134380841321 0 0.037279488616942247 0.028156171013676304 0 0.03649264500398481 0.028479622284861453 0 0.037279488616942247 0.028156171013676304 0 0.03683109283248142 0.02760628348258776 0 0.037279488616942247 0.028156171013676304 0 0.037708014050135151 0.027248172625718926 0 0.03683109283248142 0.02760628348258776 0 0.037279488616942247 0.028156171013676304 0 0.038048301535613137 0.027812094061555787 0 0.037708014050135151 0.027248172625718926 0 0.038298215456212509 0.027386607349578374 0 0.038048301535613137 0.027812094061555787 0 0.037708014050135151 0.027248172625718926 0 0.037808222873887486 0.028377944866682551 0 0.037279488616942247 0.028156171013676304 0 0.038048301535613137 0.027812094061555787 0 0.037389423193382995 0.026322627596015651 0 0.038096916786700553 0.026531442880399134 0 0.037708014050135151 0.027248172625718926 0 0.038096916786700553 0.026531442880399134 0 0.038298215456212509 0.027386607349578374 0 0.037708014050135151 0.027248172625718926 0 0.037389423193382995 0.026322627596015651 0 0.037708014050135151 0.027248172625718926 0 0.03683109283248142 0.02760628348258776 0 0.037389423193382995 0.026322627596015651 0 0.036230597002333623 0.026597245731711263 0 0.03683109283248142 0.02760628348258776 0 0.036230597002333623 0.026597245731711263 0 0.034999993604961088 0.027158187945181246 0 0.03596975132866187 0.028026953257338338 0 0.034999974389502954 0.029220133642578961 0 0.034999993604961088 0.027158187945181246 0 0.03596975132866187 0.028026953257338338 0 0.03649264500398481 0.028479622284861453 0 0.03596975132866187 0.028026953257338338 0 0.03683109283248142 0.02760628348258776 0 0.036230597002333623 0.026597245731711263 0 0.03596975132866187 0.028026953257338338 0 0.03683109283248142 0.02760628348258776 0 0.0052904979875692242 0.043999687012312147 0 0.0049621975026190998 0.045187702502100968 0 0.0068802137228355948 0.043630064576799563 0 0.0124208069174204 0.034281235377620692 0 0.01668386279852685 0.032804241428816709 0 0.0052904979875692242 0.043999687012312147 0 0.0068802137228355948 0.043630064576799563 0 0.0057989395667674727 0.042886874412336656 0 0.0052904979875692242 0.043999687012312147 0 0.0041509941081017687 0.043369560559965228 0 0.0049589933283837031 0.042963979297556465 0 0.0052904979875692242 0.043999687012312147 0 0.0041509941081017687 0.043369560559965228 0 0.0042041543185649417 0.044236091797526862 0 0.0052904979875692242 0.043999687012312147 0 0.0042041543185649417 0.044236091797526862 0 0.0044919402940445325 0.044473311772903576 0 0.0038441317156434644 0.044266746206919269 0 0.0042041543185649417 0.044236091797526862 0 0.0044919402940445325 0.044473311772903576 0 0.035075444316871512 0.017056213545680102 0 0.032802756038013942 0.016405517661742464 0 0.031959986996143663 0.021521581456271748 0 0.035075444316871512 0.017056213545680102 0 0.032802756038013942 0.016405517661742464 0 0.033334662167656376 0.013790782439167773 0 0.011656267581947983 0.036509829411461046 0 0.0124208069174204 0.034281235377620692 0 0.032802756038013942 0.016405517661742464 0 0.030675994891174174 0.017093393593003679 0 0.031959986996143663 0.021521581456271748 0 0.032802756038013942 0.016405517661742464 0 0.030675994891174174 0.017093393593003679 0 0.031042355855735473 0.014476885595531031 0 0.030675994891174174 0.017093393593003679 0 0.02824254527562875 0.015233431524716512 0 0.031042355855735473 0.014476885595531031 0 0.028490049075940979 0.018214811527213923 0 0.02824254527562875 0.015233431524716512 0 0.025054366511581629 0.016694615007008109 0 0.030675994891174174 0.017093393593003679 0 0.028490049075940979 0.018214811527213923 0 0.02824254527562875 0.015233431524716512 0 0.027834677326870099 0.020763229100712381 0 0.031959986996143663 0.021521581456271748 0 0.026717530471774647 0.023654467248422763 0 0.028490049075940979 0.018214811527213923 0 0.027834677326870099 0.020763229100712381 0 0.031959986996143663 0.021521581456271748 0 0.028490049075940979 0.018214811527213923 0 0.027834677326870099 0.020763229100712381 0 0.025109366867577188 0.019941552644802157 0 0.027834677326870099 0.020763229100712381 0 0.026717530471774647 0.023654467248422763 0 0.025109366867577188 0.019941552644802157 0 0.030675994891174174 0.017093393593003679 0 0.028490049075940979 0.018214811527213923 0 0.031959986996143663 0.021521581456271748 0 0.0068802137228355948 0.043630064576799563 0 0.0069387262128314036 0.042495932070969265 0 0.0090023783424931086 0.042334707217309878 0 0.01668386279852685 0.032804241428816709 0 0.017120608517102977 0.034255481207560355 0 0.0068802137228355948 0.043630064576799563 0 0.0069387262128314036 0.042495932070969265 0 0.0057989395667674727 0.042886874412336656 0 0.031959986996143663 0.021521581456271748 0 0.026717530471774647 0.023654467248422763 0 0.028034793064723548 0.027286733078378131 0 0.0090023783424931086 0.042334707217309878 0 0.0068703254686374726 0.041444532428275095 0 0.0095519186360205274 0.041324589852226416 0 0.0069387262128314036 0.042495932070969265 0 0.0090023783424931086 0.042334707217309878 0 0.0068703254686374726 0.041444532428275095 0 0.0069387262128314036 0.042495932070969265 0 0.0068703254686374726 0.041444532428275095 0 0.0060046265215160282 0.042231029624798209 0 0.0076190169877356374 0.041956961865167307 0 0.0057197917970518014 0.041715399351486965 0 0.0062272122077294849 0.041341191025904125 0 0.0068703254686374726 0.041444532428275095 0 0.0060046265215160282 0.042231029624798209 0 0.0046308329128681922 0.042061874409876229 0 0.0076190169877356374 0.041956961865167307 0 0.0053974614801819108 0.042248171656902492 0 0.0057197917970518014 0.041715399351486965 0 0.0068699889340200059 0.041712919660003386 0 0.0054497571516201769 0.042121028908346785 0 0.0069387262128314036 0.042495932070969265 0 0.0060046265215160282 0.042231029624798209 0 0.0057989395667674727 0.042886874412336656 0 0.0060046265215160282 0.042231029624798209 0 0.0054005108833343031 0.042510599305538167 0 0.0046308329128681922 0.042061874409876229 0 0.0052904979875692242 0.043999687012312147 0 0.0057989395667674727 0.042886874412336656 0 0.0049589933283837031 0.042963979297556465 0 0.0060046265215160282 0.042231029624798209 0 0.0054005108833343031 0.042510599305538167 0 0.0057989395667674727 0.042886874412336656 0 0.0054005108833343031 0.042510599305538167 0 0.0057989395667674727 0.042886874412336656 0 0.0049589933283837031 0.042963979297556465 0 0.0041509941081017687 0.043369560559965228 0 0.0049589933283837031 0.042963979297556465 0 0.0046308329128681922 0.042061874409876229 0 0.0050553599365023199 0.041856753209770982 0 0.0053974614801819108 0.042248171656902492 0 0.0028755745087811618 0.042471598681719673 0 0.0054005108833343031 0.042510599305538167 0 0.0049589933283837031 0.042963979297556465 0 0.0046308329128681922 0.042061874409876229 0 0.0050553599365023199 0.041856753209770982 0 0.0053974614801819108 0.042248171656902492 0 0.0057197917970518014 0.041715399351486965 0 0.0057197917970518014 0.041715399351486965 0 0.0052316942949735563 0.041336763409638537 0 0.0062272122077294849 0.041341191025904125 0 0.0050553599365023199 0.041856753209770982 0 0.0057197917970518014 0.041715399351486965 0 0.0051327924174274196 0.041596107978032211 0 0.0057197917970518014 0.041715399351486965 0 0.0051327924174274196 0.041596107978032211 0 0.0052316942949735563 0.041336763409638537 0 0.0050553599365023199 0.041856753209770982 0 0.0051327924174274196 0.041596107978032211 0 0.0046156684642864919 0.041481373693897129 0 0.0051327924174274196 0.041596107978032211 0 0.0046156684642864919 0.041481373693897129 0 0.0052316942949735563 0.041336763409638537 0 0.0050553599365023199 0.041856753209770982 0 0.0046156684642864919 0.041481373693897129 0 0.0034751188116702082 0.041588432541095989 0 0.0050553599365023199 0.041856753209770982 0 0.0021161574364024819 0.040233454295939393 0 0.0028755745087811618 0.042471598681719673 0 0.0032423162562451261 0.041204848473593257 0 0.0021481306980827061 0.040913401575515276 0 0.0021161574364024819 0.040233454295939393 0 0.0012480610933939835 0.04181467231500282 0 0.0001551355845095292 0.040933878629023375 0 0.0021161574364024819 0.040233454295939393 0 0.0012480610933939835 0.04181467231500282 0 0.0028755745087811618 0.042471598681719673 0 0.0012480610933939835 0.04181467231500282 0 0.0028755745087811618 0.042471598681719673 0 0.00078844420841283811 0.043942804586505013 0 0.0054497571516201769 0.042121028908346785 0 0.0046146049102693664 0.042364262362116295 0 0.0041509941081017687 0.043369560559965228 0 0.0046308329128681922 0.042061874409876229 0 0.0028755745087811618 0.042471598681719673 0 0.0001551355845095292 0.040933878629023375 0 -0.0014165324473779243 0.041234457922587016 0 -0.001022020812754752 0.039149452077154812 0 -0.0014165324473779243 0.041234457922587016 0 -0.001022020812754752 0.039149452077154812 0 -0.0026720573496385723 0.040406908161330642 0 -0.0014165324473779243 0.041234457922587016 0 -0.0026720573496385723 0.040406908161330642 0 -0.0028434846940641341 0.041603453505418483 0 0.0021161574364024819 0.040233454295939393 0 0.0001551355845095292 0.040933878629023375 0 -0.001022020812754752 0.039149452077154812 0 0.0021481306980827061 0.040913401575515276 0 -0.00013574936852757258 0.040386798717772572 0 0.0012480610933939835 0.04181467231500282 0 -0.0001830712721877175 0.042172859797419138 0 0.00078844420841283811 0.043942804586505013 0 0.0012480610933939835 0.04181467231500282 0 0.0001551355845095292 0.040933878629023375 0 -0.0001830712721877175 0.042172859797419138 0 0.0001551355845095292 0.040933878629023375 0 -0.0001830712721877175 0.042172859797419138 0 -0.0014165324473779243 0.041234457922587016 0 -0.0014165324473779243 0.041234457922587016 0 -0.0020282738025986292 0.043454276448685616 0 -0.0028434846940641341 0.041603453505418483 0 -0.0001830712721877175 0.042172859797419138 0 -0.0014165324473779243 0.041234457922587016 0 -0.0020282738025986292 0.043454276448685616 0 -0.0020282738025986292 0.043454276448685616 0 0.00078844420841283811 0.043942804586505013 0 -0.0021092849867610434 0.046794812694650217 0 -0.0001830712721877175 0.042172859797419138 0 -0.0020282738025986292 0.043454276448685616 0 0.00078844420841283811 0.043942804586505013 0 0.00078844420841283811 0.043942804586505013 0 0.0035583381537521567 0.044643921408178272 0 0.0015749621365774647 0.047243432034729096 0 0.0041509941081017687 0.043369560559965228 0 0.0042041543185649417 0.044236091797526862 0 0.0035583381537521567 0.044643921408178272 0 0.0041509941081017687 0.043369560559965228 0 0.0028755745087811618 0.042471598681719673 0 0.0035583381537521567 0.044643921408178272 0 0.0028755745087811618 0.042471598681719673 0 0.00078844420841283811 0.043942804586505013 0 0.0035583381537521567 0.044643921408178272 0 0.0038441317156434644 0.044266746206919269 0 0.0042041543185649417 0.044236091797526862 0 0.0035583381537521567 0.044643921408178272 0 0.0038441317156434644 0.044266746206919269 0 0.0035583381537521567 0.044643921408178272 0 0.0034861249785478462 0.043775720411977408 0 0.0035583381537521567 0.044643921408178272 0 0.0034861249785478462 0.043775720411977408 0 0.0051330041080536806 0.043723570233121414 0 0.00090806214894861652 0.043139933079592706 0 0.00011475414215332492 0.042969380985004191 0 0.0051330041080536806 0.043723570233121414 0 0.0046744784098305056 0.042394485540348699 0 0.0068611138374125137 0.041830451404776155 0 0.0034861249785478462 0.043775720411977408 0 0.0051330041080536806 0.043723570233121414 0 0.0046744784098305056 0.042394485540348699 0 0.0034861249785478462 0.043775720411977408 0 0.0046744784098305056 0.042394485540348699 0 0.0033931915768268053 0.042404338135248944 0 0.00078844420841283811 0.043942804586505013 0 0.0015749621365774647 0.047243432034729096 0 -0.0021092849867610434 0.046794812694650217 0 0.00011475414215332492 0.042969380985004191 0 -0.0022984058140498704 0.0417195976493379 0 0.0015749621365774647 0.047243432034729096 0 -0.0021092849867610434 0.046794812694650217 0 -0.00023075479411508012 0.049940289524471687 0 -0.0021092849867610434 0.046794812694650217 0 -0.00023075479411508012 0.049940289524471687 0 -0.0029062277711436276 0.050000800972016979 0 -0.0022984058140498704 0.0417195976493379 0 -0.0071094451975878842 0.038084642078475089 0 -0.00023075479411508012 0.049940289524471687 0 -0.0028473247332344419 0.052332596771356717 0 -0.0029062277711436276 0.050000800972016979 0 0.0068611138374125137 0.041830451404776155 0 0.0068726907607805704 0.040190588579203199 0 0.005215357031536646 0.040639129320190405 0 0.0068726907607805704 0.040190588579203199 0 0.005215357031536646 0.040639129320190405 0 0.0057045678285628908 0.039270644179453286 0 0.0068611138374125137 0.041830451404776155 0 0.0068726907607805704 0.040190588579203199 0 0.00841624550095341 0.0396608668040083 0 -0.00023075479411508012 0.049940289524471687 0 -0.0022133464535250137 0.053105585178300524 0 -0.0028473247332344419 0.052332596771356717 0 -0.0071094451975878842 0.038084642078475089 0 -0.0066204806244449339 0.038834192388035919 0 0.0033931915768268053 0.042404338135248944 0 0.003812982266424853 0.041178470674334104 0 0.0024163263021349996 0.040705649671113259 0 0.0046744784098305056 0.042394485540348699 0 0.0033931915768268053 0.042404338135248944 0 0.003812982266424853 0.041178470674334104 0 0.0046744784098305056 0.042394485540348699 0 0.0068611138374125137 0.041830451404776155 0 0.005215357031536646 0.040639129320190405 0 0.0046744784098305056 0.042394485540348699 0 0.003812982266424853 0.041178470674334104 0 0.005215357031536646 0.040639129320190405 0 0.005215357031536646 0.040639129320190405 0 0.0046862957850342252 0.039379688500614393 0 0.003984201621825347 0.040084178503506769 0 0.005215357031536646 0.040639129320190405 0 0.0057045678285628908 0.039270644179453286 0 0.0046862957850342252 0.039379688500614393 0 0.0046862957850342252 0.039379688500614393 0 0.0039155275449410595 0.039288615249212677 0 0.003984201621825347 0.040084178503506769 0 0.003812982266424853 0.041178470674334104 0 0.005215357031536646 0.040639129320190405 0 0.003984201621825347 0.040084178503506769 0 0.003812982266424853 0.041178470674334104 0 0.003984201621825347 0.040084178503506769 0 0.0031859736763729016 0.040239866331691798 0 0.003812982266424853 0.041178470674334104 0 0.0031859736763729016 0.040239866331691798 0 0.0024163263021349996 0.040705649671113259 0 0.003984201621825347 0.040084178503506769 0 0.0031859736763729016 0.040239866331691798 0 0.0032104567245162846 0.03964357103934394 0 0.0039155275449410595 0.039288615249212677 0 0.003984201621825347 0.040084178503506769 0 0.0032104567245162846 0.03964357103934394 0 0.0033182129063003283 0.038729941935691937 0 0.0039155275449410595 0.039288615249212677 0 0.0032104567245162846 0.03964357103934394 0 0.0022592223703589709 0.038812284844812882 0 0.0032104567245162846 0.03964357103934394 0 0.0012767190471044587 0.03992937677705817 0 0.010656746618256108 0.024469262853284605 0 0.011135574120710492 0.024253052202264497 0 0.0031859736763729016 0.040239866331691798 0 0.0032104567245162846 0.03964357103934394 0 0.0026217981792493088 0.039605688212513188 0 0.011135574120710492 0.024253052202264497 0 0.014051184110132361 0.022270411882576124 0 0.00077542124756060612 0.038751136492170164 0 0.0012767190471044587 0.03992937677705817 0 -0.001231199105299395 0.039917199813266829 0 0.014227045220451002 0.021090954281102844 0 0.012267953629535464 0.021017141934011632 0 0.013651450296898163 0.023966199665203781 0 0.035506415719731239 0.0052021425387982273 0 0.036538130652682792 0.0073815523139861066 0 0.033914051662721025 0.0072019333737601225 0 0.014051184110132361 0.022270411882576124 0 0.012333724942331538 0.025485735071287367 0 0.0031859736763729016 0.040239866331691798 0 0.0026217981792493088 0.039605688212513188 0 0.0024163263021349996 0.040705649671113259 0 0.011135574120710492 0.024253052202264497 0 0.012333724942331538 0.025485735071287367 0 0.035506415719731239 0.0052021425387982273 0 0.033914051662721025 0.0072019333737601225 0 0.031587087409684654 0.0050336718864499343 0 0.014051184110132361 0.022270411882576124 0 0.020677232044581634 0.015516188456806742 0 0.033914051662721025 0.0072019333737601225 0 0.03291676358394563 0.0091519609247313876 0 0.031592708325253196 0.0075097432693618351 0 0.033914051662721025 0.0072019333737601225 0 0.034631046152205691 0.0093259937848871148 0 0.03291676358394563 0.0091519609247313876 0 0.036538130652682792 0.0073815523139861066 0 0.033914051662721025 0.0072019333737601225 0 0.034631046152205691 0.0093259937848871148 0 0.034631046152205691 0.0093259937848871148 0 0.03291676358394563 0.0091519609247313876 0 0.033646266405171064 0.011175202756803683 0 0.0033931915768268053 0.042404338135248944 0 0.0027160830732799188 0.040889358407903247 0 0.0023372830460294046 0.043190800395280109 0 0.036538130652682792 0.0073815523139861066 0 0.034631046152205691 0.0093259937848871148 0 0.035736228059583923 0.012081349437242362 0 0.01247874503522604 0.029572209021262803 0 0.012333724942331538 0.025485735071287367 0 0.012333724942331538 0.025485735071287367 0 0.013888350883730537 0.028248353090105184 0 0.0034861249785478462 0.043775720411977408 0 0.0033931915768268053 0.042404338135248944 0 0.0023372830460294046 0.043190800395280109 0 0.034631046152205691 0.0093259937848871148 0 0.035736228059583923 0.012081349437242362 0 0.033646266405171064 0.011175202756803683 0 0.03291676358394563 0.0091519609247313876 0 0.033646266405171064 0.011175202756803683 0 0.03159221463374369 0.011589762526908015 0 0.033646266405171064 0.011175202756803683 0 0.033334662167656376 0.013790782439167773 0 0.03159221463374369 0.011589762526908015 0 0.035736228059583923 0.012081349437242362 0 0.033646266405171064 0.011175202756803683 0 0.033334662167656376 0.013790782439167773 0 0.035075444316871512 0.017056213545680102 0 0.035736228059583923 0.012081349437242362 0 0.033334662167656376 0.013790782439167773 0 0.0124208069174204 0.034281235377620692 0 0.013888350883730537 0.028248353090105184 0 0.0019524149754895465 0.045514679210251818 0 0.0034861249785478462 0.043775720411977408 0 0.0023372830460294046 0.043190800395280109 0 0.0124208069174204 0.034281235377620692 0 0.007628281117223662 0.039701657315522838 0 0.0038441317156434644 0.044266746206919269 0 0.0044919402940445325 0.044473311772903576 0 0.0034861249785478462 0.043775720411977408 0 0.02952215981759446 0.012961330712664646 0 0.02824254527562875 0.015233431524716512 0 0.027391698303707825 0.012199171889370759 0 0.02824254527562875 0.015233431524716512 0 0.027391698303707825 0.012199171889370759 0 0.02555458222350496 0.013635844938694817 0 0.02952215981759446 0.012961330712664646 0 0.02824254527562875 0.015233431524716512 0 0.031042355855735473 0.014476885595531031 0 0.033334662167656376 0.013790782439167773 0 0.031042355855735473 0.014476885595531031 0 0.03159221463374369 0.011589762526908015 0 0.02952215981759446 0.012961330712664646 0 0.031042355855735473 0.014476885595531031 0 0.03159221463374369 0.011589762526908015 0 0.032802756038013942 0.016405517661742464 0 0.033334662167656376 0.013790782439167773 0 0.031042355855735473 0.014476885595531031 0 0.02952215981759446 0.012961330712664646 0 0.03159221463374369 0.011589762526908015 0 0.029140171299256983 0.011079449144512711 0 0.03159221463374369 0.011589762526908015 0 0.029140171299256983 0.011079449144512711 0 0.030110703231424639 0.0091578046079510648 0 0.02952215981759446 0.012961330712664646 0 0.029140171299256983 0.011079449144512711 0 0.027391698303707825 0.012199171889370759 0 0.029140171299256983 0.011079449144512711 0 0.027391698303707825 0.012199171889370759 0 0.027569281712783403 0.0099582050523185899 0 0.027569281712783403 0.0099582050523185899 0 0.027965729595153033 0.0081340488337342531 0 0.030110703231424639 0.0091578046079510648 0 0.029140171299256983 0.011079449144512711 0 0.027569281712783403 0.0099582050523185899 0 0.030110703231424639 0.0091578046079510648 0 0.027965729595153033 0.0081340488337342531 0 0.030110703231424639 0.0091578046079510648 0 0.029439072382024735 0.0069797956967875352 0 0.03291676358394563 0.0091519609247313876 0 0.030110703231424639 0.0091578046079510648 0 0.031592708325253196 0.0075097432693618351 0 0.03291676358394563 0.0091519609247313876 0 0.03159221463374369 0.011589762526908015 0 0.030110703231424639 0.0091578046079510648 0 0.030110703231424639 0.0091578046079510648 0 0.031592708325253196 0.0075097432693618351 0 0.029439072382024735 0.0069797956967875352 0 0.020677232044581634 0.015516188456806742 0 0.022227040172281075 0.012361978167381537 0 0.031345290640098049 0.0052390001182564096 0 0.029439072382024735 0.0069797956967875352 0 0.028633450280289668 0.005111807144380278 0 0.033914051662721025 0.0072019333737601225 0 0.031592708325253196 0.0075097432693618351 0 0.031587087409684654 0.0050336718864499343 0 0.031592708325253196 0.0075097432693618351 0 0.031587087409684654 0.0050336718864499343 0 0.029439072382024735 0.0069797956967875352 0 0.020677232044581634 0.015516188456806742 0 0.023131015088381224 0.013253746837652366 0 0.022227040172281075 0.012361978167381537 0 0.023270764034322038 0.0098300128646237033 0 0.027410997635954885 0.0066197888969091612 0 0.028633450280289668 0.005111807144380278 0 0.025808063591906974 0.0050049167726118554 0 0.027965729595153033 0.0081340488337342531 0 0.027410997635954885 0.0066197888969091612 0 0.029439072382024735 0.0069797956967875352 0 0.027410997635954885 0.0066197888969091612 0 0.029439072382024735 0.0069797956967875352 0 0.028633450280289668 0.005111807144380278 0 0.027965729595153033 0.0081340488337342531 0 0.027410997635954885 0.0066197888969091612 0 0.025008867275578186 0.0077263716049311686 0 0.027410997635954885 0.0066197888969091612 0 0.025808063591906974 0.0050049167726118554 0 0.025008867275578186 0.0077263716049311686 0 0.023270764034322038 0.0098300128646237033 0 0.023757984422417357 0.0089812705313117372 0 0.025377837548413936 0.0060062256625846265 0 0.025055993709549713 0.008004106570181909 0 0.024380771760949108 0.0067264652557444864 0 0.024466656481706341 0.0059544033924900435 0 0.025377837548413936 0.0060062256625846265 0 0.024380771760949108 0.0067264652557444864 0 0.023334748169648936 0.0097781627053651239 0 0.023270764034322038 0.0098300128646237033 0 0.023757984422417357 0.0089812705313117372 0 0.023809787071658033 0.0090629625438993916 0 0.025008867275578186 0.0077263716049311686 0 0.025849854406547901 0.01092084732964916 0 0.024347079414986619 0.010361822415575438 0 0.027569281712783403 0.0099582050523185899 0 0.027965729595153033 0.0081340488337342531 0 0.025008867275578186 0.0077263716049311686 0 0.027569281712783403 0.0099582050523185899 0 0.025008867275578186 0.0077263716049311686 0 0.025849854406547901 0.01092084732964916 0 0.025055993709549713 0.008004106570181909 0 0.023223288818983497 0.0090724397185774994 0 0.023547596450551666 0.0071541817635889403 0 0.025055993709549713 0.008004106570181909 0 0.023223288818983497 0.0090724397185774994 0 0.024347079414986619 0.010361822415575438 0 0.025055993709549713 0.008004106570181909 0 0.023547596450551666 0.0071541817635889403 0 0.024380771760949108 0.0067264652557444864 0 0.023757907168935735 0.0060033928164941663 0 0.024466656481706341 0.0059544033924900435 0 0.024380771760949108 0.0067264652557444864 0 0.023037798898487671 0.0056066903803159984 0 0.023757907168935735 0.0060033928164941663 0 0.023547596450551666 0.0071541817635889403 0 0.023757907168935735 0.0060033928164941663 0 0.023547596450551666 0.0071541817635889403 0 0.024380771760949108 0.0067264652557444864 0 0.023037798898487671 0.0056066903803159984 0 0.02197583524630985 0.0059945399376499422 0 0.0221163328612307 0.0078923131433118361 0 0.023037798898487671 0.0056066903803159984 0 0.023547596450551666 0.0071541817635889403 0 0.0221163328612307 0.0078923131433118361 0 0.021477213733206865 0.004395286988283442 0 0.02197583524630985 0.0059945399376499422 0 0.020417878919988343 0.0079194278524526759 0 0.02197583524630985 0.0059945399376499422 0 0.020417878919988343 0.0079194278524526759 0 0.0221163328612307 0.0078923131433118361 0 0.02044338337653695 0.009563345770673054 0 0.0221163328612307 0.0078923131433118361 0 0.021359671573540875 0.010547139339448942 0 0.020417878919988343 0.0079194278524526759 0 0.02044338337653695 0.009563345770673054 0 0.0221163328612307 0.0078923131433118361 0 0.023223288818983497 0.0090724397185774994 0 0.023547596450551666 0.0071541817635889403 0 0.0221163328612307 0.0078923131433118361 0 0.023223288818983497 0.0090724397185774994 0 0.0221163328612307 0.0078923131433118361 0 0.021359671573540875 0.010547139339448942 0 0.023223288818983497 0.0090724397185774994 0 0.021359671573540875 0.010547139339448942 0 0.022464540669752738 0.011582949781408971 0 0.021359671573540875 0.010547139339448942 0 0.021279807765029031 0.011943327276033885 0 0.022464540669752738 0.011582949781408971 0 0.021279807765029031 0.011943327276033885 0 0.022464540669752738 0.011582949781408971 0 0.021428495903231086 0.012990650059690259 0 0.021359671573540875 0.010547139339448942 0 0.019277911639180259 0.011159462566860415 0 0.020148676650802468 0.012646685888452547 0 0.02044338337653695 0.009563345770673054 0 0.021359671573540875 0.010547139339448942 0 0.019277911639180259 0.011159462566860415 0 0.021359671573540875 0.010547139339448942 0 0.021279807765029031 0.011943327276033885 0 0.020148676650802468 0.012646685888452547 0 0.019277911639180259 0.011159462566860415 0 0.020148676650802468 0.012646685888452547 0 0.018165327093433565 0.013064424380312797 0 0.020148676650802468 0.012646685888452547 0 0.019024480934532715 0.014560281193520591 0 0.018165327093433565 0.013064424380312797 0 0.020148676650802468 0.012646685888452547 0 0.02042572570252103 0.014652638199128267 0 0.021428495903231086 0.012990650059690259 0 0.020148676650802468 0.012646685888452547 0 0.02042572570252103 0.014652638199128267 0 0.019024480934532715 0.014560281193520591 0 0.021428495903231086 0.012990650059690259 0 0.022348734200312456 0.013591839889027542 0 0.019237538647935926 0.017720851209208691 0 0.022464540669752738 0.011582949781408971 0 0.021428495903231086 0.012990650059690259 0 0.022348734200312456 0.013591839889027542 0 0.021279807765029031 0.011943327276033885 0 0.020148676650802468 0.012646685888452547 0 0.021428495903231086 0.012990650059690259 0 0.022464540669752738 0.011582949781408971 0 0.022348734200312456 0.013591839889027542 0 0.023934391848020091 0.01240528670414638 0 0.022348734200312456 0.013591839889027542 0 0.023690174087168784 0.014515563027650112 0 0.023934391848020091 0.01240528670414638 0 0.022348734200312456 0.013591839889027542 0 0.023690174087168784 0.014515563027650112 0 0.022356480987442851 0.0167069105954517 0 0.023690174087168784 0.014515563027650112 0 0.02555458222350496 0.013635844938694817 0 0.025054366511581629 0.016694615007008109 0 0.02824254527562875 0.015233431524716512 0 0.02555458222350496 0.013635844938694817 0 0.025054366511581629 0.016694615007008109 0 0.023690174087168784 0.014515563027650112 0 0.02555458222350496 0.013635844938694817 0 0.023934391848020091 0.01240528670414638 0 0.027391698303707825 0.012199171889370759 0 0.02555458222350496 0.013635844938694817 0 0.025849854406547901 0.01092084732964916 0 0.02555458222350496 0.013635844938694817 0 0.025849854406547901 0.01092084732964916 0 0.023934391848020091 0.01240528670414638 0 0.027391698303707825 0.012199171889370759 0 0.027569281712783403 0.0099582050523185899 0 0.025849854406547901 0.01092084732964916 0 0.025849854406547901 0.01092084732964916 0 0.024347079414986619 0.010361822415575438 0 0.023934391848020091 0.01240528670414638 0 0.023223288818983497 0.0090724397185774994 0 0.022464540669752738 0.011582949781408971 0 0.024347079414986619 0.010361822415575438 0 0.022464540669752738 0.011582949781408971 0 0.024347079414986619 0.010361822415575438 0 0.023934391848020091 0.01240528670414638 0 0.014531104186135986 0.023248090871143642 0 0.014004688642735312 0.024998834245798553 0 0.013016471618055418 0.022651787177031625 0 0.010004175646159314 0.0078252748055653125 0 0.011946858722375196 0.0087050517102531394 0 0.01186327875771518 0.010944682115663984 0 0.01852269423904682 0.012695126950871648 0 0.016300613474878146 0.01517214637432659 0 0.023188212131627438 0.010582891241705972 0 0.023046904288275927 0.010883648215954868 0 0.023459904631961039 0.010747909722388973 0 0.010004175646159314 0.0078252748055653125 0 0.013257468005433757 0.006831429379433809 0 0.011946858722375196 0.0087050517102531394 0 0.01852269423904682 0.012695126950871648 0 0.019412159391079025 0.0088841325857388111 0 0.019412159391079025 0.0088841325857388111 0 0.020273235365252888 0.0078460552864204457 0 0.019412159391079025 0.0088841325857388111 0 0.017883886491358556 0.0096851180194324413 0 0.013257468005433757 0.006831429379433809 0 0.011946858722375196 0.0087050517102531394 0 0.014464040773883026 0.010210910586095289 0 0.011946858722375196 0.0087050517102531394 0 0.014464040773883026 0.010210910586095289 0 0.01186327875771518 0.010944682115663984 0 0.0140987770244982 0.0062232690783770358 0 0.015366657069631126 0.010100876920997924 0 0.017508309851465047 0.0081086379715710564 0 0.015366657069631126 0.010100876920997924 0 0.017508309851465047 0.0081086379715710564 0 0.018311461005332239 0.0096938268363828024 0 0.021477213733206865 0.004395286988283442 0 0.017508309851465047 0.0081086379715710564 0 0.015410214982458547 0.0053412625679184434 0 0.0140987770244982 0.0062232690783770358 0 0.017508309851465047 0.0081086379715710564 0 0.015637858005939455 0.0057810818612880994 0 0.019652511663700661 0.0073881438728184406 0 0.020273235365252888 0.0078460552864204457 0 0.021477213733206865 0.004395286988283442 0 0.020417878919988343 0.0079194278524526759 0 0.017508309851465047 0.0081086379715710564 0 0.020417878919988343 0.0079194278524526759 0 0.017508309851465047 0.0081086379715710564 0 0.018311461005332239 0.0096938268363828024 0 0.02044338337653695 0.009563345770673054 0 0.019277911639180259 0.011159462566860415 0 0.018311461005332239 0.0096938268363828024 0 0.020417878919988343 0.0079194278524526759 0 0.02044338337653695 0.009563345770673054 0 0.018311461005332239 0.0096938268363828024 0 0.019277911639180259 0.011159462566860415 0 0.018311461005332239 0.0096938268363828024 0 0.017337171272012945 0.011523184890716799 0 0.019277911639180259 0.011159462566860415 0 0.017337171272012945 0.011523184890716799 0 0.018165327093433565 0.013064424380312797 0 0.019024480934532715 0.014560281193520591 0 0.018165327093433565 0.013064424380312797 0 0.017213056448790919 0.015022201007401202 0 0.018165327093433565 0.013064424380312797 0 0.017213056448790919 0.015022201007401202 0 0.015782226697627508 0.01373780127470583 0 0.017337171272012945 0.011523184890716799 0 0.018165327093433565 0.013064424380312797 0 0.015782226697627508 0.01373780127470583 0 0.017883886491358556 0.0096851180194324413 0 0.017742159205687433 0.010868742963679354 0 0.014464040773883026 0.010210910586095289 0 0.015782226697627508 0.01373780127470583 0 0.013726988401690461 0.01419407065421156 0 0.015366657069631126 0.010100876920997924 0 0.018311461005332239 0.0096938268363828024 0 0.017337171272012945 0.011523184890716799 0 0.015366657069631126 0.010100876920997924 0 0.017337171272012945 0.011523184890716799 0 0.015782226697627508 0.01373780127470583 0 0.015778021490138492 0.017280953177382541 0 0.016300613474878146 0.01517214637432659 0 0.014464040773883026 0.010210910586095289 0 0.013726988401690461 0.01419407065421156 0 0.01186327875771518 0.010944682115663984 0 0.013268411054534097 0.020945265956580417 0 0.013528164064037047 0.021309313008353963 0 0.013016471618055418 0.022651787177031625 0 0.013268411054534097 0.020945265956580417 0 0.013528164064037047 0.021309313008353963 0 0.013395222193082463 0.020916221719411404 0 0.014531104186135986 0.023248090871143642 0 0.013528164064037047 0.021309313008353963 0 0.013016471618055418 0.022651787177031625 0 0.012330188996774029 0.022517465208787345 0 0.013086582980608285 0.022397112228029828 0 0.013013032903892609 0.021239302075538775 0 0.013086582980608285 0.022397112228029828 0 0.013376013672770411 0.021337471718999013 0 0.013013032903892609 0.021239302075538775 0 0.013376013672770411 0.021337471718999013 0 0.013013032903892609 0.021239302075538775 0 0.01339075762900545 0.020657763041321213 0 0.013862661552364614 0.019791333264396263 0 0.013528164064037047 0.021309313008353963 0 0.01339075762900545 0.020657763041321213 0 0.013528164064037047 0.021309313008353963 0 0.01339075762900545 0.020657763041321213 0 0.013395222193082463 0.020916221719411404 0 0.013376013672770411 0.021337471718999013 0 0.01339075762900545 0.020657763041321213 0 0.013395222193082463 0.020916221719411404 0 0.013376013672770411 0.021337471718999013 0 0.013395222193082463 0.020916221719411404 0 0.013738882926721669 0.021193672518219773 0 0.013268411054534097 0.020945265956580417 0 0.013395222193082463 0.020916221719411404 0 0.013738882926721669 0.021193672518219773 0 0.013376013672770411 0.021337471718999013 0 0.013738882926721669 0.021193672518219773 0 0.013881571220053948 0.022136078820673522 0 0.013086582980608285 0.022397112228029828 0 0.013376013672770411 0.021337471718999013 0 0.013881571220053948 0.022136078820673522 0 0.013738882926721669 0.021193672518219773 0 0.013881571220053948 0.022136078820673522 0 0.014946235579154313 0.021315954203582791 0 0.013881571220053948 0.022136078820673522 0 0.014946235579154313 0.021315954203582791 0 0.014771943280213338 0.023289130685035131 0 0.014946235579154313 0.021315954203582791 0 0.016912218149454893 0.022904915843745637 0 0.014771943280213338 0.023289130685035131 0 0.013268411054534097 0.020945265956580417 0 0.013738882926721669 0.021193672518219773 0 0.014946235579154313 0.021315954203582791 0 0.017213056448790919 0.015022201007401202 0 0.015782226697627508 0.01373780127470583 0 0.015213651283740392 0.017966973903007503 0 0.015782226697627508 0.01373780127470583 0 0.013726988401690461 0.01419407065421156 0 0.015213651283740392 0.017966973903007503 0 0.015778021490138492 0.017280953177382541 0 0.016259743466462591 0.019388222590283201 0 0.015213651283740392 0.017966973903007503 0 0.01813704997198403 0.016383574456661814 0 0.01818229773882617 0.019068458814147725 0 0.017213056448790919 0.015022201007401202 0 0.015213651283740392 0.017966973903007503 0 0.01813704997198403 0.016383574456661814 0 0.019024480934532715 0.014560281193520591 0 0.017213056448790919 0.015022201007401202 0 0.01813704997198403 0.016383574456661814 0 0.015213651283740392 0.017966973903007503 0 0.01818229773882617 0.019068458814147725 0 0.016912218149454893 0.022904915843745637 0 0.016259743466462591 0.019388222590283201 0 0.016781501763309184 0.020633873114940238 0 0.01818229773882617 0.019068458814147725 0 0.016912218149454893 0.022904915843745637 0 0.019345051797364479 0.023899056626428813 0 0.016912218149454893 0.022904915843745637 0 0.015650848402521088 0.024266659480196091 0 0.014771943280213338 0.023289130685035131 0 0.016912218149454893 0.022904915843745637 0 0.016664060425509608 0.025025422458030442 0 0.015650848402521088 0.024266659480196091 0 0.016912218149454893 0.022904915843745637 0 0.016664060425509608 0.025025422458030442 0 0.019345051797364479 0.023899056626428813 0 0.016664060425509608 0.025025422458030442 0 0.019345051797364479 0.023899056626428813 0 0.016801724604884678 0.027926846633181925 0 0.016664060425509608 0.025025422458030442 0 0.014952618225162849 0.025692163295829577 0 0.016801724604884678 0.027926846633181925 0 0.016664060425509608 0.025025422458030442 0 0.014952618225162849 0.025692163295829577 0 0.015650848402521088 0.024266659480196091 0 0.014952618225162849 0.025692163295829577 0 0.014202956234158216 0.024597786793678945 0 0.015650848402521088 0.024266659480196091 0 0.014952618225162849 0.025692163295829577 0 0.014202956234158216 0.024597786793678945 0 0.013267158124934449 0.026048777231525454 0 0.014202956234158216 0.024597786793678945 0 0.015650848402521088 0.024266659480196091 0 0.014771943280213338 0.023289130685035131 0 0.013086582980608285 0.022397112228029828 0 0.013881571220053948 0.022136078820673522 0 0.01341187087480572 0.023835141699294904 0 0.014202956234158216 0.024597786793678945 0 0.014771943280213338 0.023289130685035131 0 0.01341187087480572 0.023835141699294904 0 0.013881571220053948 0.022136078820673522 0 0.014771943280213338 0.023289130685035131 0 0.01341187087480572 0.023835141699294904 0 0.014202956234158216 0.024597786793678945 0 0.01341187087480572 0.023835141699294904 0 0.013267158124934449 0.026048777231525454 0 0.01341187087480572 0.023835141699294904 0 0.013267158124934449 0.026048777231525454 0 0.012460321266646235 0.025109088497969216 0 0.013267158124934449 0.026048777231525454 0 0.012460321266646235 0.025109088497969216 0 0.012027655509161095 0.026331415116050239 0 0.012460321266646235 0.025109088497969216 0 0.011268127543409305 0.025775100122426904 0 0.012027655509161095 0.026331415116050239 0 0.012460321266646235 0.025109088497969216 0 0.011268127543409305 0.025775100122426904 0 0.011682946822580288 0.024655212579027908 0 0.012460321266646235 0.025109088497969216 0 0.011682946822580288 0.024655212579027908 0 0.012477009256988338 0.023654421901990928 0 0.011717179151583166 0.023484585286625052 0 0.011682946822580288 0.024655212579027908 0 0.012477009256988338 0.023654421901990928 0 0.01341187087480572 0.023835141699294904 0 0.012460321266646235 0.025109088497969216 0 0.012477009256988338 0.023654421901990928 0 0.013086582980608285 0.022397112228029828 0 0.01341187087480572 0.023835141699294904 0 0.012477009256988338 0.023654421901990928 0 0.012330188996774029 0.022517465208787345 0 0.013086582980608285 0.022397112228029828 0 0.012477009256988338 0.023654421901990928 0 0.012330188996774029 0.022517465208787345 0 0.011717179151583166 0.023484585286625052 0 0.012477009256988338 0.023654421901990928 0 0.022239057706344868 0.019730188039465638 0 0.022356480987442851 0.0167069105954517 0 0.018743603045300421 0.019580760703548666 0 0.022239057706344868 0.019730188039465638 0 0.018743603045300421 0.019580760703548666 0 0.020302600353869108 0.023265815185923199 0 0.022239057706344868 0.019730188039465638 0 0.020302600353869108 0.023265815185923199 0 0.023541579297399921 0.022750800672973692 0 0.022239057706344868 0.019730188039465638 0 0.025109366867577188 0.019941552644802157 0 0.023541579297399921 0.022750800672973692 0 0.026717530471774647 0.023654467248422763 0 0.025109366867577188 0.019941552644802157 0 0.023541579297399921 0.022750800672973692 0 0.022239057706344868 0.019730188039465638 0 0.025109366867577188 0.019941552644802157 0 0.025054366511581629 0.016694615007008109 0 0.028490049075940979 0.018214811527213923 0 0.025109366867577188 0.019941552644802157 0 0.025054366511581629 0.016694615007008109 0 0.023690174087168784 0.014515563027650112 0 0.025054366511581629 0.016694615007008109 0 0.022356480987442851 0.0167069105954517 0 0.022348734200312456 0.013591839889027542 0 0.022356480987442851 0.0167069105954517 0 0.018743603045300421 0.019580760703548666 0 0.022239057706344868 0.019730188039465638 0 0.025054366511581629 0.016694615007008109 0 0.022356480987442851 0.0167069105954517 0 0.020154281247722523 0.018088502281929503 0 0.019547861768852405 0.020829626713236783 0 0.022348734200312456 0.013591839889027542 0 0.019237538647935926 0.017720851209208691 0 0.021911798425441793 0.018737437986282697 0 0.02042115482520809 0.016642242594111831 0 0.019825533949601529 0.018768637399050461 0 0.02042572570252103 0.014652638199128267 0 0.021428495903231086 0.012990650059690259 0 0.021308906215744904 0.017893964446242378 0 0.02042572570252103 0.014652638199128267 0 0.019615070318229882 0.016338724237885547 0 0.021308906215744904 0.017893964446242378 0 0.01818229773882617 0.019068458814147725 0 0.019615070318229882 0.016338724237885547 0 0.021308906215744904 0.017893964446242378 0 0.02042572570252103 0.014652638199128267 0 0.019024480934532715 0.014560281193520591 0 0.019615070318229882 0.016338724237885547 0 0.019024480934532715 0.014560281193520591 0 0.01813704997198403 0.016383574456661814 0 0.019615070318229882 0.016338724237885547 0 0.01813704997198403 0.016383574456661814 0 0.01818229773882617 0.019068458814147725 0 0.019615070318229882 0.016338724237885547 0 0.019237538647935926 0.017720851209208691 0 0.019830635247644595 0.020996680952252187 0 0.017529011800086671 0.023304739703826828 0 0.01818229773882617 0.019068458814147725 0 0.021308906215744904 0.017893964446242378 0 0.019345051797364479 0.023899056626428813 0 0.019825533949601529 0.018768637399050461 0 0.0187334704812906 0.022499201957215439 0 0.019237538647935926 0.017720851209208691 0 0.021911798425441793 0.018737437986282697 0 0.019830635247644595 0.020996680952252187 0 0.021911798425441793 0.018737437986282697 0 0.019830635247644595 0.020996680952252187 0 0.021008262295718134 0.024420712056715352 0 0.019830635247644595 0.020996680952252187 0 0.017529011800086671 0.023304739703826828 0 0.021008262295718134 0.024420712056715352 0 0.019547861768852405 0.020829626713236783 0 0.018341683738245747 0.026128500734728895 0 0.017529011800086671 0.023304739703826828 0 0.018642574427382881 0.026181946752674556 0 0.016801724604884678 0.027926846633181925 0 0.0187334704812906 0.022499201957215439 0 0.018111565282255441 0.024558187371935228 0 0.017529011800086671 0.023304739703826828 0 0.018642574427382881 0.026181946752674556 0 0.021008262295718134 0.024420712056715352 0 0.015852360950801871 0.027351065212076048 0 0.022445183480744837 0.028073949739180093 0 0.018134184574687327 0.031632877997546369 0 0.015852360950801871 0.027351065212076048 0 0.020302600353869108 0.023265815185923199 0 0.022445183480744837 0.028073949739180093 0 0.020302600353869108 0.023265815185923199 0 0.023541579297399921 0.022750800672973692 0 0.022445183480744837 0.028073949739180093 0 0.018743603045300421 0.019580760703548666 0 0.015852360950801871 0.027351065212076048 0 0.020302600353869108 0.023265815185923199 0 0.026717530471774647 0.023654467248422763 0 0.023541579297399921 0.022750800672973692 0 0.022445183480744837 0.028073949739180093 0 0.026717530471774647 0.023654467248422763 0 0.028034793064723548 0.027286733078378131 0 0.022445183480744837 0.028073949739180093 0 0.028034793064723548 0.027286733078378131 0 0.022445183480744837 0.028073949739180093 0 0.022056012652184442 0.034084921312593858 0 0.017120608517102977 0.034255481207560355 0 0.01632916514785623 0.036097504714563369 0 0.0090023783424931086 0.042334707217309878 0 0.011108089888795592 0.041336436022552957 0 0.0095519186360205274 0.041324589852226416 0 0.011108089888795592 0.041336436022552957 0 0.01005807535209721 0.040451684219922082 0 0.0095519186360205274 0.041324589852226416 0 0.011108089888795592 0.041336436022552957 0 0.01005807535209721 0.040451684219922082 0 0.011360872571557408 0.039613135367501287 0 0.01005807535209721 0.040451684219922082 0 0.011360872571557408 0.039613135367501287 0 0.0099744014286408892 0.039544523139131094 0 0.01632916514785623 0.036097504714563369 0 0.015717250752950308 0.036976253334563107 0 0.011108089888795592 0.041336436022552957 0 0.011360872571557408 0.039613135367501287 0 0.014106976094750623 0.039030305629469353 0 0.022056012652184442 0.034084921312593858 0 0.013345847880181129 0.036456401126065928 0 0.014106976094750623 0.039030305629469353 0 0.022445183480744837 0.028073949739180093 0 0.022056012652184442 0.034084921312593858 0 0.018134184574687327 0.031632877997546369 0 0.022056012652184442 0.034084921312593858 0 0.018134184574687327 0.031632877997546369 0 0.013345847880181129 0.036456401126065928 0 0.018341683738245747 0.026128500734728895 0 0.017126690344149997 0.031216385959996273 0 0.015852360950801871 0.027351065212076048 0 0.018134184574687327 0.031632877997546369 0 0.013345847880181129 0.036456401126065928 0 0.018642574427382881 0.026181946752674556 0 0.021008262295718134 0.024420712056715352 0 0.019652770646497057 0.028926510905690626 0 0.018642574427382881 0.026181946752674556 0 0.019652770646497057 0.028926510905690626 0 0.016801724604884678 0.027926846633181925 0 0.017109843263271206 0.030776744430366161 0 0.019652770646497057 0.028926510905690626 0 0.016801724604884678 0.027926846633181925 0 0.013345847880181129 0.036456401126065928 0 0.013667810474171814 0.039463426620689981 0 0.014106976094750623 0.039030305629469353 0 0.017109843263271206 0.030776744430366161 0 0.019652770646497057 0.028926510905690626 0 0.017953202508111873 0.032786743162626523 0 0.013667810474171814 0.039463426620689981 0 0.014106976094750623 0.039030305629469353 0 0.01265215472682822 0.038858187838737755 0 0.017126690344149997 0.031216385959996273 0 0.016305868636490944 0.034124938471942708 0 0.017109843263271206 0.030776744430366161 0 0.017953202508111873 0.032786743162626523 0 0.015994330342260846 0.033592222045613011 0 0.017109843263271206 0.030776744430366161 0 0.015994330342260846 0.033592222045613011 0 0.015400897186953455 0.03257079834336115 0 0.017953202508111873 0.032786743162626523 0 0.015994330342260846 0.033592222045613011 0 0.01427733847773536 0.036218718930040049 0 0.015994330342260846 0.033592222045613011 0 0.015400897186953455 0.03257079834336115 0 0.014901730915776276 0.034583027189341753 0 0.016305868636490944 0.034124938471942708 0 0.015963238681071256 0.034846210551024492 0 0.013667810474171814 0.039463426620689981 0 0.012894962839521393 0.037823017019051761 0 0.011975031041884319 0.038322597631872277 0 0.013667810474171814 0.039463426620689981 0 0.012894962839521393 0.037823017019051761 0 0.01427733847773536 0.036218718930040049 0 0.012894962839521393 0.037823017019051761 0 0.011975031041884319 0.038322597631872277 0 0.011299220414192545 0.037440917677271111 0 0.011975031041884319 0.038322597631872277 0 0.01003732756889102 0.038038664756574532 0 0.010990840210038646 0.038767972998165492 0 0.011975031041884319 0.038322597631872277 0 0.01003732756889102 0.038038664756574532 0 0.011299220414192545 0.037440917677271111 0 0.01003732756889102 0.038038664756574532 0 0.010990840210038646 0.038767972998165492 0 0.0097264247123407168 0.038811281590952262 0 0.010990840210038646 0.038767972998165492 0 0.0097264247123407168 0.038811281590952262 0 0.0099744014286408892 0.039544523139131094 0 0.011360872571557408 0.039613135367501287 0 0.010990840210038646 0.038767972998165492 0 0.0099744014286408892 0.039544523139131094 0 0.011360872571557408 0.039613135367501287 0 0.010990840210038646 0.038767972998165492 0 0.01265215472682822 0.038858187838737755 0 0.013667810474171814 0.039463426620689981 0 0.011975031041884319 0.038322597631872277 0 0.01265215472682822 0.038858187838737755 0 0.011360872571557408 0.039613135367501287 0 0.014106976094750623 0.039030305629469353 0 0.01265215472682822 0.038858187838737755 0 0.011975031041884319 0.038322597631872277 0 0.010990840210038646 0.038767972998165492 0 0.01265215472682822 0.038858187838737755 0 0.011476817301792943 0.028404520819989971 0 0.012523911231556923 0.029989297378673497 0 0.010759053923217474 0.03060529578735148 0 0.010353400089876789 0.026895897250152869 0 0.011476817301792943 0.028404520819989971 0 0.010759053923217474 0.03060529578735148 0 0.010353400089876789 0.026895897250152869 0 0.011476817301792943 0.028404520819989971 0 0.011420233737871989 0.026957039142188062 0 0.011268127543409305 0.025775100122426904 0 0.011420233737871989 0.026957039142188062 0 0.012027655509161095 0.026331415116050239 0 0.013267158124934449 0.026048777231525454 0 0.012027655509161095 0.026331415116050239 0 0.011976935029123975 0.027471525471862396 0 0.011420233737871989 0.026957039142188062 0 0.012027655509161095 0.026331415116050239 0 0.011976935029123975 0.027471525471862396 0 0.011476817301792943 0.028404520819989971 0 0.011420233737871989 0.026957039142188062 0 0.011976935029123975 0.027471525471862396 0 0.011476817301792943 0.028404520819989971 0 0.011976935029123975 0.027471525471862396 0 0.012880510382609383 0.028067569782606654 0 0.013267158124934449 0.026048777231525454 0 0.011976935029123975 0.027471525471862396 0 0.012880510382609383 0.028067569782606654 0 0.013267158124934449 0.026048777231525454 0 0.012880510382609383 0.028067569782606654 0 0.014378398027291734 0.027589973513952239 0 0.012880510382609383 0.028067569782606654 0 0.013607339890968016 0.029254126088097097 0 0.014378398027291734 0.027589973513952239 0 0.012880510382609383 0.028067569782606654 0 0.013607339890968016 0.029254126088097097 0 0.012523911231556923 0.029989297378673497 0 0.011476817301792943 0.028404520819989971 0 0.012880510382609383 0.028067569782606654 0 0.012523911231556923 0.029989297378673497 0 0.013607339890968016 0.029254126088097097 0 0.012523911231556923 0.029989297378673497 0 0.013728197505796668 0.031081187619711022 0 0.014803425142474343 0.029290912024498524 0 0.015618837252192229 0.030585245167845155 0 0.013728197505796668 0.031081187619711022 0 0.013607339890968016 0.029254126088097097 0 0.014803425142474343 0.029290912024498524 0 0.013728197505796668 0.031081187619711022 0 0.013607339890968016 0.029254126088097097 0 0.014803425142474343 0.029290912024498524 0 0.014378398027291734 0.027589973513952239 0 0.014952618225162849 0.025692163295829577 0 0.013267158124934449 0.026048777231525454 0 0.014378398027291734 0.027589973513952239 0 0.014952618225162849 0.025692163295829577 0 0.014378398027291734 0.027589973513952239 0 0.016801724604884678 0.027926846633181925 0 0.014803425142474343 0.029290912024498524 0 0.014378398027291734 0.027589973513952239 0 0.016801724604884678 0.027926846633181925 0 0.014803425142474343 0.029290912024498524 0 0.016801724604884678 0.027926846633181925 0 0.015618837252192229 0.030585245167845155 0 0.017109843263271206 0.030776744430366161 0 0.016801724604884678 0.027926846633181925 0 0.015618837252192229 0.030585245167845155 0 0.015618837252192229 0.030585245167845155 0 0.015400897186953455 0.03257079834336115 0 0.014264225727814557 0.032863155700545724 0 0.017109843263271206 0.030776744430366161 0 0.015618837252192229 0.030585245167845155 0 0.015400897186953455 0.03257079834336115 0 0.015400897186953455 0.03257079834336115 0 0.014264225727814557 0.032863155700545724 0 0.014901730915776276 0.034583027189341753 0 0.014264225727814557 0.032863155700545724 0 0.014041937088166612 0.034540038364955263 0 0.014901730915776276 0.034583027189341753 0 0.014264225727814557 0.032863155700545724 0 0.013248723776059313 0.033314095533545897 0 0.014041937088166612 0.034540038364955263 0 0.014264225727814557 0.032863155700545724 0 0.013728197505796668 0.031081187619711022 0 0.013248723776059313 0.033314095533545897 0 0.015618837252192229 0.030585245167845155 0 0.014264225727814557 0.032863155700545724 0 0.013728197505796668 0.031081187619711022 0 0.013728197505796668 0.031081187619711022 0 0.012457708037205764 0.031803290915305538 0 0.013248723776059313 0.033314095533545897 0 0.012523911231556923 0.029989297378673497 0 0.013728197505796668 0.031081187619711022 0 0.012457708037205764 0.031803290915305538 0 0.013248723776059313 0.033314095533545897 0 0.011877401574395898 0.033885333168911347 0 0.013359759495732298 0.034681797595939055 0 0.012457708037205764 0.031803290915305538 0 0.013248723776059313 0.033314095533545897 0 0.011877401574395898 0.033885333168911347 0 0.014455346286803844 0.033686859475636571 0 0.013340626041654534 0.03322585820571728 0 0.013581912436670602 0.031004761420771541 0 0.013230382332258102 0.033057928956239831 0 0.012384451628522242 0.030651231293865596 0 0.012457708037205764 0.031803290915305538 0 0.011877401574395898 0.033885333168911347 0 0.010759053923217474 0.03060529578735148 0 0.012686761369398765 0.031828697802724085 0 0.013340626041654534 0.03322585820571728 0 0.013581912436670602 0.031004761420771541 0 0.012523911231556923 0.029989297378673497 0 0.012457708037205764 0.031803290915305538 0 0.010759053923217474 0.03060529578735148 0 0.017578121313833409 0.038273939055281335 0 0.016788172344606975 0.038125040254157957 0 0.017150105460082991 0.036642022941072404 0 0.017489346969241953 0.037928212565536197 0 0.017139871491918063 0.036551749493082472 0 0.017342552309829205 0.034954823478805699 0 0.016326588348522828 0.035223725473847271 0 0.017578121313833409 0.038273939055281335 0 0.01743540806218637 0.039721973436535211 0 0.016788172344606975 0.038125040254157957 0 0.014455346286803844 0.033686859475636571 0 0.013340626041654534 0.03322585820571728 0 0.014281093862668662 0.034856748713282447 0 0.018731949932883015 0.033419257126038993 0 0.017342552309829205 0.034954823478805699 0 0.013230382332258102 0.033057928956239831 0 0.013865458119511061 0.034524643200459344 0 0.011877401574395898 0.033885333168911347 0 0.013359759495732298 0.034681797595939055 0 0.013422706028013754 0.035735556750266483 0 0.014455346286803844 0.033686859475636571 0 0.014281093862668662 0.034856748713282447 0 0.014961175552987854 0.035312372948456121 0 0.013359759495732298 0.034681797595939055 0 0.013422706028013754 0.035735556750266483 0 0.013984234096216703 0.035439210609179671 0 0.014281093862668662 0.034856748713282447 0 0.014961175552987854 0.035312372948456121 0 0.014930384116630377 0.035544493739178049 0 0.013422706028013754 0.035735556750266483 0 0.013984234096216703 0.035439210609179671 0 0.014143658873420829 0.035731016799570428 0 0.013984234096216703 0.035439210609179671 0 0.01408186640240673 0.035736780669408816 0 0.014143658873420829 0.035731016799570428 0 0.013359759495732298 0.034681797595939055 0 0.013984234096216703 0.035439210609179671 0 0.014041937088166612 0.034540038364955263 0 0.013248723776059313 0.033314095533545897 0 0.013359759495732298 0.034681797595939055 0 0.014041937088166612 0.034540038364955263 0 0.013984234096216703 0.035439210609179671 0 0.014041937088166612 0.034540038364955263 0 0.014395877145457875 0.035382381583502071 0 0.014041937088166612 0.034540038364955263 0 0.014901730915776276 0.034583027189341753 0 0.014395877145457875 0.035382381583502071 0 0.013984234096216703 0.035439210609179671 0 0.014395877145457875 0.035382381583502071 0 0.01408186640240673 0.035736780669408816 0 0.014395877145457875 0.035382381583502071 0 0.01408186640240673 0.035736780669408816 0 0.01427733847773536 0.036218718930040049 0 0.01408186640240673 0.035736780669408816 0 0.014009268641495775 0.035574195251265234 0 0.013182210961393047 0.035702120128941063 0 0.01408186640240673 0.035736780669408816 0 0.014009268641495775 0.035574195251265234 0 0.014143658873420829 0.035731016799570428 0 0.014009268641495775 0.035574195251265234 0 0.013610093823612853 0.034999739223129045 0 0.013182210961393047 0.035702120128941063 0 0.014009268641495775 0.035574195251265234 0 0.013610093823612853 0.034999739223129045 0 0.014922055849146101 0.035437103638508827 0 0.013610093823612853 0.034999739223129045 0 0.014922055849146101 0.035437103638508827 0 0.0155035480365472 0.035000207680962403 0 0.014009268641495775 0.035574195251265234 0 0.014922055849146101 0.035437103638508827 0 0.014143658873420829 0.035731016799570428 0 0.013422706028013754 0.035735556750266483 0 0.014922055849146101 0.035437103638508827 0 0.014143658873420829 0.035731016799570428 0 0.013865458119511061 0.034524643200459344 0 0.01409663773585741 0.034901223980708412 0 0.014961175552987854 0.035312372948456121 0 0.014922055849146101 0.035437103638508827 0 0.014930384116630377 0.035544493739178049 0 0.016156868633196597 0.036571622690516427 0 0.015505890647437596 0.034999990961537816 0 0.016745025929660547 0.034999990936028839 0 0.014922055849146101 0.035437103638508827 0 0.014930384116630377 0.035544493739178049 0 0.0155035480365472 0.035000207680962403 0 0.016326588348522828 0.035223725473847271 0 0.015507421165782657 0.034999968531305409 0 0.016745583791537733 0.035001884237535745 0 0.017139871491918063 0.036551749493082472 0 0.018215268219682144 0.036145332903985167 0 0.016745134573135336 0.034999994937221141 0 0.017189728660217344 0.036667625845744602 0 0.016156868633196597 0.036571622690516427 0 0.016745025929660547 0.034999990936028839 0 0.017150105460082991 0.036642022941072404 0 0.016788172344606975 0.038125040254157957 0 0.016156868633196597 0.036571622690516427 0 0.017150105460082991 0.036642022941072404 0 0.010907686223007159 0.036441676736215463 0 0.01427733847773536 0.036218718930040049 0 0.011535755938910208 0.03570155280536743 0 0.010907686223007159 0.036441676736215463 0 0.009205676346228802 0.035968514529900228 0 0.0094790557632849909 0.037166802820628488 0 0.010907686223007159 0.036441676736215463 0 0.011299220414192545 0.037440917677271111 0 0.0094790557632849909 0.037166802820628488 0 0.01003732756889102 0.038038664756574532 0 0.011299220414192545 0.037440917677271111 0 0.0094790557632849909 0.037166802820628488 0 0.010907686223007159 0.036441676736215463 0 0.011299220414192545 0.037440917677271111 0 0.01427733847773536 0.036218718930040049 0 0.012894962839521393 0.037823017019051761 0 0.011299220414192545 0.037440917677271111 0 0.01427733847773536 0.036218718930040049 0 0.015994330342260846 0.033592222045613011 0 0.014901730915776276 0.034583027189341753 0 0.01427733847773536 0.036218718930040049 0 0.014901730915776276 0.034583027189341753 0 0.014395877145457875 0.035382381583502071 0 0.01427733847773536 0.036218718930040049 0 0.01408186640240673 0.035736780669408816 0 0.01427733847773536 0.036218718930040049 0 0.013182210961393047 0.035702120128941063 0 0.01427733847773536 0.036218718930040049 0 0.013182210961393047 0.035702120128941063 0 0.011535755938910208 0.03570155280536743 0 0.013610093823612853 0.034999739223129045 0 0.013182210961393047 0.035702120128941063 0 0.011714247385404074 0.034999470802361501 0 0.013182210961393047 0.035702120128941063 0 0.011714247385404074 0.034999470802361501 0 0.011535755938910208 0.03570155280536743 0 0.011714247385404074 0.034999470802361501 0 0.011535755938910208 0.03570155280536743 0 0.0098178553418459963 0.034999398347770883 0 0.010907686223007159 0.036441676736215463 0 0.011535755938910208 0.03570155280536743 0 0.009205676346228802 0.035968514529900228 0 0.0098178553418459963 0.034999398347770883 0 0.0079211839831545942 0.034999639245756914 0 0.009205676346228802 0.035968514529900228 0 0.011535755938910208 0.03570155280536743 0 0.0098178553418459963 0.034999398347770883 0 0.009205676346228802 0.035968514529900228 0 0.0079211839831545942 0.034999639245756914 0 0.0071375107182900469 0.035864995596865019 0 0.009205676346228802 0.035968514529900228 0 0.0079211839831545942 0.034999639245756914 0 0.0071375107182900469 0.035864995596865019 0 0.0060247091941509259 0.034999684935871044 0 0.0071375107182900469 0.035864995596865019 0 0.00613814619191283 0.036765136584707883 0 0.0080618662856113826 0.036930221002034185 0 0.0071375107182900469 0.035864995596865019 0 0.009205676346228802 0.035968514529900228 0 0.0080618662856113826 0.036930221002034185 0 0.0060247091941509259 0.034999684935871044 0 0.0051291321155435511 0.035923663495122479 0 0.0041282683133685664 0.034999810548442714 0 0.0071375107182900469 0.035864995596865019 0 0.0060247091941509259 0.034999684935871044 0 0.0051291321155435511 0.035923663495122479 0 0.0071375107182900469 0.035864995596865019 0 0.0051291321155435511 0.035923663495122479 0 0.00613814619191283 0.036765136584707883 0 0.0051291321155435511 0.035923663495122479 0 0.0046062540267474304 0.037095240542625821 0 0.00613814619191283 0.036765136584707883 0 0.0041259820494144502 0.036880842898788097 0 0.0045868676130009925 0.037361325957522701 0 0.0046062540267474304 0.037095240542625821 0 0.00613814619191283 0.036765136584707883 0 0.0056857567260799073 0.038237110296097124 0 0.00613814619191283 0.036765136584707883 0 0.0056857567260799073 0.038237110296097124 0 0.0080618662856113826 0.036930221002034185 0 0.0056857567260799073 0.038237110296097124 0 0.0080618662856113826 0.036930221002034185 0 0.0064364567889442226 0.038945570071967701 0 0.0056857567260799073 0.038237110296097124 0 0.0064364567889442226 0.038945570071967701 0 0.0050660323029171105 0.039153740048878637 0 0.0056857567260799073 0.038237110296097124 0 0.0050660323029171105 0.039153740048878637 0 0.0042219687273092618 0.038245185488337309 0 0.0043766278258954615 0.036918663008966804 0 0.0056857567260799073 0.038237110296097124 0 0.0042219687273092618 0.038245185488337309 0 0.009205676346228802 0.035968514529900228 0 0.0080618662856113826 0.036930221002034185 0 0.0094790557632849909 0.037166802820628488 0 0.0071533442066086588 0.03765258374977587 0 0.006565116224333878 0.038317936123146171 0 0.0080618662856113826 0.036930221002034185 0 0.008760616905417809 0.037803274584072399 0 0.0081665136292768514 0.038043734654888063 0 0.0080618662856113826 0.036930221002034185 0 0.0081665136292768514 0.038043734654888063 0 0.0075922854062956393 0.037878636931792373 0 0.01003732756889102 0.038038664756574532 0 0.0094790557632849909 0.037166802820628488 0 0.008760616905417809 0.037803274584072399 0 0.0080618662856113826 0.036930221002034185 0 0.0094790557632849909 0.037166802820628488 0 0.008760616905417809 0.037803274584072399 0 0.01003732756889102 0.038038664756574532 0 0.008760616905417809 0.037803274584072399 0 0.0088966368490967802 0.03846445423852337 0 0.01003732756889102 0.038038664756574532 0 0.0088966368490967802 0.03846445423852337 0 0.0097264247123407168 0.038811281590952262 0 0.0088966368490967802 0.03846445423852337 0 0.0097264247123407168 0.038811281590952262 0 0.008869591793746549 0.039245612218076834 0 0.0097264247123407168 0.038811281590952262 0 0.008869591793746549 0.039245612218076834 0 0.0099744014286408892 0.039544523139131094 0 0.008869591793746549 0.039245612218076834 0 0.0081072844257179099 0.03888914292532656 0 0.0080164609798117903 0.039821529398178866 0 0.0081072844257179099 0.03888914292532656 0 0.0074773495931907781 0.039275210620305485 0 0.0080164609798117903 0.039821529398178866 0 0.0088966368490967802 0.03846445423852337 0 0.008869591793746549 0.039245612218076834 0 0.0081072844257179099 0.03888914292532656 0 0.0081072844257179099 0.03888914292532656 0 0.0081665136292768514 0.038043734654888063 0 0.0075485244499760044 0.038665972929779795 0 0.0088966368490967802 0.03846445423852337 0 0.0081072844257179099 0.03888914292532656 0 0.0081665136292768514 0.038043734654888063 0 0.008760616905417809 0.037803274584072399 0 0.0088966368490967802 0.03846445423852337 0 0.0081665136292768514 0.038043734654888063 0 0.0075922854062956393 0.037878636931792373 0 0.0075485244499760044 0.038665972929779795 0 0.0064746151430666405 0.039210779230259105 0 0.006565116224333878 0.038317936123146171 0 0.0054656845876241457 0.03932101667510101 0 0.0081665136292768514 0.038043734654888063 0 0.0075922854062956393 0.037878636931792373 0 0.0075485244499760044 0.038665972929779795 0 0.0050660323029171105 0.039153740048878637 0 0.0050338159536530442 0.040722556407875019 0 0.0038581771440566112 0.039520193139310683 0 0.0064364567889442226 0.038945570071967701 0 0.0050660323029171105 0.039153740048878637 0 0.0050338159536530442 0.040722556407875019 0 0.0075485244499760044 0.038665972929779795 0 0.0064746151430666405 0.039210779230259105 0 0.0074773495931907781 0.039275210620305485 0 0.0064746151430666405 0.039210779230259105 0 0.0074773495931907781 0.039275210620305485 0 0.0071552661564159865 0.039924991196650945 0 0.0081072844257179099 0.03888914292532656 0 0.0075485244499760044 0.038665972929779795 0 0.0074773495931907781 0.039275210620305485 0 0.0074773495931907781 0.039275210620305485 0 0.0071552661564159865 0.039924991196650945 0 0.0080164609798117903 0.039821529398178866 0 0.0071552661564159865 0.039924991196650945 0 0.0076204030484201112 0.040639493770044159 0 0.0080164609798117903 0.039821529398178866 0 0.0061094898980570151 0.039781482538522345 0 0.0064149934560937399 0.040028401492725824 0 0.0052147288425488676 0.038488544849114716 0 0.0052967609835902554 0.039860251545867434 0 0.0042070797729808406 0.03999206037485039 0 0.0054656845876241457 0.03932101667510101 0 0.0052527096428152311 0.039510226691335901 0 0.0054656845876241457 0.03932101667510101 0 0.0061094898980570151 0.039781482538522345 0 0.0052147288425488676 0.038488544849114716 0 0.0063360736478348433 0.039551173587250688 0 0.0052967609835902554 0.039860251545867434 0 0.0063360736478348433 0.039551173587250688 0 0.0052967609835902554 0.039860251545867434 0 0.0056902002659249004 0.040700159988502682 0 0.0052967609835902554 0.039860251545867434 0 0.0045068297614375584 0.040957449837520331 0 0.0042070797729808406 0.03999206037485039 0 0.0052967609835902554 0.039860251545867434 0 0.0056902002659249004 0.040700159988502682 0 0.0045068297614375584 0.040957449837520331 0 0.0056902002659249004 0.040700159988502682 0 0.0052316942949735563 0.041336763409638537 0 0.0062272122077294849 0.041341191025904125 0 0.0046156684642864919 0.041481373693897129 0 0.0052316942949735563 0.041336763409638537 0 0.0045068297614375584 0.040957449837520331 0 0.0056902002659249004 0.040700159988502682 0 0.0052316942949735563 0.041336763409638537 0 0.0045068297614375584 0.040957449837520331 0 0.0063360736478348433 0.039551173587250688 0 0.0067053936091138605 0.040861337743736945 0 0.0076204030484201112 0.040639493770044159 0 0.0063360736478348433 0.039551173587250688 0 0.0056902002659249004 0.040700159988502682 0 0.0067053936091138605 0.040861337743736945 0 0.0076190169877356374 0.041956961865167307 0 0.0067053936091138605 0.040861337743736945 0 0.0076204030484201112 0.040639493770044159 0 0.0056902002659249004 0.040700159988502682 0 0.0067053936091138605 0.040861337743736945 0 0.0062272122077294849 0.041341191025904125 0 0.0076190169877356374 0.041956961865167307 0 0.0067053936091138605 0.040861337743736945 0 0.0062272122077294849 0.041341191025904125 0 0.0068699889340200059 0.041712919660003386 0 0.0076910329126752188 0.041475569395350742 0 0.0076190169877356374 0.041956961865167307 0 0.0076204030484201112 0.040639493770044159 0 0.0086422649671950499 0.040666075259752223 0 0.0076190169877356374 0.041956961865167307 0 0.0086422649671950499 0.040666075259752223 0 0.0095519186360205274 0.041324589852226416 0 0.01005807535209721 0.040451684219922082 0 0.0086422649671950499 0.040666075259752223 0 0.0095519186360205274 0.041324589852226416 0 0.01005807535209721 0.040451684219922082 0 0.0086422649671950499 0.040666075259752223 0 0.0090704935172847348 0.040011091019285037 0 0.01005807535209721 0.040451684219922082 0 0.0099744014286408892 0.039544523139131094 0 0.0090704935172847348 0.040011091019285037 0 0.008869591793746549 0.039245612218076834 0 0.0099744014286408892 0.039544523139131094 0 0.0090704935172847348 0.040011091019285037 0 0.008869591793746549 0.039245612218076834 0 0.0090704935172847348 0.040011091019285037 0 0.0080164609798117903 0.039821529398178866 0 0.0076204030484201112 0.040639493770044159 0 0.0086422649671950499 0.040666075259752223 0 0.0080164609798117903 0.039821529398178866 0 0.0086422649671950499 0.040666075259752223 0 0.0090704935172847348 0.040011091019285037 0 0.0080164609798117903 0.039821529398178866 0 0.0022097239316178716 0.040542962998144985 0 0.0021283562510471415 0.039905684199062742 0 0.001551023296829836 0.040341972931029757 0 0.0022097239316178716 0.040542962998144985 0 0.0021283562510471415 0.039905684199062742 0 0.0026064190444586269 0.040147960374145593 0 0.0021283562510471415 0.039905684199062742 0 0.0026064190444586269 0.040147960374145593 0 0.0027600728078509208 0.039699970038651666 0 0.0021283562510471415 0.039905684199062742 0 0.001551023296829836 0.040341972931029757 0 0.0015466896910548277 0.039728276013952693 0 0.0010405850396269856 0.040080475711336716 0 0.001551023296829836 0.040341972931029757 0 0.0015466896910548277 0.039728276013952693 0 0.0010405850396269856 0.040080475711336716 0 0.0010091004046877683 0.039555927644297252 0 0.00054742597870980334 0.039877042578085976 0 0.0010405850396269856 0.040080475711336716 0 0.0010091004046877683 0.039555927644297252 0 0.0015466896910548277 0.039728276013952693 0 0.0010405850396269856 0.040080475711336716 0 0.0010056518630987498 0.040624671944330462 0 0.00058901424402557059 0.040363990020458602 0 0.0010405850396269856 0.040080475711336716 0 0.001551023296829836 0.040341972931029757 0 0.0010056518630987498 0.040624671944330462 0 -0.00013574936852757258 0.040386798717772572 0 -0.0017605600503113814 0.040122109400830365 0 0.0014809460497881971 0.041251172911743184 0 0.0010056518630987498 0.040624671944330462 0 0.00039676013202829532 0.040983067497245305 0 0.001551023296829836 0.040341972931029757 0 0.0014809460497881971 0.041251172911743184 0 0.0010056518630987498 0.040624671944330462 0 0.0022097239316178716 0.040542962998144985 0 0.0014809460497881971 0.041251172911743184 0 0.0027987159829860079 0.041149185632757858 0 -0.00013574936852757258 0.040386798717772572 0 0.0021296172042807289 0.040511066507911232 0 0.0034751188116702082 0.041588432541095989 0 0.001937316863415281 0.041212958087136639 0 0.0032585885076365706 0.041093525243062617 0 0.0022097239316178716 0.040542962998144985 0 0.001551023296829836 0.040341972931029757 0 0.0014809460497881971 0.041251172911743184 0 0.0034751188116702082 0.041588432541095989 0 0.0032585885076365706 0.041093525243062617 0 0.0045068297614375584 0.040957449837520331 0 0.0022097239316178716 0.040542962998144985 0 0.0027987159829860079 0.041149185632757858 0 0.0027927365086735786 0.040531321931656879 0 0.0027987159829860079 0.041149185632757858 0 0.0033338243372845505 0.040658073538901988 0 0.0027927365086735786 0.040531321931656879 0 0.0033338243372845505 0.040658073538901988 0 0.0045068297614375584 0.040957449837520331 0 0.0037701462473116324 0.040443065654424772 0 0.0046156684642864919 0.041481373693897129 0 0.0034751188116702082 0.041588432541095989 0 0.0045068297614375584 0.040957449837520331 0 0.0027987159829860079 0.041149185632757858 0 0.0033338243372845505 0.040658073538901988 0 0.0045068297614375584 0.040957449837520331 0 0.0021296172042807289 0.040511066507911232 0 0.0029578989358114093 0.040533264773792863 0 0.0045068297614375584 0.040957449837520331 0 0.0042070797729808406 0.03999206037485039 0 0.0037701462473116324 0.040443065654424772 0 0.0045417191319898327 0.039356479219256106 0 0.0042070797729808406 0.03999206037485039 0 0.0036175716528126399 0.039494655552966593 0 0.0042070797729808406 0.03999206037485039 0 0.0037701462473116324 0.040443065654424772 0 0.0032523834354690972 0.040152718808506252 0 0.0042070797729808406 0.03999206037485039 0 0.0032523834354690972 0.040152718808506252 0 0.0036175716528126399 0.039494655552966593 0 0.0027927365086735786 0.040531321931656879 0 0.0026064190444586269 0.040147960374145593 0 0.0032523834354690972 0.040152718808506252 0 0.0022097239316178716 0.040542962998144985 0 0.0027927365086735786 0.040531321931656879 0 0.0026064190444586269 0.040147960374145593 0 0.0033338243372845505 0.040658073538901988 0 0.0027927365086735786 0.040531321931656879 0 0.0032523834354690972 0.040152718808506252 0 0.0033338243372845505 0.040658073538901988 0 0.0037701462473116324 0.040443065654424772 0 0.0032523834354690972 0.040152718808506252 0 0.0032523834354690972 0.040152718808506252 0 0.0027600728078509208 0.039699970038651666 0 0.0036175716528126399 0.039494655552966593 0 0.0026064190444586269 0.040147960374145593 0 0.0032523834354690972 0.040152718808506252 0 0.0027600728078509208 0.039699970038651666 0 0.0027600728078509208 0.039699970038651666 0 0.0030254771056370624 0.039178676495090395 0 0.002099919418350805 0.039295830357161617 0 0.0030254771056370624 0.039178676495090395 0 0.0025486449005139486 0.038736562068785098 0 0.002099919418350805 0.039295830357161617 0 0.0027600728078509208 0.039699970038651666 0 0.0030254771056370624 0.039178676495090395 0 0.0036175716528126399 0.039494655552966593 0 0.0045417191319898327 0.039356479219256106 0 0.0036175716528126399 0.039494655552966593 0 0.0036995919668265389 0.038694175127057993 0 0.0030254771056370624 0.039178676495090395 0 0.0036175716528126399 0.039494655552966593 0 0.0036995919668265389 0.038694175127057993 0 0.0054656845876241457 0.03932101667510101 0 0.0046230932893760734 0.038901044323138095 0 0.0050660323029171105 0.039153740048878637 0 0.0038581771440566112 0.039520193139310683 0 0.0042219687273092618 0.038245185488337309 0 0.0030254771056370624 0.039178676495090395 0 0.0036995919668265389 0.038694175127057993 0 0.0025486449005139486 0.038736562068785098 0 0.0036995919668265389 0.038694175127057993 0 0.0025486449005139486 0.038736562068785098 0 0.0028037706607730211 0.038174243019345772 0 0.0046230932893760734 0.038901044323138095 0 0.0042311644592049431 0.038642834781580739 0 0.0025486449005139486 0.038736562068785098 0 0.0020551211965149207 0.038373088885351118 0 0.0028037706607730211 0.038174243019345772 0 0.0025486449005139486 0.038736562068785098 0 0.002099919418350805 0.039295830357161617 0 0.0015689204521726146 0.03878685572613446 0 0.0020551211965149207 0.038373088885351118 0 0.0015689204521726146 0.03878685572613446 0 0.0015904541054909164 0.037890576924528921 0 0.0025486449005139486 0.038736562068785098 0 0.0020551211965149207 0.038373088885351118 0 0.0015689204521726146 0.03878685572613446 0 0.002099919418350805 0.039295830357161617 0 0.0014211233794350004 0.039266372704141489 0 0.0015689204521726146 0.03878685572613446 0 0.002099919418350805 0.039295830357161617 0 0.0015466896910548277 0.039728276013952693 0 0.0014211233794350004 0.039266372704141489 0 0.0021283562510471415 0.039905684199062742 0 0.002099919418350805 0.039295830357161617 0 0.0015466896910548277 0.039728276013952693 0 0.0021283562510471415 0.039905684199062742 0 0.0027600728078509208 0.039699970038651666 0 0.002099919418350805 0.039295830357161617 0 0.0010091004046877683 0.039555927644297252 0 0.0015466896910548277 0.039728276013952693 0 0.0014211233794350004 0.039266372704141489 0 0.0014211233794350004 0.039266372704141489 0 0.00088813834014469541 0.038975470839112056 0 0.0015689204521726146 0.03878685572613446 0 0.0010091004046877683 0.039555927644297252 0 0.0014211233794350004 0.039266372704141489 0 0.00088813834014469541 0.038975470839112056 0 0.00088813834014469541 0.038975470839112056 0 0.0015689204521726146 0.03878685572613446 0 0.00069380635404102636 0.038207515802360453 0 0.0015689204521726146 0.03878685572613446 0 0.0015904541054909164 0.037890576924528921 0 0.00069380635404102636 0.038207515802360453 0 0.00095579684542591923 0.037596110733155656 0 0.0015904541054909164 0.037890576924528921 0 0.00069380635404102636 0.038207515802360453 0 0.00095579684542591923 0.037596110733155656 0 0.0015904541054909164 0.037890576924528921 0 0.0016496199259314608 0.037269343138764441 0 0.0020551211965149207 0.038373088885351118 0 0.002183205099800196 0.037642314342818978 0 0.0015904541054909164 0.037890576924528921 0 0.0020551211965149207 0.038373088885351118 0 0.002183205099800196 0.037642314342818978 0 0.0028037706607730211 0.038174243019345772 0 0.002183205099800196 0.037642314342818978 0 0.0015904541054909164 0.037890576924528921 0 0.0016496199259314608 0.037269343138764441 0 0.002183205099800196 0.037642314342818978 0 0.0016496199259314608 0.037269343138764441 0 0.0020876867123515823 0.036875797618828379 0 0.0016496199259314608 0.037269343138764441 0 0.0020876867123515823 0.036875797618828379 0 0.0014658618166688722 0.036592059527610535 0 0.0016496199259314608 0.037269343138764441 0 0.0010732164548925146 0.037050578182797715 0 0.0014658618166688722 0.036592059527610535 0 0.0010732164548925146 0.037050578182797715 0 0.00098373188669829297 0.036537713982449802 0 0.00034019761234164065 0.037377461710683825 0 0.0010732164548925146 0.037050578182797715 0 0.00098373188669829297 0.036537713982449802 0 0.0014658618166688722 0.036592059527610535 0 0.00095579684542591923 0.037596110733155656 0 0.0010732164548925146 0.037050578182797715 0 0.00034019761234164065 0.037377461710683825 0 0.00095579684542591923 0.037596110733155656 0 0.0016496199259314608 0.037269343138764441 0 0.0010732164548925146 0.037050578182797715 0 0.0038581771440566112 0.039520193139310683 0 0.0042219687273092618 0.038245185488337309 0 0.0028037706607730211 0.038174243019345772 0 0.0042219687273092618 0.038245185488337309 0 0.0028037706607730211 0.038174243019345772 0 0.0030475008076221387 0.037118146236095884 0 0.002183205099800196 0.037642314342818978 0 0.0028037706607730211 0.038174243019345772 0 0.0030475008076221387 0.037118146236095884 0 0.002183205099800196 0.037642314342818978 0 0.0020876867123515823 0.036875797618828379 0 0.0030475008076221387 0.037118146236095884 0 0.0020876867123515823 0.036875797618828379 0 0.0030475008076221387 0.037118146236095884 0 0.0025160498564502113 0.036266043994050458 0 0.0043766278258954615 0.036918663008966804 0 0.0042219687273092618 0.038245185488337309 0 0.0030475008076221387 0.037118146236095884 0 0.0051291321155435511 0.035923663495122479 0 0.0046062540267474304 0.037095240542625821 0 0.0034354959483316799 0.0360957021642591 0 0.0043766278258954615 0.036918663008966804 0 0.0030475008076221387 0.037118146236095884 0 0.0032434161642817452 0.035922496636203664 0 0.0041259820494144502 0.036880842898788097 0 0.003231985559855946 0.035983813151608472 0 0.0030475008076221387 0.037118146236095884 0 0.0032434161642817452 0.035922496636203664 0 0.0025160498564502113 0.036266043994050458 0 0.003231985559855946 0.035983813151608472 0 0.0022331609940176448 0.03500114085573202 0 0.0034354959483316799 0.0360957021642591 0 0.0022319189530446378 0.035000009206118926 0 0.0041282683133685664 0.034999810548442714 0 0.0032434161642817452 0.035922496636203664 0 0.0025160498564502113 0.036266043994050458 0 0.002231440309010273 0.034999793919106834 0 0.0051291321155435511 0.035923663495122479 0 0.0034354959483316799 0.0360957021642591 0 0.0041282683133685664 0.034999810548442714 0 0.00068238313723504305 0.036058354634817325 0 0.00098373188669829297 0.036537713982449802 0 0.00034019761234164065 0.037377461710683825 0 0.0012552638358245408 0.036088414007409433 0 0.00085250971908988865 0.036097345000053328 0 0.00098373188669829297 0.036537713982449802 0 0.00085250971908988865 0.036097345000053328 0 0.00061742621401666357 0.036056853534470253 0 0.0011563615046419947 0.035619690887318832 0 0.0012552638358245408 0.036088414007409433 0 0.00085250971908988865 0.036097345000053328 0 0.0011563615046419947 0.035619690887318832 0 0.00085250971908988865 0.036097345000053328 0 0.00068238313723504305 0.036058354634817325 0 0.00098373188669829297 0.036537713982449802 0 -0.00013903686157119645 0.035942154974045314 0 -0.00015748159436534555 0.035938654181036464 0 0.0012552638358245408 0.036088414007409433 0 0.00098373188669829297 0.036537713982449802 0 0.0014658618166688722 0.036592059527610535 0 0.0020876867123515823 0.036875797618828379 0 0.0014658618166688722 0.036592059527610535 0 0.001783166314779659 0.03606025506464141 0 0.0020876867123515823 0.036875797618828379 0 0.0025160498564502113 0.036266043994050458 0 0.001783166314779659 0.03606025506464141 0 0.0012552638358245408 0.036088414007409433 0 0.0014658618166688722 0.036592059527610535 0 0.001783166314779659 0.03606025506464141 0 0.0012552638358245408 0.036088414007409433 0 0.001783166314779659 0.03606025506464141 0 0.0011563615046419947 0.035619690887318832 0 0.002231440309010273 0.034999793919106834 0 0.00067266119069212221 0.034999984607991891 0 0.0011563615046419947 0.035619690887318832 0 0.0025160498564502113 0.036266043994050458 0 0.002231440309010273 0.034999793919106834 0 0.001783166314779659 0.03606025506464141 0 0.002231440309010273 0.034999793919106834 0 0.001783166314779659 0.03606025506464141 0 0.0011563615046419947 0.035619690887318832 0 0.00061742621401666357 0.036056853534470253 0 0.00067266119069212221 0.034999984607991891 0 0.0011563615046419947 0.035619690887318832 0 -0.00015748159436534555 0.035938654181036464 0 0.00066994795242187168 0.035001141470027301 0 0.00016956166307496048 0.036275262897324169 0 0.0006717272213523452 0.034999998344550351 0 -0.0010876953276780779 0.034999997173919585 0 0.00016956166307496048 0.036275262897324169 0 -0.0010876953276780779 0.034999997173919585 0 -0.0017312747619262511 0.035891526663322189 0 -0.00015748159436534555 0.035938654181036464 0 -0.0018640715055385985 0.035726900961738486 0 -0.00057041785957848926 0.036184479066002001 0 -0.0020021853009934815 0.036908603152760386 0 -0.0011801158512615392 0.037730123109208549 0 -0.00057041785957848926 0.036184479066002001 0 -0.0020021853009934815 0.036908603152760386 0 -0.0021636673883566921 0.035856460623213904 0 -0.0020021853009934815 0.036908603152760386 0 -0.0021636673883566921 0.035856460623213904 0 -0.0030717116737999724 0.036698410704998012 0 -0.0010876953276780779 0.034999997173919585 0 -0.0017312747619262511 0.035891526663322189 0 -0.0028471119601188562 0.03500000330766647 0 -0.0021636673883566921 0.035856460623213904 0 -0.0037989653414472633 0.035501276740312671 0 -0.0036957751442691948 0.036264612325636707 0 -0.0018640715055385985 0.035726900961738486 0 -0.003413483872808399 0.03547219758453854 0 -0.0017312747619262511 0.035891526663322189 0 -0.0028471119601188562 0.03500000330766647 0 -0.0036335207507960801 0.035508690012276627 0 -0.0028471119601188562 0.03500000330766647 0 -0.0036335207507960801 0.035508690012276627 0 -0.0046065721628504855 0.034999985133133481 0 -0.0037989653414472633 0.035501276740312671 0 -0.0044488242315028062 0.036054380268760976 0 -0.0036957751442691948 0.036264612325636707 0 -0.0036957751442691948 0.036264612325636707 0 -0.0043381534864933794 0.036893140812677874 0 -0.0030717116737999724 0.036698410704998012 0 -0.0040466678093096448 0.036883040031340776 0 -0.0038437018876389065 0.036850254476575597 0 -0.0044488242315028062 0.036054380268760976 0 -0.0036957751442691948 0.036264612325636707 0 -0.0043381534864933794 0.036893140812677874 0 -0.0021636673883566921 0.035856460623213904 0 -0.0036957751442691948 0.036264612325636707 0 -0.0030717116737999724 0.036698410704998012 0 -0.0020021853009934815 0.036908603152760386 0 -0.0030717116737999724 0.036698410704998012 0 -0.00302916987195804 0.038064593206337927 0 -0.0042680213538796525 0.036858989108091746 0 -0.0030717116737999724 0.036698410704998012 0 -0.00302916987195804 0.038064593206337927 0 -0.0040466678093096448 0.036883040031340776 0 -0.0024547414439914229 0.037767836614628431 0 -0.00242720424529675 0.036369369510472753 0 -0.0021430251850516691 0.038016124318224674 0 -0.001285708523532656 0.037474883698691758 0 -0.0021430251850516691 0.038016124318224674 0 -0.001285708523532656 0.037474883698691758 0 -0.0014576479519463922 0.038845164691789939 0 -0.0020021853009934815 0.036908603152760386 0 -0.00302916987195804 0.038064593206337927 0 -0.0011801158512615392 0.037730123109208549 0 -0.0024547414439914229 0.037767836614628431 0 -0.0013829886716183986 0.038297874416622517 0 -0.00302916987195804 0.038064593206337927 0 -0.0011801158512615392 0.037730123109208549 0 -0.0017858336320599199 0.039271204975111683 0 -0.00073544278796822539 0.037281335789613415 0 -0.0013829886716183986 0.038297874416622517 0 0.00095579684542591923 0.037596110733155656 0 0.00069380635404102636 0.038207515802360453 0 0.00034019761234164065 0.037377461710683825 0 0.00069380635404102636 0.038207515802360453 0 0.00034019761234164065 0.037377461710683825 0 -0.00011525908298115082 0.038646190001078266 0 -0.00015748159436534555 0.035938654181036464 0 -0.00073544278796822539 0.037281335789613415 0 -0.0085838904903033988 0.036986117768925242 0 -0.0080810328115291721 0.036968403138948919 0 -0.0085322789065438581 0.036327032752857973 0 -0.0080810328115291721 0.036968403138948919 0 -0.0085322789065438581 0.036327032752857973 0 -0.0074867390803635379 0.03649325413622273 0 -0.0085322789065438581 0.036327032752857973 0 -0.0079999071898498846 0.035745459564841341 0 -0.0074867390803635379 0.03649325413622273 0 -0.0078554417726243546 0.034999988706313767 0 -0.0079999071898498846 0.035745459564841341 0 -0.0093448921427706656 0.035000002920050587 0 -0.0085322789065438581 0.036327032752857973 0 -0.0079999071898498846 0.035745459564841341 0 -0.0093448921427706656 0.035000002920050587 0 -0.0078554417726243546 0.034999988706313767 0 -0.0079999071898498846 0.035745459564841341 0 -0.0068521443187801274 0.035810976352205433 0 -0.0079999071898498846 0.035745459564841341 0 -0.0068521443187801274 0.035810976352205433 0 -0.0074867390803635379 0.03649325413622273 0 -0.0078554417726243546 0.034999988706313767 0 -0.0068521443187801274 0.035810976352205433 0 -0.0063660276586822726 0.034999993914444583 0 -0.0064280740102883351 0.036623985935227019 0 -0.0060754626654442182 0.037304278694129327 0 -0.0072677825141131656 0.037461592639803191 0 -0.0068521443187801274 0.035810976352205433 0 -0.0074867390803635379 0.03649325413622273 0 -0.0064280740102883351 0.036623985935227019 0 -0.0080810328115291721 0.036968403138948919 0 -0.0074867390803635379 0.03649325413622273 0 -0.0072677825141131656 0.037461592639803191 0 -0.0074867390803635379 0.03649325413622273 0 -0.0064280740102883351 0.036623985935227019 0 -0.0072677825141131656 0.037461592639803191 0 -0.0068521443187801274 0.035810976352205433 0 -0.0064280740102883351 0.036623985935227019 0 -0.0053257542080887886 0.036026498301988008 0 -0.0064280740102883351 0.036623985935227019 0 -0.0053257542080887886 0.036026498301988008 0 -0.0060793008574170325 0.037293701870855733 0 -0.0056414518879780934 0.037022650975351748 0 -0.0055966755678388408 0.037071665067992907 0 -0.0063659244648522229 0.035000013521892012 0 -0.0055380193686737252 0.03512151375339418 0 -0.0046065721628504855 0.034999985133133481 0 -0.0068521443187801274 0.035810976352205433 0 -0.0063660276586822726 0.034999993914444583 0 -0.0053257542080887886 0.036026498301988008 0 -0.0063642759701194448 0.035001196304765891 0 -0.0052315322299612155 0.035936423091764071 0 -0.0063659244648522229 0.035000013521892012 0 -0.0055380193686737252 0.03512151375339418 0 -0.0053131327749153592 0.035975482499482049 0 -0.003413483872808399 0.03547219758453854 0 -0.0042372241913478867 0.035321304735080966 0 -0.0044488242315028062 0.036054380268760976 0 -0.0055380193686737252 0.03512151375339418 0 -0.0053131327749153592 0.035975482499482049 0 -0.0037989653414472633 0.035501276740312671 0 -0.0044488242315028062 0.036054380268760976 0 -0.0055380193686737252 0.03512151375339418 0 -0.0036335207507960801 0.035508690012276627 0 -0.0055380193686737252 0.03512151375339418 0 -0.0046065721628504855 0.034999985133133481 0 -0.0040466678093096448 0.036883040031340776 0 -0.0052315322299612155 0.035936423091764071 0 -0.0042757317550778558 0.037050251047372695 0 -0.0053257542080887886 0.036026498301988008 0 -0.0060793008574170325 0.037293701870855733 0 -0.0044488242315028062 0.036054380268760976 0 -0.0043381534864933794 0.036893140812677874 0 -0.0053131327749153592 0.035975482499482049 0 -0.0040466678093096448 0.036883040031340776 0 -0.0055966755678388408 0.037071665067992907 0 -0.00242720424529675 0.036369369510472753 0 -0.0031480122585021762 0.037863142021629499 0 -0.0038285381166762722 0.036558397277642131 0 -0.00242720424529675 0.036369369510472753 0 -0.0021430251850516691 0.038016124318224674 0 -0.0031480122585021762 0.037863142021629499 0 -0.0061048889723494936 0.038615060703196251 0 -0.0067965242152570569 0.037315506167487876 0 -0.0071945466919773682 0.038254438921793893 0 -0.0061048889723494936 0.038615060703196251 0 -0.0071945466919773682 0.038254438921793893 0 -0.0074740293506966411 0.039387397969245591 0 -0.005018650036736641 0.038326860391162093 0 -0.0055966755678388408 0.037071665067992907 0 -0.0067965242152570569 0.037315506167487876 0 -0.0076889063821541483 0.037451166080564695 0 -0.0071945466919773682 0.038254438921793893 0 -0.0055966755678388408 0.037071665067992907 0 -0.0066170678114708323 0.037233792851975894 0 -0.0076889063821541483 0.037451166080564695 0 -0.0071945466919773682 0.038254438921793893 0 -0.0080791912663252616 0.038508043184070605 0 -0.0071945466919773682 0.038254438921793893 0 -0.0080791912663252616 0.038508043184070605 0 -0.0074740293506966411 0.039387397969245591 0 -0.0080791912663252616 0.038508043184070605 0 -0.0089793261162023769 0.037336816516718579 0 -0.0089886215375764664 0.037966386114906096 0 -0.0080791912663252616 0.038508043184070605 0 -0.0086928202100547067 0.039350242474844373 0 -0.0089858472594409461 0.038506044124478014 0 -0.0080791912663252616 0.038508043184070605 0 -0.0089886215375764664 0.037966386114906096 0 -0.0089858472594409461 0.038506044124478014 0 -0.0080791912663252616 0.038508043184070605 0 -0.008505332999850573 0.037583320245161422 0 -0.0087665072775231379 0.037569748181565416 0 -0.0066170678114708323 0.037233792851975894 0 -0.0070223336468635544 0.037295928134603175 0 -0.0076889063821541483 0.037451166080564695 0 -0.0080791912663252616 0.038508043184070605 0 -0.008505332999850573 0.037583320245161422 0 -0.0087957725968229126 0.037577653251271735 0 -0.0091617967172664648 0.037112215302960376 0 -0.0080810328115291721 0.036968403138948919 0 -0.0072677825141131656 0.037461592639803191 0 -0.008505332999850573 0.037583320245161422 0 -0.0085838904903033988 0.036986117768925242 0 -0.008505332999850573 0.037583320245161422 0 -0.0087665072775231379 0.037569748181565416 0 -0.0085838904903033988 0.036986117768925242 0 -0.0080810328115291721 0.036968403138948919 0 -0.008505332999850573 0.037583320245161422 0 -0.0080791912663252616 0.038508043184070605 0 -0.0086928202100547067 0.039350242474844373 0 -0.0074740293506966411 0.039387397969245591 0 -0.0086266895019698562 0.040366860036258154 0 -0.0086928202100547067 0.039350242474844373 0 -0.0074740293506966411 0.039387397969245591 0 -0.010895660064657919 0.039013263477564057 0 -0.0094834393218630516 0.03914873516276466 0 -0.0086266895019698562 0.040366860036258154 0 -0.0074740293506966411 0.039387397969245591 0 -0.0072948896000422613 0.040654432559790676 0 -0.0074740293506966411 0.039387397969245591 0 -0.0064571216207551631 0.039911612665006577 0 -0.0072948896000422613 0.040654432559790676 0 -0.0064571216207551631 0.039911612665006577 0 -0.0060089302719858028 0.040951369746496311 0 -0.0072948896000422613 0.040654432559790676 0 -0.0061048889723494936 0.038615060703196251 0 -0.0074740293506966411 0.039387397969245591 0 -0.0064571216207551631 0.039911612665006577 0 -0.005018650036736641 0.038326860391162093 0 -0.0047074326042476139 0.039444929705583422 0 -0.0021430251850516691 0.038016124318224674 0 -0.0031480122585021762 0.037863142021629499 0 -0.0024648040287586714 0.039168428507316923 0 -0.0061048889723494936 0.038615060703196251 0 -0.0064571216207551631 0.039911612665006577 0 -0.0054160346906707187 0.039949160264128911 0 -0.0064571216207551631 0.039911612665006577 0 -0.0060089302719858028 0.040951369746496311 0 -0.0054160346906707187 0.039949160264128911 0 -0.010321306568763424 0.037557127294359338 0 -0.0087504268362092619 0.0386513952508813 0 -0.0098300891996517155 0.040012030322339756 0 -0.010321306568763424 0.037557127294359338 0 -0.011925553840058861 0.039552739034032627 0 -0.0098300891996517155 0.040012030322339756 0 -0.010321306568763424 0.037557127294359338 0 -0.011925553840058861 0.039552739034032627 0 -0.012647126550162159 0.037398570214612875 0 -0.0076475486223996384 0.039377550865843873 0 -0.0094834393218630516 0.03914873516276466 0 -0.012647126550162159 0.037398570214612875 0 -0.013572620261685672 0.038674327087650853 0 -0.014214285665354607 0.038293599706879622 0 -0.011925553840058861 0.039552739034032627 0 -0.012647126550162159 0.037398570214612875 0 -0.013572620261685672 0.038674327087650853 0 -0.011925553840058861 0.039552739034032627 0 -0.013572620261685672 0.038674327087650853 0 -0.013402335710878168 0.039624255158670033 0 -0.013572620261685672 0.038674327087650853 0 -0.013402335710878168 0.039624255158670033 0 -0.014833486982280689 0.039304650417979176 0 -0.013572620261685672 0.038674327087650853 0 -0.014833486982280689 0.039304650417979176 0 -0.01479691168391618 0.038753607627777742 0 -0.013572620261685672 0.038674327087650853 0 -0.014214285665354607 0.038293599706879622 0 -0.01479691168391618 0.038753607627777742 0 -0.014293716865992066 0.037830522370881983 0 -0.014214285665354607 0.038293599706879622 0 -0.014664562490587941 0.038379859992657153 0 -0.014293716865992066 0.037830522370881983 0 -0.012647126550162159 0.037398570214612875 0 -0.014214285665354607 0.038293599706879622 0 -0.00032505052194561104 0.039073326625669133 0 -0.00069064211886176482 0.039392447640611977 0 -0.00015112835111695438 0.039424587043486732 0 -0.00032505052194561104 0.039073326625669133 0 -0.00015112835111695438 0.039424587043486732 0 3.7291854145010272e-06 0.039123992404979102 0 -0.00032505052194561104 0.039073326625669133 0 3.7291854145010272e-06 0.039123992404979102 0 6.3035415490030099e-05 0.038816577914129492 0 -0.00032505052194561104 0.039073326625669133 0 -0.00069064211886176482 0.039392447640611977 0 -0.00078025838744260093 0.038674006046266432 0 -0.00069064211886176482 0.039392447640611977 0 -0.0002377030756421132 0.039853807163125206 0 -0.00072709582331378822 0.040106534244782978 0 -0.00069064211886176482 0.039392447640611977 0 -0.00015112835111695438 0.039424587043486732 0 -0.0002377030756421132 0.039853807163125206 0 -0.00015112835111695438 0.039424587043486732 0 0.00015464182183993209 0.039703088388487628 0 -0.0002377030756421132 0.039853807163125206 0 0.00015464182183993209 0.039703088388487628 0 0.00052668005296286746 0.0394211881530857 0 0.00018672959182677751 0.039345856567094613 0 -0.00015112835111695438 0.039424587043486732 0 0.00015464182183993209 0.039703088388487628 0 0.00018672959182677751 0.039345856567094613 0 0.0010091004046877683 0.039555927644297252 0 0.00052668005296286746 0.0394211881530857 0 0.00054742597870980334 0.039877042578085976 0 0.00015464182183993209 0.039703088388487628 0 0.00052668005296286746 0.0394211881530857 0 0.00054742597870980334 0.039877042578085976 0 0.0010091004046877683 0.039555927644297252 0 0.00088813834014469541 0.038975470839112056 0 0.00052668005296286746 0.0394211881530857 0 0.00088813834014469541 0.038975470839112056 0 0.00052668005296286746 0.0394211881530857 0 0.0003739410391158646 0.039033281732190631 0 -0.00015112835111695438 0.039424587043486732 0 0.00018672959182677751 0.039345856567094613 0 3.7291854145010272e-06 0.039123992404979102 0 0.00052668005296286746 0.0394211881530857 0 0.00018672959182677751 0.039345856567094613 0 0.0003739410391158646 0.039033281732190631 0 0.00018672959182677751 0.039345856567094613 0 0.0003739410391158646 0.039033281732190631 0 3.7291854145010272e-06 0.039123992404979102 0 6.3035415490030099e-05 0.038816577914129492 0 0.00039736401394085442 0.03868899436323267 0 -0.00011525908298115082 0.038646190001078266 0 0.00069380635404102636 0.038207515802360453 0 0.00039736401394085442 0.03868899436323267 0 -0.00011525908298115082 0.038646190001078266 0 0.0003739410391158646 0.039033281732190631 0 3.7291854145010272e-06 0.039123992404979102 0 6.3035415490030099e-05 0.038816577914129492 0 0.00088813834014469541 0.038975470839112056 0 0.00069380635404102636 0.038207515802360453 0 0.00039736401394085442 0.03868899436323267 0 0.0003739410391158646 0.039033281732190631 0 6.3035415490030099e-05 0.038816577914129492 0 0.00039736401394085442 0.03868899436323267 0 0.00088813834014469541 0.038975470839112056 0 0.0003739410391158646 0.039033281732190631 0 0.00039736401394085442 0.03868899436323267 0 -0.001285708523532656 0.037474883698691758 0 -0.00013827291767573748 0.038584940531373228 0 -0.00078025838744260093 0.038674006046266432 0 -0.00032505052194561104 0.039073326625669133 0 -0.00013827291767573748 0.038584940531373228 0 -0.00078025838744260093 0.038674006046266432 0 -0.00032505052194561104 0.039073326625669133 0 6.3035415490030099e-05 0.038816577914129492 0 -0.00013251991748641382 0.038625597821015524 0 -0.0013595185284470111 0.038326058784195385 0 -0.0013829886716183986 0.038297874416622517 0 -0.001351725939108959 0.038321614740162629 0 -0.0013829886716183986 0.038297874416622517 0 -0.001285708523532656 0.037474883698691758 0 -0.00078025838744260093 0.038674006046266432 0 -0.0014576479519463922 0.038845164691789939 0 -0.00069064211886176482 0.039392447640611977 0 -0.00078025838744260093 0.038674006046266432 0 -0.0014576479519463922 0.038845164691789939 0 -0.0021430251850516691 0.038016124318224674 0 -0.0014576479519463922 0.038845164691789939 0 -0.0024648040287586714 0.039168428507316923 0 -0.0024648040287586714 0.039168428507316923 0 -0.0017215663888664979 0.039544899598225047 0 -0.0017831242818162364 0.040464096347098771 0 -0.0014576479519463922 0.038845164691789939 0 -0.0024648040287586714 0.039168428507316923 0 -0.0017215663888664979 0.039544899598225047 0 -0.00069064211886176482 0.039392447640611977 0 -0.0014576479519463922 0.038845164691789939 0 -0.0011801208618915388 0.039700977506803035 0 -0.0014576479519463922 0.038845164691789939 0 -0.0017215663888664979 0.039544899598225047 0 -0.0011801208618915388 0.039700977506803035 0 -0.00069064211886176482 0.039392447640611977 0 -0.0011801208618915388 0.039700977506803035 0 -0.00072709582331378822 0.040106534244782978 0 -0.0017215663888664979 0.039544899598225047 0 -0.0011801208618915388 0.039700977506803035 0 -0.0017831242818162364 0.040464096347098771 0 -0.0011801208618915388 0.039700977506803035 0 -0.0017831242818162364 0.040464096347098771 0 -0.00072709582331378822 0.040106534244782978 0 -0.0051245956102181217 0.03977063888438781 0 -0.0033997887092146999 0.039906891292447323 0 -0.0017831242818162364 0.040464096347098771 0 -0.00068707549808451015 0.040727064853281703 0 -0.00072709582331378822 0.040106534244782978 0 -0.010321306568763424 0.037557127294359338 0 -0.0078817701118077902 0.037914856639935483 0 -0.0087504268362092619 0.0386513952508813 0 -0.0047074326042476139 0.039444929705583422 0 -0.0051245956102181217 0.03977063888438781 0 -0.0076475486223996384 0.039377550865843873 0 -0.0051245956102181217 0.03977063888438781 0 -0.0060089302719858028 0.040951369746496311 0 -0.0054160346906707187 0.039949160264128911 0 -0.0047373975730358514 0.041262179838912949 0 -0.0051245956102181217 0.03977063888438781 0 -0.0051734522745934758 0.039704314154597756 0 -0.0087504268362092619 0.0386513952508813 0 -0.0080372066971823898 0.039401670391934096 0 -0.0098300891996517155 0.040012030322339756 0 -0.0087504268362092619 0.0386513952508813 0 -0.0080372066971823898 0.039401670391934096 0 -0.0076106331860654065 0.038378190159815875 0 -0.0078817701118077902 0.037914856639935483 0 -0.0087504268362092619 0.0386513952508813 0 -0.0076106331860654065 0.038378190159815875 0 -0.0078588123611606116 0.03790352134498081 0 -0.0076106331860654065 0.038378190159815875 0 -0.0058231520222417864 0.038376454692034156 0 -0.0067118126485352569 0.038887203622927968 0 -0.0076106331860654065 0.038378190159815875 0 -0.0058231520222417864 0.038376454692034156 0 -0.0080372066971823898 0.039401670391934096 0 -0.0067118126485352569 0.038887203622927968 0 -0.0076106331860654065 0.038378190159815875 0 -0.0080372066971823898 0.039401670391934096 0 -0.0067118126485352569 0.038887203622927968 0 -0.007022725308743036 0.039810791747311697 0 -0.0033997887092146999 0.039906891292447323 0 -0.0017605600503113814 0.040122109400830365 0 -0.0067118126485352569 0.038887203622927968 0 -0.0044363732493621615 0.039613820231467034 0 -0.007022725308743036 0.039810791747311697 0 -0.0067118126485352569 0.038887203622927968 0 -0.0058231520222417864 0.038376454692034156 0 -0.0044363732493621615 0.039613820231467034 0 -0.0058231520222417864 0.038376454692034156 0 -0.0044363732493621615 0.039613820231467034 0 -0.0038184921465370184 0.038870683428044027 0 -0.00068707549808451015 0.040727064853281703 0 5.0274818541309562e-05 0.040303665120014674 0 0.00039676013202829532 0.040983067497245305 0 -0.00068707549808451015 0.040727064853281703 0 -0.00072709582331378822 0.040106534244782978 0 5.0274818541309562e-05 0.040303665120014674 0 -0.0002377030756421132 0.039853807163125206 0 -0.00072709582331378822 0.040106534244782978 0 5.0274818541309562e-05 0.040303665120014674 0 0.00015464182183993209 0.039703088388487628 0 -0.0002377030756421132 0.039853807163125206 0 5.0274818541309562e-05 0.040303665120014674 0 0.0010405850396269856 0.040080475711336716 0 0.00054742597870980334 0.039877042578085976 0 0.00058901424402557059 0.040363990020458602 0 0.00015464182183993209 0.039703088388487628 0 0.00054742597870980334 0.039877042578085976 0 5.0274818541309562e-05 0.040303665120014674 0 0.00054742597870980334 0.039877042578085976 0 5.0274818541309562e-05 0.040303665120014674 0 0.00058901424402557059 0.040363990020458602 0 5.0274818541309562e-05 0.040303665120014674 0 0.00058901424402557059 0.040363990020458602 0 0.00039676013202829532 0.040983067497245305 0 0.0010056518630987498 0.040624671944330462 0 0.00058901424402557059 0.040363990020458602 0 0.00039676013202829532 0.040983067497245305 0 -0.00013574936852757258 0.040386798717772572 0 -0.0033266008795012616 0.040209196521715763 0 -0.0017818511355630611 0.039382854606542735 0 -0.0044363732493621615 0.039613820231467034 0 -0.0038184921465370184 0.038870683428044027 0 -0.0040534755277814652 0.039370797577210098 0 -0.0026720573496385723 0.040406908161330642 0 -0.0040411594086352904 0.041271409880860199 0 -0.001022020812754752 0.039149452077154812 0 -0.0040534755277814652 0.039370797577210098 0 -0.0026720573496385723 0.040406908161330642 0 -0.0026720573496385723 0.040406908161330642 0 -0.0028434846940641341 0.041603453505418483 0 -0.0040411594086352904 0.041271409880860199 0 -0.0033266008795012616 0.040209196521715763 0 -0.0047163794427137673 0.040202628718009219 0 -0.0040534755277814652 0.039370797577210098 0 -0.0054610952888017074 0.040714307179886181 0 -0.0040411594086352904 0.041271409880860199 0 -0.0040534755277814652 0.039370797577210098 0 -0.0054610952888017074 0.040714307179886181 0 -0.007022725308743036 0.039810791747311697 0 -0.0055267394312868007 0.042400156064642598 0 -0.0040411594086352904 0.041271409880860199 0 -0.0037968144983332539 0.042758510282674689 0 -0.0054610952888017074 0.040714307179886181 0 -0.0055267394312868007 0.042400156064642598 0 -0.0040411594086352904 0.041271409880860199 0 -0.0054610952888017074 0.040714307179886181 0 -0.0055267394312868007 0.042400156064642598 0 -0.0068241959494251998 0.041144031116054004 0 -0.0020282738025986292 0.043454276448685616 0 -0.0028434846940641341 0.041603453505418483 0 -0.0037968144983332539 0.042758510282674689 0 -0.0028434846940641341 0.041603453505418483 0 -0.0040411594086352904 0.041271409880860199 0 -0.0037968144983332539 0.042758510282674689 0 -0.0020282738025986292 0.043454276448685616 0 -0.0037968144983332539 0.042758510282674689 0 -0.0047715607226003981 0.044613119661751938 0 -0.0020282738025986292 0.043454276448685616 0 -0.0021092849867610434 0.046794812694650217 0 -0.0047715607226003981 0.044613119661751938 0 -0.0055267394312868007 0.042400156064642598 0 -0.0037968144983332539 0.042758510282674689 0 -0.0047715607226003981 0.044613119661751938 0 -0.0055267394312868007 0.042400156064642598 0 -0.0047715607226003981 0.044613119661751938 0 -0.0072368647149661592 0.043673600416782241 0 -0.0094279063039887506 0.042547857061819364 0 -0.014176981229921748 0.038984275920033236 0 -0.013137688067949063 0.043019572154505505 0 -0.0091184991072815608 0.043881832006990334 0 -0.011241622196089408 0.042283740017088678 0 -0.0071803248547002724 0.045694380875758507 0 -0.0072368647149661592 0.043673600416782241 0 -0.0092364097137286501 0.044217592448688441 0 -0.0047715607226003981 0.044613119661751938 0 -0.0071803248547002724 0.045694380875758507 0 -0.0072368647149661592 0.043673600416782241 0 -0.0072368647149661592 0.043673600416782241 0 -0.0090231554305906167 0.042841458657797496 0 -0.0077555480137936174 0.042129340730220795 0 -0.0072368647149661592 0.043673600416782241 0 -0.0090231554305906167 0.042841458657797496 0 -0.0092364097137286501 0.044217592448688441 0 -0.0077555480137936174 0.042129340730220795 0 -0.0083071150277011681 0.040667771314508321 0 -0.0095821237513458949 0.041551006404341825 0 -0.0090231554305906167 0.042841458657797496 0 -0.0077555480137936174 0.042129340730220795 0 -0.0095821237513458949 0.041551006404341825 0 -0.0077555480137936174 0.042129340730220795 0 -0.0068241959494251998 0.041144031116054004 0 -0.0083071150277011681 0.040667771314508321 0 -0.0055267394312868007 0.042400156064642598 0 -0.0072368647149661592 0.043673600416782241 0 -0.0077555480137936174 0.042129340730220795 0 -0.0055267394312868007 0.042400156064642598 0 -0.0077555480137936174 0.042129340730220795 0 -0.0068241959494251998 0.041144031116054004 0 -0.0054610952888017074 0.040714307179886181 0 -0.0068241959494251998 0.041144031116054004 0 -0.007022725308743036 0.039810791747311697 0 -0.0068241959494251998 0.041144031116054004 0 -0.007022725308743036 0.039810791747311697 0 -0.0083071150277011681 0.040667771314508321 0 -0.0080372066971823898 0.039401670391934096 0 -0.0083071150277011681 0.040667771314508321 0 -0.0098300891996517155 0.040012030322339756 0 -0.0080372066971823898 0.039401670391934096 0 -0.007022725308743036 0.039810791747311697 0 -0.0083071150277011681 0.040667771314508321 0 -0.0083071150277011681 0.040667771314508321 0 -0.0098300891996517155 0.040012030322339756 0 -0.0095821237513458949 0.041551006404341825 0 -0.0098300891996517155 0.040012030322339756 0 -0.01118320343509319 0.040951712243769804 0 -0.0095821237513458949 0.041551006404341825 0 -0.011925553840058861 0.039552739034032627 0 -0.0098300891996517155 0.040012030322339756 0 -0.01118320343509319 0.040951712243769804 0 -0.011925553840058861 0.039552739034032627 0 -0.01118320343509319 0.040951712243769804 0 -0.013190899249789596 0.041036402601300211 0 -0.013004267122777753 0.041050070649670388 0 -0.014042322196904263 0.040294768883252237 0 -0.01118320343509319 0.040951712243769804 0 -0.011289609362258769 0.042634946829026625 0 -0.013190899249789596 0.041036402601300211 0 -0.0090231554305906167 0.042841458657797496 0 -0.011289609362258769 0.042634946829026625 0 -0.0095821237513458949 0.041551006404341825 0 -0.01118320343509319 0.040951712243769804 0 -0.011289609362258769 0.042634946829026625 0 -0.0095821237513458949 0.041551006404341825 0 -0.014833486982280689 0.039304650417979176 0 -0.015110238128586211 0.03968050494942215 0 -0.015734735003816062 0.039651548481744958 0 -0.013402335710878168 0.039624255158670033 0 -0.014833486982280689 0.039304650417979176 0 -0.013190899249789596 0.041036402601300211 0 -0.014442101106324148 0.039955563057198717 0 -0.014042322196904263 0.040294768883252237 0 -0.011925553840058861 0.039552739034032627 0 -0.013402335710878168 0.039624255158670033 0 -0.013190899249789596 0.041036402601300211 0 -0.016618549512682095 0.038772973989528503 0 -0.015734735003816062 0.039651548481744958 0 -0.016122911111820751 0.03896759325053277 0 -0.015734735003816062 0.039651548481744958 0 -0.015526036179682106 0.039322148893465289 0 -0.016122911111820751 0.03896759325053277 0 -0.015180426200578502 0.03831659307670382 0 -0.015275057314757725 0.03759470831881593 0 -0.015110238128586211 0.03968050494942215 0 -0.015526036179682106 0.039322148893465289 0 -0.015181830290534427 0.03892147510596318 0 -0.015110238128586211 0.03968050494942215 0 -0.015734735003816062 0.039651548481744958 0 -0.015526036179682106 0.039322148893465289 0 -0.015526036179682106 0.039322148893465289 0 -0.015181830290534427 0.03892147510596318 0 -0.016122911111820751 0.03896759325053277 0 -0.015181830290534427 0.03892147510596318 0 -0.016122911111820751 0.03896759325053277 0 -0.016120770968514525 0.038388384400111206 0 -0.016122911111820751 0.03896759325053277 0 -0.016120770968514525 0.038388384400111206 0 -0.016892375915614218 0.039336509157410007 0 -0.015181830290534427 0.03892147510596318 0 -0.016120770968514525 0.038388384400111206 0 -0.015012240484064323 0.037636793431128676 0 -0.015275057314757725 0.03759470831881593 0 -0.015347177833484374 0.03670703435449979 0 -0.016618549512682095 0.038772973989528503 0 -0.014176981229921748 0.038984275920033236 0 -0.016892375915614218 0.039336509157410007 0 -0.013004267122777753 0.041050070649670388 0 -0.011241622196089408 0.042283740017088678 0 -0.0090231554305906167 0.042841458657797496 0 -0.011289609362258769 0.042634946829026625 0 -0.0092364097137286501 0.044217592448688441 0 -0.016618549512682095 0.038772973989528503 0 -0.016122911111820751 0.03896759325053277 0 -0.016892375915614218 0.039336509157410007 0 -0.016120770968514525 0.038388384400111206 0 -0.016892375915614218 0.039336509157410007 0 -0.016907553794716011 0.037949273702062254 0 -0.016886595135069959 0.03985787389455378 0 -0.016846175704696112 0.039952892664434692 0 -0.016892375915614218 0.039336509157410007 0 -0.018263844671568538 0.037078827826623507 0 -0.016907553794716011 0.037949273702062254 0 -0.014176981229921748 0.038984275920033236 0 -0.016892375915614218 0.039336509157410007 0 -0.013137688067949063 0.043019572154505505 0 -0.016892375915614218 0.039336509157410007 0 -0.016211729614011631 0.044722869569654163 0 -0.013137688067949063 0.043019572154505505 0 -0.016211729614011631 0.044722869569654163 0 -0.013137688067949063 0.043019572154505505 0 -0.012965139134225912 0.046936567707516086 0 -0.016907553794716011 0.037949273702062254 0 -0.017170938054931029 0.036382432549872612 0 -0.016282808930681666 0.03713483373877461 0 -0.018263844671568538 0.037078827826623507 0 -0.016907553794716011 0.037949273702062254 0 -0.017170938054931029 0.036382432549872612 0 -0.017170938054931029 0.036382432549872612 0 -0.018125200357513954 0.035784393717728881 0 -0.017318676449898353 0.034955074403367113 0 -0.018263844671568538 0.037078827826623507 0 -0.017170938054931029 0.036382432549872612 0 -0.018125200357513954 0.035784393717728881 0 -0.016211729614011631 0.044722869569654163 0 -0.014895404694859303 0.049582756009452583 0 -0.012965139134225912 0.046936567707516086 0 -0.016846175704696112 0.039952892664434692 0 -0.016900545721313952 0.038938016221619173 0 -0.018263844671568538 0.037078827826623507 0 -0.018125200357513954 0.035784393717728881 0 -0.018866246418776822 0.035139228713036437 0 -0.018125200357513954 0.035784393717728881 0 -0.019023930616360464 0.035133109089217927 0 -0.018222314003096457 0.035007159021617253 0 -0.017195779352622828 0.038598298697618355 0 -0.016900545721313952 0.038938016221619173 0 -0.014895404694859303 0.049582756009452583 0 -0.01178746013836122 0.049643249545333924 0 -0.012965139134225912 0.046936567707516086 0 -0.016120770968514525 0.038388384400111206 0 -0.015012240484064323 0.037636793431128676 0 -0.016282808930681666 0.03713483373877461 0 -0.015012240484064323 0.037636793431128676 0 -0.016282808930681666 0.03713483373877461 0 -0.016219979795607905 0.035778287127538555 0 -0.016120770968514525 0.038388384400111206 0 -0.016907553794716011 0.037949273702062254 0 -0.016282808930681666 0.03713483373877461 0 -0.016219979795607905 0.035778287127538555 0 -0.015405076834302344 0.035010719277887528 0 -0.016166374820571695 0.034516277089639551 0 -0.017170938054931029 0.036382432549872612 0 -0.016219979795607905 0.035778287127538555 0 -0.017318676449898353 0.034955074403367113 0 -0.017170938054931029 0.036382432549872612 0 -0.016282808930681666 0.03713483373877461 0 -0.016219979795607905 0.035778287127538555 0 -0.015347177833484374 0.03670703435449979 0 -0.015385713510838925 0.036168641486284028 0 -0.015012240484064323 0.037636793431128676 0 -0.016219979795607905 0.035778287127538555 0 -0.015405076834302344 0.035010719277887528 0 -0.015691836967863405 0.035528179144238302 0 -0.015405076834302344 0.035010719277887528 0 -0.015422675014978402 0.034868740715856598 0 -0.015405076834302344 0.035010719277887528 0 -0.015159162122822813 0.034312454781494292 0 -0.015422675014978402 0.034868740715856598 0 -0.015405076834302344 0.035010719277887528 0 -0.015159162122822813 0.034312454781494292 0 -0.016166374820571695 0.034516277089639551 0 -0.015159162122822813 0.034312454781494292 0 -0.016166374820571695 0.034516277089639551 0 -0.015765273770186137 0.033574967492687076 0 -0.016219979795607905 0.035778287127538555 0 -0.016166374820571695 0.034516277089639551 0 -0.017318676449898353 0.034955074403367113 0 -0.016166374820571695 0.034516277089639551 0 -0.017318676449898353 0.034955074403367113 0 -0.017213914404096531 0.03367543754271364 0 -0.016642030939604521 0.033272870044905499 0 -0.015765273770186137 0.033574967492687076 0 -0.015045432821428874 0.031972745310741658 0 -0.016166374820571695 0.034516277089639551 0 -0.016642030939604521 0.033272870044905499 0 -0.017213914404096531 0.03367543754271364 0 -0.016642030939604521 0.033272870044905499 0 -0.017450957348464753 0.032787566681530163 0 -0.016862244272073709 0.031751284564257513 0 -0.016642030939604521 0.033272870044905499 0 -0.017213914404096531 0.03367543754271364 0 -0.017450957348464753 0.032787566681530163 0 -0.016166374820571695 0.034516277089639551 0 -0.016642030939604521 0.033272870044905499 0 -0.015765273770186137 0.033574967492687076 0 -0.015159162122822813 0.034312454781494292 0 -0.015476448859839929 0.034514528537054667 0 -0.015013282546172128 0.034954278198640137 0 -0.016520982798027477 0.032152802158809501 0 -0.017077841445030717 0.030532665554728076 0 -0.015159162122822813 0.034312454781494292 0 -0.015765273770186137 0.033574967492687076 0 -0.015045432821428874 0.031972745310741658 0 -0.019102594810528811 0.037321574139139009 0 -0.019798789645977789 0.034210442357511667 0 -0.021650792960131848 0.034966596591854603 0 -0.016900545721313952 0.038938016221619173 0 -0.018475942363878395 0.034651149765814133 0 -0.018476994585991797 0.034142197492648831 0 -0.019023930616360464 0.035133109089217927 0 -0.019648445756276115 0.033120582459854303 0 -0.018476994585991797 0.034142197492648831 0 -0.019023930616360464 0.035133109089217927 0 -0.018222314003096457 0.035007159021617253 0 -0.018476994585991797 0.034142197492648831 0 -0.018222314003096457 0.035007159021617253 0 -0.017318676449898353 0.034955074403367113 0 -0.018476994585991797 0.034142197492648831 0 -0.017318676449898353 0.034955074403367113 0 -0.018341751488913472 0.032491646570517382 0 -0.018125200357513954 0.035784393717728881 0 -0.018222314003096457 0.035007159021617253 0 -0.017318676449898353 0.034955074403367113 0 -0.017318676449898353 0.034955074403367113 0 -0.017213914404096531 0.03367543754271364 0 -0.018730238769356991 0.0327290554497233 0 -0.018283275777200413 0.033156483495526391 0 -0.0188087338666512 0.032036131937199258 0 -0.017213914404096531 0.03367543754271364 0 -0.017450957348464753 0.032787566681530163 0 -0.018730238769356991 0.0327290554497233 0 -0.017450957348464753 0.032787566681530163 0 -0.018730238769356991 0.0327290554497233 0 -0.017852568110832721 0.032073387764873493 0 -0.018476994585991797 0.034142197492648831 0 -0.018341751488913472 0.032491646570517382 0 -0.019648445756276115 0.033120582459854303 0 -0.019798789645977789 0.034210442357511667 0 -0.021650792960131848 0.034966596591854603 0 -0.021727193044569416 0.032839723656028351 0 -0.021650792960131848 0.034966596591854603 0 -0.021727193044569416 0.032839723656028351 0 -0.024143688345031118 0.032625196794069181 0 -0.014895404694859303 0.049582756009452583 0 -0.011123046868684875 0.0524004933158113 0 -0.01178746013836122 0.049643249545333924 0 -0.016900545721313952 0.038938016221619173 0 -0.015113860360742257 0.040218335054526919 0 -0.011123046868684875 0.0524004933158113 0 -0.01178746013836122 0.049643249545333924 0 -0.0094349313858373765 0.050606145878498265 0 -0.01178746013836122 0.049643249545333924 0 -0.0094349313858373765 0.050606145878498265 0 -0.010674655733767628 0.048430097489633818 0 -0.011123046868684875 0.0524004933158113 0 -0.0094349313858373765 0.050606145878498265 0 -0.0081601389439061398 0.052232065547702967 0 -0.0094349313858373765 0.050606145878498265 0 -0.006610197811083407 0.05074681271776605 0 -0.007614398286777904 0.04869633169516676 0 -0.0094349313858373765 0.050606145878498265 0 -0.0081601389439061398 0.052232065547702967 0 -0.006610197811083407 0.05074681271776605 0 -0.0094349313858373765 0.050606145878498265 0 -0.010674655733767628 0.048430097489633818 0 -0.007614398286777904 0.04869633169516676 0 -0.0081601389439061398 0.052232065547702967 0 -0.0057973866985213214 0.052676386615668619 0 -0.0080186915312169607 0.054650481426733309 0 -0.015113860360742257 0.040218335054526919 0 -0.013957131363452131 0.039402195156968356 0 -0.011123046868684875 0.0524004933158113 0 -0.0081601389439061398 0.052232065547702967 0 -0.0080186915312169607 0.054650481426733309 0 -0.0057973866985213214 0.052676386615668619 0 -0.0080186915312169607 0.054650481426733309 0 -0.0057359251026524258 0.054395147411754101 0 -0.0057973866985213214 0.052676386615668619 0 -0.0039056608658561845 0.05320403741907706 0 -0.0057359251026524258 0.054395147411754101 0 -0.0081601389439061398 0.052232065547702967 0 -0.0057973866985213214 0.052676386615668619 0 -0.006610197811083407 0.05074681271776605 0 -0.0031037091547972194 0.053236497034120311 0 -0.0039056608658561845 0.05320403741907706 0 -0.0034652990438093973 0.054624959149145356 0 -0.0031037091547972194 0.053236497034120311 0 -0.0039056608658561845 0.05320403741907706 0 -0.0028473247332344419 0.052332596771356717 0 -0.0023042120927842884 0.053190741857153175 0 -0.0031037091547972194 0.053236497034120311 0 -0.0028473247332344419 0.052332596771356717 0 -0.0057973866985213214 0.052676386615668619 0 -0.0039056608658561845 0.05320403741907706 0 -0.0039487140328737435 0.051775447517684238 0 -0.0057973866985213214 0.052676386615668619 0 -0.0039487140328737435 0.051775447517684238 0 -0.0045050268264482281 0.050781458954562562 0 -0.0039056608658561845 0.05320403741907706 0 -0.0039487140328737435 0.051775447517684238 0 -0.0028473247332344419 0.052332596771356717 0 -0.0039487140328737435 0.051775447517684238 0 -0.0028473247332344419 0.052332596771356717 0 -0.0029062277711436276 0.050000800972016979 0 -0.0039487140328737435 0.051775447517684238 0 -0.0045050268264482281 0.050781458954562562 0 -0.0029062277711436276 0.050000800972016979 0 -0.0045050268264482281 0.050781458954562562 0 -0.0029062277711436276 0.050000800972016979 0 -0.0045257723131971028 0.04886113693726065 0 -0.006610197811083407 0.05074681271776605 0 -0.0045257723131971028 0.04886113693726065 0 -0.007614398286777904 0.04869633169516676 0 -0.0057973866985213214 0.052676386615668619 0 -0.0045050268264482281 0.050781458954562562 0 -0.006610197811083407 0.05074681271776605 0 -0.0045050268264482281 0.050781458954562562 0 -0.006610197811083407 0.05074681271776605 0 -0.0045257723131971028 0.04886113693726065 0 -0.0045257723131971028 0.04886113693726065 0 -0.0054980412789926289 0.04696577094357024 0 -0.007614398286777904 0.04869633169516676 0 -0.0021092849867610434 0.046794812694650217 0 -0.0045257723131971028 0.04886113693726065 0 -0.0054980412789926289 0.04696577094357024 0 -0.0021092849867610434 0.046794812694650217 0 -0.0029062277711436276 0.050000800972016979 0 -0.0045257723131971028 0.04886113693726065 0 -0.0021092849867610434 0.046794812694650217 0 -0.0047715607226003981 0.044613119661751938 0 -0.0054980412789926289 0.04696577094357024 0 -0.0047715607226003981 0.044613119661751938 0 -0.0071803248547002724 0.045694380875758507 0 -0.0054980412789926289 0.04696577094357024 0 -0.0094279063039887506 0.042547857061819364 0 -0.0054980412789926289 0.04696577094357024 0 -0.009854011079292381 0.0462146214538715 0 -0.0091184991072815608 0.043881832006990334 0 -0.0079314211397291199 0.044834013398247198 0 -0.0094279063039887506 0.042547857061819364 0 -0.009854011079292381 0.0462146214538715 0 -0.013137688067949063 0.043019572154505505 0 -0.009854011079292381 0.0462146214538715 0 -0.013137688067949063 0.043019572154505505 0 -0.012965139134225912 0.046936567707516086 0 -0.009854011079292381 0.0462146214538715 0 -0.012965139134225912 0.046936567707516086 0 -0.010674655733767628 0.048430097489633818 0 -0.01178746013836122 0.049643249545333924 0 -0.012965139134225912 0.046936567707516086 0 -0.010674655733767628 0.048430097489633818 0 -0.009854011079292381 0.0462146214538715 0 -0.010674655733767628 0.048430097489633818 0 -0.007614398286777904 0.04869633169516676 0 -0.0054980412789926289 0.04696577094357024 0 -0.009854011079292381 0.0462146214538715 0 -0.007614398286777904 0.04869633169516676 0 -0.0127911573853153 0.034919867862035478 0 -0.010121680796342901 0.035798985282974378 0 -0.01055597201202863 0.033151928583497837 0 -0.0127911573853153 0.034919867862035478 0 -0.01055597201202863 0.033151928583497837 0 -0.012581977768590847 0.033012848978246294 0 -0.0127911573853153 0.034919867862035478 0 -0.012581977768590847 0.033012848978246294 0 -0.014177853644999792 0.033263264178695406 0 -0.013153629498646366 0.035232049041025483 0 -0.012910659582914197 0.035714782529578507 0 -0.013689166741599328 0.035700403190351476 0 -0.013089931325095831 0.03463103017850256 0 -0.012200909802484002 0.034575465369501804 0 -0.012910659582914197 0.035714782529578507 0 -0.012311072158456686 0.03559664161344251 0 -0.012582828862851775 0.03603400688122807 0 -0.013153629498646366 0.035232049041025483 0 -0.012910659582914197 0.035714782529578507 0 -0.012311072158456686 0.03559664161344251 0 -0.013790642056138792 0.026392726818997753 0 -0.013820409589865142 0.026275004940956203 0 -0.013831186948691451 0.026346548810990238 0 -0.010121680796342901 0.035798985282974378 0 -0.0090719446382325018 0.034961921076298197 0 -0.007618848360238413 0.036660528531510875 0 -0.012200909802484002 0.034575465369501804 0 -0.014752240880839956 0.032870262989720005 0 -0.01343862274095093 0.031707040845152946 0 -0.014752240880839956 0.032870262989720005 0 -0.013790642056138792 0.026392726818997753 0 -0.013831186948691451 0.026346548810990238 0 -0.013796854890433002 0.026383762733703475 0 -0.013790642056138792 0.026392726818997753 0 -0.013800045967584364 0.026391979788049628 0 -0.013796854890433002 0.026383762733703475 0 -0.010121680796342901 0.035798985282974378 0 -0.0090719446382325018 0.034961921076298197 0 -0.01055597201202863 0.033151928583497837 0 -0.013790642056138792 0.026392726818997753 0 -0.013800045967584364 0.026391979788049628 0 -0.013879118352671246 0.026464517615242645 0 -0.01343862274095093 0.031707040845152946 0 -0.013346026154419913 0.03040544833765969 0 -0.01379687376100378 0.02634876814949046 0 -0.013800045967584364 0.026391979788049628 0 -0.013879118352671246 0.026464517615242645 0 -0.01379687376100378 0.02634876814949046 0 -0.013852317052417863 0.026353533763322244 0 -0.013879118352671246 0.026464517615242645 0 -0.013800045967584364 0.026391979788049628 0 -0.013796854890433002 0.026383762733703475 0 -0.013742113780795713 0.026285322463177475 0 -0.01379687376100378 0.02634876814949046 0 -0.013800045967584364 0.026391979788049628 0 -0.013742113780795713 0.026285322463177475 0 -0.01379687376100378 0.02634876814949046 0 -0.01370983237306659 0.02619552485375079 0 -0.013742113780795713 0.026285322463177475 0 -0.01370983237306659 0.02619552485375079 0 -0.013852317052417863 0.026353533763322244 0 -0.013765066374707464 0.026196826852752968 0 -0.01379687376100378 0.02634876814949046 0 -0.01370983237306659 0.02619552485375079 0 -0.013852317052417863 0.026353533763322244 0 -0.013852317052417863 0.026353533763322244 0 -0.013879118352671246 0.026464517615242645 0 -0.014181468868349926 0.026538378448317787 0 -0.013852317052417863 0.026353533763322244 0 -0.014181468868349926 0.026538378448317787 0 -0.013920108248440685 0.026210328799793455 0 -0.013346026154419913 0.03040544833765969 0 -0.013834492662847867 0.029149847666321428 0 -0.01055597201202863 0.033151928583497837 0 -0.012581977768590847 0.033012848978246294 0 -0.012044264582584889 0.031245438917562259 0 -0.012581977768590847 0.033012848978246294 0 -0.012044264582584889 0.031245438917562259 0 -0.014061813193656883 0.032008742276725337 0 -0.012044264582584889 0.031245438917562259 0 -0.014061813193656883 0.032008742276725337 0 -0.013603868174332406 0.029032207162327905 0 -0.014061813193656883 0.032008742276725337 0 -0.015859498770719613 0.030859150961144236 0 -0.013603868174332406 0.029032207162327905 0 -0.014061813193656883 0.032008742276725337 0 -0.015859498770719613 0.030859150961144236 0 -0.015606461195616339 0.03274866781351652 0 -0.015859498770719613 0.030859150961144236 0 -0.015606461195616339 0.03274866781351652 0 -0.0168051647975502 0.031966416896071798 0 -0.015606461195616339 0.03274866781351652 0 -0.014177853644999792 0.033263264178695406 0 -0.015834129715924374 0.033765911867846582 0 -0.015606461195616339 0.03274866781351652 0 -0.015802557961176713 0.033999058631733976 0 -0.015834129715924374 0.033765911867846582 0 -0.014061813193656883 0.032008742276725337 0 -0.015606461195616339 0.03274866781351652 0 -0.014177853644999792 0.033263264178695406 0 -0.012581977768590847 0.033012848978246294 0 -0.014061813193656883 0.032008742276725337 0 -0.014177853644999792 0.033263264178695406 0 -0.019416063596677337 0.031722389553107272 0 -0.021727128595954763 0.029359052550126698 0 -0.018201868502024498 0.03012167754445606 0 -0.016695237857527332 0.031851942921471581 0 -0.017077841445030717 0.030532665554728076 0 -0.015859498770719613 0.030859150961144236 0 -0.0168051647975502 0.031966416896071798 0 -0.018201868502024498 0.03012167754445606 0 -0.019416063596677337 0.031722389553107272 0 -0.0168051647975502 0.031966416896071798 0 -0.018201868502024498 0.03012167754445606 0 -0.015606461195616339 0.03274866781351652 0 -0.0168051647975502 0.031966416896071798 0 -0.015802557961176713 0.033999058631733976 0 -0.01500996960833678 0.034168273949390753 0 -0.014451791431869905 0.034307846505649033 0 -0.015476448859839929 0.034514528537054667 0 -0.015802557961176713 0.033999058631733976 0 -0.015562408845152401 0.034261529756123413 0 -0.015802557961176713 0.033999058631733976 0 -0.015562408845152401 0.034261529756123413 0 -0.015834129715924374 0.033765911867846582 0 -0.019416063596677337 0.031722389553107272 0 -0.0168051647975502 0.031966416896071798 0 -0.015802557961176713 0.033999058631733976 0 -0.016695237857527332 0.031851942921471581 0 -0.016373985283535626 0.032410838386610498 0 -0.015159162122822813 0.034312454781494292 0 -0.015562408845152401 0.034261529756123413 0 -0.015422675014978402 0.034868740715856598 0 -0.015159162122822813 0.034312454781494292 0 -0.015476448859839929 0.034514528537054667 0 -0.015562408845152401 0.034261529756123413 0 -0.015562408845152401 0.034261529756123413 0 -0.015422675014978402 0.034868740715856598 0 -0.014987181230923895 0.034892812557773004 0 -0.015422675014978402 0.034868740715856598 0 -0.014987181230923895 0.034892812557773004 0 -0.015148456565075602 0.035248486666816826 0 -0.014987181230923895 0.034892812557773004 0 -0.015148456565075602 0.035248486666816826 0 -0.014380317768120317 0.035254685418085477 0 -0.015562408845152401 0.034261529756123413 0 -0.014987181230923895 0.034892812557773004 0 -0.014059148291415526 0.034770934232681405 0 -0.014715078808198761 0.035672684069840074 0 -0.015148456565075602 0.035248486666816826 0 -0.014380317768120317 0.035254685418085477 0 -0.014715078808198761 0.035672684069840074 0 -0.014380317768120317 0.035254685418085477 0 -0.014235940163499442 0.035833345495981835 0 -0.014715078808198761 0.035672684069840074 0 -0.015148456565075602 0.035248486666816826 0 -0.015186773257613107 0.035996534101406338 0 -0.015691836967863405 0.035528179144238302 0 -0.015422675014978402 0.034868740715856598 0 -0.015148456565075602 0.035248486666816826 0 -0.015691836967863405 0.035528179144238302 0 -0.015148456565075602 0.035248486666816826 0 -0.015186773257613107 0.035996534101406338 0 -0.0127911573853153 0.034919867862035478 0 -0.014177853644999792 0.033263264178695406 0 -0.015834129715924374 0.033765911867846582 0 -0.013089931325095831 0.03463103017850256 0 -0.014451791431869905 0.034307846505649033 0 -0.013153629498646366 0.035232049041025483 0 -0.014059148291415526 0.034770934232681405 0 -0.013864161680619979 0.035246159317762482 0 -0.014987181230923895 0.034892812557773004 0 -0.014059148291415526 0.034770934232681405 0 -0.014380317768120317 0.035254685418085477 0 -0.014059148291415526 0.034770934232681405 0 -0.014380317768120317 0.035254685418085477 0 -0.013864161680619979 0.035246159317762482 0 -0.014380317768120317 0.035254685418085477 0 -0.013640989878909692 0.035756152379556524 0 -0.014235940163499442 0.035833345495981835 0 -0.014380317768120317 0.035254685418085477 0 -0.013689166741599328 0.035700403190351476 0 -0.013864161680619979 0.035246159317762482 0 -0.01380253226344752 0.035663206579518179 0 -0.013552663855455364 0.035834663065706131 0 -0.013153629498646366 0.035232049041025483 0 -0.013689166741599328 0.035700403190351476 0 -0.013864161680619979 0.035246159317762482 0 -0.013640989878909692 0.035756152379556524 0 -0.013995687365147967 0.036478456476717838 0 -0.0132631435673279 0.036755117012503981 0 -0.013552663855455364 0.035834663065706131 0 -0.013094984488821354 0.036152852474187876 0 -0.014235940163499442 0.035833345495981835 0 -0.013995687365147967 0.036478456476717838 0 -0.014538852532518472 0.036161908316638423 0 -0.013640989878909692 0.035756152379556524 0 -0.014235940163499442 0.035833345495981835 0 -0.013995687365147967 0.036478456476717838 0 -0.013995687365147967 0.036478456476717838 0 -0.014558101002501298 0.036936058864038931 0 -0.013734977205975133 0.037161521645130778 0 -0.013995687365147967 0.036478456476717838 0 -0.013734977205975133 0.037161521645130778 0 -0.0132631435673279 0.036755117012503981 0 -0.015584454314268409 0.036639827286486383 0 -0.015691836967863405 0.035528179144238302 0 -0.015186773257613107 0.035996534101406338 0 -0.014715078808198761 0.035672684069840074 0 -0.015186773257613107 0.035996534101406338 0 -0.014538852532518472 0.036161908316638423 0 -0.014715078808198761 0.035672684069840074 0 -0.014235940163499442 0.035833345495981835 0 -0.014538852532518472 0.036161908316638423 0 -0.013995687365147967 0.036478456476717838 0 -0.014538852532518472 0.036161908316638423 0 -0.014558101002501298 0.036936058864038931 0 -0.015186773257613107 0.035996534101406338 0 -0.014538852532518472 0.036161908316638423 0 -0.014558101002501298 0.036936058864038931 0 -0.015584454314268409 0.036639827286486383 0 -0.015186773257613107 0.035996534101406338 0 -0.014558101002501298 0.036936058864038931 0 -0.015332296184509334 0.037774137355464366 0 -0.015584454314268409 0.036639827286486383 0 -0.014945731430600758 0.037449670868059962 0 -0.015584454314268409 0.036639827286486383 0 -0.014558101002501298 0.036936058864038931 0 -0.014945731430600758 0.037449670868059962 0 -0.014558101002501298 0.036936058864038931 0 -0.014945731430600758 0.037449670868059962 0 -0.01426833985267645 0.037772764510913291 0 -0.014945731430600758 0.037449670868059962 0 -0.015085138595852244 0.03793326915150514 0 -0.01426833985267645 0.037772764510913291 0 -0.014766437794874332 0.037874125305317953 0 -0.014491542203851879 0.037867793634258309 0 -0.015085138595852244 0.03793326915150514 0 -0.014372124074634108 0.038395281650256199 0 -0.014663029443962434 0.038432866945113692 0 -0.015085138595852244 0.03793326915150514 0 -0.014891668014344031 0.038369359542967003 0 -0.014663029443962434 0.038432866945113692 0 -0.015332296184509334 0.037774137355464366 0 -0.015085138595852244 0.03793326915150514 0 -0.014891668014344031 0.038369359542967003 0 -0.015332296184509334 0.037774137355464366 0 -0.014945731430600758 0.037449670868059962 0 -0.015085138595852244 0.03793326915150514 0 -0.013734977205975133 0.037161521645130778 0 -0.013392480916050468 0.037730278788082695 0 -0.012995045564363743 0.037246134158400529 0 -0.013734977205975133 0.037161521645130778 0 -0.012995045564363743 0.037246134158400529 0 -0.0132631435673279 0.036755117012503981 0 -0.014558101002501298 0.036936058864038931 0 -0.013734977205975133 0.037161521645130778 0 -0.01426833985267645 0.037772764510913291 0 -0.014491542203851879 0.037867793634258309 0 -0.014157570225411273 0.03776469724424384 0 -0.013734977205975133 0.037161521645130778 0 -0.01426833985267645 0.037772764510913291 0 -0.013392480916050468 0.037730278788082695 0 -0.014372124074634108 0.038395281650256199 0 -0.014320319718003212 0.038846999057843612 0 -0.01428837898328931 0.038729497162159385 0 -0.014320319718003212 0.038846999057843612 0 -0.014809196588301378 0.039251400574702409 0 -0.014647744953440669 0.038998418958876374 0 -0.014157570225411273 0.03776469724424384 0 -0.01416140208317669 0.037401261670383545 0 -0.013392480916050468 0.037730278788082695 0 -0.012563094632452197 0.037709496923487643 0 -0.012995045564363743 0.037246134158400529 0 -0.012563094632452197 0.037709496923487643 0 -0.012450445521895372 0.037215078655201392 0 -0.012995045564363743 0.037246134158400529 0 -0.012450445521895372 0.037215078655201392 0 -0.012995045564363743 0.037246134158400529 0 -0.012482117142131193 0.036630162168109916 0 -0.012995045564363743 0.037246134158400529 0 -0.0132631435673279 0.036755117012503981 0 -0.012482117142131193 0.036630162168109916 0 -0.0132631435673279 0.036755117012503981 0 -0.012482117142131193 0.036630162168109916 0 -0.013035063408420014 0.036215762030011374 0 -0.012656047957133777 0.03645910905036271 0 -0.013094984488821354 0.036152852474187876 0 -0.012543724898044435 0.03653234781984873 0 -0.012582828862851775 0.03603400688122807 0 -0.013107466334653064 0.036117226875657285 0 -0.012910659582914197 0.035714782529578507 0 -0.012582828862851775 0.03603400688122807 0 -0.013107466334653064 0.036117226875657285 0 -0.013640989878909692 0.035756152379556524 0 -0.0132631435673279 0.036755117012503981 0 -0.013035063408420014 0.036215762030011374 0 -0.012910659582914197 0.035714782529578507 0 -0.013689166741599328 0.035700403190351476 0 -0.013107466334653064 0.036117226875657285 0 -0.012045987135104356 0.036213996535027507 0 -0.011570866651577961 0.036529010527392762 0 -0.011467714834766793 0.035931682577818931 0 -0.012311072158456686 0.03559664161344251 0 -0.012045987135104356 0.036213996535027507 0 -0.011467714834766793 0.035931682577818931 0 -0.012311072158456686 0.03559664161344251 0 -0.012582828862851775 0.03603400688122807 0 -0.012045987135104356 0.036213996535027507 0 -0.012543724898044435 0.03653234781984873 0 -0.012582828862851775 0.03603400688122807 0 -0.012045987135104356 0.036213996535027507 0 -0.012543724898044435 0.03653234781984873 0 -0.012045987135104356 0.036213996535027507 0 -0.011967081706180454 0.036961362235997719 0 -0.012656047957133777 0.03645910905036271 0 -0.012436003011790028 0.036611646357587131 0 -0.012045987135104356 0.036213996535027507 0 -0.011570866651577961 0.036529010527392762 0 -0.011967081706180454 0.036961362235997719 0 -0.011570866651577961 0.036529010527392762 0 -0.011967081706180454 0.036961362235997719 0 -0.011377166975955451 0.037040212813211071 0 -0.011967081706180454 0.036961362235997719 0 -0.011720656314041763 0.037317302014500925 0 -0.011377166975955451 0.037040212813211071 0 -0.011967081706180454 0.036961362235997719 0 -0.012109712821449079 0.037397670860910275 0 -0.011720656314041763 0.037317302014500925 0 -0.012450445521895372 0.037215078655201392 0 -0.011967081706180454 0.036961362235997719 0 -0.012109712821449079 0.037397670860910275 0 -0.012450445521895372 0.037215078655201392 0 -0.012482117142131193 0.036630162168109916 0 -0.011967081706180454 0.036961362235997719 0 -0.012563094632452197 0.037709496923487643 0 -0.012450445521895372 0.037215078655201392 0 -0.012109712821449079 0.037397670860910275 0 -0.014809196588301378 0.039251400574702409 0 -0.015866619665926299 0.039234503969694842 0 -0.015168079645784422 0.039183444867919755 0 -0.01416140208317669 0.037401261670383545 0 -0.015145360474961015 0.036490228776295701 0 -0.012563094632452197 0.037709496923487643 0 -0.012109712821449079 0.037397670860910275 0 -0.011771906599875558 0.037724368693158872 0 -0.011720656314041763 0.037317302014500925 0 -0.011771906599875558 0.037724368693158872 0 -0.011374546674920225 0.037449909453387803 0 -0.012109712821449079 0.037397670860910275 0 -0.011720656314041763 0.037317302014500925 0 -0.011771906599875558 0.037724368693158872 0 -0.015866619665926299 0.039234503969694842 0 -0.015678438881203158 0.038440200096814571 0 -0.016367947902482465 0.038686291241889915 0 -0.015547406259377306 0.03896674067953728 0 -0.016155816232600779 0.038629440347899419 0 -0.015592841911715519 0.038664414547626445 0 -0.016516942203470431 0.038810683361902749 0 -0.017249076397844971 0.038377820706147869 0 -0.015678438881203158 0.038440200096814571 0 -0.016367947902482465 0.038686291241889915 0 -0.016360208680623101 0.038284227174404058 0 -0.015678438881203158 0.038440200096814571 0 -0.01627280981678772 0.037638084277795095 0 -0.016360208680623101 0.038284227174404058 0 -0.015250255062343449 0.038672962012617926 0 -0.015184055415791306 0.038888925099897151 0 -0.014953903976491821 0.03868140910351759 0 -0.015250255062343449 0.038672962012617926 0 -0.015184055415791306 0.038888925099897151 0 -0.015592841911715519 0.038664414547626445 0 -0.015547406259377306 0.03896674067953728 0 -0.015184055415791306 0.038888925099897151 0 -0.015592841911715519 0.038664414547626445 0 -0.015866619665926299 0.039234503969694842 0 -0.015678438881203158 0.038440200096814571 0 -0.015168079645784422 0.039183444867919755 0 -0.015184055415791306 0.038888925099897151 0 -0.015168079645784422 0.039183444867919755 0 -0.014933230260810969 0.039030621672558621 0 -0.016516942203470431 0.038810683361902749 0 -0.016237174133615851 0.039009843469884543 0 -0.015547406259377306 0.03896674067953728 0 -0.015184055415791306 0.038888925099897151 0 -0.015168079645784422 0.039183444867919755 0 -0.014809196588301378 0.039251400574702409 0 -0.015168079645784422 0.039183444867919755 0 -0.014933230260810969 0.039030621672558621 0 -0.014809196588301378 0.039251400574702409 0 -0.014647744953440669 0.038998418958876374 0 -0.014933230260810969 0.039030621672558621 0 -0.014647744953440669 0.038998418958876374 0 -0.014474194691579033 0.038825867175722631 0 -0.0148704936423248 0.03889507522723188 0 -0.014647744953440669 0.038998418958876374 0 -0.014933230260810969 0.039030621672558621 0 -0.0148704936423248 0.03889507522723188 0 -0.015184055415791306 0.038888925099897151 0 -0.014933230260810969 0.039030621672558621 0 -0.0148704936423248 0.03889507522723188 0 -0.014320319718003212 0.038846999057843612 0 -0.014647744953440669 0.038998418958876374 0 -0.014474194691579033 0.038825867175722631 0 -0.014474194691579033 0.038825867175722631 0 -0.014316231726432246 0.038644883627714462 0 -0.014262645685951146 0.038713464611201349 0 -0.014474194691579033 0.038825867175722631 0 -0.014555240968514486 0.038663767310203503 0 -0.01470556453798303 0.038773143806602024 0 -0.014474194691579033 0.038825867175722631 0 -0.014555240968514486 0.038663767310203503 0 -0.014316231726432246 0.038644883627714462 0 -0.014474194691579033 0.038825867175722631 0 -0.0148704936423248 0.03889507522723188 0 -0.01470556453798303 0.038773143806602024 0 -0.0148704936423248 0.03889507522723188 0 -0.01470556453798303 0.038773143806602024 0 -0.014953903976491821 0.03868140910351759 0 -0.015184055415791306 0.038888925099897151 0 -0.0148704936423248 0.03889507522723188 0 -0.014953903976491821 0.03868140910351759 0 -0.014555240968514486 0.038663767310203503 0 -0.01470556453798303 0.038773143806602024 0 -0.014953903976491821 0.03868140910351759 0 -0.014953903976491821 0.03868140910351759 0 -0.014777901676662845 0.038421011032071711 0 -0.015270176320653047 0.038441006817500817 0 -0.014555240968514486 0.038663767310203503 0 -0.014953903976491821 0.03868140910351759 0 -0.014777901676662845 0.038421011032071711 0 -0.014777901676662845 0.038421011032071711 0 -0.015067467811629849 0.038260153853654444 0 -0.015270176320653047 0.038441006817500817 0 -0.014316231726432246 0.038644883627714462 0 -0.014448478704394075 0.038477385246178303 0 -0.014149521396881377 0.03849932752046234 0 -0.014555240968514486 0.038663767310203503 0 -0.014777901676662845 0.038421011032071711 0 -0.014448478704394075 0.038477385246178303 0 -0.014555240968514486 0.038663767310203503 0 -0.014316231726432246 0.038644883627714462 0 -0.014448478704394075 0.038477385246178303 0 -0.014777901676662845 0.038421011032071711 0 -0.014448478704394075 0.038477385246178303 0 -0.014375688575536394 0.038203108420976177 0 -0.014448478704394075 0.038477385246178303 0 -0.014250125010887037 0.038368467129476898 0 -0.014375688575536394 0.038203108420976177 0 -0.014250125010887037 0.038368467129476898 0 -0.014149521396881377 0.03849932752046234 0 -0.014033098880240766 0.038270954988247084 0 -0.014448478704394075 0.038477385246178303 0 -0.014250125010887037 0.038368467129476898 0 -0.014149521396881377 0.03849932752046234 0 -0.014375688575536394 0.038203108420976177 0 -0.013904431450013393 0.037881321282919773 0 -0.014580244650951183 0.037680236481163053 0 -0.014250125010887037 0.038368467129476898 0 -0.014375688575536394 0.038203108420976177 0 -0.014033098880240766 0.038270954988247084 0 -0.014375688575536394 0.038203108420976177 0 -0.014033098880240766 0.038270954988247084 0 -0.013904431450013393 0.037881321282919773 0 -0.014375688575536394 0.038203108420976177 0 -0.014870862327677335 0.038085594404060362 0 -0.014580244650951183 0.037680236481163053 0 -0.014777901676662845 0.038421011032071711 0 -0.015067467811629849 0.038260153853654444 0 -0.014870862327677335 0.038085594404060362 0 -0.015067467811629849 0.038260153853654444 0 -0.014870862327677335 0.038085594404060362 0 -0.015364463262095686 0.038072770244229025 0 -0.014777901676662845 0.038421011032071711 0 -0.014375688575536394 0.038203108420976177 0 -0.014870862327677335 0.038085594404060362 0 -0.014870862327677335 0.038085594404060362 0 -0.015364463262095686 0.038072770244229025 0 -0.015105765890144953 0.037764635096141023 0 -0.015067467811629849 0.038260153853654444 0 -0.015364463262095686 0.038072770244229025 0 -0.015270176320653047 0.038441006817500817 0 -0.015364463262095686 0.038072770244229025 0 -0.015964413428479644 0.037911152539478854 0 -0.015747095260916773 0.038301495441508196 0 -0.015364463262095686 0.038072770244229025 0 -0.015747095260916773 0.038301495441508196 0 -0.015270176320653047 0.038441006817500817 0 -0.015364463262095686 0.038072770244229025 0 -0.015964413428479644 0.037911152539478854 0 -0.015629503192955415 0.037610779247038477 0 -0.015964413428479644 0.037911152539478854 0 -0.016231760010117335 0.038155658517085841 0 -0.016447716717307027 0.037813374647488816 0 -0.015964413428479644 0.037911152539478854 0 -0.016231760010117335 0.038155658517085841 0 -0.015747095260916773 0.038301495441508196 0 -0.016231760010117335 0.038155658517085841 0 -0.015747095260916773 0.038301495441508196 0 -0.016155816232600779 0.038629440347899419 0 -0.015747095260916773 0.038301495441508196 0 -0.016155816232600779 0.038629440347899419 0 -0.015592841911715519 0.038664414547626445 0 -0.015250255062343449 0.038672962012617926 0 -0.015592841911715519 0.038664414547626445 0 -0.015270176320653047 0.038441006817500817 0 -0.015250255062343449 0.038672962012617926 0 -0.014953903976491821 0.03868140910351759 0 -0.015270176320653047 0.038441006817500817 0 -0.015747095260916773 0.038301495441508196 0 -0.015592841911715519 0.038664414547626445 0 -0.015270176320653047 0.038441006817500817 0 -0.014214285665354607 0.038293599706879622 0 -0.014664562490587941 0.038379859992657153 0 -0.01479691168391618 0.038753607627777742 0 -0.014664562490587941 0.038379859992657153 0 -0.01479691168391618 0.038753607627777742 0 -0.014676261987330116 0.038593285029570552 0 -0.01479691168391618 0.038753607627777742 0 -0.014891668014344031 0.038369359542967003 0 -0.014676261987330116 0.038593285029570552 0 -0.014833486982280689 0.039304650417979176 0 -0.015110238128586211 0.03968050494942215 0 -0.01479691168391618 0.038753607627777742 0 -0.015332296184509334 0.037774137355464366 0 -0.01479691168391618 0.038753607627777742 0 -0.014891668014344031 0.038369359542967003 0 -0.015180426200578502 0.03831659307670382 0 -0.015123848679564409 0.038539931192045122 0 -0.014891668014344031 0.038369359542967003 0 -0.014676261987330116 0.038593285029570552 0 -0.014663029443962434 0.038432866945113692 0 -0.014372124074634108 0.038395281650256199 0 -0.014663029443962434 0.038432866945113692 0 -0.014508144460353091 0.038540220003749501 0 -0.014676261987330116 0.038593285029570552 0 -0.014663029443962434 0.038432866945113692 0 -0.014508144460353091 0.038540220003749501 0 -0.014664562490587941 0.038379859992657153 0 -0.014582787546019795 0.038536633085675252 0 -0.014660804095532059 0.038397135683249345 0 -0.014664562490587941 0.038379859992657153 0 -0.014676261987330116 0.038593285029570552 0 -0.014582787546019795 0.038536633085675252 0 -0.014676261987330116 0.038593285029570552 0 -0.014508144460353091 0.038540220003749501 0 -0.014582787546019795 0.038536633085675252 0 -0.014582787546019795 0.038536633085675252 0 -0.01432068126365799 0.038648024692201639 0 -0.014499341743178488 0.038545080645680546 0 -0.013031246768583672 0.038559949995071237 0 -0.012940808781341791 0.038596726282504892 0 -0.014508144460353091 0.038540220003749501 0 -0.014582787546019795 0.038536633085675252 0 -0.01432068126365799 0.038648024692201639 0 -0.01432068126365799 0.038648024692201639 0 -0.014121951167662013 0.03863663829662424 0 -0.013983470329788032 0.038590736296013645 0 -0.014372124074634108 0.038395281650256199 0 -0.014508144460353091 0.038540220003749501 0 -0.01432068126365799 0.038648024692201639 0 -0.014372124074634108 0.038395281650256199 0 -0.01432068126365799 0.038648024692201639 0 -0.01428837898328931 0.038729497162159385 0 -0.01432068126365799 0.038648024692201639 0 -0.01428837898328931 0.038729497162159385 0 -0.014262645685951146 0.038713464611201349 0 -0.014474194691579033 0.038825867175722631 0 -0.01428837898328931 0.038729497162159385 0 -0.014262645685951146 0.038713464611201349 0 -0.014320319718003212 0.038846999057843612 0 -0.014474194691579033 0.038825867175722631 0 -0.01428837898328931 0.038729497162159385 0 -0.01432068126365799 0.038648024692201639 0 -0.014262645685951146 0.038713464611201349 0 -0.014121951167662013 0.03863663829662424 0 -0.014316231726432246 0.038644883627714462 0 -0.014262645685951146 0.038713464611201349 0 -0.014121951167662013 0.03863663829662424 0 -0.014316231726432246 0.038644883627714462 0 -0.014121951167662013 0.03863663829662424 0 -0.014149521396881377 0.03849932752046234 0 -0.014121951167662013 0.03863663829662424 0 -0.013931055569598484 0.038493345890575216 0 -0.014149521396881377 0.03849932752046234 0 -0.014121951167662013 0.03863663829662424 0 -0.013931055569598484 0.038493345890575216 0 -0.013983470329788032 0.038590736296013645 0 -0.013931055569598484 0.038493345890575216 0 -0.013671778552378274 0.03835596071267585 0 -0.013731321231774358 0.03839164293971159 0 -0.013931055569598484 0.038493345890575216 0 -0.013920531639482094 0.038404198133610477 0 -0.013671778552378274 0.03835596071267585 0 -0.013931055569598484 0.038493345890575216 0 -0.013920531639482094 0.038404198133610477 0 -0.014149521396881377 0.03849932752046234 0 -0.013920531639482094 0.038404198133610477 0 -0.014149521396881377 0.03849932752046234 0 -0.014033098880240766 0.038270954988247084 0 -0.01375039295790597 0.038119079078894218 0 -0.013671778552378274 0.03835596071267585 0 -0.012789103486304161 0.037507606119785673 0 -0.013920531639482094 0.038404198133610477 0 -0.014033098880240766 0.038270954988247084 0 -0.01375039295790597 0.038119079078894218 0 -0.014033098880240766 0.038270954988247084 0 -0.01375039295790597 0.038119079078894218 0 -0.013904431450013393 0.037881321282919773 0 -0.013920531639482094 0.038404198133610477 0 -0.01375039295790597 0.038119079078894218 0 -0.013671778552378274 0.03835596071267585 0 -0.013671778552378274 0.03835596071267585 0 -0.01328453235435751 0.038456892362761216 0 -0.012789103486304161 0.037507606119785673 0 -0.011470997340023124 0.039716177600116725 0 -0.010562074763520756 0.039105388072734074 0 -0.011382133831450918 0.038175044451129382 0 -0.012665226058822357 0.0387265773728507 0 -0.012178333551614542 0.037584492078143808 0 -0.012742639861352946 0.038705030785993959 0 -0.012665226058822357 0.0387265773728507 0 -0.014520598964716082 0.038554039226519246 0 -0.014499341743178488 0.038545080645680546 0 -0.014660804095532059 0.038397135683249345 0 -0.013931055569598484 0.038493345890575216 0 -0.013731321231774358 0.03839164293971159 0 -0.013983470329788032 0.038590736296013645 0 -0.012665226058822357 0.0387265773728507 0 -0.012940808781341791 0.038596726282504892 0 -0.012665226058822357 0.0387265773728507 0 -0.011940618311182129 0.038896678996681922 0 -0.014582787546019795 0.038536633085675252 0 -0.014499341743178488 0.038545080645680546 0 -0.014660804095532059 0.038397135683249345 0 -0.010039720430922182 0.040060153046649734 0 -0.010562074763520756 0.039105388072734074 0 -0.0096195767171553658 0.038850521470575661 0 -0.011470997340023124 0.039716177600116725 0 -0.010039720430922182 0.040060153046649734 0 -0.010562074763520756 0.039105388072734074 0 -0.0086928202100547067 0.039350242474844373 0 -0.010039720430922182 0.040060153046649734 0 -0.0096195767171553658 0.038850521470575661 0 -0.0086928202100547067 0.039350242474844373 0 -0.0089858472594409461 0.038506044124478014 0 -0.0096195767171553658 0.038850521470575661 0 -0.0086266895019698562 0.040366860036258154 0 -0.0086928202100547067 0.039350242474844373 0 -0.010039720430922182 0.040060153046649734 0 -0.014293716865992066 0.037830522370881983 0 -0.014664562490587941 0.038379859992657153 0 -0.014660804095532059 0.038397135683249345 0 -0.010895660064657919 0.039013263477564057 0 -0.011940618311182129 0.038896678996681922 0 -0.0089793261162023769 0.037336816516718579 0 -0.0096604306480170613 0.037261439442568635 0 -0.0093205421238262941 0.037584265844999666 0 -0.0096604306480170613 0.037261439442568635 0 -0.0093205421238262941 0.037584265844999666 0 -0.0095506099293965873 0.037940481302073586 0 -0.0096604306480170613 0.037261439442568635 0 -0.0095506099293965873 0.037940481302073586 0 -0.010307640164585179 0.037413066402215915 0 -0.0089793261162023769 0.037336816516718579 0 -0.0093205421238262941 0.037584265844999666 0 -0.0089886215375764664 0.037966386114906096 0 -0.0093205421238262941 0.037584265844999666 0 -0.0089886215375764664 0.037966386114906096 0 -0.0095506099293965873 0.037940481302073586 0 -0.0089886215375764664 0.037966386114906096 0 -0.0089858472594409461 0.038506044124478014 0 -0.0095506099293965873 0.037940481302073586 0 -0.0089858472594409461 0.038506044124478014 0 -0.0096195767171553658 0.038850521470575661 0 -0.0095506099293965873 0.037940481302073586 0 -0.0096195767171553658 0.038850521470575661 0 -0.0095506099293965873 0.037940481302073586 0 -0.010285067953370688 0.038297703985540325 0 -0.010562074763520756 0.039105388072734074 0 -0.010285067953370688 0.038297703985540325 0 -0.011382133831450918 0.038175044451129382 0 -0.010285067953370688 0.038297703985540325 0 -0.010307640164585179 0.037413066402215915 0 -0.011382133831450918 0.038175044451129382 0 -0.010562074763520756 0.039105388072734074 0 -0.0096195767171553658 0.038850521470575661 0 -0.010285067953370688 0.038297703985540325 0 -0.0095506099293965873 0.037940481302073586 0 -0.010285067953370688 0.038297703985540325 0 -0.010307640164585179 0.037413066402215915 0 -0.010307640164585179 0.037413066402215915 0 -0.011382133831450918 0.038175044451129382 0 -0.011319301119254778 0.036619293736010992 0 -0.012789103486304161 0.037507606119785673 0 -0.013094154074609031 0.036698977897145178 0 -0.012122774477166967 0.036430167117817561 0 -0.012178333551614542 0.037584492078143808 0 -0.011728151729554867 0.036285271419215663 0 -0.01375039295790597 0.038119079078894218 0 -0.012789103486304161 0.037507606119785673 0 -0.013904431450013393 0.037881321282919773 0 -0.012789103486304161 0.037507606119785673 0 -0.013904431450013393 0.037881321282919773 0 -0.013886224217886909 0.037261955542775567 0 -0.012789103486304161 0.037507606119785673 0 -0.013094154074609031 0.036698977897145178 0 -0.013886224217886909 0.037261955542775567 0 -0.013094154074609031 0.036698977897145178 0 -0.012786569389643761 0.035918234396141994 0 -0.012122774477166967 0.036430167117817561 0 -0.013094154074609031 0.036698977897145178 0 -0.012786569389643761 0.035918234396141994 0 -0.014026360912610699 0.036234136156809045 0 -0.012786569389643761 0.035918234396141994 0 -0.011291451103220504 0.034999932562408999 0 -0.013341961862857393 0.034999859813194999 0 -0.011290097542866265 0.034999932876803294 0 -0.011319301119254778 0.036619293736010992 0 -0.010834597027647382 0.035000053377840665 0 -0.012786569389643761 0.035918234396141994 0 -0.011291451103220504 0.034999932562408999 0 -0.012122774477166967 0.036430167117817561 0 -0.011291303483243543 0.03500133797589583 0 -0.011728151729554867 0.036285271419215663 0 -0.010307640164585179 0.037413066402215915 0 -0.011319301119254778 0.036619293736010992 0 -0.0098895776036804269 0.036183747225995662 0 -0.0096604306480170613 0.037261439442568635 0 -0.010307640164585179 0.037413066402215915 0 -0.0098895776036804269 0.036183747225995662 0 -0.010833186010874719 0.035001454308055839 0 -0.0099332011954628811 0.03613693443540289 0 -0.010834334353647128 0.034999994903858571 0 -0.0093448921427706656 0.035000002920050587 0 -0.009797675366605257 0.036301605362539215 0 -0.011319301119254778 0.036619293736010992 0 -0.010834597027647382 0.035000053377840665 0 -0.0098895776036804269 0.036183747225995662 0 -0.0085322789065438581 0.036327032752857973 0 -0.0093448921427706656 0.035000002920050587 0 -0.009797675366605257 0.036301605362539215 0 -0.0091617967172664648 0.037112215302960376 0 -0.0099332011954628811 0.03613693443540289 0 -0.0089793261162023769 0.037336816516718579 0 -0.0096604306480170613 0.037261439442568635 0 -0.0098895776036804269 0.036183747225995662 0 -0.0085838904903033988 0.036986117768925242 0 -0.0085322789065438581 0.036327032752857973 0 -0.009797675366605257 0.036301605362539215 0 -0.0085838904903033988 0.036986117768925242 0 -0.0087665072775231379 0.037569748181565416 0 -0.009797675366605257 0.036301605362539215 0 -0.015806293576913422 0.03699617908000627 0 -0.015201425441869483 0.037388088383711514 0 -0.014802546174286068 0.036995019940046808 0 -0.015806293576913422 0.03699617908000627 0 -0.014802546174286068 0.036995019940046808 0 -0.015683596928542445 0.03615829735901703 0 -0.015806293576913422 0.03699617908000627 0 -0.016257175491358297 0.037439084928820941 0 -0.017099667472467356 0.036407749486023711 0 -0.015806293576913422 0.03699617908000627 0 -0.016257175491358297 0.037439084928820941 0 -0.015629503192955415 0.037610779247038477 0 -0.015964413428479644 0.037911152539478854 0 -0.016257175491358297 0.037439084928820941 0 -0.016447716717307027 0.037813374647488816 0 -0.015964413428479644 0.037911152539478854 0 -0.016257175491358297 0.037439084928820941 0 -0.015629503192955415 0.037610779247038477 0 -0.015806293576913422 0.03699617908000627 0 -0.015629503192955415 0.037610779247038477 0 -0.015201425441869483 0.037388088383711514 0 -0.015629503192955415 0.037610779247038477 0 -0.015201425441869483 0.037388088383711514 0 -0.015105765890144953 0.037764635096141023 0 -0.015364463262095686 0.038072770244229025 0 -0.015629503192955415 0.037610779247038477 0 -0.015105765890144953 0.037764635096141023 0 -0.015201425441869483 0.037388088383711514 0 -0.014580244650951183 0.037680236481163053 0 -0.014802546174286068 0.036995019940046808 0 -0.014870862327677335 0.038085594404060362 0 -0.015105765890144953 0.037764635096141023 0 -0.014580244650951183 0.037680236481163053 0 -0.015201425441869483 0.037388088383711514 0 -0.015105765890144953 0.037764635096141023 0 -0.014580244650951183 0.037680236481163053 0 -0.013904431450013393 0.037881321282919773 0 -0.014580244650951183 0.037680236481163053 0 -0.013886224217886909 0.037261955542775567 0 -0.013094154074609031 0.036698977897145178 0 -0.013886224217886909 0.037261955542775567 0 -0.014026360912610699 0.036234136156809045 0 -0.014580244650951183 0.037680236481163053 0 -0.013886224217886909 0.037261955542775567 0 -0.014802546174286068 0.036995019940046808 0 -0.013886224217886909 0.037261955542775567 0 -0.014802546174286068 0.036995019940046808 0 -0.014026360912610699 0.036234136156809045 0 -0.014802546174286068 0.036995019940046808 0 -0.014026360912610699 0.036234136156809045 0 -0.015683596928542445 0.03615829735901703 0 -0.012786569389643761 0.035918234396141994 0 -0.014026360912610699 0.036234136156809045 0 -0.013341961862857393 0.034999859813194999 0 -0.014026360912610699 0.036234136156809045 0 -0.013341961862857393 0.034999859813194999 0 -0.01539316485625669 0.034999837116801602 0 -0.014026360912610699 0.036234136156809045 0 -0.01539316485625669 0.034999837116801602 0 -0.015683596928542445 0.03615829735901703 0 -0.01539316485625669 0.034999837116801602 0 -0.015683596928542445 0.03615829735901703 0 -0.01744290653192742 0.035000042825395962 0 -0.015806293576913422 0.03699617908000627 0 -0.015683596928542445 0.03615829735901703 0 -0.017099667472467356 0.036407749486023711 0 -0.015683596928542445 0.03615829735901703 0 -0.01744290653192742 0.035000042825395962 0 -0.017099667472467356 0.036407749486023711 0 -0.017444442313098614 0.034999985932615017 0 -0.017955172043955556 0.035577429924938203 0 -0.019019581378657457 0.034999976647597561 0 -0.017444442313098614 0.034999985932615017 0 -0.017955172043955556 0.035577429924938203 0 -0.017896698347533456 0.036791498171106489 0 -0.017444768603073795 0.035001339527756317 0 -0.017816568950051646 0.03629702017344804 0 -0.017955172043955556 0.035577429924938203 0 -0.019031385869827909 0.036160049418786165 0 -0.018475408045946558 0.036369643348425448 0 -0.017955172043955556 0.035577429924938203 0 -0.019019581378657457 0.034999976647597561 0 -0.019031385869827909 0.036160049418786165 0 -0.019019581378657457 0.034999976647597561 0 -0.019031385869827909 0.036160049418786165 0 -0.019929104039514957 0.035711263559881502 0 -0.019031385869827909 0.036160049418786165 0 -0.020045061319551326 0.036705401814213688 0 -0.019929104039514957 0.035711263559881502 0 -0.019031385869827909 0.036160049418786165 0 -0.018705605830170505 0.036722883062988841 0 -0.018475408045946558 0.036369643348425448 0 -0.019031385869827909 0.036160049418786165 0 -0.018705605830170505 0.036722883062988841 0 -0.019279257491081052 0.036960735305615902 0 -0.018705605830170505 0.036722883062988841 0 -0.019279257491081052 0.036960735305615902 0 -0.018884311444057628 0.037427197994677169 0 -0.019031385869827909 0.036160049418786165 0 -0.019279257491081052 0.036960735305615902 0 -0.020045061319551326 0.036705401814213688 0 -0.018185300600117346 0.03664458987373586 0 -0.018241438476769744 0.037047769235874703 0 -0.017955172043955556 0.035577429924938203 0 -0.017896698347533456 0.036791498171106489 0 -0.018136776148901555 0.037078175713215852 0 -0.017955172043955556 0.035577429924938203 0 -0.018475408045946558 0.036369643348425448 0 -0.018212107678175139 0.03701359457605486 0 -0.018705605830170505 0.036722883062988841 0 -0.018475408045946558 0.036369643348425448 0 -0.018212107678175139 0.03701359457605486 0 -0.018705605830170505 0.036722883062988841 0 -0.018212107678175139 0.03701359457605486 0 -0.018884311444057628 0.037427197994677169 0 -0.018212107678175139 0.03701359457605486 0 -0.018884311444057628 0.037427197994677169 0 -0.018382440371207717 0.03844666399317672 0 -0.016257175491358297 0.037439084928820941 0 -0.017099667472467356 0.036407749486023711 0 -0.016886727134691706 0.037449811216895681 0 -0.017816568950051646 0.03629702017344804 0 -0.018322040797059444 0.037482884368757234 0 -0.018241438476769744 0.037047769235874703 0 -0.018322040797059444 0.037482884368757234 0 -0.017896698347533456 0.036791498171106489 0 -0.018136776148901555 0.037078175713215852 0 -0.018307966586183888 0.038561705805132254 0 -0.019279257491081052 0.036960735305615902 0 -0.019838902621274961 0.038010449448308323 0 -0.020045061319551326 0.036705401814213688 0 -0.019279257491081052 0.036960735305615902 0 -0.018884311444057628 0.037427197994677169 0 -0.019838902621274961 0.038010449448308323 0 -0.018884311444057628 0.037427197994677169 0 -0.018382440371207717 0.03844666399317672 0 -0.019838902621274961 0.038010449448308323 0 -0.018810160046392754 0.037921780887359077 0 -0.01863536811404954 0.03778341112428394 0 -0.019838902621274961 0.038010449448308323 0 -0.019044049245844272 0.039173446343906883 0 -0.019908430776486064 0.038929097642536013 0 -0.018382440371207717 0.03844666399317672 0 -0.019838902621274961 0.038010449448308323 0 -0.018641034906559099 0.039610498253898195 0 -0.018322040797059444 0.037482884368757234 0 -0.018471430753834655 0.037757968835864415 0 -0.016257175491358297 0.037439084928820941 0 -0.016886727134691706 0.037449811216895681 0 -0.016447716717307027 0.037813374647488816 0 -0.016886727134691706 0.037449811216895681 0 -0.016790322425004656 0.038106382962992187 0 -0.016447716717307027 0.037813374647488816 0 -0.018322040797059444 0.037482884368757234 0 -0.01863536811404954 0.03778341112428394 0 -0.021033092053718911 0.038270256312590518 0 -0.021676372074288994 0.038545001966358204 0 -0.021173843873447843 0.039162865724855528 0 -0.021033092053718911 0.038270256312590518 0 -0.020494145662810243 0.038772844813740062 0 -0.021173843873447843 0.039162865724855528 0 -0.020494145662810243 0.038772844813740062 0 -0.019838902621274961 0.038010449448308323 0 -0.019908430776486064 0.038929097642536013 0 -0.021033092053718911 0.038270256312590518 0 -0.020494145662810243 0.038772844813740062 0 -0.019838902621274961 0.038010449448308323 0 -0.019838902621274961 0.038010449448308323 0 -0.020896180865015986 0.037250878478742783 0 -0.020045061319551326 0.036705401814213688 0 -0.021033092053718911 0.038270256312590518 0 -0.019838902621274961 0.038010449448308323 0 -0.020896180865015986 0.037250878478742783 0 -0.022230530516955713 0.037262070955630347 0 -0.022765259648609395 0.037388814906123072 0 -0.021033092053718911 0.038270256312590518 0 -0.020896180865015986 0.037250878478742783 0 -0.02195019955291105 0.037686445362382213 0 -0.020896180865015986 0.037250878478742783 0 -0.021481141421664789 0.036089271793858881 0 -0.02237502370998793 0.037788272082743823 0 -0.020896180865015986 0.037250878478742783 0 -0.021481141421664789 0.036089271793858881 0 -0.020045061319551326 0.036705401814213688 0 -0.021481141421664789 0.036089271793858881 0 -0.020045061319551326 0.036705401814213688 0 -0.019929104039514957 0.035711263559881502 0 -0.021481141421664789 0.036089271793858881 0 -0.020594759571067989 0.035000004177893541 0 -0.019929104039514957 0.035711263559881502 0 -0.019019581378657457 0.034999976647597561 0 -0.020594759571067989 0.035000004177893541 0 -0.019929104039514957 0.035711263559881502 0 -0.021481141421664789 0.036089271793858881 0 -0.020594759571067989 0.035000004177893541 0 -0.022169813001117263 0.034999891126773583 0 -0.021481141421664789 0.036089271793858881 0 -0.022169813001117263 0.034999891126773583 0 -0.022789862412381501 0.035882546786127976 0 -0.022171786043624023 0.03500069394735425 0 -0.023578491709299369 0.035553989466685663 0 -0.022169813001117263 0.034999891126773583 0 -0.022789862412381501 0.035882546786127976 0 -0.023655868060515763 0.035555044141594376 0 -0.022169947988518329 0.03499999695258546 0 -0.024048250435751491 0.035000000196473202 0 -0.023692260349242489 0.035622625023599301 0 -0.022789862412381501 0.035882546786127976 0 -0.023655868060515763 0.035555044141594376 0 -0.023483686459447824 0.036315048544778648 0 -0.022789862412381501 0.035882546786127976 0 -0.023483686459447824 0.036315048544778648 0 -0.022813047081917965 0.036618987179168262 0 -0.023483686459447824 0.036315048544778648 0 -0.023765899660914573 0.03709984264975974 0 -0.022813047081917965 0.036618987179168262 0 -0.021481141421664789 0.036089271793858881 0 -0.022789862412381501 0.035882546786127976 0 -0.022813047081917965 0.036618987179168262 0 -0.021481141421664789 0.036089271793858881 0 -0.022813047081917965 0.036618987179168262 0 -0.02237502370998793 0.037788272082743823 0 -0.025926647301173604 0.03499995586750488 0 -0.026198285124903561 0.036036993142298829 0 -0.02523197293207248 0.036230605906704766 0 -0.024048250435751491 0.035000000196473202 0 -0.023692260349242489 0.035622625023599301 0 -0.02523197293207248 0.036230605906704766 0 -0.023655868060515763 0.035555044141594376 0 -0.023483686459447824 0.036315048544778648 0 -0.025212335147199883 0.036134210485394745 0 -0.024048250435751491 0.035000000196473202 0 -0.025926647301173604 0.03499995586750488 0 -0.02523197293207248 0.036230605906704766 0 -0.023578491709299369 0.035553989466685663 0 -0.024810818842763167 0.036037837471259285 0 -0.023483686459447824 0.036315048544778648 0 -0.023765899660914573 0.03709984264975974 0 -0.025212335147199883 0.036134210485394745 0 -0.023765899660914573 0.03709984264975974 0 -0.025212335147199883 0.036134210485394745 0 -0.025067006041802984 0.037592962666596071 0 -0.024810818842763167 0.036037837471259285 0 -0.025427308643477208 0.036279268546526924 0 -0.025212335147199883 0.036134210485394745 0 -0.026169302612477945 0.037175904714821573 0 -0.02679579643941829 0.036739266183734152 0 -0.026198285124903561 0.036036993142298829 0 -0.02523197293207248 0.036230605906704766 0 -0.02679579643941829 0.036739266183734152 0 -0.025212335147199883 0.036134210485394745 0 -0.026169302612477945 0.037175904714821573 0 -0.025067006041802984 0.037592962666596071 0 -0.026125759490273071 0.037961826222644594 0 -0.025067006041802984 0.037592962666596071 0 -0.0253279835625165 0.038871675470562916 0 -0.026125759490273071 0.037961826222644594 0 -0.026169302612477945 0.037175904714821573 0 -0.025067006041802984 0.037592962666596071 0 -0.023765899660914573 0.03709984264975974 0 -0.025067006041802984 0.037592962666596071 0 -0.023839190274226242 0.038324289427512218 0 -0.023361516249409107 0.038697668241553712 0 -0.024099556604577431 0.03847755694950962 0 -0.023018895422536694 0.038084792488337911 0 -0.025458803837094198 0.037686189238909679 0 -0.023921784439064921 0.03758206491966793 0 -0.025067006041802984 0.037592962666596071 0 -0.0253279835625165 0.038871675470562916 0 -0.023839190274226242 0.038324289427512218 0 -0.027217511878160364 0.037713364966406988 0 -0.027132444365302794 0.037559353028034551 0 -0.026995206788485729 0.037622551774079381 0 -0.026825385458668725 0.037340094717876152 0 -0.026696493571728146 0.03755054369846253 0 -0.026980300941875403 0.037501920661997853 0 -0.025458803837094198 0.037686189238909679 0 -0.025814833849789158 0.037770388589271987 0 -0.026696493571728146 0.03755054369846253 0 -0.026995206788485729 0.037622551774079381 0 -0.026980300941875403 0.037501920661997853 0 -0.025846999353529979 0.037445989162450941 0 -0.025458803837094198 0.037686189238909679 0 -0.023765899660914573 0.03709984264975974 0 -0.02237502370998793 0.037788272082743823 0 -0.023839190274226242 0.038324289427512218 0 -0.022765259648609395 0.037388814906123072 0 -0.023921784439064921 0.03758206491966793 0 -0.023765899660914573 0.03709984264975974 0 -0.022813047081917965 0.036618987179168262 0 -0.02237502370998793 0.037788272082743823 0 -0.023361516249409107 0.038697668241553712 0 -0.023018895422536694 0.038084792488337911 0 -0.022721694629519573 0.038904539782927183 0 -0.023018895422536694 0.038084792488337911 0 -0.022246792198147691 0.038424698755121223 0 -0.022721694629519573 0.038904539782927183 0 -0.02195019955291105 0.037686445362382213 0 -0.023018895422536694 0.038084792488337911 0 -0.022246792198147691 0.038424698755121223 0 -0.02195019955291105 0.037686445362382213 0 -0.022246792198147691 0.038424698755121223 0 -0.021676372074288994 0.038545001966358204 0 -0.022246792198147691 0.038424698755121223 0 -0.021676372074288994 0.038545001966358204 0 -0.021977872471460772 0.039176599041736718 0 -0.021033092053718911 0.038270256312590518 0 -0.02195019955291105 0.037686445362382213 0 -0.021676372074288994 0.038545001966358204 0 -0.021676372074288994 0.038545001966358204 0 -0.021977872471460772 0.039176599041736718 0 -0.021173843873447843 0.039162865724855528 0 -0.021977872471460772 0.039176599041736718 0 -0.021597297737868115 0.03975924264207948 0 -0.022023741269598485 0.039849692910706475 0 -0.021977872471460772 0.039176599041736718 0 -0.021597297737868115 0.03975924264207948 0 -0.021173843873447843 0.039162865724855528 0 -0.021977872471460772 0.039176599041736718 0 -0.022421718302633918 0.039686911920583205 0 -0.022023741269598485 0.039849692910706475 0 -0.022246792198147691 0.038424698755121223 0 -0.021977872471460772 0.039176599041736718 0 -0.022721694629519573 0.038904539782927183 0 -0.022721694629519573 0.038904539782927183 0 -0.022421718302633918 0.039686911920583205 0 -0.023250932265587661 0.039451774047479307 0 -0.023361516249409107 0.038697668241553712 0 -0.022721694629519573 0.038904539782927183 0 -0.023250932265587661 0.039451774047479307 0 -0.021977872471460772 0.039176599041736718 0 -0.022721694629519573 0.038904539782927183 0 -0.022421718302633918 0.039686911920583205 0 -0.027598958477203013 0.037156072673717386 0 -0.027472522368756132 0.037385705802739845 0 -0.027462352623565202 0.037203078186499899 0 -0.022421718302633918 0.039686911920583205 0 -0.022395858235366318 0.040421342711670971 0 -0.023250932265587661 0.039451774047479307 0 -0.02586490990043102 0.036188312462460202 0 -0.025334912172635018 0.037488426208505218 0 -0.022421718302633918 0.039686911920583205 0 -0.022395858235366318 0.040421342711670971 0 -0.022155822172138767 0.04033069997848019 0 -0.02586490990043102 0.036188312462460202 0 -0.025806787806430222 0.036202531540418095 0 -0.022390596505772482 0.040417779067852183 0 -0.022155822172138767 0.04033069997848019 0 -0.021870334514265382 0.040446789370232286 0 -0.022155822172138767 0.04033069997848019 0 -0.021823200198410612 0.040131775204218803 0 -0.022023741269598485 0.039849692910706475 0 -0.022155822172138767 0.04033069997848019 0 -0.021823200198410612 0.040131775204218803 0 -0.021870334514265382 0.040446789370232286 0 -0.021823200198410612 0.040131775204218803 0 -0.021597297737868115 0.03975924264207948 0 -0.021469255936176844 0.040271735678681447 0 -0.021823200198410612 0.040131775204218803 0 -0.021870334514265382 0.040446789370232286 0 -0.021469255936176844 0.040271735678681447 0 -0.021823200198410612 0.040131775204218803 0 -0.021597297737868115 0.03975924264207948 0 -0.022023741269598485 0.039849692910706475 0 -0.022421718302633918 0.039686911920583205 0 -0.022155822172138767 0.04033069997848019 0 -0.022023741269598485 0.039849692910706475 0 -0.027217511878160364 0.037713364966406988 0 -0.027132444365302794 0.037559353028034551 0 -0.027260724966021589 0.037447001651626795 0 -0.027056528411869219 0.037429316237234354 0 -0.027132444365302794 0.037559353028034551 0 -0.026995206788485729 0.037622551774079381 0 -0.027056528411869219 0.037429316237234354 0 -0.027132444365302794 0.037559353028034551 0 -0.027260724966021589 0.037447001651626795 0 -0.025458803837094198 0.037686189238909679 0 -0.025334912172635018 0.037488426208505218 0 -0.023361516249409107 0.038697668241553712 0 -0.024099556604577431 0.03847755694950962 0 -0.023250932265587661 0.039451774047479307 0 -0.027217511878160364 0.037713364966406988 0 -0.027260724966021589 0.037447001651626795 0 -0.027472522368756132 0.037385705802739845 0 -0.027260724966021589 0.037447001651626795 0 -0.027472522368756132 0.037385705802739845 0 -0.027363904059308199 0.037160273108382512 0 -0.027472522368756132 0.037385705802739845 0 -0.027462352623565202 0.037203078186499899 0 -0.027363904059308199 0.037160273108382512 0 -0.027462352623565202 0.037203078186499899 0 -0.027363904059308199 0.037160273108382512 0 -0.027432672340007923 0.037138873228288558 0 -0.027056528411869219 0.037429316237234354 0 -0.027260724966021589 0.037447001651626795 0 -0.027363904059308199 0.037160273108382512 0 -0.027495286882221567 0.036958794621006791 0 -0.027363904059308199 0.037160273108382512 0 -0.027496227720061231 0.037144851327621839 0 -0.027645419546982325 0.037185022554502414 0 -0.027578012032005553 0.037217304916848173 0 -0.027511167329176026 0.037223771492341289 0 -0.02740640234215664 0.037237716332058426 0 -0.027618171915998638 0.037324431052798021 0 -0.027363904059308199 0.037160273108382512 0 -0.027496227720061231 0.037144851327621839 0 -0.027415158726196251 0.037207500286028365 0 -0.027496227720061231 0.037144851327621839 0 -0.027511167329176026 0.037223771492341289 0 -0.027415158726196251 0.037207500286028365 0 -0.028975580367850945 0.03463308844218884 0 -0.029215910407148146 0.034515524170573991 0 -0.028363058870628361 0.034254771321755507 0 -0.027637352743469609 0.033976571913042479 0 -0.027232025264195908 0.034440322606995637 0 -0.029215910407148146 0.034515524170573991 0 -0.029108502511746213 0.033392382840594981 0 -0.029215910407148146 0.034515524170573991 0 -0.027562022711454016 0.035376627773921455 0 -0.027363904059308199 0.037160273108382512 0 -0.027415158726196251 0.037207500286028365 0 -0.027432672340007923 0.037138873228288558 0 -0.034835703208451467 0.025993962953136412 0 -0.03371297036220014 0.026129888613857139 0 -0.03429339486772269 0.026836713703096912 0 -0.029215910407148146 0.034515524170573991 0 -0.030133560465585556 0.033858522199190215 0 -0.034835703208451467 0.025993962953136412 0 -0.035749860407783968 0.02640975828112458 0 -0.035353344974903729 0.027079766824798575 0 -0.034835703208451467 0.025993962953136412 0 -0.035353344974903729 0.027079766824798575 0 -0.03429339486772269 0.026836713703096912 0 -0.022390596505772482 0.040417779067852183 0 -0.021870334514265382 0.040446789370232286 0 -0.021495238133271914 0.040829678363112167 0 -0.026913984456182673 0.033702756957194928 0 -0.027232025264195908 0.034440322606995637 0 -0.026106036893046115 0.034626068846764037 0 -0.02586490990043102 0.036188312462460202 0 -0.025694604576205107 0.033938719891904473 0 -0.022390596505772482 0.040417779067852183 0 -0.021450057215266927 0.041474784351038914 0 -0.021495238133271914 0.040829678363112167 0 -0.021870334514265382 0.040446789370232286 0 -0.021495238133271914 0.040829678363112167 0 -0.021469255936176844 0.040271735678681447 0 -0.026913984456182673 0.033702756957194928 0 -0.027637352743469609 0.033976571913042479 0 -0.027232025264195908 0.034440322606995637 0 -0.02586490990043102 0.036188312462460202 0 -0.027562022711454016 0.035376627773921455 0 -0.027598958477203013 0.037156072673717386 0 -0.027462352623565202 0.037203078186499899 0 -0.027432672340007923 0.037138873228288558 0 -0.03371297036220014 0.026129888613857139 0 -0.033313556099664333 0.027004994720432194 0 -0.03429339486772269 0.026836713703096912 0 -0.03371297036220014 0.026129888613857139 0 -0.032571637978310877 0.026304317536066494 0 -0.033313556099664333 0.027004994720432194 0 -0.029108502511746213 0.033392382840594981 0 -0.025694604576205107 0.033938719891904473 0 -0.023991150173331453 0.033684870007117979 0 -0.023056215036353148 0.033840392749459318 0 -0.023322295407155275 0.034442924484926536 0 -0.025694604576205107 0.033938719891904473 0 -0.022732658625511677 0.034915277840402548 0 -0.025694604576205107 0.033938719891904473 0 -0.02529812842909792 0.032057989604405701 0 -0.021450057215266927 0.041474784351038914 0 -0.020517147992563115 0.040953261439287014 0 -0.02054101963410741 0.041622229974446708 0 -0.021495238133271914 0.040829678363112167 0 -0.020955391778111856 0.040450356902357758 0 -0.020517147992563115 0.040953261439287014 0 -0.021450057215266927 0.041474784351038914 0 -0.021495238133271914 0.040829678363112167 0 -0.020517147992563115 0.040953261439287014 0 -0.021495238133271914 0.040829678363112167 0 -0.020955391778111856 0.040450356902357758 0 -0.021469255936176844 0.040271735678681447 0 -0.020517147992563115 0.040953261439287014 0 -0.019341781311609574 0.040468201145339194 0 -0.020317401854605198 0.040146988403913696 0 -0.020955391778111856 0.040450356902357758 0 -0.020517147992563115 0.040953261439287014 0 -0.020317401854605198 0.040146988403913696 0 -0.022732658625511677 0.034915277840402548 0 -0.02078766339894858 0.035235318897657131 0 -0.020517147992563115 0.040953261439287014 0 -0.02054101963410741 0.041622229974446708 0 -0.01964198362096143 0.041768970048085448 0 -0.023056215036353148 0.033840392749459318 0 -0.022549639760080953 0.034078510807003151 0 -0.02212135987404595 0.034000139237844146 0 -0.02290044341948241 0.034222771468549747 0 -0.023056215036353148 0.033840392749459318 0 -0.023322295407155275 0.034442924484926536 0 -0.02290044341948241 0.034222771468549747 0 -0.023056215036353148 0.033840392749459318 0 -0.022549639760080953 0.034078510807003151 0 -0.022549639760080953 0.034078510807003151 0 -0.02212135987404595 0.034000139237844146 0 -0.022145388512058727 0.034109979547208756 0 -0.021471433203410006 0.034441347343373598 0 -0.021932697045203568 0.03440763856352954 0 -0.021408627472895715 0.034154895261495802 0 -0.022549639760080953 0.034078510807003151 0 -0.022150745838968876 0.034107475952085138 0 -0.022205857708514794 0.034351646431192824 0 -0.017453477115961791 0.039025481412969944 0 -0.017036471673820011 0.038660268583509898 0 -0.017180966883466955 0.038275951862714618 0 -0.02078766339894858 0.035235318897657131 0 -0.019706506443475272 0.036446275536330661 0 -0.020879770388318529 0.034750988777493684 0 -0.020777087554940711 0.034767450016329755 0 -0.020777087554940711 0.034767450016329755 0 -0.021256847262550452 0.033842418905162527 0 -0.017453477115961791 0.039025481412969944 0 -0.01747438220339706 0.039116656050358696 0 -0.017135789728588199 0.039144089050088267 0 -0.02078766339894858 0.035235318897657131 0 -0.020777087554940711 0.034767450016329755 0 -0.017453477115961791 0.039025481412969944 0 -0.017074748819764923 0.039074159741369345 0 -0.016961225489234483 0.03887800439599446 0 -0.017453477115961791 0.039025481412969944 0 -0.017135789728588199 0.039144089050088267 0 -0.017074748819764923 0.039074159741369345 0 -0.020777087554940711 0.034767450016329755 0 -0.019559995042177841 0.034441758986887727 0 -0.019559995042177841 0.034441758986887727 0 -0.019561590311766155 0.034452835369499446 0 -0.017453477115961791 0.039025481412969944 0 -0.017036471673820011 0.038660268583509898 0 -0.016961225489234483 0.03887800439599446 0 -0.015866619665926299 0.039234503969694842 0 -0.01713651030487192 0.039146228248940887 0 -0.01670531845374448 0.038956856233543634 0 -0.015145360474961015 0.036490228776295701 0 -0.019559995042177841 0.034441758986887727 0 -0.015866619665926299 0.039234503969694842 0 -0.01670531845374448 0.038956856233543634 0 -0.016367947902482465 0.038686291241889915 0 -0.017074748819764923 0.039074159741369345 0 -0.01670531845374448 0.038956856233543634 0 -0.016961225489234483 0.03887800439599446 0 -0.01713651030487192 0.039146228248940887 0 -0.017074748819764923 0.039074159741369345 0 -0.01670531845374448 0.038956856233543634 0 -0.01670531845374448 0.038956856233543634 0 -0.016826507672241479 0.038724304738616766 0 -0.016961225489234483 0.03887800439599446 0 -0.017036471673820011 0.038660268583509898 0 -0.016826507672241479 0.038724304738616766 0 -0.016961225489234483 0.03887800439599446 0 -0.017036471673820011 0.038660268583509898 0 -0.016872645745117841 0.038580912740369198 0 -0.016937638928920307 0.038429677444496949 0 -0.017036471673820011 0.038660268583509898 0 -0.016826507672241479 0.038724304738616766 0 -0.016872645745117841 0.038580912740369198 0 -0.016826507672241479 0.038724304738616766 0 -0.016872645745117841 0.038580912740369198 0 -0.016690459125234512 0.038509528803334692 0 -0.016826507672241479 0.038724304738616766 0 -0.016367947902482465 0.038686291241889915 0 -0.016690459125234512 0.038509528803334692 0 -0.01670531845374448 0.038956856233543634 0 -0.016826507672241479 0.038724304738616766 0 -0.016367947902482465 0.038686291241889915 0 -0.016829390676340032 0.037979297174171305 0 -0.01701289367687225 0.038245847075789874 0 -0.016937570808804453 0.037524105415706076 0 -0.018671461576899667 0.037379403106396973 0 -0.018789306082071598 0.037216503560572781 0 -0.016367947902482465 0.038686291241889915 0 -0.016360208680623101 0.038284227174404058 0 -0.016690459125234512 0.038509528803334692 0 -0.016360208680623101 0.038284227174404058 0 -0.016745240483634537 0.038251409292530333 0 -0.016690459125234512 0.038509528803334692 0 -0.016745240483634537 0.038251409292530333 0 -0.016690459125234512 0.038509528803334692 0 -0.016937638928920307 0.038429677444496949 0 -0.016872645745117841 0.038580912740369198 0 -0.016690459125234512 0.038509528803334692 0 -0.016937638928920307 0.038429677444496949 0 -0.016745240483634537 0.038251409292530333 0 -0.016937638928920307 0.038429677444496949 0 -0.01701289367687225 0.038245847075789874 0 -0.016745240483634537 0.038251409292530333 0 -0.016829390676340032 0.037979297174171305 0 -0.01701289367687225 0.038245847075789874 0 -0.016829390676340032 0.037979297174171305 0 -0.016608151362926395 0.038006338711307763 0 -0.016699757224804532 0.03767770999951011 0 -0.016745240483634537 0.038251409292530333 0 -0.016829390676340032 0.037979297174171305 0 -0.016608151362926395 0.038006338711307763 0 -0.016360208680623101 0.038284227174404058 0 -0.016745240483634537 0.038251409292530333 0 -0.016608151362926395 0.038006338711307763 0 -0.01627280981678772 0.037638084277795095 0 -0.016360208680623101 0.038284227174404058 0 -0.016608151362926395 0.038006338711307763 0 -0.019609215723212638 0.036914522340726563 0 -0.019626976136632539 0.036617041472395168 0 -0.019801174541989697 0.037196770349524878 0 -0.0194340529001314 0.036039908849373706 0 -0.019609215723212638 0.036914522340726563 0 -0.019626976136632539 0.036617041472395168 0 -0.01701289367687225 0.038245847075789874 0 -0.017180966883466955 0.038275951862714618 0 -0.016947292810051168 0.037494504713559293 0 -0.02078766339894858 0.035235318897657131 0 -0.019823570129910643 0.037567834578276241 0 -0.019706506443475272 0.036446275536330661 0 -0.018789306082071598 0.037216503560572781 0 -0.020517147992563115 0.040953261439287014 0 -0.01964198362096143 0.041768970048085448 0 -0.019341781311609574 0.040468201145339194 0 -0.017036471673820011 0.038660268583509898 0 -0.016937638928920307 0.038429677444496949 0 -0.017180966883466955 0.038275951862714618 0 -0.016937638928920307 0.038429677444496949 0 -0.01701289367687225 0.038245847075789874 0 -0.017180966883466955 0.038275951862714618 0 -0.019609215723212638 0.036914522340726563 0 -0.019801174541989697 0.037196770349524878 0 -0.019789558034163976 0.037785877670866906 0 -0.019823570129910643 0.037567834578276241 0 -0.01863536811404954 0.03778341112428394 0 -0.019341781311609574 0.040468201145339194 0 -0.019819356049641551 0.039635544988693587 0 -0.020317401854605198 0.040146988403913696 0 -0.019341781311609574 0.040468201145339194 0 -0.019819356049641551 0.039635544988693587 0 -0.019044049245844272 0.039173446343906883 0 -0.01627280981678772 0.037638084277795095 0 -0.01684993095198976 0.037240752640905143 0 -0.016871899693747631 0.036854767512101413 0 -0.017249076397844971 0.038377820706147869 0 -0.018471430753834655 0.037757968835864415 0 -0.01627280981678772 0.037638084277795095 0 -0.016608151362926395 0.038006338711307763 0 -0.016699757224804532 0.03767770999951011 0 -0.01627280981678772 0.037638084277795095 0 -0.016699757224804532 0.03767770999951011 0 -0.01684993095198976 0.037240752640905143 0 -0.016829390676340032 0.037979297174171305 0 -0.016699757224804532 0.03767770999951011 0 -0.016937570808804453 0.037524105415706076 0 -0.016940139568791535 0.037524772468876345 0 -0.01684993095198976 0.037240752640905143 0 -0.016871899693747631 0.036854767512101413 0 -0.016699757224804532 0.03767770999951011 0 -0.016937570808804453 0.037524105415706076 0 -0.01684993095198976 0.037240752640905143 0 -0.018789306082071598 0.037216503560572781 0 -0.018471430753834655 0.037757968835864415 0 -0.018789306082071598 0.037216503560572781 0 -0.018760438019462838 0.037201809002709335 0 -0.016231760010117335 0.038155658517085841 0 -0.016155816232600779 0.038629440347899419 0 -0.016790322425004656 0.038106382962992187 0 -0.01834206549240526 0.037581396960582686 0 -0.018354612737602603 0.037696766161586057 0 -0.018364859471347701 0.037683063232939025 0 -0.019801174541989697 0.037196770349524878 0 -0.019848661726017854 0.037708449277502346 0 -0.019789558034163976 0.037785877670866906 0 -0.018471430753834655 0.037757968835864415 0 -0.01863536811404954 0.03778341112428394 0 -0.016231760010117335 0.038155658517085841 0 -0.016790322425004656 0.038106382962992187 0 -0.016447716717307027 0.037813374647488816 0 -0.019819356049641551 0.039635544988693587 0 -0.019044049245844272 0.039173446343906883 0 -0.019908430776486064 0.038929097642536013 0 -0.019819356049641551 0.039635544988693587 0 -0.019908430776486064 0.038929097642536013 0 -0.020502974416270445 0.039467129320446208 0 -0.020494145662810243 0.038772844813740062 0 -0.019908430776486064 0.038929097642536013 0 -0.020502974416270445 0.039467129320446208 0 -0.020494145662810243 0.038772844813740062 0 -0.020502974416270445 0.039467129320446208 0 -0.021173843873447843 0.039162865724855528 0 -0.021597297737868115 0.03975924264207948 0 -0.021173843873447843 0.039162865724855528 0 -0.021001791178373263 0.039877895112278253 0 -0.020502974416270445 0.039467129320446208 0 -0.021173843873447843 0.039162865724855528 0 -0.021001791178373263 0.039877895112278253 0 -0.021597297737868115 0.03975924264207948 0 -0.021001791178373263 0.039877895112278253 0 -0.021469255936176844 0.040271735678681447 0 -0.020955391778111856 0.040450356902357758 0 -0.021001791178373263 0.039877895112278253 0 -0.021469255936176844 0.040271735678681447 0 -0.020955391778111856 0.040450356902357758 0 -0.021001791178373263 0.039877895112278253 0 -0.020317401854605198 0.040146988403913696 0 -0.019819356049641551 0.039635544988693587 0 -0.020502974416270445 0.039467129320446208 0 -0.020317401854605198 0.040146988403913696 0 -0.020502974416270445 0.039467129320446208 0 -0.021001791178373263 0.039877895112278253 0 -0.020317401854605198 0.040146988403913696 0 -0.034994614865975063 0.034998136618978992 0 -0.034157047753602073 0.03370958206128781 0 -0.035101880646024985 0.030803664089236599 0 -0.034994614865975063 0.034998136618978992 0 -0.034999460750386159 0.029229256726061099 0 -0.035101880646024985 0.030803664089236599 0 -0.034157047753602073 0.03370958206128781 0 -0.034824386353175148 0.032082804781390598 0 -0.035101880646024985 0.030803664089236599 0 -0.035103211730801616 0.030669008980552137 0 -0.035003194079970455 0.029963976411210694 0 -0.034994614865975063 0.034998136618978992 0 -0.034157047753602073 0.03370958206128781 0 -0.031262510687299322 0.03499747157898752 0 -0.034157047753602073 0.03370958206128781 0 -0.03336418222034198 0.033742281728015862 0 -0.034261973258900263 0.032492782495138935 0 -0.034157047753602073 0.03370958206128781 0 -0.031262510687299322 0.03499747157898752 0 -0.03336418222034198 0.033742281728015862 0 -0.031250492005431979 0.034998958136524268 0 -0.031695757399817281 0.03443149586854926 0 -0.031262510687299322 0.03499747157898752 0 -0.03336418222034198 0.033742281728015862 0 -0.035191259983913196 0.033647880337281916 0 -0.03336418222034198 0.033742281728015862 0 -0.034261973258900263 0.032492782495138935 0 -0.035191259983913196 0.033647880337281916 0 -0.034261973258900263 0.032492782495138935 0 -0.034962240942480884 0.030662148402847901 0 -0.035574828087084544 0.031777308345929678 0 -0.035181712097298742 0.031014379265759864 0 -0.035103211730801616 0.030669008980552137 0 -0.034157047753602073 0.03370958206128781 0 -0.034261973258900263 0.032492782495138935 0 -0.034824386353175148 0.032082804781390598 0 -0.034398160498339124 0.030574866527295755 0 -0.034962240942480884 0.030662148402847901 0 -0.034870993549030588 0.02979758829764521 0 -0.034261973258900263 0.032492782495138935 0 -0.034398160498339124 0.030574866527295755 0 -0.034962240942480884 0.030662148402847901 0 -0.034962240942480884 0.030662148402847901 0 -0.036563791025282129 0.030487756194912959 0 -0.035574828087084544 0.031777308345929678 0 -0.034962240942480884 0.030662148402847901 0 -0.036563791025282129 0.030487756194912959 0 -0.035282207092335857 0.029708239745317423 0 -0.036563791025282129 0.030487756194912959 0 -0.037013372500009231 0.031657212960347909 0 -0.035574828087084544 0.031777308345929678 0 -0.031315695603810097 0.034320716485353515 0 -0.02962793526452712 0.034888476554790042 0 -0.036563791025282129 0.030487756194912959 0 -0.037013372500009231 0.031657212960347909 0 -0.037936409457467693 0.029873428010013171 0 -0.029100250335772574 0.037864852920561021 0 -0.028804687060351414 0.037382713648019317 0 -0.030156734020367389 0.036474517157917559 0 -0.029100250335772574 0.037864852920561021 0 -0.028804687060351414 0.037382713648019317 0 -0.028128983481257589 0.038069201622276123 0 -0.034261973258900263 0.032492782495138935 0 -0.035574828087084544 0.031777308345929678 0 -0.035191259983913196 0.033647880337281916 0 -0.037013372500009231 0.031657212960347909 0 -0.035574828087084544 0.031777308345929678 0 -0.035191259983913196 0.033647880337281916 0 -0.031315695603810097 0.034320716485353515 0 -0.031695757399817281 0.03443149586854926 0 -0.031249419692183665 0.034999995984624416 0 -0.030156734020367389 0.036474517157917559 0 -0.029527135048286478 0.034999984332137579 0 -0.029527135048286478 0.034999984332137579 0 -0.028847807625902638 0.036096546976086136 0 -0.027804959944629309 0.034999993728603032 0 -0.030156734020367389 0.036474517157917559 0 -0.029527135048286478 0.034999984332137579 0 -0.028847807625902638 0.036096546976086136 0 -0.028804687060351414 0.037382713648019317 0 -0.030156734020367389 0.036474517157917559 0 -0.028847807625902638 0.036096546976086136 0 -0.028804687060351414 0.037382713648019317 0 -0.028847807625902638 0.036096546976086136 0 -0.027936285461882347 0.036583946184379268 0 -0.027687210726961262 0.03657838328207251 0 -0.026978531864190355 0.036357073303858782 0 -0.027196006233867989 0.036977205985354047 0 -0.027687210726961262 0.03657838328207251 0 -0.027804688383009514 0.035000081675453154 0 -0.027105489750393057 0.035841070203179358 0 -0.028847807625902638 0.036096546976086136 0 -0.027936285461882347 0.036583946184379268 0 -0.027804959944629309 0.034999993728603032 0 -0.028149120491182403 0.036064208001970528 0 -0.027805636082074706 0.035001413496382645 0 -0.025926647301173604 0.03499995586750488 0 -0.027804688383009514 0.035000081675453154 0 -0.027105489750393057 0.035841070203179358 0 -0.025926647301173604 0.03499995586750488 0 -0.026198285124903561 0.036036993142298829 0 -0.027105489750393057 0.035841070203179358 0 -0.026198285124903561 0.036036993142298829 0 -0.026978531864190355 0.036357073303858782 0 -0.02679579643941829 0.036739266183734152 0 -0.026198285124903561 0.036036993142298829 0 -0.027105489750393057 0.035841070203179358 0 -0.026978531864190355 0.036357073303858782 0 -0.027687210726961262 0.03657838328207251 0 -0.027105489750393057 0.035841070203179358 0 -0.026978531864190355 0.036357073303858782 0 -0.026978531864190355 0.036357073303858782 0 -0.02679579643941829 0.036739266183734152 0 -0.027196006233867989 0.036977205985354047 0 -0.026936389835600365 0.036973730497243236 0 -0.02679579643941829 0.036739266183734152 0 -0.027196006233867989 0.036977205985354047 0 -0.026169302612477945 0.037175904714821573 0 -0.026936389835600365 0.036973730497243236 0 -0.02679579643941829 0.036739266183734152 0 -0.026125759490273071 0.037961826222644594 0 -0.026169302612477945 0.037175904714821573 0 -0.026936389835600365 0.036973730497243236 0 -0.025846999353529979 0.037445989162450941 0 -0.026022007650119101 0.03730590086613568 0 -0.026825385458668725 0.037340094717876152 0 -0.027089791138106667 0.037348885273809113 0 -0.026980300941875403 0.037501920661997853 0 -0.026825385458668725 0.037340094717876152 0 -0.026936389835600365 0.036973730497243236 0 -0.027089791138106667 0.037348885273809113 0 -0.026936389835600365 0.036973730497243236 0 -0.027089791138106667 0.037348885273809113 0 -0.027196006233867989 0.036977205985354047 0 -0.028804687060351414 0.037382713648019317 0 -0.027936285461882347 0.036583946184379268 0 -0.028031184628246487 0.038139583677530425 0 -0.028149120491182403 0.036064208001970528 0 -0.028582801616230977 0.036578186800702524 0 -0.027687210726961262 0.03657838328207251 0 -0.027196006233867989 0.036977205985354047 0 -0.027489296119662589 0.037457588128415889 0 -0.028490286501789717 0.036739867557863085 0 -0.028582801616230977 0.036578186800702524 0 -0.027089791138106667 0.037348885273809113 0 -0.027196006233867989 0.036977205985354047 0 -0.027489296119662589 0.037457588128415889 0 -0.029100250335772574 0.037864852920561021 0 -0.028128983481257589 0.038069201622276123 0 -0.028182848245262536 0.039112756829768412 0 -0.028582801616230977 0.036578186800702524 0 -0.02962793526452712 0.034888476554790042 0 -0.027820955494028566 0.03662822118267086 0 -0.027652620991828185 0.036791094950180375 0 -0.027827445178976815 0.036833044924511858 0 -0.028582801616230977 0.036578186800702524 0 -0.027921768886307111 0.037026261407928973 0 -0.027089791138106667 0.037348885273809113 0 -0.027014331126022514 0.037661694038093982 0 -0.026980300941875403 0.037501920661997853 0 -0.027089791138106667 0.037348885273809113 0 -0.027489296119662589 0.037457588128415889 0 -0.027014331126022514 0.037661694038093982 0 -0.027014331126022514 0.037661694038093982 0 -0.026995206788485729 0.037622551774079381 0 -0.026980300941875403 0.037501920661997853 0 -0.027651148698448386 0.036917012187184101 0 -0.027827445178976815 0.036833044924511858 0 -0.027632000647172257 0.037082097957701204 0 -0.027495286882221567 0.036958794621006791 0 -0.027652620991828185 0.036791094950180375 0 -0.027651148698448386 0.036917012187184101 0 -0.027056528411869219 0.037429316237234354 0 -0.027014331126022514 0.037661694038093982 0 -0.026995206788485729 0.037622551774079381 0 -0.027645419546982325 0.037185022554502414 0 -0.027921768886307111 0.037026261407928973 0 -0.027652620991828185 0.036791094950180375 0 -0.027651148698448386 0.036917012187184101 0 -0.027827445178976815 0.036833044924511858 0 -0.02962793526452712 0.034888476554790042 0 -0.028632199672755133 0.03616804894154331 0 -0.02962793526452712 0.034888476554790042 0 -0.030314563187784888 0.033494609687164827 0 -0.027815902419202922 0.036817523163374145 0 -0.027818374285766615 0.037125453341006372 0 -0.027632000647172257 0.037082097957701204 0 -0.027495286882221567 0.036958794621006791 0 -0.027651148698448386 0.036917012187184101 0 -0.027632000647172257 0.037082097957701204 0 -0.027495286882221567 0.036958794621006791 0 -0.027496227720061231 0.037144851327621839 0 -0.027632000647172257 0.037082097957701204 0 -0.027496227720061231 0.037144851327621839 0 -0.027511167329176026 0.037223771492341289 0 -0.027638540703646058 0.037203341369867922 0 -0.027818374285766615 0.037125453341006372 0 -0.027632000647172257 0.037082097957701204 0 -0.027638540703646058 0.037203341369867922 0 -0.027496227720061231 0.037144851327621839 0 -0.027632000647172257 0.037082097957701204 0 -0.027638540703646058 0.037203341369867922 0 -0.027511167329176026 0.037223771492341289 0 -0.027638540703646058 0.037203341369867922 0 -0.027618171915998638 0.037324431052798021 0 -0.027638540703646058 0.037203341369867922 0 -0.027618171915998638 0.037324431052798021 0 -0.027829077360073669 0.037398743972077188 0 -0.030133560465585556 0.033858522199190215 0 -0.029890655762033494 0.033522817355952375 0 -0.035749860407783968 0.02640975828112458 0 -0.036598924708139108 0.026939610804343667 0 -0.03628711787704187 0.027216042369671015 0 -0.029890655762033494 0.033522817355952375 0 -0.029996491423190431 0.033510109195216867 0 -0.03662146566461548 0.027013916638143554 0 -0.036619445663113585 0.027091407555672447 0 -0.036825335540501873 0.027212866152060082 0 -0.029890655762033494 0.033522817355952375 0 -0.029904629941176018 0.033463769948987927 0 -0.027818374285766615 0.037125453341006372 0 -0.027638540703646058 0.037203341369867922 0 -0.027829077360073669 0.037398743972077188 0 -0.030314563187784888 0.033494609687164827 0 -0.029890655762033494 0.033522817355952375 0 -0.037506491988565337 0.028305676603245025 0 -0.036712443846249769 0.027557860518318347 0 -0.036510788226125905 0.028268322016741319 0 -0.037506491988565337 0.028305676603245025 0 -0.037034827965633593 0.027295918094338893 0 -0.036712443846249769 0.027557860518318347 0 -0.036712443846249769 0.027557860518318347 0 -0.036560775259423847 0.027307387074957667 0 -0.036682522771756418 0.027306195494373599 0 -0.036712443846249769 0.027557860518318347 0 -0.036825335540501873 0.027212866152060082 0 -0.036682522771756418 0.027306195494373599 0 -0.037034827965633593 0.027295918094338893 0 -0.036712443846249769 0.027557860518318347 0 -0.036825335540501873 0.027212866152060082 0 -0.036712443846249769 0.027557860518318347 0 -0.036298298813082108 0.027687898357644361 0 -0.036560775259423847 0.027307387074957667 0 -0.036712443846249769 0.027557860518318347 0 -0.036510788226125905 0.028268322016741319 0 -0.036298298813082108 0.027687898357644361 0 -0.036510788226125905 0.028268322016741319 0 -0.03683421533480747 0.029132843172350077 0 -0.035903986238098796 0.029089349232315792 0 -0.037936409457467693 0.029873428010013171 0 -0.037506491988565337 0.028305676603245025 0 -0.03683421533480747 0.029132843172350077 0 -0.037506491988565337 0.028305676603245025 0 -0.036510788226125905 0.028268322016741319 0 -0.03683421533480747 0.029132843172350077 0 -0.036563791025282129 0.030487756194912959 0 -0.037936409457467693 0.029873428010013171 0 -0.03683421533480747 0.029132843172350077 0 -0.036259629347538659 0.029716137192201727 0 -0.035885156435749979 0.029329460781466372 0 -0.036563791025282129 0.030487756194912959 0 -0.03683421533480747 0.029132843172350077 0 -0.035903986238098796 0.029089349232315792 0 -0.034962240942480884 0.030662148402847901 0 -0.035282207092335857 0.029708239745317423 0 -0.034870993549030588 0.02979758829764521 0 -0.035282207092335857 0.029708239745317423 0 -0.034870993549030588 0.02979758829764521 0 -0.035250590548706238 0.029070378051500999 0 -0.035885156435749979 0.029329460781466372 0 -0.035418810212593368 0.028761971213076058 0 -0.035903986238098796 0.029089349232315792 0 -0.035663247114410421 0.028265780601445207 0 -0.03602516121569023 0.028163284370226443 0 -0.036510788226125905 0.028268322016741319 0 -0.035903986238098796 0.029089349232315792 0 -0.03602516121569023 0.028163284370226443 0 -0.036510788226125905 0.028268322016741319 0 -0.03602516121569023 0.028163284370226443 0 -0.036298298813082108 0.027687898357644361 0 -0.03602516121569023 0.028163284370226443 0 -0.036298298813082108 0.027687898357644361 0 -0.035879233389723528 0.027673603596063381 0 -0.036298298813082108 0.027687898357644361 0 -0.03616020179850718 0.027335970085635944 0 -0.036560775259423847 0.027307387074957667 0 -0.036298298813082108 0.027687898357644361 0 -0.035879233389723528 0.027673603596063381 0 -0.03616020179850718 0.027335970085635944 0 -0.035879233389723528 0.027673603596063381 0 -0.03569156722557159 0.026920835811815102 0 -0.03616020179850718 0.027335970085635944 0 -0.035663247114410421 0.028265780601445207 0 -0.03602516121569023 0.028163284370226443 0 -0.035879233389723528 0.027673603596063381 0 -0.035418810212593368 0.028761971213076058 0 -0.035195837682541066 0.028458828669650337 0 -0.035663247114410421 0.028265780601445207 0 -0.035879233389723528 0.027673603596063381 0 -0.035399578307932937 0.027736326025444465 0 -0.035879233389723528 0.027673603596063381 0 -0.035399578307932937 0.027736326025444465 0 -0.03569156722557159 0.026920835811815102 0 -0.034999646131141461 0.026325136484501809 0 -0.035399578307932937 0.027736326025444465 0 -0.03569156722557159 0.026920835811815102 0 -0.034999646131141461 0.026325136484501809 0 -0.034999674132916152 0.027773746556603744 0 -0.035399578307932937 0.027736326025444465 0 -0.034999674132916152 0.027773746556603744 0 -0.035399578307932937 0.027736326025444465 0 -0.034998999993325619 0.029223509443616721 0 -0.035250590548706238 0.029070378051500999 0 -0.034998999993325619 0.029223509443616721 0 -0.034768223389741913 0.029662768946299319 0 -0.035250590548706238 0.029070378051500999 0 -0.035399578307932937 0.027736326025444465 0 -0.034998999993325619 0.029223509443616721 0 -0.034870993549030588 0.02979758829764521 0 -0.035250590548706238 0.029070378051500999 0 -0.034768223389741913 0.029662768946299319 0 -0.034398160498339124 0.030574866527295755 0 -0.034870993549030588 0.02979758829764521 0 -0.034768223389741913 0.029662768946299319 0 -0.034999411897582468 0.029225926365720141 0 -0.035003194079970455 0.029963976411210694 0 -0.034999976361422484 0.022550763083063682 0 -0.036745289815853843 0.023543782162461589 0 -0.03627832162175184 0.021672963636836885 0 -0.036745289815853843 0.023543782162461589 0 -0.037604250017692034 0.022240395520205063 0 -0.03627832162175184 0.021672963636836885 0 -0.034999976361422484 0.022550763083063682 0 -0.036745289815853843 0.023543782162461589 0 -0.034999968818199667 0.024436692809524541 0 -0.034999985889219945 0.026322689588020955 0 -0.034999968818199667 0.024436692809524541 0 -0.036739731571566694 0.025509771814769336 0 -0.035000989163090516 0.026322818129504506 0 -0.035995836690551897 0.026113706296708738 0 -0.036745289815853843 0.023543782162461589 0 -0.034999968818199667 0.024436692809524541 0 -0.036739731571566694 0.025509771814769336 0 -0.036745289815853843 0.023543782162461589 0 -0.036739731571566694 0.025509771814769336 0 -0.038437404395831612 0.024681584183215605 0 -0.035995836690551897 0.026113706296708738 0 -0.037033191842655439 0.025820980464660904 0 -0.03569156722557159 0.026920835811815102 0 -0.03616020179850718 0.027335970085635944 0 -0.036264736529926039 0.027102291545676446 0 -0.03616020179850718 0.027335970085635944 0 -0.036264736529926039 0.027102291545676446 0 -0.036560775259423847 0.027307387074957667 0 -0.038437404395831612 0.024681584183215605 0 -0.038403293278631137 0.023296462984465562 0 -0.040069252809181985 0.023815398714958361 0 -0.036745289815853843 0.023543782162461589 0 -0.038437404395831612 0.024681584183215605 0 -0.038403293278631137 0.023296462984465562 0 -0.036745289815853843 0.023543782162461589 0 -0.038403293278631137 0.023296462984465562 0 -0.037604250017692034 0.022240395520205063 0 -0.038403293278631137 0.023296462984465562 0 -0.037604250017692034 0.022240395520205063 0 -0.039339598870652463 0.022329924993372059 0 -0.037604250017692034 0.022240395520205063 0 -0.039339598870652463 0.022329924993372059 0 -0.038553796762887171 0.021283144972550069 0 -0.039339598870652463 0.022329924993372059 0 -0.040861247381411336 0.022149997058596813 0 -0.040318027196892689 0.020954702559777612 0 -0.040861247381411336 0.022149997058596813 0 -0.040069252809181985 0.023815398714958361 0 -0.041498962750973298 0.022908421064926278 0 -0.037843408853406264 0.025527858149230202 0 -0.038224927941443991 0.025267492401112614 0 -0.038403293278631137 0.023296462984465562 0 -0.039339598870652463 0.022329924993372059 0 -0.040069252809181985 0.023815398714958361 0 -0.039339598870652463 0.022329924993372059 0 -0.040861247381411336 0.022149997058596813 0 -0.040069252809181985 0.023815398714958361 0 -0.036264736529926039 0.027102291545676446 0 -0.036699746086575294 0.027416492545274462 0 -0.036560775259423847 0.027307387074957667 0 -0.037033191842655439 0.025820980464660904 0 -0.037843408853406264 0.025527858149230202 0 -0.036560775259423847 0.027307387074957667 0 -0.036682522771756418 0.027306195494373599 0 -0.036652328511002807 0.027355282711151729 0 -0.036686137963372931 0.027248068535196342 0 -0.036682522771756418 0.027306195494373599 0 -0.036652328511002807 0.027355282711151729 0 -0.036825335540501873 0.027212866152060082 0 -0.036686137963372931 0.027248068535196342 0 -0.036682522771756418 0.027306195494373599 0 -0.036619445663113585 0.027091407555672447 0 -0.036825335540501873 0.027212866152060082 0 -0.036686137963372931 0.027248068535196342 0 -0.036686137963372931 0.027248068535196342 0 -0.036652328511002807 0.027355282711151729 0 -0.036563767697652717 0.027237264939064476 0 -0.036699746086575294 0.027416492545274462 0 -0.036652328511002807 0.027355282711151729 0 -0.036386134860328621 0.027612957302508075 0 -0.036699746086575294 0.027416492545274462 0 -0.036560775259423847 0.027307387074957667 0 -0.036652328511002807 0.027355282711151729 0 -0.036699746086575294 0.027416492545274462 0 -0.036386134860328621 0.027612957302508075 0 -0.036316083934034078 0.028144815674385246 0 -0.036386134860328621 0.027612957302508075 0 -0.035973064905570375 0.027626210867730872 0 -0.036316083934034078 0.028144815674385246 0 -0.036386134860328621 0.027612957302508075 0 -0.03628711787704187 0.027216042369671015 0 -0.035973064905570375 0.027626210867730872 0 -0.036652328511002807 0.027355282711151729 0 -0.03628711787704187 0.027216042369671015 0 -0.036563767697652717 0.027237264939064476 0 -0.036652328511002807 0.027355282711151729 0 -0.036386134860328621 0.027612957302508075 0 -0.03628711787704187 0.027216042369671015 0 -0.036619445663113585 0.027091407555672447 0 -0.03628711787704187 0.027216042369671015 0 -0.036563767697652717 0.027237264939064476 0 -0.036598924708139108 0.026939610804343667 0 -0.036619445663113585 0.027091407555672447 0 -0.03628711787704187 0.027216042369671015 0 -0.036619445663113585 0.027091407555672447 0 -0.036686137963372931 0.027248068535196342 0 -0.036563767697652717 0.027237264939064476 0 -0.035749860407783968 0.02640975828112458 0 -0.03628711787704187 0.027216042369671015 0 -0.035353344974903729 0.027079766824798575 0 -0.03628711787704187 0.027216042369671015 0 -0.035973064905570375 0.027626210867730872 0 -0.035353344974903729 0.027079766824798575 0 -0.035973064905570375 0.027626210867730872 0 -0.036316083934034078 0.028144815674385246 0 -0.035348883656183695 0.027990324528011149 0 -0.035973064905570375 0.027626210867730872 0 -0.035353344974903729 0.027079766824798575 0 -0.035348883656183695 0.027990324528011149 0 -0.038224927941443991 0.025267492401112614 0 -0.038020732839197352 0.025015110434852814 0 -0.036316083934034078 0.028144815674385246 0 -0.035348883656183695 0.027990324528011149 0 -0.035309812183957276 0.028801551588673889 0 -0.040861247381411336 0.022149997058596813 0 -0.041498962750973298 0.022908421064926278 0 -0.041967892123898884 0.021493440792545365 0 -0.041498962750973298 0.022908421064926278 0 -0.041967892123898884 0.021493440792545365 0 -0.042324338046246211 0.022088955974371396 0 -0.041967892123898884 0.021493440792545365 0 -0.042324338046246211 0.022088955974371396 0 -0.042202999954996837 0.021645221362306587 0 -0.041967892123898884 0.021493440792545365 0 -0.042154405268573371 0.021577594223642617 0 -0.042202999954996837 0.021645221362306587 0 -0.040861247381411336 0.022149997058596813 0 -0.041967892123898884 0.021493440792545365 0 -0.040318027196892689 0.020954702559777612 0 -0.041967892123898884 0.021493440792545365 0 -0.041615396652744663 0.020343530059026355 0 -0.040318027196892689 0.020954702559777612 0 -0.041615396652744663 0.020343530059026355 0 -0.041567888383735332 0.019365511051970923 0 -0.040797876866683062 0.019907481192610058 0 -0.041615396652744663 0.020343530059026355 0 -0.04300052574861004 0.020238700607619526 0 -0.04226658624715747 0.019646930934530085 0 -0.041967892123898884 0.021493440792545365 0 -0.041615396652744663 0.020343530059026355 0 -0.04300052574861004 0.020238700607619526 0 -0.041132184167698128 0.019039894840509296 0 -0.041359850961682848 0.018226528975459007 0 -0.04300052574861004 0.020238700607619526 0 -0.042890248549268491 0.019320501850744541 0 -0.04226658624715747 0.019646930934530085 0 -0.042890248549268491 0.019320501850744541 0 -0.04226658624715747 0.019646930934530085 0 -0.042267772632242705 0.018991123125875115 0 -0.042890248549268491 0.019320501850744541 0 -0.042267772632242705 0.018991123125875115 0 -0.042852911684248873 0.018626498480649845 0 -0.042267772632242705 0.018991123125875115 0 -0.042852911684248873 0.018626498480649845 0 -0.042185989991080461 0.018132755163320673 0 -0.042852911684248873 0.018626498480649845 0 -0.042185989991080461 0.018132755163320673 0 -0.043045472154680547 0.017661707261248664 0 -0.0414660856379774 0.017743582216464326 0 -0.04150378702267906 0.018605379422815194 0 -0.040539023926795648 0.018073825917976287 0 -0.042185989991080461 0.018132755163320673 0 -0.0414660856379774 0.017743582216464326 0 -0.041955844807695493 0.017208636126105532 0 -0.042185989991080461 0.018132755163320673 0 -0.0414660856379774 0.017743582216464326 0 -0.04150378702267906 0.018605379422815194 0 -0.042267772632242705 0.018991123125875115 0 -0.042185989991080461 0.018132755163320673 0 -0.04150378702267906 0.018605379422815194 0 -0.04150378702267906 0.018605379422815194 0 -0.041567888383735332 0.019365511051970923 0 -0.040809769786571803 0.019071229064140181 0 -0.042267772632242705 0.018991123125875115 0 -0.04150378702267906 0.018605379422815194 0 -0.041567888383735332 0.019365511051970923 0 -0.041615396652744663 0.020343530059026355 0 -0.04226658624715747 0.019646930934530085 0 -0.041567888383735332 0.019365511051970923 0 -0.04226658624715747 0.019646930934530085 0 -0.042267772632242705 0.018991123125875115 0 -0.041567888383735332 0.019365511051970923 0 -0.041567888383735332 0.019365511051970923 0 -0.040809769786571803 0.019071229064140181 0 -0.040797876866683062 0.019907481192610058 0 -0.040809769786571803 0.019071229064140181 0 -0.040539023926795648 0.018073825917976287 0 -0.039847064623665718 0.019286231716688439 0 -0.040809769786571803 0.019071229064140181 0 -0.039847064623665718 0.019286231716688439 0 -0.040797876866683062 0.019907481192610058 0 -0.04150378702267906 0.018605379422815194 0 -0.040809769786571803 0.019071229064140181 0 -0.040539023926795648 0.018073825917976287 0 -0.0414660856379774 0.017743582216464326 0 -0.040539023926795648 0.018073825917976287 0 -0.040808782792160485 0.017417453444213214 0 -0.040539023926795648 0.018073825917976287 0 -0.039380812671236561 0.017984463946274044 0 -0.040070564876466673 0.01734887845224934 0 -0.040539023926795648 0.018073825917976287 0 -0.039380812671236561 0.017984463946274044 0 -0.039847064623665718 0.019286231716688439 0 -0.039380812671236561 0.017984463946274044 0 -0.039847064623665718 0.019286231716688439 0 -0.038436170214254717 0.018793970541268159 0 -0.039847064623665718 0.019286231716688439 0 -0.040318027196892689 0.020954702559777612 0 -0.038787243579889663 0.020006718967500878 0 -0.040318027196892689 0.020954702559777612 0 -0.038553796762887171 0.021283144972550069 0 -0.038787243579889663 0.020006718967500878 0 -0.041615396652744663 0.020343530059026355 0 -0.040797876866683062 0.019907481192610058 0 -0.040318027196892689 0.020954702559777612 0 -0.039847064623665718 0.019286231716688439 0 -0.040797876866683062 0.019907481192610058 0 -0.040318027196892689 0.020954702559777612 0 -0.039339598870652463 0.022329924993372059 0 -0.040318027196892689 0.020954702559777612 0 -0.038553796762887171 0.021283144972550069 0 -0.037604250017692034 0.022240395520205063 0 -0.038553796762887171 0.021283144972550069 0 -0.037285148709558492 0.020216588136314263 0 -0.038553796762887171 0.021283144972550069 0 -0.037285148709558492 0.020216588136314263 0 -0.038787243579889663 0.020006718967500878 0 -0.039847064623665718 0.019286231716688439 0 -0.038787243579889663 0.020006718967500878 0 -0.038436170214254717 0.018793970541268159 0 -0.037285148709558492 0.020216588136314263 0 -0.038787243579889663 0.020006718967500878 0 -0.038436170214254717 0.018793970541268159 0 -0.039380812671236561 0.017984463946274044 0 -0.038436170214254717 0.018793970541268159 0 -0.038252201989906615 0.017260965057354433 0 -0.038436170214254717 0.018793970541268159 0 -0.0372034908346131 0.018176673556280151 0 -0.038252201989906615 0.017260965057354433 0 -0.037285148709558492 0.020216588136314263 0 -0.038436170214254717 0.018793970541268159 0 -0.0372034908346131 0.018176673556280151 0 -0.037285148709558492 0.020216588136314263 0 -0.0372034908346131 0.018176673556280151 0 -0.03629410004165029 0.019076602240254103 0 -0.0372034908346131 0.018176673556280151 0 -0.03629410004165029 0.019076602240254103 0 -0.036041845895455379 0.017722389965129152 0 -0.0372034908346131 0.018176673556280151 0 -0.036041845895455379 0.017722389965129152 0 -0.036736200522099527 0.016838060328207605 0 -0.036041845895455379 0.017722389965129152 0 -0.034999964777430718 0.018778910219455144 0 -0.034999977217836112 0.01689298249791327 0 -0.03629410004165029 0.019076602240254103 0 -0.036041845895455379 0.017722389965129152 0 -0.034999964777430718 0.018778910219455144 0 -0.03629410004165029 0.019076602240254103 0 -0.034999964777430718 0.018778910219455144 0 -0.034999985802054316 0.020664831526396154 0 -0.037285148709558492 0.020216588136314263 0 -0.03629410004165029 0.019076602240254103 0 -0.034999985802054316 0.020664831526396154 0 -0.037285148709558492 0.020216588136314263 0 -0.034999985802054316 0.020664831526396154 0 -0.03627832162175184 0.021672963636836885 0 -0.037604250017692034 0.022240395520205063 0 -0.037285148709558492 0.020216588136314263 0 -0.03627832162175184 0.021672963636836885 0 -0.034999976361422484 0.022550763083063682 0 -0.034999985802054316 0.020664831526396154 0 -0.03627832162175184 0.021672963636836885 0 -0.030364709294370351 0.027868880475273906 0 -0.03155973207474979 0.027837106495864013 0 -0.030061721000624469 0.026144394430855245 0 -0.030364709294370351 0.027868880475273906 0 -0.030171110764415369 0.028313876446423133 0 -0.029742253432530393 0.026534879283529766 0 -0.022461862363400375 0.028950502772289725 0 -0.021820153280640353 0.032087735604148078 0 -0.022461862363400375 0.028950502772289725 0 -0.023379934982143854 0.028688996902718259 0 -0.030364709294370351 0.027868880475273906 0 -0.030171110764415369 0.028313876446423133 0 -0.030987026964733402 0.028023645547119863 0 -0.030244329271480627 0.028290015482592006 0 -0.030987026964733402 0.028023645547119863 0 -0.0310124508214463 0.028732281778631612 0 -0.032259837973252194 0.028507163065493894 0 -0.032182871171960011 0.027927940940214183 0 -0.032778435214728799 0.028049393837142181 0 -0.03155973207474979 0.027837106495864013 0 -0.030987026964733402 0.028023645547119863 0 -0.031612868215979514 0.028637658094869827 0 -0.030364709294370351 0.027868880475273906 0 -0.03155973207474979 0.027837106495864013 0 -0.030987026964733402 0.028023645547119863 0 -0.0310124508214463 0.028732281778631612 0 -0.031612868215979514 0.028637658094869827 0 -0.03169631508043743 0.029173626351440277 0 -0.031612868215979514 0.028637658094869827 0 -0.03169631508043743 0.029173626351440277 0 -0.032991376457903655 0.029511908652185993 0 -0.03155973207474979 0.027837106495864013 0 -0.031612868215979514 0.028637658094869827 0 -0.032991376457903655 0.029511908652185993 0 -0.030987026964733402 0.028023645547119863 0 -0.0310124508214463 0.028732281778631612 0 -0.031612868215979514 0.028637658094869827 0 -0.03169631508043743 0.029173626351440277 0 -0.030537042774394733 0.029546496651215823 0 -0.031640408114251589 0.029825460549156919 0 -0.0310124508214463 0.028732281778631612 0 -0.03169631508043743 0.029173626351440277 0 -0.030537042774394733 0.029546496651215823 0 -0.014090962914451657 0.026154542433002269 0 -0.014030103107959936 0.026242110164286306 0 -0.014112082888609099 0.026266739509783216 0 -0.030244329271480627 0.028290015482592006 0 -0.0310124508214463 0.028732281778631612 0 -0.030537042774394733 0.029546496651215823 0 -0.022461862363400375 0.028950502772289725 0 -0.024968710069417081 0.027048110649865065 0 -0.022461862363400375 0.028950502772289725 0 -0.018115130771610755 0.030834956549231487 0 -0.014090962914451657 0.026154542433002269 0 -0.014030103107959936 0.026242110164286306 0 -0.013946928551582237 0.0262052732016133 0 -0.014030103107959936 0.026242110164286306 0 -0.013946928551582237 0.0262052732016133 0 -0.013972613762573612 0.026301825610361419 0 -0.013946928551582237 0.0262052732016133 0 -0.013892869973082603 0.026293559567170853 0 -0.013972613762573612 0.026301825610361419 0 -0.018115130771610755 0.030834956549231487 0 -0.014752240880839956 0.032870262989720005 0 -0.013946928551582237 0.0262052732016133 0 -0.013820409589865142 0.026275004940956203 0 -0.013892869973082603 0.026293559567170853 0 -0.019060408554304721 0.031912024460688915 0 -0.017433897176372695 0.032488003354238779 0 -0.018836896298073724 0.030892478647812933 0 -0.014752240880839956 0.032870262989720005 0 -0.017193521255832022 0.03335985605534296 0 -0.011570866651577961 0.036529010527392762 0 -0.011017060070395724 0.03649390071151256 0 -0.011377166975955451 0.037040212813211071 0 -0.011570866651577961 0.036529010527392762 0 -0.011467714834766793 0.035931682577818931 0 -0.011017060070395724 0.03649390071151256 0 -0.020674081189383978 0.031334608292357367 0 -0.019060408554304721 0.031912024460688915 0 -0.018836896298073724 0.030892478647812933 0 -0.017193521255832022 0.03335985605534296 0 -0.021820153280640353 0.032087735604148078 0 -0.020674081189383978 0.031334608292357367 0 -0.018836896298073724 0.030892478647812933 0 -0.020226931420452635 0.029306536263208702 0 -0.011017060070395724 0.03649390071151256 0 -0.010952229276068278 0.037024535553329803 0 -0.010580479074401334 0.037031981753359276 0 -0.010952229276068278 0.037024535553329803 0 -0.010664557565535799 0.037406175900829362 0 -0.010580479074401334 0.037031981753359276 0 -0.0215507475696201 0.033030104864994393 0 -0.021820153280640353 0.032087735604148078 0 -0.011017060070395724 0.03649390071151256 0 -0.010952229276068278 0.037024535553329803 0 -0.011377166975955451 0.037040212813211071 0 -0.010952229276068278 0.037024535553329803 0 -0.011377166975955451 0.037040212813211071 0 -0.011030506799218557 0.037404386652796835 0 -0.011771906599875558 0.037724368693158872 0 -0.010970031609715417 0.037768279247297677 0 -0.011374546674920225 0.037449909453387803 0 -0.011720656314041763 0.037317302014500925 0 -0.011377166975955451 0.037040212813211071 0 -0.011374546674920225 0.037449909453387803 0 -0.011377166975955451 0.037040212813211071 0 -0.011374546674920225 0.037449909453387803 0 -0.011030506799218557 0.037404386652796835 0 -0.010970031609715417 0.037768279247297677 0 -0.011374546674920225 0.037449909453387803 0 -0.011030506799218557 0.037404386652796835 0 -0.02157687267488427 0.03314733651483761 0 -0.02141909359122602 0.032961152883289054 0 -0.021230152966586095 0.031583422537480046 0 -0.021591953024597623 0.033064771254403331 0 -0.021520039251275075 0.032978901142011588 0 -0.021691967102910492 0.033529404408102016 0 -0.0215507475696201 0.033030104864994393 0 -0.021856888311611106 0.032856481260008306 0 -0.010952229276068278 0.037024535553329803 0 -0.010664557565535799 0.037406175900829362 0 -0.011030506799218557 0.037404386652796835 0 -0.010970031609715417 0.037768279247297677 0 -0.010664557565535799 0.037406175900829362 0 -0.011030506799218557 0.037404386652796835 0 -0.0215507475696201 0.033030104864994393 0 -0.021256847262550452 0.033842418905162527 0 -0.021932697045203568 0.03440763856352954 0 -0.021299259565655974 0.033654370874062339 0 -0.021408627472895715 0.034154895261495802 0 -0.019559995042177841 0.034441758986887727 0 -0.0215507475696201 0.033030104864994393 0 -0.021856888311611106 0.032856481260008306 0 -0.021256847262550452 0.033842418905162527 0 -0.022549639760080953 0.034078510807003151 0 -0.022205857708514794 0.034351646431192824 0 -0.022673816534018537 0.034528087691504644 0 -0.03145663416584267 0.027572079641289476 0 -0.032238508478802427 0.027583147373012821 0 -0.032009065010905252 0.026938217803043975 0 -0.022369675622505837 0.034855627645628356 0 -0.022205857708514794 0.034351646431192824 0 -0.022673816534018537 0.034528087691504644 0 -0.02290044341948241 0.034222771468549747 0 -0.022549639760080953 0.034078510807003151 0 -0.022673816534018537 0.034528087691504644 0 -0.02290044341948241 0.034222771468549747 0 -0.022673816534018537 0.034528087691504644 0 -0.023322295407155275 0.034442924484926536 0 -0.022673816534018537 0.034528087691504644 0 -0.022659262940812049 0.035195334879103306 0 -0.023322295407155275 0.034442924484926536 0 -0.023169491431968343 0.03188850117854089 0 -0.02529812842909792 0.032057989604405701 0 -0.022369675622505837 0.034855627645628356 0 -0.022673816534018537 0.034528087691504644 0 -0.022659262940812049 0.035195334879103306 0 -0.021856888311611106 0.032856481260008306 0 -0.023169491431968343 0.03188850117854089 0 -0.021856888311611106 0.032856481260008306 0 -0.022372836386612867 0.031953622424295863 0 -0.023037501277972893 0.031031389751355706 0 -0.022372836386612867 0.031953622424295863 0 -0.030364709294370351 0.027868880475273906 0 -0.029854858757237576 0.026403347630979249 0 -0.029742253432530393 0.026534879283529766 0 -0.02141909359122602 0.032961152883289054 0 -0.021046829518376414 0.031795107212863979 0 -0.021230152966586095 0.031583422537480046 0 -0.02746315925741076 0.031271384325579063 0 -0.023169491431968343 0.03188850117854089 0 -0.021588212460516915 0.033236233938899726 0 -0.021034388182366366 0.031500413466957505 0 -0.02057064137973794 0.03203551508909671 0 -0.030364709294370351 0.027868880475273906 0 -0.029864044518313072 0.026373834494966216 0 -0.030061721000624469 0.026144394430855245 0 -0.022372836386612867 0.031953622424295863 0 -0.023169491431968343 0.03188850117854089 0 -0.022372836386612867 0.031953622424295863 0 -0.021820153280640353 0.032087735604148078 0 -0.032238508478802427 0.027583147373012821 0 -0.032687840255786707 0.027250578417772443 0 -0.032778435214728799 0.028049393837142181 0 -0.03145663416584267 0.027572079641289476 0 -0.032182871171960011 0.027927940940214183 0 -0.032238508478802427 0.027583147373012821 0 -0.032259837973252194 0.028507163065493894 0 -0.03145663416584267 0.027572079641289476 0 -0.032182871171960011 0.027927940940214183 0 -0.032182871171960011 0.027927940940214183 0 -0.032238508478802427 0.027583147373012821 0 -0.032778435214728799 0.028049393837142181 0 -0.032571637978310877 0.026304317536066494 0 -0.032009065010905252 0.026938217803043975 0 -0.032687840255786707 0.027250578417772443 0 -0.032238508478802427 0.027583147373012821 0 -0.032009065010905252 0.026938217803043975 0 -0.032687840255786707 0.027250578417772443 0 -0.032571637978310877 0.026304317536066494 0 -0.032687840255786707 0.027250578417772443 0 -0.033313556099664333 0.027004994720432194 0 -0.032687840255786707 0.027250578417772443 0 -0.033313556099664333 0.027004994720432194 0 -0.033209809040500228 0.027611481078337 0 -0.033313556099664333 0.027004994720432194 0 -0.033928012090050537 0.027567729851559412 0 -0.033209809040500228 0.027611481078337 0 -0.033313556099664333 0.027004994720432194 0 -0.033928012090050537 0.027567729851559412 0 -0.03429339486772269 0.026836713703096912 0 -0.033928012090050537 0.027567729851559412 0 -0.034381290706991217 0.028320120473162541 0 -0.033499259178812954 0.0282381636603889 0 -0.033928012090050537 0.027567729851559412 0 -0.033209809040500228 0.027611481078337 0 -0.033499259178812954 0.0282381636603889 0 -0.032778435214728799 0.028049393837142181 0 -0.033209809040500228 0.027611481078337 0 -0.033499259178812954 0.0282381636603889 0 -0.032687840255786707 0.027250578417772443 0 -0.032778435214728799 0.028049393837142181 0 -0.033209809040500228 0.027611481078337 0 -0.035353344974903729 0.027079766824798575 0 -0.03429339486772269 0.026836713703096912 0 -0.03469591428496193 0.02751397692723432 0 -0.033928012090050537 0.027567729851559412 0 -0.03429339486772269 0.026836713703096912 0 -0.03469591428496193 0.02751397692723432 0 -0.033928012090050537 0.027567729851559412 0 -0.03469591428496193 0.02751397692723432 0 -0.034381290706991217 0.028320120473162541 0 -0.03469591428496193 0.02751397692723432 0 -0.035348883656183695 0.027990324528011149 0 -0.034381290706991217 0.028320120473162541 0 -0.035353344974903729 0.027079766824798575 0 -0.03469591428496193 0.02751397692723432 0 -0.035348883656183695 0.027990324528011149 0 -0.035348883656183695 0.027990324528011149 0 -0.034381290706991217 0.028320120473162541 0 -0.035309812183957276 0.028801551588673889 0 -0.042188775576140182 0.021562253933065999 0 -0.042324338046246211 0.022088955974371396 0 -0.042270747718837064 0.021701589004725665 0 -0.037023210974953639 0.024745350905498273 0 -0.038020732839197352 0.025015110434852814 0 -0.034381290706991217 0.028320120473162541 0 -0.034181535479716502 0.029357928052958702 0 -0.035309812183957276 0.028801551588673889 0 -0.042324338046246211 0.022088955974371396 0 -0.042202999954996837 0.021645221362306587 0 -0.042270747718837064 0.021701589004725665 0 -0.032778435214728799 0.028049393837142181 0 -0.033017695063151033 0.028662543266438002 0 -0.033499259178812954 0.0282381636603889 0 -0.032259837973252194 0.028507163065493894 0 -0.032778435214728799 0.028049393837142181 0 -0.033017695063151033 0.028662543266438002 0 -0.034381290706991217 0.028320120473162541 0 -0.033499259178812954 0.0282381636603889 0 -0.033616284396153946 0.028846004426499389 0 -0.033017695063151033 0.028662543266438002 0 -0.033499259178812954 0.0282381636603889 0 -0.033616284396153946 0.028846004426499389 0 -0.034181535479716502 0.029357928052958702 0 -0.033616284396153946 0.028846004426499389 0 -0.032991376457903655 0.029511908652185993 0 -0.034381290706991217 0.028320120473162541 0 -0.034181535479716502 0.029357928052958702 0 -0.033616284396153946 0.028846004426499389 0 -0.033017695063151033 0.028662543266438002 0 -0.033616284396153946 0.028846004426499389 0 -0.032991376457903655 0.029511908652185993 0 -0.02746315925741076 0.031271384325579063 0 -0.028878982732059594 0.031315458253555861 0 -0.03169631508043743 0.029173626351440277 0 -0.032991376457903655 0.029511908652185993 0 -0.032294768465195141 0.029628955247976221 0 -0.032259837973252194 0.028507163065493894 0 -0.033017695063151033 0.028662543266438002 0 -0.032991376457903655 0.029511908652185993 0 -0.032991376457903655 0.029511908652185993 0 -0.032829645524791833 0.030003251309210423 0 -0.032294768465195141 0.029628955247976221 0 -0.032829645524791833 0.030003251309210423 0 -0.032294768465195141 0.029628955247976221 0 -0.031640408114251589 0.029825460549156919 0 -0.042188775576140182 0.021562253933065999 0 -0.041329719304891079 0.02170527716179196 0 -0.042170369574521388 0.021735178939640637 0 -0.041329719304891079 0.02170527716179196 0 -0.041340158837098531 0.022010443015211701 0 -0.042170369574521388 0.021735178939640637 0 -0.034181535479716502 0.029357928052958702 0 -0.032991376457903655 0.029511908652185993 0 -0.032829645524791833 0.030003251309210423 0 -0.03767373591421657 0.022425115110420151 0 -0.039772234213427654 0.022035206392173701 0 -0.037023210974953639 0.024745350905498273 0 -0.034531043945872156 0.024515623436848728 0 -0.041532859603150764 0.021733911831474707 0 -0.041851232879635464 0.021847053611078106 0 -0.042170369574521388 0.021735178939640637 0 -0.041851232879635464 0.021847053611078106 0 -0.04204644847180903 0.021825948301775921 0 -0.042170369574521388 0.021735178939640637 0 -0.041851232879635464 0.021847053611078106 0 -0.04204644847180903 0.021825948301775921 0 -0.042053547767872589 0.021977567188001604 0 -0.04204644847180903 0.021825948301775921 0 -0.042053547767872589 0.021977567188001604 0 -0.04216302635167047 0.021762842768346276 0 -0.041851232879635464 0.021847053611078106 0 -0.042053547767872589 0.021977567188001604 0 -0.041899751988423849 0.022164007240798998 0 -0.041851232879635464 0.021847053611078106 0 -0.04162572631604633 0.021988460341053562 0 -0.041899751988423849 0.022164007240798998 0 -0.04162572631604633 0.021988460341053562 0 -0.041418410621514676 0.021920522356515867 0 -0.041299464065136605 0.022132553421814083 0 -0.041532859603150764 0.021733911831474707 0 -0.041418410621514676 0.021920522356515867 0 -0.041607011872104679 0.021871952823633224 0 -0.041851232879635464 0.021847053611078106 0 -0.04162572631604633 0.021988460341053562 0 -0.041607011872104679 0.021871952823633224 0 -0.041532859603150764 0.021733911831474707 0 -0.041851232879635464 0.021847053611078106 0 -0.041607011872104679 0.021871952823633224 0 -0.04162572631604633 0.021988460341053562 0 -0.041418410621514676 0.021920522356515867 0 -0.041607011872104679 0.021871952823633224 0 -0.042202999954996837 0.021645221362306587 0 -0.042229853534218022 0.021675382051347999 0 -0.042270747718837064 0.021701589004725665 0 -0.042202999954996837 0.021645221362306587 0 -0.042229853534218022 0.021675382051347999 0 -0.042197414194780812 0.021632481731959599 0 -0.042216393049420327 0.021711713937621644 0 -0.042270747718837064 0.021701589004725665 0 -0.042170369574521388 0.021735178939640637 0 -0.042216393049420327 0.021711713937621644 0 -0.04216302635167047 0.021762842768346276 0 -0.04221435438836306 0.021677699643958482 0 -0.042229853534218022 0.021675382051347999 0 -0.042216393049420327 0.021711713937621644 0 -0.042270747718837064 0.021701589004725665 0 -0.042229853534218022 0.021675382051347999 0 -0.042216393049420327 0.021711713937621644 0 -0.04221435438836306 0.021677699643958482 0 -0.042188775576140182 0.021562253933065999 0 -0.042270747718837064 0.021701589004725665 0 -0.042170369574521388 0.021735178939640637 0 -0.042216393049420327 0.021711713937621644 0 -0.042170369574521388 0.021735178939640637 0 -0.04216302635167047 0.021762842768346276 0 -0.04204644847180903 0.021825948301775921 0 -0.042170369574521388 0.021735178939640637 0 -0.04216302635167047 0.021762842768346276 0 -0.04216302635167047 0.021762842768346276 0 -0.04221435438836306 0.021677699643958482 0 -0.042241705816967422 0.021598805836364494 0 -0.042053547767872589 0.021977567188001604 0 -0.04216302635167047 0.021762842768346276 0 -0.042356737049203202 0.022124646118491582 0 -0.042053547767872589 0.021977567188001604 0 -0.042356737049203202 0.022124646118491582 0 -0.041899751988423849 0.022164007240798998 0 -0.042547826043434392 0.018675613739383968 0 -0.042088075081220172 0.017511410983259534 0 -0.04221435438836306 0.021677699643958482 0 -0.042214117048843688 0.021616598517191388 0 -0.042241705816967422 0.021598805836364494 0 -0.042016364207774826 0.017663798587588084 0 -0.042088075081220172 0.017511410983259534 0 -0.042154405268573371 0.021577594223642617 0 -0.042202999954996837 0.021645221362306587 0 -0.042197414194780812 0.021632481731959599 0 -0.042154405268573371 0.021577594223642617 0 -0.042214117048843688 0.021616598517191388 0 -0.042203681811708409 0.021534611587244058 0 -0.042214892579985813 0.021652351575406792 0 -0.042214117048843688 0.021616598517191388 0 -0.042197414194780812 0.021632481731959599 0 -0.042229853534218022 0.021675382051347999 0 -0.042214892579985813 0.021652351575406792 0 -0.042197414194780812 0.021632481731959599 0 -0.042229853534218022 0.021675382051347999 0 -0.04221435438836306 0.021677699643958482 0 -0.042214892579985813 0.021652351575406792 0 -0.04221435438836306 0.021677699643958482 0 -0.042214892579985813 0.021652351575406792 0 -0.042214117048843688 0.021616598517191388 0 -0.042154405268573371 0.021577594223642617 0 -0.042214117048843688 0.021616598517191388 0 -0.042197414194780812 0.021632481731959599 0 -0.041359850961682848 0.018226528975459007 0 -0.042132460763261499 0.015492469428761337 0 -0.04300052574861004 0.020238700607619526 0 -0.042890248549268491 0.019320501850744541 0 -0.043882080868919364 0.019033872223290997 0 -0.042214117048843688 0.021616598517191388 0 -0.042203681811708409 0.021534611587244058 0 -0.042234243812456995 0.021587786470805299 0 -0.042890248549268491 0.019320501850744541 0 -0.042852911684248873 0.018626498480649845 0 -0.043882080868919364 0.019033872223290997 0 -0.042132460763261499 0.015492469428761337 0 -0.042088075081220172 0.017511410983259534 0 -0.042088075081220172 0.017511410983259534 0 -0.040967476201963761 0.015497275538673203 0 -0.041716127966735884 0.011370944392263256 0 -0.042690761215793523 0.012965336456452307 0 -0.044901993465324821 0.0099681597009060735 0 -0.042356737049203202 0.022124646118491582 0 -0.041899751988423849 0.022164007240798998 0 -0.041990549949104415 0.022570218920920149 0 -0.042132460763261499 0.015492469428761337 0 -0.044342740061113245 0.010972172983678906 0 -0.041716127966735884 0.011370944392263256 0 -0.043795405572737929 0.0085438580819267741 0 -0.044901993465324821 0.0099681597009060735 0 -0.042496334952103455 0.0103592908633047 0 -0.044197189649719623 0.0080444735911331684 0 -0.042623601916413588 0.0073715637033274477 0 -0.042852911684248873 0.018626498480649845 0 -0.043882080868919364 0.019033872223290997 0 -0.043045472154680547 0.017661707261248664 0 -0.042496334952103455 0.0103592908633047 0 -0.042623601916413588 0.0073715637033274477 0 -0.0409889740855243 0.0078822064077593013 0 -0.042132460763261499 0.015492469428761337 0 -0.04150978881196981 0.013269811516240189 0 -0.04162572631604633 0.021988460341053562 0 -0.041516669996672521 0.022462164570413987 0 -0.041899751988423849 0.022164007240798998 0 -0.04162572631604633 0.021988460341053562 0 -0.041516669996672521 0.022462164570413987 0 -0.041299464065136605 0.022132553421814083 0 -0.041516669996672521 0.022462164570413987 0 -0.041899751988423849 0.022164007240798998 0 -0.041990549949104415 0.022570218920920149 0 -0.040967476201963761 0.015497275538673203 0 -0.038127467737657704 0.014223239964142025 0 -0.041516669996672521 0.022462164570413987 0 -0.041990549949104415 0.022570218920920149 0 -0.041609004712640736 0.022999894725252591 0 -0.043795405572737929 0.0085438580819267741 0 -0.044901993465324821 0.0099681597009060735 0 -0.047028359742848989 0.0069961889552309815 0 -0.041516669996672521 0.022462164570413987 0 -0.041161848933421008 0.022920883905676533 0 -0.041609004712640736 0.022999894725252591 0 -0.02858417264614755 0.023539117392031489 0 -0.029357536898923668 0.021882964542101868 0 -0.013635508820283256 0.026144090753252608 0 -0.013591037815676638 0.026230297498483417 0 -0.013593091623277988 0.026087680697440302 0 -0.041516669996672521 0.022462164570413987 0 -0.041046182707366555 0.022411349567690152 0 -0.041161848933421008 0.022920883905676533 0 -0.013635508820283256 0.026144090753252608 0 -0.013654187816087678 0.026219760597411074 0 -0.013591037815676638 0.026230297498483417 0 -0.013635508820283256 0.026144090753252608 0 -0.013654187816087678 0.026219760597411074 0 -0.013666241590393364 0.026136174853264943 0 -0.013654187816087678 0.026219760597411074 0 -0.01365127159414724 0.026289478053609521 0 -0.013591037815676638 0.026230297498483417 0 -0.01365127159414724 0.026289478053609521 0 -0.013591037815676638 0.026230297498483417 0 -0.013626400144027872 0.026357110475084922 0 -0.013654187816087678 0.026219760597411074 0 -0.01365127159414724 0.026289478053609521 0 -0.013683285562736685 0.026276572899080749 0 -0.041516669996672521 0.022462164570413987 0 -0.041046182707366555 0.022411349567690152 0 -0.041299464065136605 0.022132553421814083 0 -0.041046182707366555 0.022411349567690152 0 -0.041299464065136605 0.022132553421814083 0 -0.040899991097337419 0.021865178719511637 0 -0.02858417264614755 0.023539117392031489 0 -0.02812193321499936 0.024245123033467458 0 -0.03767373591421657 0.022425115110420151 0 -0.02812193321499936 0.024245123033467458 0 -0.041418410621514676 0.021920522356515867 0 -0.041299464065136605 0.022132553421814083 0 -0.040899991097337419 0.021865178719511637 0 -0.041532859603150764 0.021733911831474707 0 -0.041418410621514676 0.021920522356515867 0 -0.040899991097337419 0.021865178719511637 0 -0.041340158837098531 0.022010443015211701 0 -0.040032224505670566 0.02227749651417401 0 -0.040005595277321816 0.022149809604199999 0 -0.01365127159414724 0.026289478053609521 0 -0.01366962066992408 0.026349166783314705 0 -0.013626400144027872 0.026357110475084922 0 -0.01365127159414724 0.026289478053609521 0 -0.01366962066992408 0.026349166783314705 0 -0.013692331471612055 0.026351995087943125 0 -0.024338560167627987 0.025399533026874969 0 -0.027892460436189266 0.024849449011094309 0 -0.01405388214687032 0.026412336359102766 0 -0.014146129202814096 0.026378230562501475 0 -0.014051243477668049 0.026324442743980259 0 -0.025571001781710057 0.024775760688083518 0 -0.028098090580822913 0.024261584322035512 0 -0.027979679529184603 0.023726678275166845 0 -0.024338560167627987 0.025399533026874969 0 -0.02812193321499936 0.024245123033467458 0 -0.02812193321499936 0.024245123033467458 0 -0.027892460436189266 0.024849449011094309 0 -0.027892460436189266 0.024849449011094309 0 -0.024968710069417081 0.027048110649865065 0 -0.014146129202814096 0.026378230562501475 0 -0.014051243477668049 0.026324442743980259 0 -0.014112082888609099 0.026266739509783216 0 -0.030824353978839161 0.030841380528960453 0 -0.030537042774394733 0.029546496651215823 0 -0.031640408114251589 0.029825460549156919 0 -0.014030103107959936 0.026242110164286306 0 -0.014051243477668049 0.026324442743980259 0 -0.014112082888609099 0.026266739509783216 0 -0.032829645524791833 0.030003251309210423 0 -0.030824353978839161 0.030841380528960453 0 -0.031640408114251589 0.029825460549156919 0 -0.041329719304891079 0.02170527716179196 0 -0.041340158837098531 0.022010443015211701 0 -0.040005595277321816 0.022149809604199999 0 -0.034531043945872156 0.024515623436848728 0 -0.027892460436189266 0.024849449011094309 0 -0.03169631508043743 0.029173626351440277 0 -0.032294768465195141 0.029628955247976221 0 -0.031640408114251589 0.029825460549156919 0 -0.013899109058781549 0.026351282449816327 0 -0.013831186948691451 0.026346548810990238 0 -0.013892869973082603 0.026293559567170853 0 -0.013820409589865142 0.026275004940956203 0 -0.013831186948691451 0.026346548810990238 0 -0.013892869973082603 0.026293559567170853 0 -0.013899109058781549 0.026351282449816327 0 -0.013892869973082603 0.026293559567170853 0 -0.013972613762573612 0.026301825610361419 0 -0.014030103107959936 0.026242110164286306 0 -0.014051243477668049 0.026324442743980259 0 -0.013972613762573612 0.026301825610361419 0 -0.01405388214687032 0.026412336359102766 0 -0.014051243477668049 0.026324442743980259 0 -0.013991097555805845 0.026359989432269325 0 -0.014051243477668049 0.026324442743980259 0 -0.013972613762573612 0.026301825610361419 0 -0.013991097555805845 0.026359989432269325 0 -0.013899109058781549 0.026351282449816327 0 -0.013972613762573612 0.026301825610361419 0 -0.013991097555805845 0.026359989432269325 0 -0.013899109058781549 0.026351282449816327 0 -0.013991097555805845 0.026359989432269325 0 -0.013981712634574834 0.026420222291012724 0 -0.024338560167627987 0.025399533026874969 0 -0.02143766571197063 0.025878188105131164 0 -0.01405388214687032 0.026412336359102766 0 -0.013991097555805845 0.026359989432269325 0 -0.013981712634574834 0.026420222291012724 0 -0.02143766571197063 0.025878188105131164 0 -0.018810341476773122 0.026300935738038253 0 -0.013899109058781549 0.026351282449816327 0 -0.013981712634574834 0.026420222291012724 0 -0.013796854890433002 0.026383762733703475 0 -0.013899109058781549 0.026351282449816327 0 -0.013831186948691451 0.026346548810990238 0 -0.013796854890433002 0.026383762733703475 0 -0.013692331471612055 0.026351995087943125 0 -0.013796854890433002 0.026383762733703475 0 -0.013728113573551469 0.026290737505793495 0 -0.013796854890433002 0.026383762733703475 0 -0.013728113573551469 0.026290737505793495 0 -0.013742113780795713 0.026285322463177475 0 -0.013728113573551469 0.026290737505793495 0 -0.013742113780795713 0.026285322463177475 0 -0.013695019611172589 0.026224923956879365 0 -0.013654187816087678 0.026219760597411074 0 -0.013683285562736685 0.026276572899080749 0 -0.013695019611172589 0.026224923956879365 0 -0.013692331471612055 0.026351995087943125 0 -0.013728113573551469 0.026290737505793495 0 -0.013683285562736685 0.026276572899080749 0 -0.01365127159414724 0.026289478053609521 0 -0.013692331471612055 0.026351995087943125 0 -0.013683285562736685 0.026276572899080749 0 -0.013728113573551469 0.026290737505793495 0 -0.013683285562736685 0.026276572899080749 0 -0.013695019611172589 0.026224923956879365 0 -0.013654187816087678 0.026219760597411074 0 -0.013695019611172589 0.026224923956879365 0 -0.013666241590393364 0.026136174853264943 0 -0.013695019611172589 0.026224923956879365 0 -0.013666241590393364 0.026136174853264943 0 -0.013679661215619325 0.026121067978593666 0 -0.01370983237306659 0.02619552485375079 0 -0.013742113780795713 0.026285322463177475 0 -0.013679661215619325 0.026121067978593666 0 -0.013742113780795713 0.026285322463177475 0 -0.013695019611172589 0.026224923956879365 0 -0.013679661215619325 0.026121067978593666 0 -0.01370983237306659 0.02619552485375079 0 -0.013679661215619325 0.026121067978593666 0 -0.013657157671862553 0.026027072684120023 0 -0.013679661215619325 0.026121067978593666 0 -0.013661162019479861 0.026012402467923437 0 -0.013657157671862553 0.026027072684120023 0 -0.013679661215619325 0.026121067978593666 0 -0.013675850443751813 0.026042256802294873 0 -0.013661162019479861 0.026012402467923437 0 -0.013666241590393364 0.026136174853264943 0 -0.013679661215619325 0.026121067978593666 0 -0.013675850443751813 0.026042256802294873 0 -0.013666241590393364 0.026136174853264943 0 -0.013675850443751813 0.026042256802294873 0 -0.01364572508764067 0.026074141167217381 0 -0.013696564651510342 0.026025510032146537 0 -0.013654172909958634 0.026014199640345903 0 -0.013763059461811552 0.026071124032857069 0 -0.013675850443751813 0.026042256802294873 0 -0.013696564651510342 0.026025510032146537 0 -0.013661162019479861 0.026012402467923437 0 -0.013696564651510342 0.026025510032146537 0 -0.013661162019479861 0.026012402467923437 0 -0.013654172909958634 0.026014199640345903 0 -0.013661162019479861 0.026012402467923437 0 -0.013658866039018377 0.025978396627543414 0 -0.013657157671862553 0.026027072684120023 0 -0.013661162019479861 0.026012402467923437 0 -0.013658866039018377 0.025978396627543414 0 -0.013654172909958634 0.026014199640345903 0 -0.015258421032405748 0.026520448007239773 0 -0.016518908854005077 0.025520920139838209 0 -0.016352327933910542 0.02780583510883242 0 -0.016869369660593082 0.021861348074282236 0 -0.015780763317852161 0.022396708054736779 0 -0.013658866039018377 0.025978396627543414 0 -0.013654172909958634 0.026014199640345903 0 -0.013690667091749041 0.025897058691331725 0 -0.015258421032405748 0.026520448007239773 0 -0.016518908854005077 0.025520920139838209 0 -0.014212918221392146 0.025977049026582245 0 -0.016518908854005077 0.025520920139838209 0 -0.014212918221392146 0.025977049026582245 0 -0.013690667091749041 0.025897058691331725 0 -0.015258421032405748 0.026520448007239773 0 -0.016352327933910542 0.02780583510883242 0 -0.013644585433123784 0.026596458231747607 0 -0.019664288673273016 0.017134478572599469 0 -0.017385357196117911 0.019880858507717765 0 -0.016869369660593082 0.021861348074282236 0 -0.020378603395601113 0.020114438566841631 0 -0.016518908854005077 0.025520920139838209 0 -0.018721350402380439 0.026402562927159257 0 -0.019569776622451854 0.025306637236126479 0 -0.016518908854005077 0.025520920139838209 0 -0.018721350402380439 0.026402562927159257 0 -0.018278782679385923 0.027407984742380823 0 -0.016518908854005077 0.025520920139838209 0 -0.018278782679385923 0.027407984742380823 0 -0.016352327933910542 0.02780583510883242 0 -0.019664288673273016 0.017134478572599469 0 -0.024071352061800621 0.01423733586113886 0 -0.017977925788244246 0.011315536496440452 0 -0.018306994762143237 0.011462261389442134 0 -0.01802321673423184 0.01151590328527856 0 -0.018278782679385923 0.027407984742380823 0 -0.016352327933910542 0.02780583510883242 0 -0.019241552250885183 0.02910399064443573 0 -0.017977925788244246 0.011315536496440452 0 -0.01765879381948247 0.011181623592271487 0 -0.017766394689583579 0.011399988785543172 0 -0.017977925788244246 0.011315536496440452 0 -0.017887088448214895 0.011478368936500939 0 -0.01802321673423184 0.01151590328527856 0 -0.017977925788244246 0.011315536496440452 0 -0.017887088448214895 0.011478368936500939 0 -0.017766394689583579 0.011399988785543172 0 -0.017887088448214895 0.011478368936500939 0 -0.017766394689583579 0.011399988785543172 0 -0.017769028670198233 0.011521738285722742 0 -0.029114543852720592 0.0098042039649586608 0 -0.027551362575224312 0.0090274379015976881 0 -0.028553034768709094 0.0085448014300436217 0 -0.029114543852720592 0.0098042039649586608 0 -0.028553034768709094 0.0085448014300436217 0 -0.029491196814194605 0.0084332522676564981 0 -0.029114543852720592 0.0098042039649586608 0 -0.027551362575224312 0.0090274379015976881 0 -0.027521133971173332 0.010655861395271037 0 -0.027551362575224312 0.0090274379015976881 0 -0.027521133971173332 0.010655861395271037 0 -0.026426910446165901 0.0098542327987069522 0 -0.027551362575224312 0.0090274379015976881 0 -0.027792593769894815 0.0078204307430574452 0 -0.025908957930933126 0.0074928655587398144 0 -0.027551362575224312 0.0090274379015976881 0 -0.027792593769894815 0.0078204307430574452 0 -0.028553034768709094 0.0085448014300436217 0 -0.027792593769894815 0.0078204307430574452 0 -0.028553034768709094 0.0085448014300436217 0 -0.028775672563747155 0.0074926395867615531 0 -0.028553034768709094 0.0085448014300436217 0 -0.02940077366103018 0.0079805102768419033 0 -0.029491196814194605 0.0084332522676564981 0 -0.028775672563747155 0.0074926395867615531 0 -0.02940077366103018 0.0079805102768419033 0 -0.029585221399352678 0.0073774277012361427 0 -0.028553034768709094 0.0085448014300436217 0 -0.028775672563747155 0.0074926395867615531 0 -0.02940077366103018 0.0079805102768419033 0 -0.026134029536307401 0.016150672137922803 0 -0.024436093852372172 0.013857359062584715 0 -0.029114543852720592 0.0098042039649586608 0 -0.029491196814194605 0.0084332522676564981 0 -0.030897942443717328 0.0074040061454972179 0 -0.02940077366103018 0.0079805102768419033 0 -0.029491196814194605 0.0084332522676564981 0 -0.030897942443717328 0.0074040061454972179 0 -0.02940077366103018 0.0079805102768419033 0 -0.030897942443717328 0.0074040061454972179 0 -0.029585221399352678 0.0073774277012361427 0 -0.024071352061800621 0.01423733586113886 0 -0.02308085026309643 0.015863793523971756 0 -0.019241552250885183 0.02910399064443573 0 -0.019263137274672344 0.027910186237470266 0 -0.020218727179230532 0.027813511160476704 0 -0.019296345530666781 0.029003382500803268 0 -0.020218727179230532 0.027813511160476704 0 -0.019586300927173679 0.029140583219282742 0 -0.024071352061800621 0.01423733586113886 0 -0.024436093852372172 0.013857359062584715 0 -0.018278782679385923 0.027407984742380823 0 -0.019241552250885183 0.02910399064443573 0 -0.019263137274672344 0.027910186237470266 0 -0.01931522125197067 0.027317238422491948 0 -0.020218727179230532 0.027813511160476704 0 -0.019945232766332952 0.026734155076636113 0 -0.019263137274672344 0.027910186237470266 0 -0.01931522125197067 0.027317238422491948 0 -0.020218727179230532 0.027813511160476704 0 -0.018278782679385923 0.027407984742380823 0 -0.019263137274672344 0.027910186237470266 0 -0.01931522125197067 0.027317238422491948 0 -0.021067223497499472 0.02721586188932229 0 -0.020218727179230532 0.027813511160476704 0 -0.019586300927173679 0.029140583219282742 0 -0.021067223497499472 0.02721586188932229 0 -0.020218727179230532 0.027813511160476704 0 -0.019945232766332952 0.026734155076636113 0 -0.021067223497499472 0.02721586188932229 0 -0.019945232766332952 0.026734155076636113 0 -0.020521505119809071 0.026325820649528767 0 -0.019945232766332952 0.026734155076636113 0 -0.020521505119809071 0.026325820649528767 0 -0.019569776622451854 0.025306637236126479 0 -0.021067223497499472 0.02721586188932229 0 -0.020521505119809071 0.026325820649528767 0 -0.021100228446015168 0.025868580244654937 0 -0.018721350402380439 0.026402562927159257 0 -0.019945232766332952 0.026734155076636113 0 -0.019569776622451854 0.025306637236126479 0 -0.018721350402380439 0.026402562927159257 0 -0.01931522125197067 0.027317238422491948 0 -0.019945232766332952 0.026734155076636113 0 -0.018721350402380439 0.026402562927159257 0 -0.018278782679385923 0.027407984742380823 0 -0.01931522125197067 0.027317238422491948 0 -0.020521505119809071 0.026325820649528767 0 -0.019569776622451854 0.025306637236126479 0 -0.021100228446015168 0.025868580244654937 0 -0.020378603395601113 0.020114438566841631 0 -0.02907788199382293 0.016580686272098404 0 -0.019569776622451854 0.025306637236126479 0 -0.021100228446015168 0.025868580244654937 0 -0.022626373305098747 0.025153306070503718 0 -0.021067223497499472 0.02721586188932229 0 -0.021100228446015168 0.025868580244654937 0 -0.022626373305098747 0.025153306070503718 0 -0.026134029536307401 0.016150672137922803 0 -0.02907788199382293 0.016580686272098404 0 -0.027521133971173332 0.010655861395271037 0 -0.026952773408977816 0.012224463344954006 0 -0.026426910446165901 0.0098542327987069522 0 -0.029114543852720592 0.0098042039649586608 0 -0.027521133971173332 0.010655861395271037 0 -0.027340834802541222 0.012207084874589597 0 -0.027521133971173332 0.010655861395271037 0 -0.027340834802541222 0.012207084874589597 0 -0.026952773408977816 0.012224463344954006 0 -0.02907788199382293 0.016580686272098404 0 -0.03037723939509725 0.015845413718999474 0 -0.03540369880219333 0.01217371803328777 0 -0.029764817950779066 0.012422895604619582 0 -0.031035338744872368 0.017931489880174636 0 -0.030191020221394256 0.016312041589058413 0 -0.029357536898923668 0.021882964542101868 0 -0.014033465094922901 0.026059767810357445 0 -0.014058920865361887 0.026028759710107818 0 -0.013817714891899901 0.025971570155913757 0 -0.030191020221394256 0.016312041589058413 0 -0.022805525625647711 0.017235575326825223 0 -0.013617288045619989 0.025983149597148706 0 -0.013644658177320525 0.026025861122070306 0 -0.013593091623277988 0.026087680697440302 0 -0.03037723939509725 0.015845413718999474 0 -0.030191020221394256 0.016312041589058413 0 -0.02907788199382293 0.016580686272098404 0 -0.030191020221394256 0.016312041589058413 0 -0.020872629891288175 0.017682726982813958 0 -0.022805525625647711 0.017235575326825223 0 -0.013696564651510342 0.026025510032146537 0 -0.013763059461811552 0.026071124032857069 0 -0.013817714891899901 0.025971570155913757 0 -0.013675850443751813 0.026042256802294873 0 -0.013696564651510342 0.026025510032146537 0 -0.013817714891899901 0.025971570155913757 0 -0.013763059461811552 0.026071124032857069 0 -0.014033465094922901 0.026059767810357445 0 -0.013817714891899901 0.025971570155913757 0 -0.013675850443751813 0.026042256802294873 0 -0.013644658177320525 0.026025861122070306 0 -0.01364572508764067 0.026074141167217381 0 -0.013635508820283256 0.026144090753252608 0 -0.01364572508764067 0.026074141167217381 0 -0.013593091623277988 0.026087680697440302 0 -0.013644658177320525 0.026025861122070306 0 -0.01364572508764067 0.026074141167217381 0 -0.013593091623277988 0.026087680697440302 0 -0.013635508820283256 0.026144090753252608 0 -0.013666241590393364 0.026136174853264943 0 -0.01364572508764067 0.026074141167217381 0 -0.041251055630325016 0.023407766306827112 0 -0.041161848933421008 0.022920883905676533 0 -0.041609004712640736 0.022999894725252591 0 -0.044342740061113245 0.010972172983678906 0 -0.045195616076525252 0.009360481049747316 0 -0.043795405572737929 0.0085438580819267741 0 -0.047028359742848989 0.0069961889552309815 0 -0.045861721585680387 0.0057957538335079483 0 -0.047028359742848989 0.0069961889552309815 0 -0.045861721585680387 0.0057957538335079483 0 -0.047149160993305843 0.004962286570616847 0 -0.045861721585680387 0.0057957538335079483 0 -0.044964120280380222 0.0046057823409362455 0 -0.044394851038754089 0.0054033639037114794 0 -0.045861721585680387 0.0057957538335079483 0 -0.044964120280380222 0.0046057823409362455 0 -0.045824630458092028 0.0044277366061826317 0 -0.044964120280380222 0.0046057823409362455 0 -0.045824630458092028 0.0044277366061826317 0 -0.044748741217996352 0.0036776589493318552 0 -0.045824630458092028 0.0044277366061826317 0 -0.047149160993305843 0.004962286570616847 0 -0.047132614035739546 0.004152359232901413 0 -0.045861721585680387 0.0057957538335079483 0 -0.045824630458092028 0.0044277366061826317 0 -0.047149160993305843 0.004962286570616847 0 -0.048838589442313292 0.0043650508851258473 0 -0.047028359742848989 0.0069961889552309815 0 -0.047149160993305843 0.004962286570616847 0 -0.030191020221394256 0.016312041589058413 0 -0.038127467737657704 0.014223239964142025 0 -0.047149160993305843 0.004962286570616847 0 -0.048241862203776999 0.0040981661364628812 0 -0.047132614035739546 0.004152359232901413 0 -0.048838589442313292 0.0043650508851258473 0 -0.047149160993305843 0.004962286570616847 0 -0.048241862203776999 0.0040981661364628812 0 -0.030191020221394256 0.016312041589058413 0 -0.032006186139657736 0.015261640167723257 0 -0.041579436780262873 0.0063931392816312495 0 -0.042623601916413588 0.0073715637033274477 0 -0.0409889740855243 0.0078822064077593013 0 -0.041579436780262873 0.0063931392816312495 0 -0.042623601916413588 0.0073715637033274477 0 -0.043006834393685245 0.0057182484719075933 0 -0.044197189649719623 0.0080444735911331684 0 -0.045861721585680387 0.0057957538335079483 0 -0.044024395226164213 0.0064654411398727251 0 -0.042623601916413588 0.0073715637033274477 0 -0.044024395226164213 0.0064654411398727251 0 -0.043006834393685245 0.0057182484719075933 0 -0.044197189649719623 0.0080444735911331684 0 -0.042623601916413588 0.0073715637033274477 0 -0.044024395226164213 0.0064654411398727251 0 -0.045861721585680387 0.0057957538335079483 0 -0.044024395226164213 0.0064654411398727251 0 -0.044394851038754089 0.0054033639037114794 0 -0.044964120280380222 0.0046057823409362455 0 -0.043838450679249977 0.0044311907751912374 0 -0.044748741217996352 0.0036776589493318552 0 -0.044964120280380222 0.0046057823409362455 0 -0.044394851038754089 0.0054033639037114794 0 -0.043838450679249977 0.0044311907751912374 0 -0.043838450679249977 0.0044311907751912374 0 -0.042558180610517513 0.0047498509814143967 0 -0.042868707699836708 0.0038340463148340545 0 -0.043838450679249977 0.0044311907751912374 0 -0.043006834393685245 0.0057182484719075933 0 -0.042558180610517513 0.0047498509814143967 0 -0.044394851038754089 0.0054033639037114794 0 -0.043838450679249977 0.0044311907751912374 0 -0.043006834393685245 0.0057182484719075933 0 -0.044024395226164213 0.0064654411398727251 0 -0.044394851038754089 0.0054033639037114794 0 -0.043006834393685245 0.0057182484719075933 0 -0.043006834393685245 0.0057182484719075933 0 -0.042558180610517513 0.0047498509814143967 0 -0.041632562204837999 0.0052049653400798191 0 -0.042558180610517513 0.0047498509814143967 0 -0.041632562204837999 0.0052049653400798191 0 -0.041575447415449523 0.0038908395166234108 0 -0.041632562204837999 0.0052049653400798191 0 -0.041575447415449523 0.0038908395166234108 0 -0.040454207875114001 0.0045607235324947376 0 -0.041579436780262873 0.0063931392816312495 0 -0.041632562204837999 0.0052049653400798191 0 -0.041027548900306167 0.0056057360772526384 0 -0.041579436780262873 0.0063931392816312495 0 -0.043006834393685245 0.0057182484719075933 0 -0.041632562204837999 0.0052049653400798191 0 -0.041575447415449523 0.0038908395166234108 0 -0.042315496071301271 0.0026458703699371853 0 -0.041029078610402968 0.0024659158337875398 0 -0.042558180610517513 0.0047498509814143967 0 -0.041575447415449523 0.0038908395166234108 0 -0.042868707699836708 0.0038340463148340545 0 -0.042868707699836708 0.0038340463148340545 0 -0.042315496071301271 0.0026458703699371853 0 -0.043789444235656949 0.0032003242078545058 0 -0.041575447415449523 0.0038908395166234108 0 -0.042868707699836708 0.0038340463148340545 0 -0.042315496071301271 0.0026458703699371853 0 -0.038669552210234159 0.0055887698251070317 0 -0.037747894998773859 0.0084278423996123914 0 -0.043789444235656949 0.0032003242078545058 0 -0.043375577696186253 0.0017445397394228674 0 -0.045586211582988208 0.002849409500226495 0 -0.042315496071301271 0.0026458703699371853 0 -0.043789444235656949 0.0032003242078545058 0 -0.043375577696186253 0.0017445397394228674 0 -0.043838450679249977 0.0044311907751912374 0 -0.042868707699836708 0.0038340463148340545 0 -0.043789444235656949 0.0032003242078545058 0 -0.043789444235656949 0.0032003242078545058 0 -0.044748741217996352 0.0036776589493318552 0 -0.045586211582988208 0.002849409500226495 0 -0.043838450679249977 0.0044311907751912374 0 -0.043789444235656949 0.0032003242078545058 0 -0.044748741217996352 0.0036776589493318552 0 -0.040217065436215178 -0.0010202451776042455 0 -0.039885212690203127 -0.00093625008496480756 0 -0.040406235512382621 -0.00069127044868127802 0 -0.040217065436215178 -0.0010202451776042455 0 -0.040035085133774177 -0.0012716590791904106 0 -0.040435139170573023 -0.0013120409080891388 0 -0.040217065436215178 -0.0010202451776042455 0 -0.040035085133774177 -0.0012716590791904106 0 -0.039885212690203127 -0.00093625008496480756 0 -0.042315496071301271 0.0026458703699371853 0 -0.041029078610402968 0.0024659158337875398 0 -0.041138172347282127 0.00050511898609687737 0 -0.040035085133774177 -0.0012716590791904106 0 -0.039885212690203127 -0.00093625008496480756 0 -0.039384494348022277 -0.00103717110255673 0 -0.038669552210234159 0.0055887698251070317 0 -0.038514001914363619 0.0038282153498325616 0 -0.042315496071301271 0.0026458703699371853 0 -0.043375577696186253 0.0017445397394228674 0 -0.041138172347282127 0.00050511898609687737 0 -0.032006186139657736 0.015261640167723257 0 -0.037747894998773859 0.0084278423996123914 0 -0.03291284656103164 0.011579900498671841 0 -0.032085568714584393 0.01119480825581733 0 -0.03295029301991844 0.011011023736019478 0 -0.048180848317563627 0.0041150344002433576 0 -0.047132614035739546 0.004152359232901413 0 -0.045532782071851116 0.0029017797780105633 0 -0.03037723939509725 0.015845413718999474 0 -0.032351336064517976 0.010779358379846919 0 -0.03307102303079882 0.011574286877491125 0 -0.03291284656103164 0.011579900498671841 0 -0.03295029301991844 0.011011023736019478 0 -0.03037723939509725 0.015845413718999474 0 -0.032006186139657736 0.015261640167723257 0 -0.030351442777222841 0.014722999758465151 0 -0.030566025221115088 0.015656682284808581 0 -0.028685732872262445 0.01479609405545847 0 -0.032006186139657736 0.015261640167723257 0 -0.033321204823359478 0.014977394119513912 0 -0.045824630458092028 0.0044277366061826317 0 -0.047132614035739546 0.004152359232901413 0 -0.045532782071851116 0.0029017797780105633 0 -0.045824630458092028 0.0044277366061826317 0 -0.044748741217996352 0.0036776589493318552 0 -0.045532782071851116 0.0029017797780105633 0 -0.038366253031870148 0.0078710520764204428 0 -0.037747894998773859 0.0084278423996123914 0 -0.040217065436215178 -0.0010202451776042455 0 -0.040406235512382621 -0.00069127044868127802 0 -0.040435139170573023 -0.0013120409080891388 0 -0.037747894998773859 0.0084278423996123914 0 -0.034757130308439542 0.0061400378700258371 0 -0.040406235512382621 -0.00069127044868127802 0 -0.040435139170573023 -0.0013120409080891388 0 -0.041042898629384095 -0.00133611154722532 0 -0.032085568714584393 0.01119480825581733 0 -0.03295029301991844 0.011011023736019478 0 -0.032828696126097158 0.01044982780255304 0 -0.032351336064517976 0.010779358379846919 0 -0.034757130308439542 0.0061400378700258371 0 -0.027551362575224312 0.0090274379015976881 0 -0.026426910446165901 0.0098542327987069522 0 -0.025908957930933126 0.0074928655587398144 0 -0.041042898629384095 -0.00133611154722532 0 -0.040630594313423744 -0.0016760808849246242 0 -0.040775408030720543 -0.0021751231239110678 0 -0.040739246990813459 -0.0022993599772745685 0 -0.04073601844760659 -0.0022879993123477499 0 -0.040775408030720543 -0.0021751231239110678 0 -0.034757130308439542 0.0061400378700258371 0 -0.035060503407508159 0.0036255148214009371 0 -0.040435139170573023 -0.0013120409080891388 0 -0.041042898629384095 -0.00133611154722532 0 -0.040630594313423744 -0.0016760808849246242 0 -0.040358016148498752 -0.0018364052681407181 0 -0.040630594313423744 -0.0016760808849246242 0 -0.040775408030720543 -0.0021751231239110678 0 -0.040035085133774177 -0.0012716590791904106 0 -0.040435139170573023 -0.0013120409080891388 0 -0.040358016148498752 -0.0018364052681407181 0 -0.040435139170573023 -0.0013120409080891388 0 -0.040358016148498752 -0.0018364052681407181 0 -0.040630594313423744 -0.0016760808849246242 0 -0.040358016148498752 -0.0018364052681407181 0 -0.040357849400937153 -0.0022565452194880527 0 -0.040692930394692128 -0.0023560151466930296 0 -0.040358016148498752 -0.0018364052681407181 0 -0.040775408030720543 -0.0021751231239110678 0 -0.040692930394692128 -0.0023560151466930296 0 -0.040775408030720543 -0.0021751231239110678 0 -0.040692930394692128 -0.0023560151466930296 0 -0.040737052706705947 -0.0023971745600056089 0 -0.04073601844760659 -0.0022879993123477499 0 -0.040775408030720543 -0.0021751231239110678 0 -0.040737052706705947 -0.0023971745600056089 0 -0.040035085133774177 -0.0012716590791904106 0 -0.039885499504887331 -0.00157229226663207 0 -0.039384494348022277 -0.00103717110255673 0 -0.039885499504887331 -0.00157229226663207 0 -0.039580359147236309 -0.0016940027274505837 0 -0.039384494348022277 -0.00103717110255673 0 -0.039580359147236309 -0.0016940027274505837 0 -0.039384494348022277 -0.00103717110255673 0 -0.039221814246561272 -0.0015240620065135235 0 -0.040035085133774177 -0.0012716590791904106 0 -0.040358016148498752 -0.0018364052681407181 0 -0.039885499504887331 -0.00157229226663207 0 -0.040358016148498752 -0.0018364052681407181 0 -0.039885499504887331 -0.00157229226663207 0 -0.040002495476163386 -0.0019907541515479313 0 -0.040358016148498752 -0.0018364052681407181 0 -0.040002495476163386 -0.0019907541515479313 0 -0.040357849400937153 -0.0022565452194880527 0 -0.039885499504887331 -0.00157229226663207 0 -0.040002495476163386 -0.0019907541515479313 0 -0.039580359147236309 -0.0016940027274505837 0 -0.040002495476163386 -0.0019907541515479313 0 -0.039611821954879105 -0.0021060622963104082 0 -0.039580359147236309 -0.0016940027274505837 0 -0.039611821954879105 -0.0021060622963104082 0 -0.039580359147236309 -0.0016940027274505837 0 -0.03930623307672184 -0.0018949406223361079 0 -0.039625789163073022 -0.0024450074374709942 0 -0.040019051398417632 -0.0025200528814483029 0 -0.039460241049643699 -0.0027547527452522389 0 -0.040002495476163386 -0.0019907541515479313 0 -0.039611821954879105 -0.0021060622963104082 0 -0.040019051398417632 -0.0025200528814483029 0 -0.039625789163073022 -0.0024450074374709942 0 -0.039460241049643699 -0.0027547527452522389 0 -0.039193031129305028 -0.0023109423802502521 0 -0.039611821954879105 -0.0021060622963104082 0 -0.039625789163073022 -0.0024450074374709942 0 -0.039193031129305028 -0.0023109423802502521 0 -0.039611821954879105 -0.0021060622963104082 0 -0.039625789163073022 -0.0024450074374709942 0 -0.040019051398417632 -0.0025200528814483029 0 -0.040357849400937153 -0.0022565452194880527 0 -0.040019051398417632 -0.0025200528814483029 0 -0.040598427804644288 -0.002543114417617847 0 -0.040002495476163386 -0.0019907541515479313 0 -0.040357849400937153 -0.0022565452194880527 0 -0.040019051398417632 -0.0025200528814483029 0 -0.040342032412557613 -0.002718929167014144 0 -0.039795071542035862 -0.0029739758674260947 0 -0.040207135076214512 -0.0030785212166754418 0 -0.040019051398417632 -0.0025200528814483029 0 -0.040342032412557613 -0.002718929167014144 0 -0.040598427804644288 -0.002543114417617847 0 -0.040019051398417632 -0.0025200528814483029 0 -0.040342032412557613 -0.002718929167014144 0 -0.039795071542035862 -0.0029739758674260947 0 -0.040342032412557613 -0.002718929167014144 0 -0.040764528341885466 -0.0027545634847329554 0 -0.040207135076214512 -0.0030785212166754418 0 -0.040019051398417632 -0.0025200528814483029 0 -0.039795071542035862 -0.0029739758674260947 0 -0.039460241049643699 -0.0027547527452522389 0 -0.039795071542035862 -0.0029739758674260947 0 -0.039460241049643699 -0.0027547527452522389 0 -0.039096429237440757 -0.0030449212368312641 0 -0.040738032517209838 -0.0025327820308285185 0 -0.040692930394692128 -0.0023560151466930296 0 -0.040737052706705947 -0.0023971745600056089 0 -0.040752248166857796 -0.002540724226094501 0 -0.040738032517209838 -0.0025327820308285185 0 -0.04075346052104422 -0.0026242197783731881 0 -0.040752248166857796 -0.002540724226094501 0 -0.040738032517209838 -0.0025327820308285185 0 -0.040692930394692128 -0.0023560151466930296 0 -0.040357849400937153 -0.0022565452194880527 0 -0.040692930394692128 -0.0023560151466930296 0 -0.040598427804644288 -0.002543114417617847 0 -0.040752248166857796 -0.002540724226094501 0 -0.040692930394692128 -0.0023560151466930296 0 -0.040598427804644288 -0.002543114417617847 0 -0.040752248166857796 -0.002540724226094501 0 -0.040598427804644288 -0.002543114417617847 0 -0.040845183083120407 -0.0026691506270714112 0 -0.040598427804644288 -0.002543114417617847 0 -0.040764528341885466 -0.0027545634847329554 0 -0.040845183083120407 -0.0026691506270714112 0 -0.040342032412557613 -0.002718929167014144 0 -0.040598427804644288 -0.002543114417617847 0 -0.040764528341885466 -0.0027545634847329554 0 -0.040764528341885466 -0.0027545634847329554 0 -0.040845183083120407 -0.0026691506270714112 0 -0.040978471026470634 -0.0026363617476862756 0 -0.040752248166857796 -0.002540724226094501 0 -0.040845183083120407 -0.0026691506270714112 0 -0.04075346052104422 -0.0026242197783731881 0 -0.040845183083120407 -0.0026691506270714112 0 -0.040778669341603312 -0.0026270893351424212 0 -0.040949272394240031 -0.0025632394734423042 0 -0.040845183083120407 -0.0026691506270714112 0 -0.04075346052104422 -0.0026242197783731881 0 -0.040778669341603312 -0.0026270893351424212 0 -0.040778669341603312 -0.0026270893351424212 0 -0.040613415707577115 -0.0026784720941592571 0 -0.040612777305647149 -0.002588505924572031 0 -0.040613415707577115 -0.0026784720941592571 0 -0.040429170524733958 -0.0026852046462719362 0 -0.040612777305647149 -0.002588505924572031 0 -0.04075346052104422 -0.0026242197783731881 0 -0.040778669341603312 -0.0026270893351424212 0 -0.040613415707577115 -0.0026784720941592571 0 -0.04075346052104422 -0.0026242197783731881 0 -0.040613415707577115 -0.0026784720941592571 0 -0.040679120327989066 -0.0025988568788071344 0 -0.040738032517209838 -0.0025327820308285185 0 -0.04075346052104422 -0.0026242197783731881 0 -0.040679120327989066 -0.0025988568788071344 0 -0.040679120327989066 -0.0025988568788071344 0 -0.040651157310780971 -0.0025586736514038107 0 -0.040568916841238943 -0.0026796735072033367 0 -0.040613415707577115 -0.0026784720941592571 0 -0.040679120327989066 -0.0025988568788071344 0 -0.040568916841238943 -0.0026796735072033367 0 -0.040679120327989066 -0.0025988568788071344 0 -0.040651157310780971 -0.0025586736514038107 0 -0.040737052706705947 -0.0023971745600056089 0 -0.040738032517209838 -0.0025327820308285185 0 -0.040679120327989066 -0.0025988568788071344 0 -0.040737052706705947 -0.0023971745600056089 0 -0.040651157310780971 -0.0025586736514038107 0 -0.040538755080668641 -0.0026979537304194223 0 -0.040568916841238943 -0.0026796735072033367 0 -0.040538755080668641 -0.0026979537304194223 0 -0.040568916841238943 -0.0026796735072033367 0 -0.040407302861571695 -0.0027505233954772095 0 -0.040613415707577115 -0.0026784720941592571 0 -0.040568916841238943 -0.0026796735072033367 0 -0.040407302861571695 -0.0027505233954772095 0 -0.040613415707577115 -0.0026784720941592571 0 -0.040407302861571695 -0.0027505233954772095 0 -0.040429170524733958 -0.0026852046462719362 0 -0.040407302861571695 -0.0027505233954772095 0 -0.04019001617741292 -0.0027647194465045388 0 -0.040429170524733958 -0.0026852046462719362 0 -0.040538755080668641 -0.0026979537304194223 0 -0.040407302861571695 -0.0027505233954772095 0 -0.040128540045851507 -0.0028443859182124475 0 -0.040594606990961131 -0.0058202355221266683 0 -0.039964818648974929 -0.0044943306045873372 0 -0.039601902196733915 -0.0048556511569978946 0 -0.040407302861571695 -0.0027505233954772095 0 -0.040128540045851507 -0.0028443859182124475 0 -0.04019001617741292 -0.0027647194465045388 0 -0.039964818648974929 -0.0044943306045873372 0 -0.039601902196733915 -0.0048556511569978946 0 -0.038457706766715422 -0.0038119779684196832 0 -0.033616508744927512 0.00011213158862481407 0 -0.035114978436928949 -0.00038768652432508388 0 -0.035605268958556438 -0.0016819356555187099 0 -0.03676423986539052 -0.0012157024494202744 0 -0.037089523393093599 -0.0018891340997045567 0 -0.033616508744927512 0.00011213158862481407 0 -0.035114978436928949 -0.00038768652432508388 0 -0.034487537880112669 0.00095128963844150303 0 -0.035114978436928949 -0.00038768652432508388 0 -0.035661478571930409 0.00093162389685185452 0 -0.034487537880112669 0.00095128963844150303 0 -0.026693895482150655 0.0071101238615178487 0 -0.025954994161152947 0.0094759498479824802 0 -0.035661478571930409 0.00093162389685185452 0 -0.03402486348611148 0.0021265923779998884 0 -0.033457721290295041 0.0041592154057450868 0 -0.017770674506847724 0.012100108589691915 0 -0.018039278134579246 0.011785974901775185 0 -0.017790632494976973 0.011862148254487661 0 -0.035661478571930409 0.00093162389685185452 0 -0.034487537880112669 0.00095128963844150303 0 -0.03402486348611148 0.0021265923779998884 0 -0.033616508744927512 0.00011213158862481407 0 -0.034487537880112669 0.00095128963844150303 0 -0.03402486348611148 0.0021265923779998884 0 -0.031436715682421727 0.0022164874494886443 0 -0.033616508744927512 0.00011213158862481407 0 -0.03402486348611148 0.0021265923779998884 0 -0.031436715682421727 0.0022164874494886443 0 -0.03402486348611148 0.0021265923779998884 0 -0.033120956005296555 0.0030406857886895017 0 -0.036057718975975282 0.00019264156424468316 0 -0.037941036864243834 -0.0023889555405980549 0 -0.036057718975975282 0.00019264156424468316 0 -0.03676423986539052 -0.0012157024494202744 0 -0.031436715682421727 0.0022164874494886443 0 -0.032418306793597147 0.0036631021729268938 0 -0.031264693936503891 0.0042210200419153269 0 -0.031436715682421727 0.0022164874494886443 0 -0.032418306793597147 0.0036631021729268938 0 -0.033120956005296555 0.0030406857886895017 0 -0.032418306793597147 0.0036631021729268938 0 -0.033120956005296555 0.0030406857886895017 0 -0.033457721290295041 0.0041592154057450868 0 -0.03402486348611148 0.0021265923779998884 0 -0.033120956005296555 0.0030406857886895017 0 -0.033457721290295041 0.0041592154057450868 0 -0.032418306793597147 0.0036631021729268938 0 -0.033457721290295041 0.0041592154057450868 0 -0.032566076040843057 0.0047043051435773885 0 -0.032418306793597147 0.0036631021729268938 0 -0.032566076040843057 0.0047043051435773885 0 -0.031264693936503891 0.0042210200419153269 0 -0.032566076040843057 0.0047043051435773885 0 -0.031482034187528041 0.0049454469130945063 0 -0.031264693936503891 0.0042210200419153269 0 -0.018039278134579246 0.011785974901775185 0 -0.017790632494976973 0.011862148254487661 0 -0.017908010088391935 0.011724305235010097 0 -0.018039278134579246 0.011785974901775185 0 -0.017908010088391935 0.011724305235010097 0 -0.018029858134249691 0.011634440945993191 0 -0.017790632494976973 0.011862148254487661 0 -0.017908010088391935 0.011724305235010097 0 -0.01778595989711481 0.011723961651609742 0 -0.01788292984588501 0.011626060450746522 0 -0.017708632264973004 0.011632206773887507 0 -0.017769028670198233 0.011521738285722742 0 -0.01778595989711481 0.011723961651609742 0 -0.01788292984588501 0.011626060450746522 0 -0.017708632264973004 0.011632206773887507 0 -0.017908010088391935 0.011724305235010097 0 -0.01778595989711481 0.011723961651609742 0 -0.01788292984588501 0.011626060450746522 0 -0.017908010088391935 0.011724305235010097 0 -0.01788292984588501 0.011626060450746522 0 -0.018029858134249691 0.011634440945993191 0 -0.01788292984588501 0.011626060450746522 0 -0.018029858134249691 0.011634440945993191 0 -0.01802321673423184 0.01151590328527856 0 -0.01788292984588501 0.011626060450746522 0 -0.017887088448214895 0.011478368936500939 0 -0.01802321673423184 0.01151590328527856 0 -0.01788292984588501 0.011626060450746522 0 -0.017887088448214895 0.011478368936500939 0 -0.017769028670198233 0.011521738285722742 0 -0.018306994762143237 0.011462261389442134 0 -0.018029858134249691 0.011634440945993191 0 -0.01802321673423184 0.01151590328527856 0 -0.024071352061800621 0.01423733586113886 0 -0.025954994161152947 0.0094759498479824802 0 -0.018306994762143237 0.011462261389442134 0 -0.018039278134579246 0.011785974901775185 0 -0.018029858134249691 0.011634440945993191 0 -0.032566076040843057 0.0047043051435773885 0 -0.030711378299344724 0.0072436498441736021 0 -0.031215466052356679 0.0056490591348631316 0 -0.030799465471530542 0.0077592533719128345 0 -0.033457721290295041 0.0041592154057450868 0 -0.032566076040843057 0.0047043051435773885 0 -0.027308987513058769 0.010238944694824011 0 -0.024436093852372172 0.013857359062584715 0 -0.032566076040843057 0.0047043051435773885 0 -0.031482034187528041 0.0049454469130945063 0 -0.031215466052356679 0.0056490591348631316 0 -0.030711378299344724 0.0072436498441736021 0 -0.030512360139172703 0.0063017737711872097 0 -0.031215466052356679 0.0056490591348631316 0 -0.030799465471530542 0.0077592533719128345 0 -0.032566076040843057 0.0047043051435773885 0 -0.030443291533880867 0.0075961921703285905 0 -0.030711378299344724 0.0072436498441736021 0 -0.030512360139172703 0.0063017737711872097 0 -0.030117900255077955 0.0066359801722662088 0 -0.030878708702448684 0.0052065522621223843 0 -0.029594234412897574 0.0060119242885018961 0 -0.031264693936503891 0.0042210200419153269 0 -0.030512360139172703 0.0063017737711872097 0 -0.031215466052356679 0.0056490591348631316 0 -0.030498512043480811 0.0057447133387067964 0 -0.031215466052356679 0.0056490591348631316 0 -0.030498512043480811 0.0057447133387067964 0 -0.030878708702448684 0.0052065522621223843 0 -0.031482034187528041 0.0049454469130945063 0 -0.031215466052356679 0.0056490591348631316 0 -0.030878708702448684 0.0052065522621223843 0 -0.030498512043480811 0.0057447133387067964 0 -0.030878708702448684 0.0052065522621223843 0 -0.029594234412897574 0.0060119242885018961 0 -0.030498512043480811 0.0057447133387067964 0 -0.030157520189574325 0.0060770734488555375 0 -0.029594234412897574 0.0060119242885018961 0 -0.030512360139172703 0.0063017737711872097 0 -0.030498512043480811 0.0057447133387067964 0 -0.030157520189574325 0.0060770734488555375 0 -0.030157520189574325 0.0060770734488555375 0 -0.029594234412897574 0.0060119242885018961 0 -0.029970852755267941 0.0063718822095084207 0 -0.030897942443717328 0.0074040061454972179 0 -0.029585221399352678 0.0073774277012361427 0 -0.029266790599126225 0.0066331720383968618 0 -0.030711378299344724 0.0072436498441736021 0 -0.030117900255077955 0.0066359801722662088 0 -0.029266790599126225 0.0066331720383968618 0 -0.029970852755267941 0.0063718822095084207 0 -0.030117900255077955 0.0066359801722662088 0 -0.029266790599126225 0.0066331720383968618 0 -0.029594234412897574 0.0060119242885018961 0 -0.029970852755267941 0.0063718822095084207 0 -0.029266790599126225 0.0066331720383968618 0 -0.024436093852372172 0.013857359062584715 0 -0.024777111071195474 0.01369076762749551 0 -0.030512360139172703 0.0063017737711872097 0 -0.029970852755267941 0.0063718822095084207 0 -0.030117900255077955 0.0066359801722662088 0 -0.030512360139172703 0.0063017737711872097 0 -0.030157520189574325 0.0060770734488555375 0 -0.029970852755267941 0.0063718822095084207 0 -0.025908957930933126 0.0074928655587398144 0 -0.028079110048500777 0.0065608370822050101 0 -0.028796751803935414 0.0045890300017103654 0 -0.028775672563747155 0.0074926395867615531 0 -0.029585221399352678 0.0073774277012361427 0 -0.029266790599126225 0.0066331720383968618 0 -0.027792593769894815 0.0078204307430574452 0 -0.028775672563747155 0.0074926395867615531 0 -0.028079110048500777 0.0065608370822050101 0 -0.040739246990813459 -0.0022993599772745685 0 -0.04073601844760659 -0.0022879993123477499 0 -0.040712170519719378 -0.0023777334642899823 0 -0.028775672563747155 0.0074926395867615531 0 -0.028079110048500777 0.0065608370822050101 0 -0.029266790599126225 0.0066331720383968618 0 -0.034757130308439542 0.0061400378700258371 0 -0.035514957478519953 0.0026104286821942001 0 -0.029594234412897574 0.0060119242885018961 0 -0.029266790599126225 0.0066331720383968618 0 -0.028936844978587162 0.0059533402885957381 0 -0.028079110048500777 0.0065608370822050101 0 -0.029266790599126225 0.0066331720383968618 0 -0.028936844978587162 0.0059533402885957381 0 -0.027792593769894815 0.0078204307430574452 0 -0.025908957930933126 0.0074928655587398144 0 -0.028079110048500777 0.0065608370822050101 0 -0.028079110048500777 0.0065608370822050101 0 -0.028936844978587162 0.0059533402885957381 0 -0.028796751803935414 0.0045890300017103654 0 -0.029594234412897574 0.0060119242885018961 0 -0.028936844978587162 0.0059533402885957381 0 -0.028796751803935414 0.0045890300017103654 0 -0.04073601844760659 -0.0022879993123477499 0 -0.040712170519719378 -0.0023777334642899823 0 -0.040737052706705947 -0.0023971745600056089 0 -0.040651157310780971 -0.0025586736514038107 0 -0.040712170519719378 -0.0023777334642899823 0 -0.040737052706705947 -0.0023971745600056089 0 -0.031826225321843066 0.001614676424301681 0 -0.029594234412897574 0.0060119242885018961 0 -0.028796751803935414 0.0045890300017103654 0 -0.036057718975975282 0.00019264156424468316 0 -0.035514957478519953 0.0026104286821942001 0 -0.040651157310780971 -0.0025586736514038107 0 -0.040538755080668641 -0.0026979537304194223 0 -0.040712170519719378 -0.0023777334642899823 0 -0.036057718975975282 0.00019264156424468316 0 -0.033701490057360353 0.0034032049918453818 0 -0.031436715682421727 0.0022164874494886443 0 -0.029594234412897574 0.0060119242885018961 0 -0.031264693936503891 0.0042210200419153269 0 -0.031482034187528041 0.0049454469130945063 0 -0.030878708702448684 0.0052065522621223843 0 -0.031264693936503891 0.0042210200419153269 0 -0.034999967793177461 0.015006942589272373 0 -0.036053448345730349 0.014338383278297281 0 -0.034999994893074655 0.013120929192988717 0 -0.036060242494501592 0.013381400485004417 0 -0.036053448345730349 0.014338383278297281 0 -0.034999994893074655 0.013120929192988717 0 -0.036060242494501592 0.013381400485004417 0 -0.037010801399281708 0.0142434167387011 0 -0.037535633937393988 0.013546531628354447 0 -0.036060242494501592 0.013381400485004417 0 -0.037010801399281708 0.0142434167387011 0 -0.036053448345730349 0.014338383278297281 0 -0.036958788013715195 0.015239813918127369 0 -0.036053448345730349 0.014338383278297281 0 -0.03610136373435819 0.015632855379627761 0 -0.037010801399281708 0.0142434167387011 0 -0.036958788013715195 0.015239813918127369 0 -0.036053448345730349 0.014338383278297281 0 -0.034999967793177461 0.015006942589272373 0 -0.036053448345730349 0.014338383278297281 0 -0.03610136373435819 0.015632855379627761 0 -0.034999967793177461 0.015006942589272373 0 -0.035875633901826506 0.016577535546723726 0 -0.034999977217836112 0.01689298249791327 0 -0.034999967793177461 0.015006942589272373 0 -0.035875633901826506 0.016577535546723726 0 -0.03610136373435819 0.015632855379627761 0 -0.036041845895455379 0.017722389965129152 0 -0.035875633901826506 0.016577535546723726 0 -0.034999977217836112 0.01689298249791327 0 -0.036041845895455379 0.017722389965129152 0 -0.035875633901826506 0.016577535546723726 0 -0.036736200522099527 0.016838060328207605 0 -0.036736200522099527 0.016838060328207605 0 -0.03610136373435819 0.015632855379627761 0 -0.037651964866888148 0.015951375809546326 0 -0.036958788013715195 0.015239813918127369 0 -0.03610136373435819 0.015632855379627761 0 -0.037701683191290657 0.015740023845421364 0 -0.035875633901826506 0.016577535546723726 0 -0.036736200522099527 0.016838060328207605 0 -0.03610136373435819 0.015632855379627761 0 -0.037353701277424864 0.015506444013411263 0 -0.037971228834641213 0.015527356309200291 0 -0.036958788013715195 0.015239813918127369 0 -0.037701683191290657 0.015740023845421364 0 -0.03851173724388926 0.01529869199173042 0 -0.0372034908346131 0.018176673556280151 0 -0.036736200522099527 0.016838060328207605 0 -0.03749258510946249 0.016974254038293814 0 -0.037651964866888148 0.015951375809546326 0 -0.03749258510946249 0.016974254038293814 0 -0.038252201989906615 0.017260965057354433 0 -0.0372034908346131 0.018176673556280151 0 -0.03749258510946249 0.016974254038293814 0 -0.038252201989906615 0.017260965057354433 0 -0.036736200522099527 0.016838060328207605 0 -0.037651964866888148 0.015951375809546326 0 -0.03749258510946249 0.016974254038293814 0 -0.038252201989906615 0.017260965057354433 0 -0.03915561286423154 0.016202657526877138 0 -0.039355021376402094 0.017105639327652414 0 -0.039380812671236561 0.017984463946274044 0 -0.038252201989906615 0.017260965057354433 0 -0.039355021376402094 0.017105639327652414 0 -0.037971228834641213 0.015527356309200291 0 -0.039113561761960014 0.015488839850662602 0 -0.03851173724388926 0.01529869199173042 0 -0.039511119434240911 0.014899099602178641 0 -0.039204715909291317 0.015880807757653784 0 -0.037701683191290657 0.015740023845421364 0 -0.03851173724388926 0.01529869199173042 0 -0.039204715909291317 0.015880807757653784 0 -0.037651964866888148 0.015951375809546326 0 -0.038252201989906615 0.017260965057354433 0 -0.03915561286423154 0.016202657526877138 0 -0.038652529534998238 0.01438828721136942 0 -0.03851173724388926 0.01529869199173042 0 -0.039511119434240911 0.014899099602178641 0 -0.03752438670908214 0.013339064886121261 0 -0.038253060795559686 0.012551686528393514 0 -0.036958788013715195 0.015239813918127369 0 -0.038652529534998238 0.01438828721136942 0 -0.03851173724388926 0.01529869199173042 0 -0.037010801399281708 0.0142434167387011 0 -0.036958788013715195 0.015239813918127369 0 -0.038786524436234482 0.014270812056122493 0 -0.037010801399281708 0.0142434167387011 0 -0.038786524436234482 0.014270812056122493 0 -0.037535633937393988 0.013546531628354447 0 -0.038786524436234482 0.014270812056122493 0 -0.039816735863014853 0.012892875361512532 0 -0.039069354965287892 0.012972194762030591 0 -0.038786524436234482 0.014270812056122493 0 -0.038412677292917384 0.013211503085162321 0 -0.039069354965287892 0.012972194762030591 0 -0.038786524436234482 0.014270812056122493 0 -0.037535633937393988 0.013546531628354447 0 -0.038412677292917384 0.013211503085162321 0 -0.038652529534998238 0.01438828721136942 0 -0.040298570326859191 0.01355730044368416 0 -0.039739621828433914 0.014410969885481243 0 -0.038253060795559686 0.012551686528393514 0 -0.039568326951991875 0.010417208387064869 0 -0.038786524436234482 0.014270812056122493 0 -0.040595849656871068 0.013329073583209752 0 -0.039816735863014853 0.012892875361512532 0 -0.040298570326859191 0.01355730044368416 0 -0.040493975285835558 0.014798257185746542 0 -0.039739621828433914 0.014410969885481243 0 -0.039975535239020414 0.008979292773944391 0 -0.040173501701013643 0.0097919708485141969 0 -0.039568326951991875 0.010417208387064869 0 -0.039978032530883285 0.013532978139115387 0 -0.040058892140975286 0.013435211590167364 0 -0.040452002112304833 0.013236583065419584 0 -0.040293522061195755 0.01491319833220894 0 -0.040452002112304833 0.013236583065419584 0 -0.040293522061195755 0.01491319833220894 0 -0.04138125739872732 0.014775325963376199 0 -0.039568326951991875 0.010417208387064869 0 -0.039975535239020414 0.008979292773944391 0 -0.040293522061195755 0.01491319833220894 0 -0.041085613812038423 0.015701095464992768 0 -0.04138125739872732 0.014775325963376199 0 -0.040493975285835558 0.014798257185746542 0 -0.039739621828433914 0.014410969885481243 0 -0.039511119434240911 0.014899099602178641 0 -0.040493975285835558 0.014798257185746542 0 -0.039511119434240911 0.014899099602178641 0 -0.039986819097526813 0.015346712666163278 0 -0.038652529534998238 0.01438828721136942 0 -0.039739621828433914 0.014410969885481243 0 -0.039511119434240911 0.014899099602178641 0 -0.039511119434240911 0.014899099602178641 0 -0.039986819097526813 0.015346712666163278 0 -0.039204715909291317 0.015880807757653784 0 -0.03915561286423154 0.016202657526877138 0 -0.03991384813385758 0.016742567679431296 0 -0.040638528236537685 0.016401342519489614 0 -0.039113561761960014 0.015488839850662602 0 -0.040119491167934285 0.015254465227554585 0 -0.039986819097526813 0.015346712666163278 0 -0.039204715909291317 0.015880807757653784 0 -0.040688774200347985 0.016034299652000792 0 -0.03915561286423154 0.016202657526877138 0 -0.039355021376402094 0.017105639327652414 0 -0.03991384813385758 0.016742567679431296 0 -0.039355021376402094 0.017105639327652414 0 -0.03991384813385758 0.016742567679431296 0 -0.040070564876466673 0.01734887845224934 0 -0.039380812671236561 0.017984463946274044 0 -0.039355021376402094 0.017105639327652414 0 -0.040070564876466673 0.01734887845224934 0 -0.040539023926795648 0.018073825917976287 0 -0.040070564876466673 0.01734887845224934 0 -0.040808782792160485 0.017417453444213214 0 -0.040070564876466673 0.01734887845224934 0 -0.040808782792160485 0.017417453444213214 0 -0.040694875766981803 0.016776922249665 0 -0.03991384813385758 0.016742567679431296 0 -0.040694875766981803 0.016776922249665 0 -0.040638528236537685 0.016401342519489614 0 -0.03991384813385758 0.016742567679431296 0 -0.040070564876466673 0.01734887845224934 0 -0.040694875766981803 0.016776922249665 0 -0.040808782792160485 0.017417453444213214 0 -0.040694875766981803 0.016776922249665 0 -0.041284971938860583 0.017150758933360766 0 -0.039978032530883285 0.013532978139115387 0 -0.040119491167934285 0.015254465227554585 0 -0.040694875766981803 0.016776922249665 0 -0.040629801020189094 0.016384680801645322 0 -0.04119412865738048 0.016432240965537599 0 -0.040532633370899365 0.016363458994563249 0 -0.041085613812038423 0.015701095464992768 0 -0.04119412865738048 0.016432240965537599 0 -0.040119491167934285 0.015254465227554585 0 -0.040201069795340709 0.0152868337225268 0 -0.040293522061195755 0.01491319833220894 0 -0.040532633370899365 0.016363458994563249 0 -0.041085613812038423 0.015701095464992768 0 -0.040493975285835558 0.014798257185746542 0 -0.039986819097526813 0.015346712666163278 0 -0.040688774200347985 0.016034299652000792 0 -0.040131948173039479 0.015311579893025033 0 -0.040119491167934285 0.015254465227554585 0 -0.041085613812038423 0.015701095464992768 0 -0.042243743838431942 0.016277916152608336 0 -0.04138125739872732 0.014775325963376199 0 -0.041085613812038423 0.015701095464992768 0 -0.04119412865738048 0.016432240965537599 0 -0.042243743838431942 0.016277916152608336 0 -0.040797557803739032 0.011351876941755901 0 -0.040173501701013643 0.0097919708485141969 0 -0.04119412865738048 0.016432240965537599 0 -0.041955844807695493 0.017208636126105532 0 -0.041284971938860583 0.017150758933360766 0 -0.040694875766981803 0.016776922249665 0 -0.04119412865738048 0.016432240965537599 0 -0.041284971938860583 0.017150758933360766 0 -0.04119412865738048 0.016432240965537599 0 -0.041955844807695493 0.017208636126105532 0 -0.042243743838431942 0.016277916152608336 0 -0.0414660856379774 0.017743582216464326 0 -0.040808782792160485 0.017417453444213214 0 -0.041284971938860583 0.017150758933360766 0 -0.0414660856379774 0.017743582216464326 0 -0.041955844807695493 0.017208636126105532 0 -0.041284971938860583 0.017150758933360766 0 -0.04150978881196981 0.013269811516240189 0 -0.040797557803739032 0.011351876941755901 0 -0.041955844807695493 0.017208636126105532 0 -0.043045472154680547 0.017661707261248664 0 -0.042243743838431942 0.016277916152608336 0 -0.0409889740855243 0.0078822064077593013 0 -0.040409682780551764 0.0062153225481759323 0 -0.039672450139723058 0.0056863966885878966 0 -0.042185989991080461 0.018132755163320673 0 -0.041955844807695493 0.017208636126105532 0 -0.043045472154680547 0.017661707261248664 0 -0.041579436780262873 0.0063931392816312495 0 -0.0409889740855243 0.0078822064077593013 0 -0.040409682780551764 0.0062153225481759323 0 -0.040409682780551764 0.0062153225481759323 0 -0.041027548900306167 0.0056057360772526384 0 -0.040454207875114001 0.0045607235324947376 0 -0.040409682780551764 0.0062153225481759323 0 -0.040454207875114001 0.0045607235324947376 0 -0.038692877410685535 0.0029707154909819882 0 -0.040409682780551764 0.0062153225481759323 0 -0.039672450139723058 0.0056863966885878966 0 -0.039208563218977442 0.0038512384693740916 0 -0.041579436780262873 0.0063931392816312495 0 -0.040409682780551764 0.0062153225481759323 0 -0.041027548900306167 0.0056057360772526384 0 -0.039215650310381156 0.0051683294617646015 0 -0.038883193441538885 0.0047999508539604621 0 -0.041632562204837999 0.0052049653400798191 0 -0.041027548900306167 0.0056057360772526384 0 -0.040454207875114001 0.0045607235324947376 0 -0.041575447415449523 0.0038908395166234108 0 -0.040454207875114001 0.0045607235324947376 0 -0.040304449805185709 0.0031713718389717442 0 -0.041575447415449523 0.0038908395166234108 0 -0.040304449805185709 0.0031713718389717442 0 -0.041029078610402968 0.0024659158337875398 0 -0.040304449805185709 0.0031713718389717442 0 -0.041029078610402968 0.0024659158337875398 0 -0.039708594467852264 0.0019671578424832266 0 -0.040304449805185709 0.0031713718389717442 0 -0.038692877410685535 0.0029707154909819882 0 -0.039708594467852264 0.0019671578424832266 0 -0.040454207875114001 0.0045607235324947376 0 -0.040304449805185709 0.0031713718389717442 0 -0.038692877410685535 0.0029707154909819882 0 -0.039672450139723058 0.0056863966885878966 0 -0.03855732212210522 0.0038008450123913785 0 -0.039208563218977442 0.0038512384693740916 0 -0.038883193441538885 0.0047999508539604621 0 -0.039568909386926657 0.0072458739275801558 0 -0.038692877410685535 0.0029707154909819882 0 -0.037807450921281113 0.00057568158336154991 0 -0.039708594467852264 0.0019671578424832266 0 -0.037525640967300912 0.0021342950901555749 0 -0.039208563218977442 0.0038512384693740916 0 -0.038182677335196716 0.0018049764220970292 0 -0.037807450921281113 0.00057568158336154991 0 -0.039521083196813959 0.00068369886530610807 0 -0.039708594467852264 0.0019671578424832266 0 -0.038692877410685535 0.0029707154909819882 0 -0.037807450921281113 0.00057568158336154991 0 -0.036966607293808948 -0.00056759440133736356 0 -0.037525640967300912 0.0021342950901555749 0 -0.03855732212210522 0.0038008450123913785 0 -0.039208563218977442 0.0038512384693740916 0 -0.037807450921281113 0.00057568158336154991 0 -0.038696943927200023 0.0001228168514562294 0 -0.039521083196813959 0.00068369886530610807 0 -0.037807450921281113 0.00057568158336154991 0 -0.038696943927200023 0.0001228168514562294 0 -0.037661636907726885 -0.00098550726723556229 0 -0.038696943927200023 0.0001228168514562294 0 -0.039521083196813959 0.00068369886530610807 0 -0.038676283388131304 -0.0009688671670271574 0 -0.039521083196813959 0.00068369886530610807 0 -0.041138172347282127 0.00050511898609687737 0 -0.038676283388131304 -0.0009688671670271574 0 -0.041029078610402968 0.0024659158337875398 0 -0.041138172347282127 0.00050511898609687737 0 -0.039708594467852264 0.0019671578424832266 0 -0.039521083196813959 0.00068369886530610807 0 -0.041138172347282127 0.00050511898609687737 0 -0.039708594467852264 0.0019671578424832266 0 -0.039384494348022277 -0.00103717110255673 0 -0.038980840508475029 -0.0013159522131834375 0 -0.039221814246561272 -0.0015240620065135235 0 -0.038514001914363619 0.0038282153498325616 0 -0.038228059083987374 0.0031774335357464189 0 -0.039384494348022277 -0.00103717110255673 0 -0.038980840508475029 -0.0013159522131834375 0 -0.038676283388131304 -0.0009688671670271574 0 -0.038980840508475029 -0.0013159522131834375 0 -0.038589323613744793 -0.0012887364305725544 0 -0.038893482689006081 -0.0018277635686541668 0 -0.038980840508475029 -0.0013159522131834375 0 -0.039221814246561272 -0.0015240620065135235 0 -0.038893482689006081 -0.0018277635686541668 0 -0.038980840508475029 -0.0013159522131834375 0 -0.038676283388131304 -0.0009688671670271574 0 -0.038589323613744793 -0.0012887364305725544 0 -0.038383787475350831 -0.0011804700291564896 0 -0.038589323613744793 -0.0012887364305725544 0 -0.038370472248010733 -0.0020291185162952911 0 -0.038696943927200023 0.0001228168514562294 0 -0.038676283388131304 -0.0009688671670271574 0 -0.037661636907726885 -0.00098550726723556229 0 -0.038676283388131304 -0.0009688671670271574 0 -0.037661636907726885 -0.00098550726723556229 0 -0.038589323613744793 -0.0012887364305725544 0 -0.039083352005469446 0.006657444291072988 0 -0.039166856966236556 0.0065071943319181501 0 -0.038966579125296136 0.005911134373451094 0 -0.039083352005469446 0.006657444291072988 0 -0.037807450921281113 0.00057568158336154991 0 -0.036966607293808948 -0.00056759440133736356 0 -0.037601638293563951 -0.00088475289084916748 0 -0.039568909386926657 0.0072458739275801558 0 -0.039083352005469446 0.006657444291072988 0 -0.038589323613744793 -0.0012887364305725544 0 -0.038370472248010733 -0.0020291185162952911 0 -0.038893482689006081 -0.0018277635686541668 0 -0.039083352005469446 0.006657444291072988 0 -0.039358117024517435 0.0050838008612406572 0 -0.038370472248010733 -0.0020291185162952911 0 -0.038893482689006081 -0.0018277635686541668 0 -0.038730451130647214 -0.0023868008084366047 0 -0.039221814246561272 -0.0015240620065135235 0 -0.038893482689006081 -0.0018277635686541668 0 -0.03930623307672184 -0.0018949406223361079 0 -0.039580359147236309 -0.0016940027274505837 0 -0.039221814246561272 -0.0015240620065135235 0 -0.03930623307672184 -0.0018949406223361079 0 -0.039611821954879105 -0.0021060622963104082 0 -0.03930623307672184 -0.0018949406223361079 0 -0.039193031129305028 -0.0023109423802502521 0 -0.038893482689006081 -0.0018277635686541668 0 -0.03930623307672184 -0.0018949406223361079 0 -0.039193031129305028 -0.0023109423802502521 0 -0.038893482689006081 -0.0018277635686541668 0 -0.039193031129305028 -0.0023109423802502521 0 -0.038730451130647214 -0.0023868008084366047 0 -0.039193031129305028 -0.0023109423802502521 0 -0.03906429256409491 -0.0026854415137483449 0 -0.038730451130647214 -0.0023868008084366047 0 -0.039460241049643699 -0.0027547527452522389 0 -0.039193031129305028 -0.0023109423802502521 0 -0.03906429256409491 -0.0026854415137483449 0 -0.039460241049643699 -0.0027547527452522389 0 -0.03906429256409491 -0.0026854415137483449 0 -0.039096429237440757 -0.0030449212368312641 0 -0.03906429256409491 -0.0026854415137483449 0 -0.039096429237440757 -0.0030449212368312641 0 -0.038703528305101237 -0.0027424801981231601 0 -0.038667923169103537 -0.0030296344180934707 0 -0.038703528305101237 -0.0027424801981231601 0 -0.038323788431235836 -0.0027880151922531665 0 -0.038667923169103537 -0.0030296344180934707 0 -0.038323788431235836 -0.0027880151922531665 0 -0.038282284248075248 -0.0030683870769641652 0 -0.039096429237440757 -0.0030449212368312641 0 -0.038667923169103537 -0.0030296344180934707 0 -0.038703528305101237 -0.0027424801981231601 0 -0.03906429256409491 -0.0026854415137483449 0 -0.038703528305101237 -0.0027424801981231601 0 -0.038730451130647214 -0.0023868008084366047 0 -0.038703528305101237 -0.0027424801981231601 0 -0.038730451130647214 -0.0023868008084366047 0 -0.038307237104628501 -0.002797620209136781 0 -0.039416003874009897 0.0045201077805426312 0 -0.039708525446157134 0.0048706966813381576 0 -0.038370472248010733 -0.0020291185162952911 0 -0.038730451130647214 -0.0023868008084366047 0 -0.038307237104628501 -0.002797620209136781 0 -0.039358117024517435 0.0050838008612406572 0 -0.039708525446157134 0.0048706966813381576 0 -0.040768211165474876 0.010520976695540267 0 -0.040436436870943851 0.010377392990035109 0 -0.040469447309728533 0.010047382868679207 0 -0.040768211165474876 0.010520976695540267 0 -0.040469447309728533 0.010047382868679207 0 -0.040716026880049577 0.0096084851135230832 0 -0.040436436870943851 0.010377392990035109 0 -0.040222662058614453 0.010281623476462309 0 -0.040469447309728533 0.010047382868679207 0 -0.040222662058614453 0.010281623476462309 0 -0.040137951818818629 0.010545171089602639 0 -0.04024893505467339 0.010456131661901878 0 -0.040436436870943851 0.010377392990035109 0 -0.040222662058614453 0.010281623476462309 0 -0.04024893505467339 0.010456131661901878 0 -0.040222662058614453 0.010281623476462309 0 -0.040469447309728533 0.010047382868679207 0 -0.039947564899767848 0.010058838993705785 0 -0.040469447309728533 0.010047382868679207 0 -0.040716026880049577 0.0096084851135230832 0 -0.040270445892770033 0.0094895693991297828 0 -0.040469447309728533 0.010047382868679207 0 -0.040270445892770033 0.0094895693991297828 0 -0.039947564899767848 0.010058838993705785 0 -0.039708525446157134 0.0048706966813381576 0 -0.039224388225697446 0.0057782379316089994 0 -0.038355398910197618 0.0078516385708461995 0 -0.038958888067638218 0.0074789147128594977 0 -0.038601993827361181 0.0070845707498052328 0 -0.039224388225697446 0.0057782379316089994 0 -0.039945491386995033 0.0047049296602892123 0 -0.039590898301205754 0.0053356230381913887 0 -0.040293795714058618 0.0054397512649768691 0 -0.039663192876952809 0.0058506614016498931 0 -0.039708525446157134 0.0048706966813381576 0 -0.039945491386995033 0.0047049296602892123 0 -0.040270445892770033 0.0094895693991297828 0 -0.039947564899767848 0.010058838993705785 0 -0.039062353320617402 0.010201718399337102 0 -0.039224388225697446 0.0057782379316089994 0 -0.037898451279835446 0.0070937335128367553 0 -0.038355398910197618 0.0078516385708461995 0 -0.037015957443706476 0.0076887899994876529 0 -0.037604006647850394 0.0070316118913551452 0 -0.039224388225697446 0.0057782379316089994 0 -0.038708218639730625 0.0068128018729279351 0 -0.040538817253980119 0.0092270005854807012 0 -0.039062353320617402 0.010201718399337102 0 -0.038694867036777401 0.0089641893685655019 0 -0.040222662058614453 0.010281623476462309 0 -0.039947564899767848 0.010058838993705785 0 -0.040137951818818629 0.010545171089602639 0 -0.04006066203085016 0.010389404489540777 0 -0.040066794242493729 0.010415890472476923 0 -0.039947564899767848 0.010058838993705785 0 -0.039550403815640414 0.010754311670802926 0 -0.039062353320617402 0.010201718399337102 0 -0.039947564899767848 0.010058838993705785 0 -0.039550403815640414 0.010754311670802926 0 -0.040217775686986111 0.011133373365843935 0 -0.039550403815640414 0.010754311670802926 0 -0.039685210714440457 0.011215809941404562 0 -0.039024975957983814 0.011548496987114312 0 -0.040221977469922107 0.01194785883858852 0 -0.040217775686986111 0.011133373365843935 0 -0.040430819401254807 0.012272583637322721 0 -0.039550403815640414 0.010754311670802926 0 -0.039685210714440457 0.011215809941404562 0 -0.040217775686986111 0.011133373365843935 0 -0.040066794242493729 0.010415890472476923 0 -0.040024155788844037 0.010163767312265117 0 -0.03977182798184891 0.011589891791447263 0 -0.039601399311162799 0.012210880900079836 0 -0.039024975957983814 0.011548496987114312 0 -0.039685210714440457 0.011215809941404562 0 -0.03977182798184891 0.011589891791447263 0 -0.039024975957983814 0.011548496987114312 0 -0.03977182798184891 0.011589891791447263 0 -0.040221977469922107 0.01194785883858852 0 -0.039601399311162799 0.012210880900079836 0 -0.03977182798184891 0.011589891791447263 0 -0.040221977469922107 0.01194785883858852 0 -0.040217775686986111 0.011133373365843935 0 -0.039685210714440457 0.011215809941404562 0 -0.03977182798184891 0.011589891791447263 0 -0.040217775686986111 0.011133373365843935 0 -0.04024893505467339 0.010456131661901878 0 -0.040492899494799603 0.010633084531282451 0 -0.040502547546180795 0.010910070648733826 0 -0.040846676614439123 0.011266052178864266 0 -0.040768211165474876 0.010520976695540267 0 -0.040502547546180795 0.010910070648733826 0 -0.040137951818818629 0.010545171089602639 0 -0.04024893505467339 0.010456131661901878 0 -0.040360676323234736 0.010741847991351533 0 -0.040276543756909096 0.0091023378121369465 0 -0.040142456815304026 0.0087293737951170368 0 -0.040137951818818629 0.010545171089602639 0 -0.040360676323234736 0.010741847991351533 0 -0.040201096054593523 0.01084051224586044 0 -0.040436436870943851 0.010377392990035109 0 -0.04024893505467339 0.010456131661901878 0 -0.040492899494799603 0.010633084531282451 0 -0.040768211165474876 0.010520976695540267 0 -0.040436436870943851 0.010377392990035109 0 -0.040492899494799603 0.010633084531282451 0 -0.040768211165474876 0.010520976695540267 0 -0.040492899494799603 0.010633084531282451 0 -0.040502547546180795 0.010910070648733826 0 -0.040360676323234736 0.010741847991351533 0 -0.040201096054593523 0.01084051224586044 0 -0.040342934338096409 0.010902507099550689 0 -0.039568909386926657 0.0072458739275801558 0 -0.040142456815304026 0.0087293737951170368 0 -0.040709475652643934 0.01133391295743905 0 -0.040846676614439123 0.011266052178864266 0 -0.040502547546180795 0.010910070648733826 0 -0.040470396012157309 0.010978358966390982 0 -0.040360676323234736 0.010741847991351533 0 -0.040342934338096409 0.010902507099550689 0 -0.039975535239020414 0.008979292773944391 0 -0.039568909386926657 0.0072458739275801558 0 -0.040337209030460272 0.011047071655173567 0 -0.040470396012157309 0.010978358966390982 0 -0.040342934338096409 0.010902507099550689 0 -0.039975535239020414 0.008979292773944391 0 -0.040024155788844037 0.010163767312265117 0 -0.039568326951991875 0.010417208387064869 0 -0.040024155788844037 0.010163767312265117 0 -0.040337209030460272 0.011047071655173567 0 -0.040201096054593523 0.01084051224586044 0 -0.040342934338096409 0.010902507099550689 0 -0.040391809191790994 0.0083408165010091517 0 -0.039788238463172754 0.0086454079972998338 0 -0.040667989885875146 0.010075963110534027 0 -0.040595849656871068 0.013329073583209752 0 -0.040426835474575921 0.01227524324544136 0 -0.039816735863014853 0.012892875361512532 0 -0.039816735863014853 0.012892875361512532 0 -0.039601399311162799 0.012210880900079836 0 -0.039069354965287892 0.012972194762030591 0 -0.039816735863014853 0.012892875361512532 0 -0.039601399311162799 0.012210880900079836 0 -0.04000776079556894 0.012310090759086376 0 -0.040221977469922107 0.01194785883858852 0 -0.039601399311162799 0.012210880900079836 0 -0.04000776079556894 0.012310090759086376 0 -0.040426835474575921 0.01227524324544136 0 -0.039816735863014853 0.012892875361512532 0 -0.04000776079556894 0.012310090759086376 0 -0.040221977469922107 0.01194785883858852 0 -0.040426835474575921 0.01227524324544136 0 -0.04000776079556894 0.012310090759086376 0 -0.04004825228984011 0.010214924066837489 0 -0.040024155788844037 0.010163767312265117 0 -0.038765116097230184 0.01241462308184162 0 -0.037715831508436562 0.01213172235855994 0 -0.039024975957983814 0.011548496987114312 0 -0.039601399311162799 0.012210880900079836 0 -0.038765116097230184 0.01241462308184162 0 -0.039069354965287892 0.012972194762030591 0 -0.039601399311162799 0.012210880900079836 0 -0.038765116097230184 0.01241462308184162 0 -0.039024975957983814 0.011548496987114312 0 -0.038412677292917384 0.013211503085162321 0 -0.038765116097230184 0.01241462308184162 0 -0.039069354965287892 0.012972194762030591 0 -0.038412677292917384 0.013211503085162321 0 -0.038765116097230184 0.01241462308184162 0 -0.037715831508436562 0.01213172235855994 0 -0.037535633937393988 0.013546531628354447 0 -0.038412677292917384 0.013211503085162321 0 -0.037715831508436562 0.01213172235855994 0 -0.037535633937393988 0.013546531628354447 0 -0.037715831508436562 0.01213172235855994 0 -0.036266054739790485 0.012374064033669909 0 -0.037715831508436562 0.01213172235855994 0 -0.038359973560892588 0.010860334585083842 0 -0.03721190237144488 0.010756822845739951 0 -0.037715831508436562 0.01213172235855994 0 -0.039024975957983814 0.011548496987114312 0 -0.038359973560892588 0.010860334585083842 0 -0.039550403815640414 0.010754311670802926 0 -0.039024975957983814 0.011548496987114312 0 -0.038359973560892588 0.010860334585083842 0 -0.039550403815640414 0.010754311670802926 0 -0.038359973560892588 0.010860334585083842 0 -0.039062353320617402 0.010201718399337102 0 -0.038359973560892588 0.010860334585083842 0 -0.039062353320617402 0.010201718399337102 0 -0.038017787107986319 0.009892131202339732 0 -0.039062353320617402 0.010201718399337102 0 -0.038694867036777401 0.0089641893685655019 0 -0.038017787107986319 0.009892131202339732 0 -0.037898451279835446 0.0070937335128367553 0 -0.036373897810585899 0.0078413639702584539 0 -0.038694867036777401 0.0089641893685655019 0 -0.038017787107986319 0.009892131202339732 0 -0.036846482205726526 0.0087019469445175635 0 -0.03721190237144488 0.010756822845739951 0 -0.038017787107986319 0.009892131202339732 0 -0.036846482205726526 0.0087019469445175635 0 -0.038359973560892588 0.010860334585083842 0 -0.03721190237144488 0.010756822845739951 0 -0.038017787107986319 0.009892131202339732 0 -0.03721190237144488 0.010756822845739951 0 -0.036051579344573363 0.010526815820493267 0 -0.036846482205726526 0.0087019469445175635 0 -0.03499999577615244 0.0098323811176043597 0 -0.036051579344573363 0.010526815820493267 0 -0.036846482205726526 0.0087019469445175635 0 -0.03499999577615244 0.0098323811176043597 0 -0.034999994785714431 0.0084298047091225983 0 -0.036846482205726526 0.0087019469445175635 0 -0.03499999577615244 0.0098323811176043597 0 -0.036051579344573363 0.010526815820493267 0 -0.034999998670464265 0.011234912203580175 0 -0.035001277932334089 0.011236129670686719 0 -0.036000652387119497 0.012145881298126514 0 -0.036051579344573363 0.010526815820493267 0 -0.034999998670464265 0.011234912203580175 0 -0.036266054739790485 0.012374064033669909 0 -0.037715831508436562 0.01213172235855994 0 -0.03721190237144488 0.010756822845739951 0 -0.036266054739790485 0.012374064033669909 0 -0.03721190237144488 0.010756822845739951 0 -0.036051579344573363 0.010526815820493267 0 -0.036266054739790485 0.012374064033669909 0 -0.036525600677369152 0.012623786937435986 0 -0.036000652387119497 0.012145881298126514 0 -0.036060242494501592 0.013381400485004417 0 -0.037535633937393988 0.013546531628354447 0 -0.03627123890072842 0.012406600764076455 0 -0.034999995573082893 0.011234985902179173 0 -0.03627123890072842 0.012406600764076455 0 -0.034999994893074655 0.013120929192988717 0 -0.036060242494501592 0.013381400485004417 0 -0.03627123890072842 0.012406600764076455 0 -0.034999994893074655 0.013120929192988717 0 -0.035935807933714536 0.0050291917211511645 0 -0.034999979055608262 0.0048399475336582086 0 -0.035738721409063874 0.0057843200924802907 0 -0.035935807933714536 0.0050291917211511645 0 -0.036461477596949142 0.0055592762022764865 0 -0.035738721409063874 0.0057843200924802907 0 -0.035935807933714536 0.0050291917211511645 0 -0.035722603755238495 0.0043787316514084353 0 -0.036259374493624576 0.0045226810299164224 0 -0.035935807933714536 0.0050291917211511645 0 -0.034999979055608262 0.0048399475336582086 0 -0.035722603755238495 0.0043787316514084353 0 -0.037072878110111826 0.0050895202010631411 0 -0.036461477596949142 0.0055592762022764865 0 -0.037636229245212212 0.0057127145288545372 0 -0.03798905423542525 0.0045823540660825971 0 -0.036601597691413724 0.0040782131442931536 0 -0.036647876917818213 0.0042979173486566713 0 -0.035935807933714536 0.0050291917211511645 0 -0.036259374493624576 0.0045226810299164224 0 -0.036486922647864038 0.0049230807947793515 0 -0.036259374493624576 0.0045226810299164224 0 -0.036583644196430655 0.0046101709617955323 0 -0.036647876917818213 0.0042979173486566713 0 -0.036259374493624576 0.0045226810299164224 0 -0.036583644196430655 0.0046101709617955323 0 -0.036486922647864038 0.0049230807947793515 0 -0.036583644196430655 0.0046101709617955323 0 -0.036942219400838978 0.0047011420460438737 0 -0.036647876917818213 0.0042979173486566713 0 -0.036583644196430655 0.0046101709617955323 0 -0.036942219400838978 0.0047011420460438737 0 -0.036486922647864038 0.0049230807947793515 0 -0.036942219400838978 0.0047011420460438737 0 -0.037072878110111826 0.0050895202010631411 0 -0.036486922647864038 0.0049230807947793515 0 -0.037072878110111826 0.0050895202010631411 0 -0.036486922647864038 0.0049230807947793515 0 -0.036461477596949142 0.0055592762022764865 0 -0.035935807933714536 0.0050291917211511645 0 -0.036486922647864038 0.0049230807947793515 0 -0.036461477596949142 0.0055592762022764865 0 -0.036048591622899258 0.0065964508905468431 0 -0.037022485487607892 0.0053955060543203152 0 -0.035547143121879995 0.0065177888948218469 0 -0.036233003485001233 0.0062042135467960738 0 -0.036270339934536745 0.0053359914300296707 0 -0.036461477596949142 0.0055592762022764865 0 -0.035738721409063874 0.0057843200924802907 0 -0.036319222220691817 0.006767353851093374 0 -0.036461477596949142 0.0055592762022764865 0 -0.036319222220691817 0.006767353851093374 0 -0.037636229245212212 0.0057127145288545372 0 -0.034999980618956192 0.0063525111775315181 0 -0.035738721409063874 0.0057843200924802907 0 -0.036319222220691817 0.006767353851093374 0 -0.034999979055608262 0.0048399475336582086 0 -0.034999980618956192 0.0063525111775315181 0 -0.035738721409063874 0.0057843200924802907 0 -0.034999497181392406 0.007865373755505025 0 -0.035535620801174533 0.0074919212491687277 0 -0.035547143121879995 0.0065177888948218469 0 -0.034999980618956192 0.0063525111775315181 0 -0.035000002081548083 0.0078650434238387197 0 -0.036319222220691817 0.006767353851093374 0 -0.035001125994844437 0.0078631243684691727 0 -0.036048591622899258 0.0065964508905468431 0 -0.034999497181392406 0.007865373755505025 0 -0.035000084935951963 0.0084284743381659501 0 -0.035535620801174533 0.0074919212491687277 0 -0.035000084935951963 0.0084284743381659501 0 -0.035535620801174533 0.0074919212491687277 0 -0.035912991244379688 0.0077311998588909447 0 -0.035001463252777164 0.0084283045827092378 0 -0.036373897810585899 0.0078413639702584539 0 -0.035535620801174533 0.0074919212491687277 0 -0.035912991244379688 0.0077311998588909447 0 -0.036308823165484602 0.0069071656456676407 0 -0.035547143121879995 0.0065177888948218469 0 -0.036233003485001233 0.0062042135467960738 0 -0.036308823165484602 0.0069071656456676407 0 -0.035535620801174533 0.0074919212491687277 0 -0.035547143121879995 0.0065177888948218469 0 -0.036308823165484602 0.0069071656456676407 0 -0.036233003485001233 0.0062042135467960738 0 -0.036308823165484602 0.0069071656456676407 0 -0.036842762705313371 0.0060336525057555568 0 -0.037015957443706476 0.0076887899994876529 0 -0.035912991244379688 0.0077311998588909447 0 -0.036308823165484602 0.0069071656456676407 0 -0.037015957443706476 0.0076887899994876529 0 -0.037203841805258583 0.0066245444700169824 0 -0.037604006647850394 0.0070316118913551452 0 -0.037015957443706476 0.0076887899994876529 0 -0.036308823165484602 0.0069071656456676407 0 -0.037203841805258583 0.0066245444700169824 0 -0.036308823165484602 0.0069071656456676407 0 -0.037203841805258583 0.0066245444700169824 0 -0.036842762705313371 0.0060336525057555568 0 -0.037203841805258583 0.0066245444700169824 0 -0.037409818730543942 0.0057269373348351723 0 -0.037719527348342968 0.0060400657061375086 0 -0.037203841805258583 0.0066245444700169824 0 -0.036842762705313371 0.0060336525057555568 0 -0.037409818730543942 0.0057269373348351723 0 -0.036842762705313371 0.0060336525057555568 0 -0.037409818730543942 0.0057269373348351723 0 -0.037070026723023924 0.0052449983647908658 0 -0.036842762705313371 0.0060336525057555568 0 -0.037070026723023924 0.0052449983647908658 0 -0.036270339934536745 0.0053359914300296707 0 -0.037409818730543942 0.0057269373348351723 0 -0.037070026723023924 0.0052449983647908658 0 -0.037647142602617312 0.0048845926701682413 0 -0.036233003485001233 0.0062042135467960738 0 -0.036842762705313371 0.0060336525057555568 0 -0.036270339934536745 0.0053359914300296707 0 -0.03798905423542525 0.0045823540660825971 0 -0.039343318607557534 0.0044398274348995039 0 -0.037658250018524193 0.0035550200171655753 0 -0.03665967569276822 0.0036575685272186064 0 -0.036118394597389518 0.0033622790837924835 0 -0.036942219400838978 0.0047011420460438737 0 -0.03798905423542525 0.0045823540660825971 0 -0.036647876917818213 0.0042979173486566713 0 -0.037636229245212212 0.0057127145288545372 0 -0.03798905423542525 0.0045823540660825971 0 -0.039343318607557534 0.0044398274348995039 0 -0.037072878110111826 0.0050895202010631411 0 -0.037636229245212212 0.0057127145288545372 0 -0.03798905423542525 0.0045823540660825971 0 -0.036942219400838978 0.0047011420460438737 0 -0.037072878110111826 0.0050895202010631411 0 -0.03798905423542525 0.0045823540660825971 0 -0.037022485487607892 0.0053955060543203152 0 -0.037925468240378096 0.0042162371961796292 0 -0.037070026723023924 0.0052449983647908658 0 -0.036270339934536745 0.0053359914300296707 0 -0.037176696727744755 0.0042232413534402987 0 -0.037070026723023924 0.0052449983647908658 0 -0.037176696727744755 0.0042232413534402987 0 -0.037647142602617312 0.0048845926701682413 0 -0.037934996344924643 0.0041390180136410687 0 -0.038295625967847885 0.0045264096913849193 0 -0.037647142602617312 0.0048845926701682413 0 -0.037176696727744755 0.0042232413534402987 0 -0.037934996344924643 0.0041390180136410687 0 -0.037647142602617312 0.0048845926701682413 0 -0.038295625967847885 0.0045264096913849193 0 -0.039011968586064469 0.0041390451877186922 0 -0.038433523712291029 0.0037873099475375545 0 -0.037934996344924643 0.0041390180136410687 0 -0.038295625967847885 0.0045264096913849193 0 -0.038433523712291029 0.0037873099475375545 0 -0.038295625967847885 0.0045264096913849193 0 -0.03873627924594511 0.0051536684582632651 0 -0.039011968586064469 0.0041390451877186922 0 -0.038295625967847885 0.0045264096913849193 0 -0.03873627924594511 0.0051536684582632651 0 -0.038060963008164382 0.005409911298353995 0 -0.03873627924594511 0.0051536684582632651 0 -0.038444310831247989 0.0056205690609228429 0 -0.038707740648236962 0.0058963191567120042 0 -0.03873627924594511 0.0051536684582632651 0 -0.038060963008164382 0.005409911298353995 0 -0.038444310831247989 0.0056205690609228429 0 -0.038060963008164382 0.005409911298353995 0 -0.038115162292948694 0.005916069151547773 0 -0.038444310831247989 0.0056205690609228429 0 -0.038295625967847885 0.0045264096913849193 0 -0.038060963008164382 0.005409911298353995 0 -0.037647142602617312 0.0048845926701682413 0 -0.037409818730543942 0.0057269373348351723 0 -0.038060963008164382 0.005409911298353995 0 -0.037647142602617312 0.0048845926701682413 0 -0.037409818730543942 0.0057269373348351723 0 -0.038060963008164382 0.005409911298353995 0 -0.037719527348342968 0.0060400657061375086 0 -0.037719527348342968 0.0060400657061375086 0 -0.038115162292948694 0.005916069151547773 0 -0.037833475360112397 0.0064669211454610248 0 -0.038060963008164382 0.005409911298353995 0 -0.037719527348342968 0.0060400657061375086 0 -0.038115162292948694 0.005916069151547773 0 -0.037833475360112397 0.0064669211454610248 0 -0.038075886870111368 0.006743458015697308 0 -0.038318434030264518 0.0062949054440006556 0 -0.038115162292948694 0.005916069151547773 0 -0.037833475360112397 0.0064669211454610248 0 -0.038318434030264518 0.0062949054440006556 0 -0.037203841805258583 0.0066245444700169824 0 -0.037719527348342968 0.0060400657061375086 0 -0.037833475360112397 0.0064669211454610248 0 -0.037833475360112397 0.0064669211454610248 0 -0.037604006647850394 0.0070316118913551452 0 -0.038075886870111368 0.006743458015697308 0 -0.038355398910197618 0.0078516385708461995 0 -0.037604006647850394 0.0070316118913551452 0 -0.03822336174577827 0.0071307266188327442 0 -0.037203841805258583 0.0066245444700169824 0 -0.037833475360112397 0.0064669211454610248 0 -0.037604006647850394 0.0070316118913551452 0 -0.037604006647850394 0.0070316118913551452 0 -0.038075886870111368 0.006743458015697308 0 -0.03822336174577827 0.0071307266188327442 0 -0.038075886870111368 0.006743458015697308 0 -0.03822336174577827 0.0071307266188327442 0 -0.038423837774552702 0.0067706665919299606 0 -0.038958888067638218 0.0074789147128594977 0 -0.038601993827361181 0.0070845707498052328 0 -0.038861244605663987 0.0066053364381481409 0 -0.039945491386995033 0.0047049296602892123 0 -0.040022260128858268 0.0046113444294543764 0 -0.038355398910197618 0.0078516385708461995 0 -0.03822336174577827 0.0071307266188327442 0 -0.038601993827361181 0.0070845707498052328 0 -0.038601993827361181 0.0070845707498052328 0 -0.038423837774552702 0.0067706665919299606 0 -0.038861244605663987 0.0066053364381481409 0 -0.03822336174577827 0.0071307266188327442 0 -0.038601993827361181 0.0070845707498052328 0 -0.038423837774552702 0.0067706665919299606 0 -0.038075886870111368 0.006743458015697308 0 -0.038423837774552702 0.0067706665919299606 0 -0.038318434030264518 0.0062949054440006556 0 -0.038423837774552702 0.0067706665919299606 0 -0.038861244605663987 0.0066053364381481409 0 -0.038563302317261336 0.0063979955305754864 0 -0.038861244605663987 0.0066053364381481409 0 -0.038563302317261336 0.0063979955305754864 0 -0.038707740648236962 0.0058963191567120042 0 -0.040022260128858268 0.0046113444294543764 0 -0.04000132697282701 0.0047522779034901708 0 -0.038749975261219566 0.0062577940271517467 0 -0.038707740648236962 0.0058963191567120042 0 -0.039128699190835878 0.0060022604256338092 0 -0.038423837774552702 0.0067706665919299606 0 -0.038563302317261336 0.0063979955305754864 0 -0.038318434030264518 0.0062949054440006556 0 -0.038563302317261336 0.0063979955305754864 0 -0.038318434030264518 0.0062949054440006556 0 -0.038707740648236962 0.0058963191567120042 0 -0.038318434030264518 0.0062949054440006556 0 -0.038444310831247989 0.0056205690609228429 0 -0.038707740648236962 0.0058963191567120042 0 -0.038115162292948694 0.005916069151547773 0 -0.038318434030264518 0.0062949054440006556 0 -0.038444310831247989 0.0056205690609228429 0 -0.03873627924594511 0.0051536684582632651 0 -0.038707740648236962 0.0058963191567120042 0 -0.039308206761629216 0.0055576342346177953 0 -0.039308206761629216 0.0055576342346177953 0 -0.039128699190835878 0.0060022604256338092 0 -0.039809960041160712 0.0063406009021040027 0 -0.038707740648236962 0.0058963191567120042 0 -0.039308206761629216 0.0055576342346177953 0 -0.039128699190835878 0.0060022604256338092 0 -0.038749975261219566 0.0062577940271517467 0 -0.039128699190835878 0.0060022604256338092 0 -0.039809960041160712 0.0063406009021040027 0 -0.039945491386995033 0.0047049296602892123 0 -0.040181365483901763 0.0041219151474285107 0 -0.040022260128858268 0.0046113444294543764 0 -0.040181365483901763 0.0041219151474285107 0 -0.040013532564654272 0.0043617876918544242 0 -0.040015241086362223 0.0043730125747909335 0 -0.039998794030105915 0.0043709055249507777 0 -0.038667923169103537 -0.0030296344180934707 0 -0.038282284248075248 -0.0030683870769641652 0 -0.038943911045921015 -0.0035087263310228925 0 -0.039096429237440757 -0.0030449212368312641 0 -0.038943911045921015 -0.0035087263310228925 0 -0.039781863694540835 -0.0034445100714237281 0 -0.040181365483901763 0.0041219151474285107 0 -0.040243361294176022 0.0024134371953054221 0 -0.039096429237440757 -0.0030449212368312641 0 -0.038667923169103537 -0.0030296344180934707 0 -0.038943911045921015 -0.0035087263310228925 0 -0.040181365483901763 0.0041219151474285107 0 -0.040103950098143763 0.0045332611927131321 0 -0.039809960041160712 0.0063406009021040027 0 -0.040052151713769392 0.0051553697083376662 0 -0.041053300665487083 0.0054624357466046894 0 -0.039308206761629216 0.0055576342346177953 0 -0.039809960041160712 0.0063406009021040027 0 -0.040052151713769392 0.0051553697083376662 0 -0.040052151713769392 0.0051553697083376662 0 -0.039382632765706346 0.0048388689247530273 0 -0.039847624145813394 0.0041760255027980522 0 -0.040052151713769392 0.0051553697083376662 0 -0.039847624145813394 0.0041760255027980522 0 -0.040640147473174841 0.0042689210320083206 0 -0.039308206761629216 0.0055576342346177953 0 -0.040052151713769392 0.0051553697083376662 0 -0.039382632765706346 0.0048388689247530273 0 -0.03873627924594511 0.0051536684582632651 0 -0.039382632765706346 0.0048388689247530273 0 -0.039011968586064469 0.0041390451877186922 0 -0.03873627924594511 0.0051536684582632651 0 -0.039308206761629216 0.0055576342346177953 0 -0.039382632765706346 0.0048388689247530273 0 -0.039011968586064469 0.0041390451877186922 0 -0.039847624145813394 0.0041760255027980522 0 -0.039646527791439228 0.0032347270254888209 0 -0.039382632765706346 0.0048388689247530273 0 -0.039011968586064469 0.0041390451877186922 0 -0.039847624145813394 0.0041760255027980522 0 -0.039847624145813394 0.0041760255027980522 0 -0.040384628753369005 0.0032224900411840385 0 -0.039646527791439228 0.0032347270254888209 0 -0.039847624145813394 0.0041760255027980522 0 -0.040384628753369005 0.0032224900411840385 0 -0.040640147473174841 0.0042689210320083206 0 -0.040384628753369005 0.0032224900411840385 0 -0.039852961477062299 0.0021128140708134607 0 -0.040635225563289384 0.0018185209618497493 0 -0.040384628753369005 0.0032224900411840385 0 -0.039646527791439228 0.0032347270254888209 0 -0.039852961477062299 0.0021128140708134607 0 -0.039646527791439228 0.0032347270254888209 0 -0.039217310073036436 0.0023038030368671041 0 -0.038682687410195704 0.0026922066449623851 0 -0.039011968586064469 0.0041390451877186922 0 -0.039646527791439228 0.0032347270254888209 0 -0.038909871970717547 0.0033813146659015308 0 -0.038966788758584725 0.0033179640486815788 0 -0.038743502418085718 0.0032849903352754179 0 -0.039217310073036436 0.0023038030368671041 0 -0.038694019864498649 0.0019737435317714542 0 -0.038682687410195704 0.0026922066449623851 0 -0.039646527791439228 0.0032347270254888209 0 -0.039217310073036436 0.0023038030368671041 0 -0.039852961477062299 0.0021128140708134607 0 -0.039217310073036436 0.0023038030368671041 0 -0.039233179384836316 0.001447873576754766 0 -0.039852961477062299 0.0021128140708134607 0 -0.039217310073036436 0.0023038030368671041 0 -0.039233179384836316 0.001447873576754766 0 -0.038694019864498649 0.0019737435317714542 0 -0.039233179384836316 0.001447873576754766 0 -0.039852961477062299 0.0021128140708134607 0 -0.039948329396615981 0.0010262470575811752 0 -0.039852961477062299 0.0021128140708134607 0 -0.039948329396615981 0.0010262470575811752 0 -0.040635225563289384 0.0018185209618497493 0 -0.039948329396615981 0.0010262470575811752 0 -0.039527963809598457 0.00012387189169306089 0 -0.040740511066977937 0.000525450474129813 0 -0.040092684251522119 -0.00058734024845477823 0 -0.039527963809598457 0.00012387189169306089 0 -0.040740511066977937 0.000525450474129813 0 -0.039233179384836316 0.001447873576754766 0 -0.039527963809598457 0.00012387189169306089 0 -0.038279322871638412 0.0013137441422153538 0 -0.039233179384836316 0.001447873576754766 0 -0.039948329396615981 0.0010262470575811752 0 -0.039527963809598457 0.00012387189169306089 0 -0.039527963809598457 0.00012387189169306089 0 -0.038279322871638412 0.0013137441422153538 0 -0.038001916765150488 0.00044229515719354816 0 -0.03906413644421191 -0.00080736102873709434 0 -0.039527963809598457 0.00012387189169306089 0 -0.038484174427491448 -9.8248070023292698e-06 0 -0.038768742834564017 0.00019319252507644759 0 -0.038176225854199525 0.00024801503833571609 0 -0.038176225854199525 0.00024801503833571609 0 -0.037171272235795458 0.00034592586105030264 0 -0.038279322871638412 0.0013137441422153538 0 -0.038001916765150488 0.00044229515719354816 0 -0.037382745984071715 0.0011990558899812487 0 -0.038001916765150488 0.00044229515719354816 0 -0.037382745984071715 0.0011990558899812487 0 -0.036894937893363414 0.00062233906839666406 0 -0.038279322871638412 0.0013137441422153538 0 -0.037382745984071715 0.0011990558899812487 0 -0.037711906482963978 0.0017409892720892004 0 -0.037711906482963978 0.0017409892720892004 0 -0.037934313133752035 0.002223619934802312 0 -0.036905886844332984 0.0017959866060515725 0 -0.037711906482963978 0.0017409892720892004 0 -0.038123228975471206 0.0021257981595029438 0 -0.037934313133752035 0.002223619934802312 0 -0.039233179384836316 0.001447873576754766 0 -0.038279322871638412 0.0013137441422153538 0 -0.038694019864498649 0.0019737435317714542 0 -0.038279322871638412 0.0013137441422153538 0 -0.037711906482963978 0.0017409892720892004 0 -0.038123228975471206 0.0021257981595029438 0 -0.038279322871638412 0.0013137441422153538 0 -0.038694019864498649 0.0019737435317714542 0 -0.038123228975471206 0.0021257981595029438 0 -0.038743502418085718 0.0032849903352754179 0 -0.038374736537848321 0.0032618135394301439 0 -0.038123228975471206 0.0021257981595029438 0 -0.038682687410195704 0.0026922066449623851 0 -0.037865750514786842 0.0023259407496015946 0 -0.038909871970717547 0.0033813146659015308 0 -0.038433523712291029 0.0037873099475375545 0 -0.038127945259336021 0.0032849936928353364 0 -0.03838313697972353 0.003240508507098117 0 -0.038374736537848321 0.0032618135394301439 0 -0.038694019864498649 0.0019737435317714542 0 -0.038123228975471206 0.0021257981595029438 0 -0.038682687410195704 0.0026922066449623851 0 -0.039011968586064469 0.0041390451877186922 0 -0.038909871970717547 0.0033813146659015308 0 -0.038433523712291029 0.0037873099475375545 0 -0.038374736537848321 0.0032618135394301439 0 -0.037661266280460834 0.0026702290804134919 0 -0.037925468240378096 0.0042162371961796292 0 -0.038374736537848321 0.0032618135394301439 0 -0.037176696727744755 0.0042232413534402987 0 -0.037934996344924643 0.0041390180136410687 0 -0.038127945259336021 0.0032849936928353364 0 -0.037934996344924643 0.0041390180136410687 0 -0.038433523712291029 0.0037873099475375545 0 -0.038127945259336021 0.0032849936928353364 0 -0.039343318607557534 0.0044398274348995039 0 -0.041223317814412741 0.0029208602440896304 0 -0.038612175740485026 0.0022786941523650897 0 -0.039343318607557534 0.0044398274348995039 0 -0.037658250018524193 0.0035550200171655753 0 -0.038612175740485026 0.0022786941523650897 0 -0.037658250018524193 0.0035550200171655753 0 -0.036971214765655944 0.0026451919421019436 0 -0.038612175740485026 0.0022786941523650897 0 -0.03798905423542525 0.0045823540660825971 0 -0.037658250018524193 0.0035550200171655753 0 -0.035991714575125636 0.0036760148799659768 0 -0.037658250018524193 0.0035550200171655753 0 -0.036971214765655944 0.0026451919421019436 0 -0.036574066788937397 0.0030980391477818908 0 -0.037661266280460834 0.0026702290804134919 0 -0.03697840584856521 0.0023822989124820302 0 -0.036971214765655944 0.0026451919421019436 0 -0.038612175740485026 0.0022786941523650897 0 -0.035911748004007288 0.0015778785518399915 0 -0.036905886844332984 0.0017959866060515725 0 -0.036640021996934516 0.001226690415181003 0 -0.035911748004007288 0.0015778785518399915 0 -0.037382745984071715 0.0011990558899812487 0 -0.037711906482963978 0.0017409892720892004 0 -0.036905886844332984 0.0017959866060515725 0 -0.037382745984071715 0.0011990558899812487 0 -0.036905886844332984 0.0017959866060515725 0 -0.036640021996934516 0.001226690415181003 0 -0.037382745984071715 0.0011990558899812487 0 -0.036894937893363414 0.00062233906839666406 0 -0.036640021996934516 0.001226690415181003 0 -0.037494761642717138 -0.00097747236174393977 0 -0.038484174427491448 -9.8248070023292698e-06 0 -0.037321883060488226 0.00012334067041021892 0 -0.037321883060488226 0.00012334067041021892 0 -0.035795226898151136 0.00048230744410785375 0 -0.036239216200516199 -8.8886031846891175e-05 0 -0.036598783767857357 -0.00068485733538331648 0 -0.037321883060488226 0.00012334067041021892 0 -0.036239216200516199 -8.8886031846891175e-05 0 -0.037494761642717138 -0.00097747236174393977 0 -0.036598783767857357 -0.00068485733538331648 0 -0.037321883060488226 0.00012334067041021892 0 -0.037171272235795458 0.00034592586105030264 0 -0.036562363839689173 0.00040325510095052381 0 -0.036894937893363414 0.00062233906839666406 0 -0.036640021996934516 0.001226690415181003 0 -0.036033262113377991 0.00099532252779545045 0 -0.036894937893363414 0.00062233906839666406 0 -0.036033262113377991 0.00099532252779545045 0 -0.035795226898151136 0.00048230744410785375 0 -0.035795226898151136 0.00048230744410785375 0 -0.035519784677566196 0.00021528632307646743 0 -0.03562941189924522 0.0014171864830934159 0 -0.035754759077311273 0.00071082615380508164 0 -0.035949420563175898 0.0020546798924505477 0 -0.036033262113377991 0.00099532252779545045 0 -0.035795226898151136 0.00048230744410785375 0 -0.03562941189924522 0.0014171864830934159 0 -0.035795226898151136 0.00048230744410785375 0 -0.036239216200516199 -8.8886031846891175e-05 0 -0.035519784677566196 0.00021528632307646743 0 -0.035922191869865713 -0.0005855446492051043 0 -0.036239216200516199 -8.8886031846891175e-05 0 -0.035519784677566196 0.00021528632307646743 0 -0.036598783767857357 -0.00068485733538331648 0 -0.035922191869865713 -0.0005855446492051043 0 -0.036239216200516199 -8.8886031846891175e-05 0 -0.035394195710122645 -0.0011321087068384872 0 -0.035922191869865713 -0.0005855446492051043 0 -0.035519784677566196 0.00021528632307646743 0 -0.035577446254965797 -0.00044701984411043395 0 -0.035754759077311273 0.00071082615380508164 0 -0.034999991330864122 -0.00080433978367961366 0 -0.036041307708245728 0.00089187920141415005 0 -0.03499999782424406 0.0012615916404535405 0 -0.03499999782424406 0.0012615916404535405 0 -0.035766243562222154 0.0017732140748978273 0 -0.034999998267344158 0.0033274125579406473 0 -0.036041307708245728 0.00089187920141415005 0 -0.035766243562222154 0.0017732140748978273 0 -0.036341536994119773 0.0024929209860959541 0 -0.036041307708245728 0.00089187920141415005 0 -0.03499999782424406 0.0012615916404535405 0 -0.035766243562222154 0.0017732140748978273 0 -0.035766243562222154 0.0017732140748978273 0 -0.036341536994119773 0.0024929209860959541 0 -0.034999998267344158 0.0033274125579406473 0 -0.036640021996934516 0.001226690415181003 0 -0.036033262113377991 0.00099532252779545045 0 -0.035911748004007288 0.0015778785518399915 0 -0.036033262113377991 0.00099532252779545045 0 -0.035911748004007288 0.0015778785518399915 0 -0.03562941189924522 0.0014171864830934159 0 -0.036971214765655944 0.0026451919421019436 0 -0.035911748004007288 0.0015778785518399915 0 -0.036177615803379998 0.0024611513076320574 0 -0.03562941189924522 0.0014171864830934159 0 -0.036177615803379998 0.0024611513076320574 0 -0.03608291317711014 0.0028019804662850101 0 -0.035911748004007288 0.0015778785518399915 0 -0.03562941189924522 0.0014171864830934159 0 -0.036177615803379998 0.0024611513076320574 0 -0.037658250018524193 0.0035550200171655753 0 -0.036574066788937397 0.0030980391477818908 0 -0.035991714575125636 0.0036760148799659768 0 -0.03562941189924522 0.0014171864830934159 0 -0.03608291317711014 0.0028019804662850101 0 -0.035991714575125636 0.0036760148799659768 0 -0.035949420563175898 0.0020546798924505477 0 -0.036118394597389518 0.0033622790837924835 0 -0.036971214765655944 0.0026451919421019436 0 -0.036177615803379998 0.0024611513076320574 0 -0.036574066788937397 0.0030980391477818908 0 -0.03608291317711014 0.0028019804662850101 0 -0.036574066788937397 0.0030980391477818908 0 -0.035991714575125636 0.0036760148799659768 0 -0.036177615803379998 0.0024611513076320574 0 -0.03608291317711014 0.0028019804662850101 0 -0.036574066788937397 0.0030980391477818908 0 -0.036118394597389518 0.0033622790837924835 0 -0.036121524055963257 0.0033731198681755605 0 -0.035722603755238495 0.0043787316514084353 0 -0.036259374493624576 0.0045226810299164224 0 -0.03661192138997571 0.0040845897246021773 0 -0.036259374493624576 0.0045226810299164224 0 -0.03661192138997571 0.0040845897246021773 0 -0.036647876917818213 0.0042979173486566713 0 -0.034999979055608262 0.0048399475336582086 0 -0.035722603755238495 0.0043787316514084353 0 -0.034999999400615996 0.0033274676789241185 0 -0.036118394597389518 0.0033622790837924835 0 -0.035001672289993582 0.0033271664197046477 0 -0.036341536994119773 0.0024929209860959541 0 -0.036640907960190171 0.0040859440214784538 0 -0.034999998267344158 0.0033274125579406473 0 -0.035722603755238495 0.0043787316514084353 0 -0.03661192138997571 0.0040845897246021773 0 -0.034999999400615996 0.0033274676789241185 0 -0.040590396341189439 -0.0017969105442168028 0 -0.040970264092462461 -0.00095626653391999263 0 -0.040393244210891056 -0.0012501800905400915 0 -0.040590396341189439 -0.0017969105442168028 0 -0.03991804659977969 -0.0018614801139012445 0 -0.040191160185988353 -0.0022981555606462587 0 -0.040590396341189439 -0.0017969105442168028 0 -0.040393244210891056 -0.0012501800905400915 0 -0.03991804659977969 -0.0018614801139012445 0 -0.040590396341189439 -0.0017969105442168028 0 -0.041038716075992111 -0.0015978254554170389 0 -0.040970264092462461 -0.00095626653391999263 0 -0.040590396341189439 -0.0017969105442168028 0 -0.041038716075992111 -0.0015978254554170389 0 -0.040901054182320949 -0.0021058490343331443 0 -0.040970264092462461 -0.00095626653391999263 0 -0.040393244210891056 -0.0012501800905400915 0 -0.040592372426922811 -0.0005279942575649255 0 -0.040393244210891056 -0.0012501800905400915 0 -0.039792121377662283 -0.00081404740017101485 0 -0.040592372426922811 -0.0005279942575649255 0 -0.039792121377662283 -0.00081404740017101485 0 -0.039861364888699527 -0.0013846910994310272 0 -0.039281354322328099 -0.0016145842347674976 0 -0.040393244210891056 -0.0012501800905400915 0 -0.039792121377662283 -0.00081404740017101485 0 -0.039861364888699527 -0.0013846910994310272 0 -0.039792121377662283 -0.00081404740017101485 0 -0.038994222828626038 -0.0011241021385748199 0 -0.039281354322328099 -0.0016145842347674976 0 -0.038994222828626038 -0.0011241021385748199 0 -0.038693861054653965 -0.00068610921331405627 0 -0.038287866583410456 -0.0011778804790932257 0 -0.039792121377662283 -0.00081404740017101485 0 -0.038994222828626038 -0.0011241021385748199 0 -0.03925832793273782 -0.00063106257581219453 0 -0.038994222828626038 -0.0011241021385748199 0 -0.038693861054653965 -0.00068610921331405627 0 -0.03925832793273782 -0.00063106257581219453 0 -0.038994222828626038 -0.0011241021385748199 0 -0.03849274068210088 -0.0016908435080283189 0 -0.039281354322328099 -0.0016145842347674976 0 -0.038994222828626038 -0.0011241021385748199 0 -0.03849274068210088 -0.0016908435080283189 0 -0.038287866583410456 -0.0011778804790932257 0 -0.03849274068210088 -0.0016908435080283189 0 -0.039281354322328099 -0.0016145842347674976 0 -0.0385466164222684 -0.0021754915925176603 0 -0.039281354322328099 -0.0016145842347674976 0 -0.0385466164222684 -0.0021754915925176603 0 -0.039180110666061398 -0.002252465415163944 0 -0.040393244210891056 -0.0012501800905400915 0 -0.039861364888699527 -0.0013846910994310272 0 -0.03991804659977969 -0.0018614801139012445 0 -0.039861364888699527 -0.0013846910994310272 0 -0.039281354322328099 -0.0016145842347674976 0 -0.03991804659977969 -0.0018614801139012445 0 -0.039281354322328099 -0.0016145842347674976 0 -0.03991804659977969 -0.0018614801139012445 0 -0.039180110666061398 -0.002252465415163944 0 -0.03991804659977969 -0.0018614801139012445 0 -0.039730441638958253 -0.0024164154273548992 0 -0.040191160185988353 -0.0022981555606462587 0 -0.03991804659977969 -0.0018614801139012445 0 -0.039730441638958253 -0.0024164154273548992 0 -0.039180110666061398 -0.002252465415163944 0 -0.039730441638958253 -0.0024164154273548992 0 -0.039258284454586768 -0.0029335699762728581 0 -0.039965883682966816 -0.0026716855429139486 0 -0.039730441638958253 -0.0024164154273548992 0 -0.039965883682966816 -0.0026716855429139486 0 -0.040191160185988353 -0.0022981555606462587 0 -0.0385466164222684 -0.0021754915925176603 0 -0.03855704663104801 -0.0025384248573754858 0 -0.039180110666061398 -0.002252465415163944 0 -0.039730441638958253 -0.0024164154273548992 0 -0.039180110666061398 -0.002252465415163944 0 -0.039258284454586768 -0.0029335699762728581 0 -0.03855704663104801 -0.0025384248573754858 0 -0.039180110666061398 -0.002252465415163944 0 -0.039258284454586768 -0.0029335699762728581 0 -0.03855704663104801 -0.0025384248573754858 0 -0.039258284454586768 -0.0029335699762728581 0 -0.03825424661438602 -0.0029605936902362268 0 -0.039964818648974929 -0.0044943306045873372 0 -0.039258284454586768 -0.0029335699762728581 0 -0.038457706766715422 -0.0038119779684196832 0 -0.039258284454586768 -0.0029335699762728581 0 -0.038457706766715422 -0.0038119779684196832 0 -0.03825424661438602 -0.0029605936902362268 0 -0.037941036864243834 -0.0023889555405980549 0 -0.03827992915410771 -0.0027513122767061035 0 -0.040128540045851507 -0.0028443859182124475 0 -0.039258284454586768 -0.0029335699762728581 0 -0.039898889987212027 -0.002817157161237524 0 -0.039258284454586768 -0.0029335699762728581 0 -0.039965883682966816 -0.0026716855429139486 0 -0.039898889987212027 -0.002817157161237524 0 -0.039965883682966816 -0.0026716855429139486 0 -0.039898889987212027 -0.002817157161237524 0 -0.04019001617741292 -0.0027647194465045388 0 -0.040128540045851507 -0.0028443859182124475 0 -0.039898889987212027 -0.002817157161237524 0 -0.04019001617741292 -0.0027647194465045388 0 -0.04019001617741292 -0.0027647194465045388 0 -0.040429170524733958 -0.0026852046462719362 0 -0.040337149717189928 -0.0025693275111832591 0 -0.040429170524733958 -0.0026852046462719362 0 -0.040337149717189928 -0.0025693275111832591 0 -0.040612777305647149 -0.002588505924572031 0 -0.040337149717189928 -0.0025693275111832591 0 -0.040593663018903776 -0.0023230802304799523 0 -0.040612777305647149 -0.002588505924572031 0 -0.039965883682966816 -0.0026716855429139486 0 -0.04019001617741292 -0.0027647194465045388 0 -0.040337149717189928 -0.0025693275111832591 0 -0.039965883682966816 -0.0026716855429139486 0 -0.040337149717189928 -0.0025693275111832591 0 -0.040191160185988353 -0.0022981555606462587 0 -0.040590396341189439 -0.0017969105442168028 0 -0.040191160185988353 -0.0022981555606462587 0 -0.040593663018903776 -0.0023230802304799523 0 -0.040337149717189928 -0.0025693275111832591 0 -0.040191160185988353 -0.0022981555606462587 0 -0.040593663018903776 -0.0023230802304799523 0 -0.040590396341189439 -0.0017969105442168028 0 -0.040901054182320949 -0.0021058490343331443 0 -0.040593663018903776 -0.0023230802304799523 0 -0.040901054182320949 -0.0021058490343331443 0 -0.040593663018903776 -0.0023230802304799523 0 -0.040816953666170698 -0.002448325292028757 0 -0.040593663018903776 -0.0023230802304799523 0 -0.040816953666170698 -0.002448325292028757 0 -0.040612777305647149 -0.002588505924572031 0 -0.040778669341603312 -0.0026270893351424212 0 -0.040816953666170698 -0.002448325292028757 0 -0.040612777305647149 -0.002588505924572031 0 -0.040778669341603312 -0.0026270893351424212 0 -0.040816953666170698 -0.002448325292028757 0 -0.040949272394240031 -0.0025632394734423042 0 -0.040816953666170698 -0.002448325292028757 0 -0.040949272394240031 -0.0025632394734423042 0 -0.04101886046212995 -0.0023082474783805008 0 -0.040949272394240031 -0.0025632394734423042 0 -0.041215781998168971 -0.0023352327431917768 0 -0.04101886046212995 -0.0023082474783805008 0 -0.040949272394240031 -0.0025632394734423042 0 -0.041086298184662612 -0.0025222995894861682 0 -0.041215781998168971 -0.0023352327431917768 0 -0.040949272394240031 -0.0025632394734423042 0 -0.040978471026470634 -0.0026363617476862756 0 -0.041086298184662612 -0.0025222995894861682 0 -0.040845183083120407 -0.0026691506270714112 0 -0.040949272394240031 -0.0025632394734423042 0 -0.040978471026470634 -0.0026363617476862756 0 -0.040764528341885466 -0.0027545634847329554 0 -0.040978471026470634 -0.0026363617476862756 0 -0.041247430640526529 -0.0025302906801347412 0 -0.040978471026470634 -0.0026363617476862756 0 -0.041247430640526529 -0.0025302906801347412 0 -0.041220914362549391 -0.0025313752953202303 0 -0.040978471026470634 -0.0026363617476862756 0 -0.041086298184662612 -0.0025222995894861682 0 -0.041220914362549391 -0.0025313752953202303 0 -0.039970966592903175 0.00030665628147591504 0 -0.039948073748426183 0.0010376781055336066 0 -0.040764528341885466 -0.0027545634847329554 0 -0.040719285375701117 -0.0033661468635737485 0 -0.040207135076214512 -0.0030785212166754418 0 -0.039948073748426183 0.0010376781055336066 0 -0.039954608913747074 0.0010325236387208213 0 -0.041086298184662612 -0.0025222995894861682 0 -0.041220914362549391 -0.0025313752953202303 0 -0.041215781998168971 -0.0023352327431917768 0 -0.041316036055371666 -0.0025231074101706766 0 -0.041220914362549391 -0.0025313752953202303 0 -0.041215781998168971 -0.0023352327431917768 0 -0.039948073748426183 0.0010376781055336066 0 -0.04088723115195636 0.0015093074061925651 0 -0.041316036055371666 -0.0025231074101706766 0 -0.041215781998168971 -0.0023352327431917768 0 -0.041783947317162909 -0.0017889647329150903 0 -0.041215781998168971 -0.0023352327431917768 0 -0.041267969722230097 -0.0019418686285641409 0 -0.041783947317162909 -0.0017889647329150903 0 -0.042631724967546379 0.0065596359842831561 0 -0.041876346111651842 0.0057768964230508427 0 -0.042577348103909445 0.0052071406788211528 0 -0.041038716075992111 -0.0015978254554170389 0 -0.040901054182320949 -0.0021058490343331443 0 -0.041267969722230097 -0.0019418686285641409 0 -0.040901054182320949 -0.0021058490343331443 0 -0.040816953666170698 -0.002448325292028757 0 -0.04101886046212995 -0.0023082474783805008 0 -0.040901054182320949 -0.0021058490343331443 0 -0.041267969722230097 -0.0019418686285641409 0 -0.04101886046212995 -0.0023082474783805008 0 -0.041215781998168971 -0.0023352327431917768 0 -0.041267969722230097 -0.0019418686285641409 0 -0.04101886046212995 -0.0023082474783805008 0 -0.039795071542035862 -0.0029739758674260947 0 -0.039096429237440757 -0.0030449212368312641 0 -0.039781863694540835 -0.0034445100714237281 0 -0.040719285375701117 -0.0033661468635737485 0 -0.039781863694540835 -0.0034445100714237281 0 -0.040207135076214512 -0.0030785212166754418 0 -0.039948073748426183 0.0010376781055336066 0 -0.040243361294176022 0.0024134371953054221 0 -0.042631724967546379 0.0065596359842831561 0 -0.041177850838193968 0.0064334651551562804 0 -0.041876346111651842 0.0057768964230508427 0 -0.039795071542035862 -0.0029739758674260947 0 -0.039781863694540835 -0.0034445100714237281 0 -0.040207135076214512 -0.0030785212166754418 0 -0.03975399753861842 0.0063049197083833546 0 -0.041177850838193968 0.0064334651551562804 0 -0.041053300665487083 0.0054624357466046894 0 -0.041177850838193968 0.0064334651551562804 0 -0.041876346111651842 0.0057768964230508427 0 -0.041053300665487083 0.0054624357466046894 0 -0.040052151713769392 0.0051553697083376662 0 -0.041053300665487083 0.0054624357466046894 0 -0.040640147473174841 0.0042689210320083206 0 -0.041053300665487083 0.0054624357466046894 0 -0.041656514305190538 0.0046078787909456806 0 -0.040640147473174841 0.0042689210320083206 0 -0.041876346111651842 0.0057768964230508427 0 -0.041053300665487083 0.0054624357466046894 0 -0.041656514305190538 0.0046078787909456806 0 -0.041656514305190538 0.0046078787909456806 0 -0.042577348103909445 0.0052071406788211528 0 -0.042506323847943672 0.0037546942211910484 0 -0.041876346111651842 0.0057768964230508427 0 -0.041656514305190538 0.0046078787909456806 0 -0.042577348103909445 0.0052071406788211528 0 -0.041656514305190538 0.0046078787909456806 0 -0.042506323847943672 0.0037546942211910484 0 -0.041304149238150685 0.0030258077259219633 0 -0.041656514305190538 0.0046078787909456806 0 -0.040640147473174841 0.0042689210320083206 0 -0.041304149238150685 0.0030258077259219633 0 -0.040384628753369005 0.0032224900411840385 0 -0.040640147473174841 0.0042689210320083206 0 -0.041304149238150685 0.0030258077259219633 0 -0.041038716075992111 -0.0015978254554170389 0 -0.041267969722230097 -0.0019418686285641409 0 -0.041443973289126745 -0.0012511708442655221 0 -0.041783947317162909 -0.0017889647329150903 0 -0.042041765100186437 -0.00085793488378710272 0 -0.041443973289126745 -0.0012511708442655221 0 -0.04088723115195636 0.0015093074061925651 0 -0.041382851388817449 0.0014208044696714143 0 -0.041267969722230097 -0.0019418686285641409 0 -0.041783947317162909 -0.0017889647329150903 0 -0.041443973289126745 -0.0012511708442655221 0 -0.042041765100186437 -0.00085793488378710272 0 -0.041443973289126745 -0.0012511708442655221 0 -0.041550596624324962 -0.00027872745203883333 0 -0.040970264092462461 -0.00095626653391999263 0 -0.041443973289126745 -0.0012511708442655221 0 -0.041550596624324962 -0.00027872745203883333 0 -0.041038716075992111 -0.0015978254554170389 0 -0.040970264092462461 -0.00095626653391999263 0 -0.041443973289126745 -0.0012511708442655221 0 -0.041382851388817449 0.0014208044696714143 0 -0.041590114666934186 0.0011887761121238858 0 -0.042041765100186437 -0.00085793488378710272 0 -0.041550596624324962 -0.00027872745203883333 0 -0.042037037727729987 2.3453793425650363e-05 0 -0.041550596624324962 -0.00027872745203883333 0 -0.041701020461354196 0.00031869970160006665 0 -0.042037037727729987 2.3453793425650363e-05 0 -0.041701020461354196 0.00031869970160006665 0 -0.042037037727729987 2.3453793425650363e-05 0 -0.041746623193491039 0.00061385783393446151 0 -0.041590114666934186 0.0011887761121238858 0 -0.041626858261209057 0.0010353229490046132 0 -0.041550596624324962 -0.00027872745203883333 0 -0.041701020461354196 0.00031869970160006665 0 -0.041481936492182223 0.00031016904527832574 0 -0.041550596624324962 -0.00027872745203883333 0 -0.041481936492182223 0.00031016904527832574 0 -0.041139635955309825 -7.6812146610101469e-05 0 -0.040384628753369005 0.0032224900411840385 0 -0.041304149238150685 0.0030258077259219633 0 -0.040635225563289384 0.0018185209618497493 0 -0.042506323847943672 0.0037546942211910484 0 -0.042309569063780389 0.002190885506899646 0 -0.041304149238150685 0.0030258077259219633 0 -0.042309569063780389 0.002190885506899646 0 -0.041404175682289032 0.001475661113984787 0 -0.041746623193491039 0.00061385783393446151 0 -0.042309569063780389 0.002190885506899646 0 -0.041304149238150685 0.0030258077259219633 0 -0.041404175682289032 0.001475661113984787 0 -0.041304149238150685 0.0030258077259219633 0 -0.041404175682289032 0.001475661113984787 0 -0.040635225563289384 0.0018185209618497493 0 -0.039948329396615981 0.0010262470575811752 0 -0.040635225563289384 0.0018185209618497493 0 -0.040740511066977937 0.000525450474129813 0 -0.041404175682289032 0.001475661113984787 0 -0.040635225563289384 0.0018185209618497493 0 -0.040740511066977937 0.000525450474129813 0 -0.041404175682289032 0.001475661113984787 0 -0.040740511066977937 0.000525450474129813 0 -0.041746623193491039 0.00061385783393446151 0 -0.041054648734643887 -0.00031133880421278001 0 -0.040740511066977937 0.000525450474129813 0 -0.041746623193491039 0.00061385783393446151 0 -0.041532942277553525 -4.6846305515365331e-05 0 -0.041054648734643887 -0.00031133880421278001 0 -0.041746623193491039 0.00061385783393446151 0 -0.041054648734643887 -0.00031133880421278001 0 -0.040092684251522119 -0.00058734024845477823 0 -0.040740511066977937 0.000525450474129813 0 -0.041481936492182223 0.00031016904527832574 0 -0.041608364647875359 0.00052313609137909852 0 -0.041328135185516639 0.00058479405026568238 0 -0.041701020461354196 0.00031869970160006665 0 -0.041481936492182223 0.00031016904527832574 0 -0.041608364647875359 0.00052313609137909852 0 -0.041608364647875359 0.00052313609137909852 0 -0.041498478081558363 0.00057468977317034738 0 -0.041328135185516639 0.00058479405026568238 0 -0.041701020461354196 0.00031869970160006665 0 -0.041608364647875359 0.00052313609137909852 0 -0.041746623193491039 0.00061385783393446151 0 -0.041532942277553525 -4.6846305515365331e-05 0 -0.041608364647875359 0.00052313609137909852 0 -0.041746623193491039 0.00061385783393446151 0 -0.041532942277553525 -4.6846305515365331e-05 0 -0.041608364647875359 0.00052313609137909852 0 -0.041498478081558363 0.00057468977317034738 0 -0.041468261612431133 7.7507001780486784e-05 0 -0.041498478081558363 0.00057468977317034738 0 -0.041495525785716129 0.00064574831020960965 0 -0.041498478081558363 0.00057468977317034738 0 -0.041495525785716129 0.00064574831020960965 0 -0.04132277026796459 0.00094331516835423161 0 -0.041495525785716129 0.00064574831020960965 0 -0.04145978716785758 0.0011616823146319703 0 -0.04132277026796459 0.00094331516835423161 0 -0.041668992437745182 0.00042760819407741359 0 -0.041495525785716129 0.00064574831020960965 0 -0.04145978716785758 0.0011616823146319703 0 -0.04145978716785758 0.0011616823146319703 0 -0.04132277026796459 0.00094331516835423161 0 -0.041118234916376971 0.0012791003241168174 0 -0.04132277026796459 0.00094331516835423161 0 -0.040998538511800284 0.00076066979507569631 0 -0.041328135185516639 0.00058479405026568238 0 -0.04132277026796459 0.00094331516835423161 0 -0.040998538511800284 0.00076066979507569631 0 -0.041118234916376971 0.0012791003241168174 0 -0.041498478081558363 0.00057468977317034738 0 -0.04132277026796459 0.00094331516835423161 0 -0.041328135185516639 0.00058479405026568238 0 -0.041481936492182223 0.00031016904527832574 0 -0.041328135185516639 0.00058479405026568238 0 -0.041139635955309825 -7.6812146610101469e-05 0 -0.041328135185516639 0.00058479405026568238 0 -0.040824486715595291 0.00019657911900316667 0 -0.041139635955309825 -7.6812146610101469e-05 0 -0.040998538511800284 0.00076066979507569631 0 -0.041328135185516639 0.00058479405026568238 0 -0.040824486715595291 0.00019657911900316667 0 -0.040998538511800284 0.00076066979507569631 0 -0.040824486715595291 0.00019657911900316667 0 -0.04052630424101919 0.00043926162450854214 0 -0.040824486715595291 0.00019657911900316667 0 -0.040229447268182165 -0.00018345285365054228 0 -0.04052630424101919 0.00043926162450854214 0 -0.040824486715595291 0.00019657911900316667 0 -0.040592372426922811 -0.0005279942575649255 0 -0.040229447268182165 -0.00018345285365054228 0 -0.040824486715595291 0.00019657911900316667 0 -0.040592372426922811 -0.0005279942575649255 0 -0.041139635955309825 -7.6812146610101469e-05 0 -0.040970264092462461 -0.00095626653391999263 0 -0.040592372426922811 -0.0005279942575649255 0 -0.041139635955309825 -7.6812146610101469e-05 0 -0.040970264092462461 -0.00095626653391999263 0 -0.041550596624324962 -0.00027872745203883333 0 -0.041139635955309825 -7.6812146610101469e-05 0 -0.039069734706008573 -0.00024107498400658601 0 -0.039432986636530346 0.00024156852609933895 0 -0.038796403352977529 0.0002297156185600643 0 -0.039069734706008573 -0.00024107498400658601 0 -0.039653559202429849 -0.00024559741629486714 0 -0.039432986636530346 0.00024156852609933895 0 -0.039069734706008573 -0.00024107498400658601 0 -0.038796403352977529 0.0002297156185600643 0 -0.038377461704951286 -0.00017354870444176516 0 -0.039069734706008573 -0.00024107498400658601 0 -0.038693861054653965 -0.00068610921331405627 0 -0.038377461704951286 -0.00017354870444176516 0 -0.039069734706008573 -0.00024107498400658601 0 -0.03925832793273782 -0.00063106257581219453 0 -0.039653559202429849 -0.00024559741629486714 0 -0.039069734706008573 -0.00024107498400658601 0 -0.038693861054653965 -0.00068610921331405627 0 -0.03925832793273782 -0.00063106257581219453 0 -0.039792121377662283 -0.00081404740017101485 0 -0.03925832793273782 -0.00063106257581219453 0 -0.039653559202429849 -0.00024559741629486714 0 -0.039792121377662283 -0.00081404740017101485 0 -0.040592372426922811 -0.0005279942575649255 0 -0.040229447268182165 -0.00018345285365054228 0 -0.039792121377662283 -0.00081404740017101485 0 -0.040229447268182165 -0.00018345285365054228 0 -0.039653559202429849 -0.00024559741629486714 0 -0.039653559202429849 -0.00024559741629486714 0 -0.040028900736978831 0.00019207692840029805 0 -0.039432986636530346 0.00024156852609933895 0 -0.040229447268182165 -0.00018345285365054228 0 -0.039653559202429849 -0.00024559741629486714 0 -0.040028900736978831 0.00019207692840029805 0 -0.040028900736978831 0.00019207692840029805 0 -0.039766514022405379 0.00089036056282128175 0 -0.039432986636530346 0.00024156852609933895 0 -0.040229447268182165 -0.00018345285365054228 0 -0.040028900736978831 0.00019207692840029805 0 -0.04052630424101919 0.00043926162450854214 0 -0.040028900736978831 0.00019207692840029805 0 -0.04052630424101919 0.00043926162450854214 0 -0.040498289732717685 0.00088862332366184207 0 -0.040998538511800284 0.00076066979507569631 0 -0.04052630424101919 0.00043926162450854214 0 -0.040498289732717685 0.00088862332366184207 0 -0.040028900736978831 0.00019207692840029805 0 -0.039766514022405379 0.00089036056282128175 0 -0.040498289732717685 0.00088862332366184207 0 -0.03920111914456946 0.00066603533175086705 0 -0.039766514022405379 0.00089036056282128175 0 -0.039432986636530346 0.00024156852609933895 0 -0.03920111914456946 0.00066603533175086705 0 -0.039766514022405379 0.00089036056282128175 0 -0.038689805238476906 0.001172684175988914 0 -0.03920111914456946 0.00066603533175086705 0 -0.039432986636530346 0.00024156852609933895 0 -0.038796403352977529 0.0002297156185600643 0 -0.038796403352977529 0.0002297156185600643 0 -0.038689805238476906 0.001172684175988914 0 -0.038067294234569241 0.00048609999551859094 0 -0.03920111914456946 0.00066603533175086705 0 -0.038796403352977529 0.0002297156185600643 0 -0.038689805238476906 0.001172684175988914 0 -0.039766514022405379 0.00089036056282128175 0 -0.0395984690175296 0.0016258667826234787 0 -0.040543366000377688 0.0014263062711876435 0 -0.039766514022405379 0.00089036056282128175 0 -0.038689805238476906 0.001172684175988914 0 -0.0395984690175296 0.0016258667826234787 0 -0.038689805238476906 0.001172684175988914 0 -0.0395984690175296 0.0016258667826234787 0 -0.038756023961393125 0.0022719704282177689 0 -0.040998538511800284 0.00076066979507569631 0 -0.040498289732717685 0.00088862332366184207 0 -0.041118234916376971 0.0012791003241168174 0 -0.039766514022405379 0.00089036056282128175 0 -0.040498289732717685 0.00088862332366184207 0 -0.040543366000377688 0.0014263062711876435 0 -0.040543366000377688 0.0014263062711876435 0 -0.041118234916376971 0.0012791003241168174 0 -0.041289675384287738 0.0018505420977237756 0 -0.040498289732717685 0.00088862332366184207 0 -0.040543366000377688 0.0014263062711876435 0 -0.041118234916376971 0.0012791003241168174 0 -0.040243625669679838 0.0049519385293489669 0 -0.041289675384287738 0.0018505420977237756 0 -0.039945078958060758 0.0028987166908897486 0 -0.04145978716785758 0.0011616823146319703 0 -0.041118234916376971 0.0012791003241168174 0 -0.041289675384287738 0.0018505420977237756 0 -0.040543366000377688 0.0014263062711876435 0 -0.041289675384287738 0.0018505420977237756 0 -0.039945078958060758 0.0028987166908897486 0 -0.041984206364239746 0.00089899035652082091 0 -0.04145978716785758 0.0011616823146319703 0 -0.041289675384287738 0.0018505420977237756 0 -0.038756023961393125 0.0022719704282177689 0 -0.039945078958060758 0.0028987166908897486 0 -0.038611699396511379 0.0033157465159685635 0 -0.0395984690175296 0.0016258667826234787 0 -0.040543366000377688 0.0014263062711876435 0 -0.039945078958060758 0.0028987166908897486 0 -0.0395984690175296 0.0016258667826234787 0 -0.038756023961393125 0.0022719704282177689 0 -0.039945078958060758 0.0028987166908897486 0 -0.039059589786540477 0.0039373719258310918 0 -0.039945078958060758 0.0028987166908897486 0 -0.038611699396511379 0.0033157465159685635 0 -0.039059589786540477 0.0039373719258310918 0 -0.038393615740910179 0.0042726594918073846 0 -0.038611699396511379 0.0033157465159685635 0 -0.038611699396511379 0.0033157465159685635 0 -0.037847752599648128 0.0037650503497355606 0 -0.037699994524289793 0.0029289950222667967 0 -0.038393615740910179 0.0042726594918073846 0 -0.038611699396511379 0.0033157465159685635 0 -0.037847752599648128 0.0037650503497355606 0 -0.038756023961393125 0.0022719704282177689 0 -0.038611699396511379 0.0033157465159685635 0 -0.037699994524289793 0.0029289950222667967 0 -0.037699994524289793 0.0029289950222667967 0 -0.036351340638123418 0.0032550299845745365 0 -0.037151532467171053 0.0022575163393762404 0 -0.037847752599648128 0.0037650503497355606 0 -0.037699994524289793 0.0029289950222667967 0 -0.036933809988531525 0.0039956266780277827 0 -0.035587382865347725 0.00440752104652625 0 -0.036351340638123418 0.0032550299845745365 0 -0.034608370261890384 0.0035358717295587987 0 -0.035587382865347725 0.00440752104652625 0 -0.036933809988531525 0.0039956266780277827 0 -0.036351340638123418 0.0032550299845745365 0 -0.036351340638123418 0.0032550299845745365 0 -0.035859894214361421 0.0023758391561165709 0 -0.034608370261890384 0.0035358717295587987 0 -0.037699994524289793 0.0029289950222667967 0 -0.036933809988531525 0.0039956266780277827 0 -0.036351340638123418 0.0032550299845745365 0 -0.036351340638123418 0.0032550299845745365 0 -0.035859894214361421 0.0023758391561165709 0 -0.037151532467171053 0.0022575163393762404 0 -0.035859894214361421 0.0023758391561165709 0 -0.036671865961220948 0.0016892565045636047 0 -0.036123098552476328 0.0011618564934422135 0 -0.035859894214361421 0.0023758391561165709 0 -0.036671865961220948 0.0016892565045636047 0 -0.037151532467171053 0.0022575163393762404 0 -0.036671865961220948 0.0016892565045636047 0 -0.037151532467171053 0.0022575163393762404 0 -0.037689577406888969 0.0012623957929924962 0 -0.038030881754664271 0.0019539575693712863 0 -0.037151532467171053 0.0022575163393762404 0 -0.037689577406888969 0.0012623957929924962 0 -0.038689805238476906 0.001172684175988914 0 -0.038030881754664271 0.0019539575693712863 0 -0.037689577406888969 0.0012623957929924962 0 -0.038689805238476906 0.001172684175988914 0 -0.038756023961393125 0.0022719704282177689 0 -0.038030881754664271 0.0019539575693712863 0 -0.038756023961393125 0.0022719704282177689 0 -0.037699994524289793 0.0029289950222667967 0 -0.038030881754664271 0.0019539575693712863 0 -0.037699994524289793 0.0029289950222667967 0 -0.038030881754664271 0.0019539575693712863 0 -0.037151532467171053 0.0022575163393762404 0 -0.03288119782303691 0.0048829014085790276 0 -0.032980856950748705 0.0036639564194649644 0 -0.034608370261890384 0.0035358717295587987 0 -0.032980856950748705 0.0036639564194649644 0 -0.034608370261890384 0.0035358717295587987 0 -0.033790781718711894 0.002919739040732971 0 -0.035859894214361421 0.0023758391561165709 0 -0.034608370261890384 0.0035358717295587987 0 -0.03460576193159387 0.0019943945461349181 0 -0.034608370261890384 0.0035358717295587987 0 -0.03460576193159387 0.0019943945461349181 0 -0.033790781718711894 0.002919739040732971 0 -0.035859894214361421 0.0023758391561165709 0 -0.03460576193159387 0.0019943945461349181 0 -0.036123098552476328 0.0011618564934422135 0 -0.03460576193159387 0.0019943945461349181 0 -0.033790781718711894 0.002919739040732971 0 -0.03299019295094302 0.0024528254774005311 0 -0.032980856950748705 0.0036639564194649644 0 -0.033790781718711894 0.002919739040732971 0 -0.03299019295094302 0.0024528254774005311 0 -0.032980856950748705 0.0036639564194649644 0 -0.03299019295094302 0.0024528254774005311 0 -0.031841453301274976 0.0033202744255311522 0 -0.03299019295094302 0.0024528254774005311 0 -0.03356219637075724 0.00096203751690541778 0 -0.031346102730719708 0.0022310129236024199 0 -0.03460576193159387 0.0019943945461349181 0 -0.03299019295094302 0.0024528254774005311 0 -0.03356219637075724 0.00096203751690541778 0 -0.03356219637075724 0.00096203751690541778 0 -0.035303425654270006 0.00078248132042636298 0 -0.034877484469702645 -0.00021432758269995827 0 -0.03460576193159387 0.0019943945461349181 0 -0.03356219637075724 0.00096203751690541778 0 -0.035303425654270006 0.00078248132042636298 0 -0.03460576193159387 0.0019943945461349181 0 -0.035303425654270006 0.00078248132042636298 0 -0.036123098552476328 0.0011618564934422135 0 -0.035303425654270006 0.00078248132042636298 0 -0.034877484469702645 -0.00021432758269995827 0 -0.035906905949521097 -5.7369099350359115e-05 0 -0.035789533258938563 -0.00072477800354101213 0 -0.034877484469702645 -0.00021432758269995827 0 -0.035906905949521097 -5.7369099350359115e-05 0 -0.035789533258938563 -0.00072477800354101213 0 -0.034877484469702645 -0.00021432758269995827 0 -0.034614501285982986 -0.0011425556015779372 0 -0.034877484469702645 -0.00021432758269995827 0 -0.033655020344256381 -0.00025507467537484577 0 -0.034614501285982986 -0.0011425556015779372 0 -0.03356219637075724 0.00096203751690541778 0 -0.033655020344256381 -0.00025507467537484577 0 -0.031745550765502756 0.00013120795208126682 0 -0.03356219637075724 0.00096203751690541778 0 -0.034877484469702645 -0.00021432758269995827 0 -0.033655020344256381 -0.00025507467537484577 0 -0.03726645274704983 0.00072013081384434058 0 -0.038067294234569241 0.00048609999551859094 0 -0.037569070509476304 -0.00010269224447433158 0 -0.03726645274704983 0.00072013081384434058 0 -0.036708132867810411 0.00039900593234063977 0 -0.037569070509476304 -0.00010269224447433158 0 -0.038689805238476906 0.001172684175988914 0 -0.038067294234569241 0.00048609999551859094 0 -0.037689577406888969 0.0012623957929924962 0 -0.03726645274704983 0.00072013081384434058 0 -0.038067294234569241 0.00048609999551859094 0 -0.037689577406888969 0.0012623957929924962 0 -0.036671865961220948 0.0016892565045636047 0 -0.03726645274704983 0.00072013081384434058 0 -0.037689577406888969 0.0012623957929924962 0 -0.036671865961220948 0.0016892565045636047 0 -0.03726645274704983 0.00072013081384434058 0 -0.036123098552476328 0.0011618564934422135 0 -0.035303425654270006 0.00078248132042636298 0 -0.036123098552476328 0.0011618564934422135 0 -0.036708132867810411 0.00039900593234063977 0 -0.03726645274704983 0.00072013081384434058 0 -0.036123098552476328 0.0011618564934422135 0 -0.036708132867810411 0.00039900593234063977 0 -0.036708132867810411 0.00039900593234063977 0 -0.036797880860313041 -0.00049520027994886325 0 -0.037569070509476304 -0.00010269224447433158 0 -0.036708132867810411 0.00039900593234063977 0 -0.035906905949521097 -5.7369099350359115e-05 0 -0.036797880860313041 -0.00049520027994886325 0 -0.035303425654270006 0.00078248132042636298 0 -0.036708132867810411 0.00039900593234063977 0 -0.035906905949521097 -5.7369099350359115e-05 0 -0.035789533258938563 -0.00072477800354101213 0 -0.036797880860313041 -0.00049520027994886325 0 -0.036434791090961406 -0.00095980571819294553 0 -0.035789533258938563 -0.00072477800354101213 0 -0.035906905949521097 -5.7369099350359115e-05 0 -0.036797880860313041 -0.00049520027994886325 0 -0.036797880860313041 -0.00049520027994886325 0 -0.037424755925241769 -0.00072708132488050507 0 -0.037569070509476304 -0.00010269224447433158 0 -0.037424755925241769 -0.00072708132488050507 0 -0.037569070509476304 -0.00010269224447433158 0 -0.038023725334884836 -0.0006739272995848856 0 -0.038796403352977529 0.0002297156185600643 0 -0.038067294234569241 0.00048609999551859094 0 -0.038377461704951286 -0.00017354870444176516 0 -0.038067294234569241 0.00048609999551859094 0 -0.037569070509476304 -0.00010269224447433158 0 -0.038377461704951286 -0.00017354870444176516 0 -0.038693861054653965 -0.00068610921331405627 0 -0.038377461704951286 -0.00017354870444176516 0 -0.038023725334884836 -0.0006739272995848856 0 -0.037569070509476304 -0.00010269224447433158 0 -0.038377461704951286 -0.00017354870444176516 0 -0.038023725334884836 -0.0006739272995848856 0 -0.038693861054653965 -0.00068610921331405627 0 -0.038023725334884836 -0.0006739272995848856 0 -0.038287866583410456 -0.0011778804790932257 0 -0.038023725334884836 -0.0006739272995848856 0 -0.038287866583410456 -0.0011778804790932257 0 -0.03762253013801236 -0.0012007780118060342 0 -0.037424755925241769 -0.00072708132488050507 0 -0.038023725334884836 -0.0006739272995848856 0 -0.03762253013801236 -0.0012007780118060342 0 -0.037424755925241769 -0.00072708132488050507 0 -0.03762253013801236 -0.0012007780118060342 0 -0.036997304167169259 -0.0010496980652985538 0 -0.03762253013801236 -0.0012007780118060342 0 -0.037849023346765924 -0.0016539575098855684 0 -0.037092849408892306 -0.0016678052604470494 0 -0.03849274068210088 -0.0016908435080283189 0 -0.038287866583410456 -0.0011778804790932257 0 -0.037849023346765924 -0.0016539575098855684 0 -0.038287866583410456 -0.0011778804790932257 0 -0.03762253013801236 -0.0012007780118060342 0 -0.037849023346765924 -0.0016539575098855684 0 -0.03849274068210088 -0.0016908435080283189 0 -0.0385466164222684 -0.0021754915925176603 0 -0.037979690530013405 -0.0020715817567991458 0 -0.03849274068210088 -0.0016908435080283189 0 -0.037849023346765924 -0.0016539575098855684 0 -0.037979690530013405 -0.0020715817567991458 0 -0.037849023346765924 -0.0016539575098855684 0 -0.037979690530013405 -0.0020715817567991458 0 -0.03745528290958787 -0.0020315526141673518 0 -0.037849023346765924 -0.0016539575098855684 0 -0.03745528290958787 -0.0020315526141673518 0 -0.037092849408892306 -0.0016678052604470494 0 -0.037979690530013405 -0.0020715817567991458 0 -0.037549114817778076 -0.0023755540926899675 0 -0.037974141906325726 -0.0024496792785713927 0 -0.037979690530013405 -0.0020715817567991458 0 -0.03745528290958787 -0.0020315526141673518 0 -0.037549114817778076 -0.0023755540926899675 0 -0.03745528290958787 -0.0020315526141673518 0 -0.037549114817778076 -0.0023755540926899675 0 -0.037139420678380254 -0.0025100917416334351 0 -0.037549114817778076 -0.0023755540926899675 0 -0.037139420678380254 -0.0025100917416334351 0 -0.037527162835287842 -0.0027144991798380663 0 -0.037549114817778076 -0.0023755540926899675 0 -0.037974141906325726 -0.0024496792785713927 0 -0.037527162835287842 -0.0027144991798380663 0 -0.0385466164222684 -0.0021754915925176603 0 -0.037979690530013405 -0.0020715817567991458 0 -0.037974141906325726 -0.0024496792785713927 0 -0.036541262547017873 -0.0023767195728772489 0 -0.036526879141981612 -0.0027291670721206742 0 -0.037139420678380254 -0.0025100917416334351 0 -0.036541262547017873 -0.0023767195728772489 0 -0.036526879141981612 -0.0027291670721206742 0 -0.03601097184944714 -0.002476718305049426 0 -0.036526879141981612 -0.0027291670721206742 0 -0.03601097184944714 -0.002476718305049426 0 -0.036034905576360951 -0.0027838173915171864 0 -0.036526879141981612 -0.0027291670721206742 0 -0.036034905576360951 -0.0027838173915171864 0 -0.036295110033603403 -0.0030352926184424277 0 -0.036526879141981612 -0.0027291670721206742 0 -0.037139420678380254 -0.0025100917416334351 0 -0.037300540759349188 -0.0030695485684100582 0 -0.036541262547017873 -0.0023767195728772489 0 -0.037139420678380254 -0.0025100917416334351 0 -0.036830479420894902 -0.0021025347954616615 0 -0.03745528290958787 -0.0020315526141673518 0 -0.036830479420894902 -0.0021025347954616615 0 -0.037092849408892306 -0.0016678052604470494 0 -0.03745528290958787 -0.0020315526141673518 0 -0.037139420678380254 -0.0025100917416334351 0 -0.036830479420894902 -0.0021025347954616615 0 -0.036830479420894902 -0.0021025347954616615 0 -0.036547497752113307 -0.0017845025805898764 0 -0.037092849408892306 -0.0016678052604470494 0 -0.036830479420894902 -0.0021025347954616615 0 -0.036149610215980947 -0.0020528791368864094 0 -0.036547497752113307 -0.0017845025805898764 0 -0.036541262547017873 -0.0023767195728772489 0 -0.036830479420894902 -0.0021025347954616615 0 -0.036149610215980947 -0.0020528791368864094 0 -0.036541262547017873 -0.0023767195728772489 0 -0.036149610215980947 -0.0020528791368864094 0 -0.03601097184944714 -0.002476718305049426 0 -0.036149610215980947 -0.0020528791368864094 0 -0.036547497752113307 -0.0017845025805898764 0 -0.0358658410609103 -0.0015300081243043121 0 -0.036551373727467446 -0.0014002340106406843 0 -0.036434791090961406 -0.00095980571819294553 0 -0.0358658410609103 -0.0015300081243043121 0 -0.036547497752113307 -0.0017845025805898764 0 -0.036551373727467446 -0.0014002340106406843 0 -0.0358658410609103 -0.0015300081243043121 0 -0.03762253013801236 -0.0012007780118060342 0 -0.037092849408892306 -0.0016678052604470494 0 -0.036997304167169259 -0.0010496980652985538 0 -0.036551373727467446 -0.0014002340106406843 0 -0.037092849408892306 -0.0016678052604470494 0 -0.036997304167169259 -0.0010496980652985538 0 -0.036547497752113307 -0.0017845025805898764 0 -0.036551373727467446 -0.0014002340106406843 0 -0.037092849408892306 -0.0016678052604470494 0 -0.036797880860313041 -0.00049520027994886325 0 -0.037424755925241769 -0.00072708132488050507 0 -0.036997304167169259 -0.0010496980652985538 0 -0.036797880860313041 -0.00049520027994886325 0 -0.036997304167169259 -0.0010496980652985538 0 -0.036434791090961406 -0.00095980571819294553 0 -0.036551373727467446 -0.0014002340106406843 0 -0.036997304167169259 -0.0010496980652985538 0 -0.036434791090961406 -0.00095980571819294553 0 -0.035789533258938563 -0.00072477800354101213 0 -0.036434791090961406 -0.00095980571819294553 0 -0.0358658410609103 -0.0015300081243043121 0 -0.035789533258938563 -0.00072477800354101213 0 -0.034614501285982986 -0.0011425556015779372 0 -0.0358658410609103 -0.0015300081243043121 0 -0.034614501285982986 -0.0011425556015779372 0 -0.0358658410609103 -0.0015300081243043121 0 -0.035055586287365735 -0.0019755451777023311 0 -0.034614501285982986 -0.0011425556015779372 0 -0.033741370679844535 -0.0022432232093014428 0 -0.035055586287365735 -0.0019755451777023311 0 -0.033655020344256381 -0.00025507467537484577 0 -0.034614501285982986 -0.0011425556015779372 0 -0.0331474131813995 -0.0010350679765416273 0 -0.034614501285982986 -0.0011425556015779372 0 -0.0331474131813995 -0.0010350679765416273 0 -0.033741370679844535 -0.0022432232093014428 0 -0.033741370679844535 -0.0022432232093014428 0 -0.03367904427065626 -0.0034532187027802213 0 -0.031773438866452834 -0.0033126338643935283 0 -0.033741370679844535 -0.0022432232093014428 0 -0.035203304419829495 -0.0026961053517359315 0 -0.03367904427065626 -0.0034532187027802213 0 -0.035203304419829495 -0.0026961053517359315 0 -0.035747494429241272 -0.0034521015647603188 0 -0.03367904427065626 -0.0034532187027802213 0 -0.036149610215980947 -0.0020528791368864094 0 -0.0358658410609103 -0.0015300081243043121 0 -0.035633496263819162 -0.0022214302472367262 0 -0.035633496263819162 -0.0022214302472367262 0 -0.035055586287365735 -0.0019755451777023311 0 -0.035203304419829495 -0.0026961053517359315 0 -0.0358658410609103 -0.0015300081243043121 0 -0.035633496263819162 -0.0022214302472367262 0 -0.035055586287365735 -0.0019755451777023311 0 -0.036149610215980947 -0.0020528791368864094 0 -0.035633496263819162 -0.0022214302472367262 0 -0.03601097184944714 -0.002476718305049426 0 -0.033741370679844535 -0.0022432232093014428 0 -0.035055586287365735 -0.0019755451777023311 0 -0.035203304419829495 -0.0026961053517359315 0 -0.035633496263819162 -0.0022214302472367262 0 -0.035203304419829495 -0.0026961053517359315 0 -0.03601097184944714 -0.002476718305049426 0 -0.035203304419829495 -0.0026961053517359315 0 -0.03601097184944714 -0.002476718305049426 0 -0.036034905576360951 -0.0027838173915171864 0 -0.035203304419829495 -0.0026961053517359315 0 -0.036034905576360951 -0.0027838173915171864 0 -0.035703158002522176 -0.0029680749514272172 0 -0.035203304419829495 -0.0026961053517359315 0 -0.035703158002522176 -0.0029680749514272172 0 -0.035747494429241272 -0.0034521015647603188 0 -0.036034905576360951 -0.0027838173915171864 0 -0.035856924802186621 -0.0031463225879950099 0 -0.036295110033603403 -0.0030352926184424277 0 -0.036034905576360951 -0.0027838173915171864 0 -0.035703158002522176 -0.0029680749514272172 0 -0.035856924802186621 -0.0031463225879950099 0 -0.035856924802186621 -0.0031463225879950099 0 -0.035747494429241272 -0.0034521015647603188 0 -0.036295110033603403 -0.0030352926184424277 0 -0.035703158002522176 -0.0029680749514272172 0 -0.035856924802186621 -0.0031463225879950099 0 -0.035747494429241272 -0.0034521015647603188 0 -0.026664413131259695 0.0048221156311949349 0 -0.026052469948345942 0.0046938721561551018 0 -0.017238329519946149 0.012677223169028589 0 -0.017082089236951689 0.01256464293656207 0 -0.016965868483397671 0.012681756418908934 0 -0.017238329519946149 0.012677223169028589 0 -0.017198070614468201 0.012537305794980476 0 -0.017297965732135625 0.012471235898225909 0 -0.017238329519946149 0.012677223169028589 0 -0.017082089236951689 0.01256464293656207 0 -0.017198070614468201 0.012537305794980476 0 -0.016965868483397671 0.012681756418908934 0 -0.016896526489708321 0.012459953596127681 0 -0.016756847942092951 0.012471387707390563 0 -0.017082089236951689 0.01256464293656207 0 -0.016965868483397671 0.012681756418908934 0 -0.016896526489708321 0.012459953596127681 0 -0.016896526489708321 0.012459953596127681 0 -0.016938861651968572 0.012378959571413634 0 -0.017127203130065893 0.012433554520391207 0 -0.017082089236951689 0.01256464293656207 0 -0.016896526489708321 0.012459953596127681 0 -0.017127203130065893 0.012433554520391207 0 -0.016896526489708321 0.012459953596127681 0 -0.016938861651968572 0.012378959571413634 0 -0.01671353468146048 0.01241312063514804 0 -0.017198070614468201 0.012537305794980476 0 -0.017127203130065893 0.012433554520391207 0 -0.017297965732135625 0.012471235898225909 0 -0.017082089236951689 0.01256464293656207 0 -0.017198070614468201 0.012537305794980476 0 -0.017127203130065893 0.012433554520391207 0 -0.017127203130065893 0.012433554520391207 0 -0.017297965732135625 0.012471235898225909 0 -0.017327198736753705 0.012292201939354236 0 -0.017297965732135625 0.012471235898225909 0 -0.017493062765908875 0.012406467519094404 0 -0.017327198736753705 0.012292201939354236 0 -0.017238329519946149 0.012677223169028589 0 -0.017297965732135625 0.012471235898225909 0 -0.017493062765908875 0.012406467519094404 0 -0.035605268958556438 -0.0016819356555187099 0 -0.037410695265880922 -0.0018645268798554594 0 -0.037236067768336274 -0.0028577313483395526 0 -0.035114978436928949 -0.00038768652432508388 0 -0.035605268958556438 -0.0016819356555187099 0 -0.037410695265880922 -0.0018645268798554594 0 -0.038457706766715422 -0.0038119779684196832 0 -0.037236067768336274 -0.0028577313483395526 0 -0.03825424661438602 -0.0029605936902362268 0 -0.037089523393093599 -0.0018891340997045567 0 -0.037187702491242335 -0.0020892310121272926 0 -0.03855704663104801 -0.0025384248573754858 0 -0.03825424661438602 -0.0029605936902362268 0 -0.037848213774062424 -0.0027037568186825105 0 -0.037236067768336274 -0.0028577313483395526 0 -0.03825424661438602 -0.0029605936902362268 0 -0.037848213774062424 -0.0027037568186825105 0 -0.03855704663104801 -0.0025384248573754858 0 -0.037848213774062424 -0.0027037568186825105 0 -0.037974141906325726 -0.0024496792785713927 0 -0.0385466164222684 -0.0021754915925176603 0 -0.03855704663104801 -0.0025384248573754858 0 -0.037974141906325726 -0.0024496792785713927 0 -0.037236067768336274 -0.0028577313483395526 0 -0.037848213774062424 -0.0027037568186825105 0 -0.037527162835287842 -0.0027144991798380663 0 -0.037848213774062424 -0.0027037568186825105 0 -0.037974141906325726 -0.0024496792785713927 0 -0.037527162835287842 -0.0027144991798380663 0 -0.037236067768336274 -0.0028577313483395526 0 -0.037527162835287842 -0.0027144991798380663 0 -0.037300540759349188 -0.0030695485684100582 0 -0.037139420678380254 -0.0025100917416334351 0 -0.037527162835287842 -0.0027144991798380663 0 -0.037300540759349188 -0.0030695485684100582 0 -0.026664413131259695 0.0048221156311949349 0 -0.026972854489097021 0.0056376682420759177 0 -0.037878063771708437 -0.0032064457998770665 0 -0.037410695265880922 -0.0018645268798554594 0 -0.037236067768336274 -0.0028577313483395526 0 -0.037878063771708437 -0.0032064457998770665 0 -0.037236067768336274 -0.0028577313483395526 0 -0.037300540759349188 -0.0030695485684100582 0 -0.036526879141981612 -0.0027291670721206742 0 -0.037300540759349188 -0.0030695485684100582 0 -0.036295110033603403 -0.0030352926184424277 0 -0.035747494429241272 -0.0034521015647603188 0 -0.037300540759349188 -0.0030695485684100582 0 -0.036295110033603403 -0.0030352926184424277 0 -0.026664413131259695 0.0048221156311949349 0 -0.028676661635067959 0.0042738371318444338 0 -0.023187899582305653 0.009794085298983032 0 -0.020482944615190023 0.0086291026273012539 0 -0.024744418541456644 0.0071202961527278841 0 -0.023187899582305653 0.009794085298983032 0 -0.020482944615190023 0.0086291026273012539 0 -0.021382370802868297 0.011450999701535559 0 -0.020482944615190023 0.0086291026273012539 0 -0.024744418541456644 0.0071202961527278841 0 -0.020912969061179822 0.0051172276117928813 0 -0.024744418541456644 0.0071202961527278841 0 -0.027336179729275285 0.0071726130353570415 0 -0.028507255039449387 0.0039000472072577333 0 -0.027336179729275285 0.0071726130353570415 0 -0.029502865742327411 0.0070835389058299929 0 -0.028507255039449387 0.0039000472072577333 0 -0.029502865742327411 0.0070835389058299929 0 -0.026600345484261573 0.010504118647430664 0 -0.03062183878520235 0.011167184037737558 0 -0.027336179729275285 0.0071726130353570415 0 -0.029502865742327411 0.0070835389058299929 0 -0.026600345484261573 0.010504118647430664 0 -0.024744418541456644 0.0071202961527278841 0 -0.027336179729275285 0.0071726130353570415 0 -0.026600345484261573 0.010504118647430664 0 -0.023187899582305653 0.009794085298983032 0 -0.024744418541456644 0.0071202961527278841 0 -0.026600345484261573 0.010504118647430664 0 -0.026600345484261573 0.010504118647430664 0 -0.022993618416589038 0.012468113272438724 0 -0.02543667721561349 0.015584579758567599 0 -0.026600345484261573 0.010504118647430664 0 -0.028563432413974153 0.013793427197581741 0 -0.02543667721561349 0.015584579758567599 0 -0.026600345484261573 0.010504118647430664 0 -0.028563432413974153 0.013793427197581741 0 -0.03062183878520235 0.011167184037737558 0 -0.021715432995797146 0.014444329582103982 0 -0.022993618416589038 0.012468113272438724 0 -0.02543667721561349 0.015584579758567599 0 -0.021715432995797146 0.014444329582103982 0 -0.022993618416589038 0.012468113272438724 0 -0.020985989048078021 0.013286559682647067 0 -0.023187899582305653 0.009794085298983032 0 -0.022993618416589038 0.012468113272438724 0 -0.021382370802868297 0.011450999701535559 0 -0.023187899582305653 0.009794085298983032 0 -0.026600345484261573 0.010504118647430664 0 -0.022993618416589038 0.012468113272438724 0 -0.020482944615190023 0.0086291026273012539 0 -0.021382370802868297 0.011450999701535559 0 -0.019770536234308158 0.013007721954099546 0 -0.022993618416589038 0.012468113272438724 0 -0.021382370802868297 0.011450999701535559 0 -0.020985989048078021 0.013286559682647067 0 -0.021382370802868297 0.011450999701535559 0 -0.019770536234308158 0.013007721954099546 0 -0.020985989048078021 0.013286559682647067 0 -0.019770536234308158 0.013007721954099546 0 -0.020985989048078021 0.013286559682647067 0 -0.019974968832098851 0.014974196066819588 0 -0.021715432995797146 0.014444329582103982 0 -0.020985989048078021 0.013286559682647067 0 -0.019974968832098851 0.014974196066819588 0 -0.021715432995797146 0.014444329582103982 0 -0.019974968832098851 0.014974196066819588 0 -0.02104423543742617 0.016529737025342564 0 -0.01882248559183133 0.011964107302021604 0 -0.01762564476349578 0.013622564756006152 0 -0.019033386671679996 0.014820135142451701 0 -0.018309020992860602 0.014360669040600434 0 -0.018446517856803044 0.016459145893876606 0 -0.020482944615190023 0.0086291026273012539 0 -0.016660345478675686 0.012685942718610241 0 -0.016671557041192085 0.012147813581310994 0 -0.020482944615190023 0.0086291026273012539 0 -0.018309020992860602 0.014360669040600434 0 -0.016152506416225391 0.015626681537960881 0 -0.020482944615190023 0.0086291026273012539 0 -0.019770536234308158 0.013007721954099546 0 -0.018309020992860602 0.014360669040600434 0 -0.019770536234308158 0.013007721954099546 0 -0.019033386671679996 0.014820135142451701 0 -0.018309020992860602 0.014360669040600434 0 -0.019770536234308158 0.013007721954099546 0 -0.019974968832098851 0.014974196066819588 0 -0.019033386671679996 0.014820135142451701 0 -0.018309020992860602 0.014360669040600434 0 -0.016152506416225391 0.015626681537960881 0 -0.017357517635441473 0.016066812263149263 0 -0.016896526489708321 0.012459953596127681 0 -0.01671353468146048 0.01241312063514804 0 -0.016750875165858131 0.012365910023411785 0 -0.016671557041192085 0.012147813581310994 0 -0.01671353468146048 0.01241312063514804 0 -0.016750875165858131 0.012365910023411785 0 -0.016660345478675686 0.012685942718610241 0 -0.016671557041192085 0.012147813581310994 0 -0.01671353468146048 0.01241312063514804 0 -0.016671557041192085 0.012147813581310994 0 -0.016750875165858131 0.012365910023411785 0 -0.016756847942092951 0.012471387707390563 0 -0.016896526489708321 0.012459953596127681 0 -0.016750875165858131 0.012365910023411785 0 -0.016756847942092951 0.012471387707390563 0 -0.016965868483397671 0.012681756418908934 0 -0.016756847942092951 0.012471387707390563 0 -0.016633838513488972 0.012731191506302595 0 -0.0247133017742346 0.0078061596625482732 0 -0.026363249008398103 0.0045159316539605029 0 -0.026052469948345942 0.0046938721561551018 0 -0.026363249008398103 0.0045159316539605029 0 -0.016671557041192085 0.012147813581310994 0 -0.016756847942092951 0.012471387707390563 0 -0.016633838513488972 0.012731191506302595 0 -0.020482944615190023 0.0086291026273012539 0 -0.01582254010649849 0.0061193213338215863 0 -0.020912969061179822 0.0051172276117928813 0 -0.020482944615190023 0.0086291026273012539 0 -0.016671557041192085 0.012147813581310994 0 -0.01582254010649849 0.0061193213338215863 0 -0.02937826584319032 0.0024999763615495391 0 -0.029544338083612544 0.0023145482073658376 0 -0.029205835245787092 0.0024033513485466301 0 -0.02937826584319032 0.0024999763615495391 0 -0.029544338083612544 0.0023145482073658376 0 -0.029617449212754488 0.0024234270499553265 0 -0.026363249008398103 0.0045159316539605029 0 -0.026309790676707946 0.0043268927915120969 0 -0.033741370679844535 -0.0022432232093014428 0 -0.031773438866452834 -0.0033126338643935283 0 -0.03188169197937387 -0.0015400210233386898 0 -0.026363249008398103 0.0045159316539605029 0 -0.027864127382988987 0.0023637354253561492 0 -0.0331474131813995 -0.0010350679765416273 0 -0.03188169197937387 -0.0015400210233386898 0 -0.031745550765502756 0.00013120795208126682 0 -0.0331474131813995 -0.0010350679765416273 0 -0.033741370679844535 -0.0022432232093014428 0 -0.03188169197937387 -0.0015400210233386898 0 -0.02937826584319032 0.0024999763615495391 0 -0.029617449212754488 0.0024234270499553265 0 -0.029662975408532629 0.002358687442854127 0 -0.029617449212754488 0.0024234270499553265 0 -0.029662975408532629 0.002358687442854127 0 -0.030068315732961901 0.0022104422826901083 0 -0.02937826584319032 0.0024999763615495391 0 -0.029662975408532629 0.002358687442854127 0 -0.029459134355148391 0.0024052925027229378 0 -0.029459134355148391 0.0024052925027229378 0 -0.029213417598774546 0.0024461001336914278 0 -0.029169318999606984 0.0025496126718455884 0 -0.029459134355148391 0.0024052925027229378 0 -0.029213417598774546 0.0024461001336914278 0 -0.029488507841512437 0.0023621664689820166 0 -0.029213417598774546 0.0024461001336914278 0 -0.029169318999606984 0.0025496126718455884 0 -0.028983033367491886 0.0026788632257037201 0 -0.02937826584319032 0.0024999763615495391 0 -0.029459134355148391 0.0024052925027229378 0 -0.029169318999606984 0.0025496126718455884 0 -0.024744418541456644 0.0071202961527278841 0 -0.020912969061179822 0.0051172276117928813 0 -0.028507255039449387 0.0039000472072577333 0 -0.02937826584319032 0.0024999763615495391 0 -0.028986783656935709 0.0027486832371035417 0 -0.029205835245787092 0.0024033513485466301 0 -0.026309790676707946 0.0043268927915120969 0 -0.026974411003660142 0.0042219832329683646 0 -0.02937826584319032 0.0024999763615495391 0 -0.029169318999606984 0.0025496126718455884 0 -0.028986783656935709 0.0027486832371035417 0 -0.028986783656935709 0.0027486832371035417 0 -0.029205835245787092 0.0024033513485466301 0 -0.028507255039449387 0.0039000472072577333 0 -0.029169318999606984 0.0025496126718455884 0 -0.028986783656935709 0.0027486832371035417 0 -0.028983033367491886 0.0026788632257037201 0 -0.029502865742327411 0.0070835389058299929 0 -0.028507255039449387 0.0039000472072577333 0 -0.0294265192153183 0.0023938908703063353 0 -0.028986783656935709 0.0027486832371035417 0 -0.028507255039449387 0.0039000472072577333 0 -0.028983033367491886 0.0026788632257037201 0 -0.028507255039449387 0.0039000472072577333 0 -0.028983033367491886 0.0026788632257037201 0 -0.0294265192153183 0.0023938908703063353 0 -0.0022804395879901422 0.010473923137817989 0 -0.0023781845043075209 0.011599634611040138 0 -0.0027574041835495807 0.012157956002845749 0 -0.015223888146150874 0.0082385901091649536 0 -0.014708974143795971 0.0080497157373954874 0 -0.029213417598774546 0.0024461001336914278 0 -0.0294265192153183 0.0023938908703063353 0 -0.029327131688880247 0.0023726437304967844 0 -0.0022804395879901422 0.010473923137817989 0 -0.0021213378492753107 0.01140523443545447 0 -0.0023781845043075209 0.011599634611040138 0 -0.029213417598774546 0.0024461001336914278 0 -0.028983033367491886 0.0026788632257037201 0 -0.0294265192153183 0.0023938908703063353 0 -0.0021213378492753107 0.01140523443545447 0 -0.0023781845043075209 0.011599634611040138 0 -0.0023946418586660635 0.012315599679042435 0 -0.0023946418586660635 0.012315599679042435 0 -0.0027574041835495807 0.012157956002845749 0 -0.0026442856361129741 0.013577944018531211 0 -0.0026884302394244329 0.012818792789124357 0 -0.0024132184125241229 0.013211699121599292 0 -0.0018193689980629541 0.012755917976757401 0 -0.0023781845043075209 0.011599634611040138 0 -0.0023946418586660635 0.012315599679042435 0 -0.0027574041835495807 0.012157956002845749 0 -0.029213417598774546 0.0024461001336914278 0 -0.029327131688880247 0.0023726437304967844 0 -0.029488507841512437 0.0023621664689820166 0 -0.029459134355148391 0.0024052925027229378 0 -0.029488507841512437 0.0023621664689820166 0 -0.029782603485043118 0.0022990171627730927 0 -0.029637083416289747 0.0023606327707470843 0 -0.029782603485043118 0.0022990171627730927 0 -0.029861817942108942 0.0023205617853365918 0 -0.029488507841512437 0.0023621664689820166 0 -0.029637083416289747 0.0023606327707470843 0 -0.029782603485043118 0.0022990171627730927 0 -0.029327131688880247 0.0023726437304967844 0 -0.029488507841512437 0.0023621664689820166 0 -0.029637083416289747 0.0023606327707470843 0 -0.029327131688880247 0.0023726437304967844 0 -0.029637083416289747 0.0023606327707470843 0 -0.029788849353520913 0.0024099068051842186 0 -0.0027574041835495807 0.012157956002845749 0 -0.0026442856361129741 0.013577944018531211 0 -0.0026829743152416837 0.013649026564482773 0 -0.0026884302394244329 0.012818792789124357 0 -0.0026442856361129741 0.013577944018531211 0 -0.0025966039672565373 0.013447104830902093 0 -0.0022349666672719141 0.012225972895967122 0 -0.0025535080901125584 0.01266911439960791 0 -0.014708974143795971 0.0080497157373954874 0 -0.0138579705821976 0.0087001424999702294 0 -0.029637083416289747 0.0023606327707470843 0 -0.029807476552183413 0.0023608450562655433 0 -0.029788849353520913 0.0024099068051842186 0 -0.029637083416289747 0.0023606327707470843 0 -0.029807476552183413 0.0023608450562655433 0 -0.029861817942108942 0.0023205617853365918 0 -0.029807476552183413 0.0023608450562655433 0 -0.029788849353520913 0.0024099068051842186 0 -0.029969441010601356 0.0023697589629492789 0 -0.0026442856361129741 0.013577944018531211 0 -0.0025755517939150701 0.013614535420294975 0 -0.0025916433604456493 0.01363703472601566 0 -0.0026442856361129741 0.013577944018531211 0 -0.0026829743152416837 0.013649026564482773 0 -0.0025916433604456493 0.01363703472601566 0 -0.0026442856361129741 0.013577944018531211 0 -0.0025755517939150701 0.013614535420294975 0 -0.0025966039672565373 0.013447104830902093 0 -0.0025755517939150701 0.013614535420294975 0 -0.0025966039672565373 0.013447104830902093 0 -0.0025176569673173487 0.013653366842448137 0 -0.0026884302394244329 0.012818792789124357 0 -0.0025966039672565373 0.013447104830902093 0 -0.0025584454821770829 0.013412972129304748 0 -0.0025966039672565373 0.013447104830902093 0 -0.0025584454821770829 0.013412972129304748 0 -0.0025176569673173487 0.013653366842448137 0 -0.0024438034126439681 0.013796349880517736 0 -0.0025584454821770829 0.013412972129304748 0 -0.0025176569673173487 0.013653366842448137 0 -0.0024438034126439681 0.013796349880517736 0 -0.0024132184125241229 0.013211699121599292 0 -0.0025584454821770829 0.013412972129304748 0 -0.0026884302394244329 0.012818792789124357 0 -0.0024132184125241229 0.013211699121599292 0 -0.0025584454821770829 0.013412972129304748 0 -0.027864127382988987 0.0023637354253561492 0 -0.028724778836247182 0.0021494839250806104 0 -0.033655020344256381 -0.00025507467537484577 0 -0.0331474131813995 -0.0010350679765416273 0 -0.031745550765502756 0.00013120795208126682 0 -0.029662975408532629 0.002358687442854127 0 -0.030068315732961901 0.0022104422826901083 0 -0.029782603485043118 0.0022990171627730927 0 -0.030068315732961901 0.0022104422826901083 0 -0.029782603485043118 0.0022990171627730927 0 -0.030228651948399556 0.002240532780245314 0 -0.029662975408532629 0.002358687442854127 0 -0.029459134355148391 0.0024052925027229378 0 -0.029782603485043118 0.0022990171627730927 0 -0.029861817942108942 0.0023205617853365918 0 -0.029969441010601356 0.0023697589629492789 0 -0.030228651948399556 0.002240532780245314 0 -0.029782603485043118 0.0022990171627730927 0 -0.029861817942108942 0.0023205617853365918 0 -0.030228651948399556 0.002240532780245314 0 -0.029807476552183413 0.0023608450562655433 0 -0.029861817942108942 0.0023205617853365918 0 -0.029969441010601356 0.0023697589629492789 0 -0.029788849353520913 0.0024099068051842186 0 -0.030036338346145892 0.0024490242133379911 0 -0.030307102014048706 0.0027113410082332664 0 -0.029969441010601356 0.0023697589629492789 0 -0.030195653244660038 0.0024109175086197468 0 -0.030228651948399556 0.002240532780245314 0 -0.029788849353520913 0.0024099068051842186 0 -0.029969441010601356 0.0023697589629492789 0 -0.030036338346145892 0.0024490242133379911 0 -0.029969441010601356 0.0023697589629492789 0 -0.030036338346145892 0.0024490242133379911 0 -0.030195653244660038 0.0024109175086197468 0 -0.030036338346145892 0.0024490242133379911 0 -0.030195653244660038 0.0024109175086197468 0 -0.030307102014048706 0.0027113410082332664 0 -0.030628947472615291 0.0024115445822707857 0 -0.030228651948399556 0.002240532780245314 0 -0.031346102730719708 0.0022310129236024199 0 -0.030195653244660038 0.0024109175086197468 0 -0.030628947472615291 0.0024115445822707857 0 -0.030228651948399556 0.002240532780245314 0 -0.030068315732961901 0.0022104422826901083 0 -0.030228651948399556 0.002240532780245314 0 -0.031346102730719708 0.0022310129236024199 0 -0.03356219637075724 0.00096203751690541778 0 -0.031745550765502756 0.00013120795208126682 0 -0.031346102730719708 0.0022310129236024199 0 -0.028724778836247182 0.0021494839250806104 0 -0.029023272015049211 0.0023363500177637584 0 -0.03299019295094302 0.0024528254774005311 0 -0.031841453301274976 0.0033202744255311522 0 -0.031346102730719708 0.0022310129236024199 0 -0.030628947472615291 0.0024115445822707857 0 -0.031346102730719708 0.0022310129236024199 0 -0.031065961055108154 0.002936312459924849 0 -0.031841453301274976 0.0033202744255311522 0 -0.031065961055108154 0.002936312459924849 0 -0.030757610489842973 0.003550985640454995 0 -0.031841453301274976 0.0033202744255311522 0 -0.031346102730719708 0.0022310129236024199 0 -0.031065961055108154 0.002936312459924849 0 -0.0026829743152416837 0.013649026564482773 0 -0.0021694364349335595 0.013560606648262582 0 -0.0024688565001852823 0.013620137351534473 0 -0.029788849353520913 0.0024099068051842186 0 -0.030307102014048706 0.0027113410082332664 0 -0.030582895788122271 0.0036785064458876842 0 -0.030612993335734182 0.0031245514478995687 0 -0.030307102014048706 0.0027113410082332664 0 -0.030582895788122271 0.0036785064458876842 0 -0.0138579705821976 0.0087001424999702294 0 -0.011656980358766842 0.00919420934708284 0 -0.031065961055108154 0.002936312459924849 0 -0.030612993335734182 0.0031245514478995687 0 -0.030757610489842973 0.003550985640454995 0 -0.031065961055108154 0.002936312459924849 0 -0.030612993335734182 0.0031245514478995687 0 -0.030611165433302192 0.0027670956264656118 0 -0.030628947472615291 0.0024115445822707857 0 -0.031065961055108154 0.002936312459924849 0 -0.030611165433302192 0.0027670956264656118 0 -0.030612993335734182 0.0031245514478995687 0 -0.030611165433302192 0.0027670956264656118 0 -0.030307102014048706 0.0027113410082332664 0 -0.030195653244660038 0.0024109175086197468 0 -0.030628947472615291 0.0024115445822707857 0 -0.030307102014048706 0.0027113410082332664 0 -0.030628947472615291 0.0024115445822707857 0 -0.030611165433302192 0.0027670956264656118 0 -0.030307102014048706 0.0027113410082332664 0 -0.0021694364349335595 0.013560606648262582 0 -0.0023609531175607774 0.013594985919083542 0 -0.0024688565001852823 0.013620137351534473 0 -0.0021694364349335595 0.013560606648262582 0 -0.0023609531175607774 0.013594985919083542 0 -0.0022205479818015405 0.013498649054482538 0 -0.030612993335734182 0.0031245514478995687 0 -0.030582895788122271 0.0036785064458876842 0 -0.030757610489842973 0.003550985640454995 0 -0.030558260561518363 0.0037830305574013123 0 -0.030757610489842973 0.003550985640454995 0 -0.031498296064930188 0.004318953247687626 0 -0.011656980358766842 0.00919420934708284 0 -0.011848484696738755 0.0090347828783516413 0 -0.01363870462483086 0.0088824295821981602 0 -0.011656980358766842 0.00919420934708284 0 -0.031563019771813444 0.0053419117824487347 0 -0.030558260561518363 0.0037830305574013123 0 -0.031498296064930188 0.004318953247687626 0 -0.031841453301274976 0.0033202744255311522 0 -0.030757610489842973 0.003550985640454995 0 -0.031498296064930188 0.004318953247687626 0 -0.03288119782303691 0.0048829014085790276 0 -0.032980856950748705 0.0036639564194649644 0 -0.031498296064930188 0.004318953247687626 0 -0.032980856950748705 0.0036639564194649644 0 -0.031841453301274976 0.0033202744255311522 0 -0.031498296064930188 0.004318953247687626 0 -0.0024537054950706755 0.013669298367339858 0 -0.0024593196450814966 0.01372866453788562 0 -0.0023425183457447987 0.013594986796217026 0 -0.0024438034126439681 0.013796349880517736 0 -0.0024593196450814966 0.01372866453788562 0 -0.0025176569673173487 0.013653366842448137 0 -0.0024537054950706755 0.013669298367339858 0 -0.0024593196450814966 0.01372866453788562 0 -0.0025176569673173487 0.013653366842448137 0 -0.0025755517939150701 0.013614535420294975 0 -0.0025176569673173487 0.013653366842448137 0 -0.0024939040415577758 0.013649973481513991 0 -0.0024537054950706755 0.013669298367339858 0 -0.0025176569673173487 0.013653366842448137 0 -0.0024939040415577758 0.013649973481513991 0 -0.0025755517939150701 0.013614535420294975 0 -0.0024939040415577758 0.013649973481513991 0 -0.0025916433604456493 0.01363703472601566 0 -0.0026829743152416837 0.013649026564482773 0 -0.0025916433604456493 0.01363703472601566 0 -0.0024688565001852823 0.013620137351534473 0 -0.0024939040415577758 0.013649973481513991 0 -0.0025916433604456493 0.01363703472601566 0 -0.0024688565001852823 0.013620137351534473 0 -0.0024939040415577758 0.013649973481513991 0 -0.0023609531175607774 0.013594985919083542 0 -0.0023425183457447987 0.013594986796217026 0 -0.0024939040415577758 0.013649973481513991 0 -0.0023609531175607774 0.013594985919083542 0 -0.0024688565001852823 0.013620137351534473 0 -0.0024537054950706755 0.013669298367339858 0 -0.0024939040415577758 0.013649973481513991 0 -0.0023425183457447987 0.013594986796217026 0 -0.0020102502757249965 0.013197778343250224 0 -0.0023425183457447987 0.013594986796217026 0 -0.0022205479818015405 0.013498649054482538 0 -0.0020102502757249965 0.013197778343250224 0 -0.0021694364349335595 0.013560606648262582 0 -0.0022205479818015405 0.013498649054482538 0 -0.0020102502757249965 0.013197778343250224 0 -0.0023425183457447987 0.013594986796217026 0 -0.0023455803038606947 0.013486700568732801 0 -0.0023609531175607774 0.013594985919083542 0 -0.0023425183457447987 0.013594986796217026 0 -0.0022205479818015405 0.013498649054482538 0 -0.0024593196450814966 0.01372866453788562 0 -0.0023425183457447987 0.013594986796217026 0 -0.0023455803038606947 0.013486700568732801 0 -0.0024593196450814966 0.01372866453788562 0 -0.0023455803038606947 0.013486700568732801 0 -0.0026851135525233385 0.013677487731557322 0 -0.0024593196450814966 0.01372866453788562 0 -0.0026851135525233385 0.013677487731557322 0 -0.0028144204857579341 0.013925778553075604 0 -0.0024438034126439681 0.013796349880517736 0 -0.0024593196450814966 0.01372866453788562 0 -0.0028144204857579341 0.013925778553075604 0 -0.0028144204857579341 0.013925778553075604 0 -0.0029483627602793368 0.014134269254922177 0 -0.002862046273579093 0.014259811814869506 0 -0.0029976818896158756 0.013656899457957514 0 -0.0026851135525233385 0.013677487731557322 0 -0.0029483627602793368 0.014134269254922177 0 -0.0026851135525233385 0.013677487731557322 0 -0.0028144204857579341 0.013925778553075604 0 -0.0029483627602793368 0.014134269254922177 0 -0.0029483627602793368 0.014134269254922177 0 -0.0031431370068890677 0.014042395779195185 0 -0.0025376632538544695 0.015116606901551522 0 -0.0029976818896158756 0.013656899457957514 0 -0.0029483627602793368 0.014134269254922177 0 -0.0031431370068890677 0.014042395779195185 0 -0.0031431370068890677 0.014042395779195185 0 -0.0038225206978364634 0.014101495299286731 0 -0.0025376632538544695 0.015116606901551522 0 -0.003676738704230556 0.01364142602464195 0 -0.0031431370068890677 0.014042395779195185 0 -0.0038225206978364634 0.014101495299286731 0 -0.0015234570952668155 0.01540986991406223 0 -0.0016564226610243102 0.015300922371020584 0 -0.0013426413818889364 0.018077708823578651 0 -0.0025376632538544695 0.015116606901551522 0 -0.00043893334404309059 0.016091414481425127 0 -0.0025376632538544695 0.015116606901551522 0 -0.00043893334404309059 0.016091414481425127 0 -0.00071243556138720482 0.01422372996736317 0 -0.0025376632538544695 0.015116606901551522 0 -0.002862046273579093 0.014259811814869506 0 -0.00071243556138720482 0.01422372996736317 0 -0.0029483627602793368 0.014134269254922177 0 -0.0025376632538544695 0.015116606901551522 0 -0.002862046273579093 0.014259811814869506 0 -0.002862046273579093 0.014259811814869506 0 -0.0020780947605581776 0.012877861648878733 0 -0.0030633474411735388 0.013937953473813026 0 8.8407700768951872e-06 0.012790739915126982 0 -0.0012638048261269504 0.013271019367333341 0 -0.002862046273579093 0.014259811814869506 0 -0.0020780947605581776 0.012877861648878733 0 -0.00071243556138720482 0.01422372996736317 0 0.0012005992829390516 0.012733205414702685 0 0.0030428786628636231 0.012037534824959171 0 0.0018057464103221246 0.011088917758847454 0 0.0012005992829390516 0.012733205414702685 0 -0.00067402205208797264 0.013382542773635641 0 0.00012361842992874244 0.011359759524418752 0 -0.00099804042966783533 0.012170822198778006 0 -0.0018193689980629541 0.012755917976757401 0 -0.00067402205208797264 0.013382542773635641 0 -0.00099804042966783533 0.012170822198778006 0 -0.00067402205208797264 0.013382542773635641 0 0.00012361842992874244 0.011359759524418752 0 -0.0026884302394244329 0.012818792789124357 0 -0.0018193689980629541 0.012755917976757401 0 -0.0016178742005973587 0.011151189630253522 0 -0.00099804042966783533 0.012170822198778006 0 -0.0018193689980629541 0.012755917976757401 0 -0.0016178742005973587 0.011151189630253522 0 -0.0024438034126439681 0.013796349880517736 0 -0.0024132184125241229 0.013211699121599292 0 -0.0018193689980629541 0.012755917976757401 0 -0.0024438034126439681 0.013796349880517736 0 -0.0018193689980629541 0.012755917976757401 0 -0.00067402205208797264 0.013382542773635641 0 -0.0024438034126439681 0.013796349880517736 0 -0.0028144204857579341 0.013925778553075604 0 -0.0030633474411735388 0.013937953473813026 0 -0.0017572527495754334 0.01345511766680085 0 -0.0012638048261269504 0.013271019367333341 0 -0.0028144204857579341 0.013925778553075604 0 -0.002862046273579093 0.014259811814869506 0 -0.0030633474411735388 0.013937953473813026 0 0.0079779173892948994 0.015016409712233419 0 0.0061224597576332775 0.017379645488345211 0 0.0059267613703443767 0.01401731249306775 0 0.0058624066008107966 0.018770426466651512 0 0.0071617327022626244 0.018553320354078445 0 0.0061224597576332775 0.017379645488345211 0 0.0061224597576332775 0.017379645488345211 0 0.0039580275048080107 0.015928200919110198 0 0.0031007725648720592 0.018693959289090258 0 0.0030239569765385301 0.0159353419447388 0 0.001668847393981892 0.016006956698717777 0 0.0058624066008107966 0.018770426466651512 0 0.0061224597576332775 0.017379645488345211 0 0.0039463416129336933 0.018522166745958225 0 0.0061224597576332775 0.017379645488345211 0 0.0039580275048080107 0.015928200919110198 0 0.0059267613703443767 0.01401731249306775 0 0.0039580275048080107 0.015928200919110198 0 0.0015797985742095515 0.015983803031341434 0 0.0029338705782945172 0.013847866002493263 0 0.0039580275048080107 0.015928200919110198 0 0.0015797985742095515 0.015983803031341434 0 0.0031007725648720592 0.018693959289090258 0 0.0015797985742095515 0.015983803031341434 0 0.0031007725648720592 0.018693959289090258 0 0.00059518145560182088 0.01781482513285617 0 -0.00017082375794547238 0.020235969498683087 0 -0.0013426413818889364 0.018077708823578651 0 0.00059518145560182088 0.01781482513285617 0 -0.0013426413818889364 0.018077708823578651 0 0.00059518145560182088 0.01781482513285617 0 -0.00043893334404309059 0.016091414481425127 0 0.0015797985742095515 0.015983803031341434 0 -0.00043893334404309059 0.016091414481425127 0 -0.00071243556138720482 0.01422372996736317 0 0.0015797985742095515 0.015983803031341434 0 0.00059518145560182088 0.01781482513285617 0 -0.00043893334404309059 0.016091414481425127 0 -0.00071243556138720482 0.01422372996736317 0 0.00094268231471220923 0.011794774138790147 0 0.0029338705782945172 0.013847866002493263 0 8.8407700768951872e-06 0.012790739915126982 0 0.0016355518133399443 0.012231692549444928 0 -0.0020780947605581776 0.012877861648878733 0 -0.00071243556138720482 0.01422372996736317 0 0.00094268231471220923 0.011794774138790147 0 0.0016355518133399443 0.012231692549444928 0 0.0026097747560091264 0.01192950251160671 0 0.00094268231471220923 0.011794774138790147 0 0.0029338705782945172 0.013847866002493263 0 0.0046868049269622502 0.01141130168692092 0 0.0015797985742095515 0.015983803031341434 0 -0.00071243556138720482 0.01422372996736317 0 0.0029338705782945172 0.013847866002493263 0 0.0039580275048080107 0.015928200919110198 0 0.0029338705782945172 0.013847866002493263 0 0.0059267613703443767 0.01401731249306775 0 0.0029338705782945172 0.013847866002493263 0 0.0059267613703443767 0.01401731249306775 0 0.0046868049269622502 0.01141130168692092 0 0.008292585336403778 0.013198309277119524 0 0.0059267613703443767 0.01401731249306775 0 0.0070642877497532125 0.011634023777862027 0 0.0059267613703443767 0.01401731249306775 0 0.0070642877497532125 0.011634023777862027 0 0.0046868049269622502 0.01141130168692092 0 0.0062888000753387593 0.0098287565108370421 0 0.0046868049269622502 0.01141130168692092 0 0.0047332769308928418 0.0089809086479956616 0 0.0079023257592431111 0.010204081334735028 0 0.0062888000753387593 0.0098287565108370421 0 0.0070642877497532125 0.011634023777862027 0 0.0079023257592431111 0.010204081334735028 0 0.0075042574492772641 0.0088155475014918497 0 0.0062888000753387593 0.0098287565108370421 0 0.0062888000753387593 0.0098287565108370421 0 0.0070642877497532125 0.011634023777862027 0 0.0046868049269622502 0.01141130168692092 0 0.0046868049269622502 0.01141130168692092 0 0.0035478840186816407 0.010397308779277756 0 0.0047332769308928418 0.0089809086479956616 0 0.0035478840186816407 0.010397308779277756 0 0.0034416658335516478 0.0089709707827729853 0 0.0047332769308928418 0.0089809086479956616 0 0.0030428786628636231 0.012037534824959171 0 0.0046868049269622502 0.01141130168692092 0 0.0035478840186816407 0.010397308779277756 0 0.0030428786628636231 0.012037534824959171 0 0.0035478840186816407 0.010397308779277756 0 0.0018057464103221246 0.011088917758847454 0 0.0035478840186816407 0.010397308779277756 0 0.0023384822633226621 0.0095787964704100864 0 0.0018057464103221246 0.011088917758847454 0 0.0035478840186816407 0.010397308779277756 0 0.0023384822633226621 0.0095787964704100864 0 0.0034416658335516478 0.0089709707827729853 0 0.0023384822633226621 0.0095787964704100864 0 0.0025645286541257808 0.0082243988205446452 0 0.0034416658335516478 0.0089709707827729853 0 0.0025645286541257808 0.0082243988205446452 0 0.0016442113475945588 0.0076532950092265718 0 0.0027033738143668099 0.0068763955079908148 0 0.0025645286541257808 0.0082243988205446452 0 0.0040466088532374973 0.0076478092321763322 0 0.0027033738143668099 0.0068763955079908148 0 0.0040466088532374973 0.0076478092321763322 0 0.0038209149108529559 0.0065998498820555272 0 0.0027033738143668099 0.0068763955079908148 0 0.0040466088532374973 0.0076478092321763322 0 0.0052804027368098441 0.0065110350300455824 0 0.0038209149108529559 0.0065998498820555272 0 0.0025645286541257808 0.0082243988205446452 0 0.0040466088532374973 0.0076478092321763322 0 0.0034416658335516478 0.0089709707827729853 0 0.0040466088532374973 0.0076478092321763322 0 0.0034416658335516478 0.0089709707827729853 0 0.0047332769308928418 0.0089809086479956616 0 0.0040466088532374973 0.0076478092321763322 0 0.0047332769308928418 0.0089809086479956616 0 0.006109229157376779 0.0077489167284920607 0 0.0062888000753387593 0.0098287565108370421 0 0.0047332769308928418 0.0089809086479956616 0 0.006109229157376779 0.0077489167284920607 0 0.0040466088532374973 0.0076478092321763322 0 0.006109229157376779 0.0077489167284920607 0 0.0052804027368098441 0.0065110350300455824 0 0.0076723772386642292 0.0071390358484029939 0 0.0070600129052272604 0.0060087267720852133 0 0.006109229157376779 0.0077489167284920607 0 0.0075042574492772641 0.0088155475014918497 0 0.0062888000753387593 0.0098287565108370421 0 0.006109229157376779 0.0077489167284920607 0 0.0076723772386642292 0.0071390358484029939 0 0.0075042574492772641 0.0088155475014918497 0 0.006109229157376779 0.0077489167284920607 0 -0.00024985372108092069 0.0095784159147964138 0 -0.0013455645022624591 0.0099173157428182907 0 -0.0014249413902246704 0.011003474891414015 0 -0.00024985372108092069 0.0095784159147964138 0 -0.0016178742005973587 0.011151189630253522 0 0.00012361842992874244 0.011359759524418752 0 -0.0010051305598146455 0.010723734977932057 0 -0.001495727530817697 0.011300310876843861 0 -0.0022804395879901422 0.010473923137817989 0 -0.0013455645022624591 0.0099173157428182907 0 -0.0014804798095164385 0.0095500423456758212 0 -0.0022804395879901422 0.010473923137817989 0 -0.0017411184567057336 0.010585641099698943 0 -0.0019176134939456412 0.010926872745605181 0 -0.0022804395879901422 0.010473923137817989 0 -0.0013455645022624591 0.0099173157428182907 0 -0.0017411184567057336 0.010585641099698943 0 -0.0013455645022624591 0.0099173157428182907 0 -0.0017411184567057336 0.010585641099698943 0 -0.0014249413902246704 0.011003474891414015 0 -0.0021213378492753107 0.01140523443545447 0 -0.0023946418586660635 0.012315599679042435 0 -0.0014249413902246704 0.011003474891414015 0 -0.0022349666672719141 0.012225972895967122 0 -0.001495727530817697 0.011300310876843861 0 -0.0021213378492753107 0.01140523443545447 0 -0.0014249413902246704 0.011003474891414015 0 -0.0019176134939456412 0.010926872745605181 0 -0.0017411184567057336 0.010585641099698943 0 -0.0014249413902246704 0.011003474891414015 0 -0.0019176134939456412 0.010926872745605181 0 -0.0022804395879901422 0.010473923137817989 0 -0.0021213378492753107 0.01140523443545447 0 -0.0019176134939456412 0.010926872745605181 0 -0.00099804042966783533 0.012170822198778006 0 -0.0016178742005973587 0.011151189630253522 0 0.00012361842992874244 0.011359759524418752 0 0.0012005992829390516 0.012733205414702685 0 0.00012361842992874244 0.011359759524418752 0 0.0018057464103221246 0.011088917758847454 0 0.00012361842992874244 0.011359759524418752 0 0.0018057464103221246 0.011088917758847454 0 0.00094495498838203726 0.0098040768595176464 0 0.0023384822633226621 0.0095787964704100864 0 0.0018057464103221246 0.011088917758847454 0 0.00094495498838203726 0.0098040768595176464 0 -0.00024985372108092069 0.0095784159147964138 0 0.00012361842992874244 0.011359759524418752 0 0.00094495498838203726 0.0098040768595176464 0 -0.00024985372108092069 0.0095784159147964138 0 0.00094495498838203726 0.0098040768595176464 0 8.4902523852821752e-05 0.0087102991691051165 0 0.00094495498838203726 0.0098040768595176464 0 8.4902523852821752e-05 0.0087102991691051165 0 0.0013601381046639543 0.0085751617406228352 0 8.4902523852821752e-05 0.0087102991691051165 0 0.0013601381046639543 0.0085751617406228352 0 0.00075065036653036525 0.0078370595824295702 0 0.0023384822633226621 0.0095787964704100864 0 0.00094495498838203726 0.0098040768595176464 0 0.0013601381046639543 0.0085751617406228352 0 0.0023384822633226621 0.0095787964704100864 0 0.0025645286541257808 0.0082243988205446452 0 0.0013601381046639543 0.0085751617406228352 0 0.0016442113475945588 0.0076532950092265718 0 0.00087009455449694486 0.0068318957767772009 0 0.0027033738143668099 0.0068763955079908148 0 0.0025645286541257808 0.0082243988205446452 0 0.0013601381046639543 0.0085751617406228352 0 0.0016442113475945588 0.0076532950092265718 0 0.0013601381046639543 0.0085751617406228352 0 0.0016442113475945588 0.0076532950092265718 0 0.00075065036653036525 0.0078370595824295702 0 0.0016442113475945588 0.0076532950092265718 0 0.00075065036653036525 0.0078370595824295702 0 0.00087009455449694486 0.0068318957767772009 0 8.4902523852821752e-05 0.0087102991691051165 0 0.00075065036653036525 0.0078370595824295702 0 -0.00014491137770255116 0.0076105570022175608 0 -0.0048121623585563123 0.0094734749570113165 0 -0.0082860753925075963 0.011536278665161314 0 0.00075065036653036525 0.0078370595824295702 0 -0.00014491137770255116 0.0076105570022175608 0 0.00087009455449694486 0.0068318957767772009 0 -0.033609405974469368 0.0090231095222106338 0 -0.034049472167087799 0.013835660209338584 0 -0.038239259102312788 0.01706604571412576 0 -0.015932851585033866 0.010095257017265482 0 -0.015958005665016373 0.012557430382325251 0 8.4902523852821752e-05 0.0087102991691051165 0 -0.00014491137770255116 0.0076105570022175608 0 -0.0011434340759860547 0.0084664358715736202 0 -0.0011434340759860547 0.0084664358715736202 0 -0.0014377758459645908 0.0086631438525352107 0 -0.00085777978579747226 0.0076506444388675593 0 -0.00062957377894950226 0.0080778520096893135 0 -0.0011434340759860547 0.0084664358715736202 0 -0.00085777978579747226 0.0076506444388675593 0 -0.0048121623585563123 0.0094734749570113165 0 -0.0039497046401658501 0.0089863158950869472 0 -0.00024985372108092069 0.0095784159147964138 0 -0.0013455645022624591 0.0099173157428182907 0 -0.0008863277664701622 0.0091580257906564832 0 8.4902523852821752e-05 0.0087102991691051165 0 -0.0011434340759860547 0.0084664358715736202 0 -0.0008863277664701622 0.0091580257906564832 0 -0.0011434340759860547 0.0084664358715736202 0 -0.0008863277664701622 0.0091580257906564832 0 -0.0014377758459645908 0.0086631438525352107 0 -0.0013455645022624591 0.0099173157428182907 0 -0.0008863277664701622 0.0091580257906564832 0 -0.0014804798095164385 0.0095500423456758212 0 -0.00024985372108092069 0.0095784159147964138 0 8.4902523852821752e-05 0.0087102991691051165 0 -0.0008863277664701622 0.0091580257906564832 0 -0.015223888146150874 0.0082385901091649536 0 -0.015932851585033866 0.010095257017265482 0 -0.029502865742327411 0.0070835389058299929 0 -0.0294265192153183 0.0023938908703063353 0 -0.033609405974469368 0.0090231095222106338 0 -0.0022804395879901422 0.010473923137817989 0 -0.0014804798095164385 0.0095500423456758212 0 -0.0014377758459645908 0.0086631438525352107 0 -0.0008863277664701622 0.0091580257906564832 0 -0.0014804798095164385 0.0095500423456758212 0 -0.0014377758459645908 0.0086631438525352107 0 -0.029502865742327411 0.0070835389058299929 0 -0.033609405974469368 0.0090231095222106338 0 -0.03062183878520235 0.011167184037737558 0 -0.033609405974469368 0.0090231095222106338 0 -0.03062183878520235 0.011167184037737558 0 -0.034049472167087799 0.013835660209338584 0 -0.028563432413974153 0.013793427197581741 0 -0.03061051679649324 0.014150362228281092 0 -0.029201586675563506 0.017820553399266546 0 -0.034049472167087799 0.013835660209338584 0 -0.03061051679649324 0.014150362228281092 0 -0.029201586675563506 0.017820553399266546 0 -0.028563432413974153 0.013793427197581741 0 -0.03062183878520235 0.011167184037737558 0 -0.03061051679649324 0.014150362228281092 0 -0.03062183878520235 0.011167184037737558 0 -0.034049472167087799 0.013835660209338584 0 -0.03061051679649324 0.014150362228281092 0 -0.034049472167087799 0.013835660209338584 0 -0.038239259102312788 0.01706604571412576 0 -0.029201586675563506 0.017820553399266546 0 -0.015958005665016373 0.012557430382325251 0 -0.021977932197152047 0.014475370438177933 0 -0.021967807164747961 0.020142754717121118 0 -0.022190310968615196 0.019770568351883479 0 -0.021140284789498812 0.018984281616381628 0 -0.021178969752151909 0.019820658485327269 0 -0.021967807164747961 0.020142754717121118 0 -0.021140284789498812 0.018984281616381628 0 -0.021967807164747961 0.020142754717121118 0 -0.021452032441319192 0.020401733481160259 0 -0.022010126195292419 0.020785134218057801 0 -0.021178969752151909 0.019820658485327269 0 -0.021452032441319192 0.020401733481160259 0 -0.02079866777168345 0.020382808814476901 0 -0.021178969752151909 0.019820658485327269 0 -0.021967807164747961 0.020142754717121118 0 -0.021452032441319192 0.020401733481160259 0 -0.021967807164747961 0.020142754717121118 0 -0.022455409350805824 0.02009117574872658 0 -0.022671731395581336 0.020884180399266389 0 -0.021560209353449416 0.021393345100765702 0 -0.021386810048249761 0.021841712003377738 0 -0.021967807164747961 0.020142754717121118 0 -0.022190310968615196 0.019770568351883479 0 -0.022455409350805824 0.02009117574872658 0 -0.022190310968615196 0.019770568351883479 0 -0.02246447116688257 0.019284913296001849 0 -0.021140284789498812 0.018984281616381628 0 -0.022190310968615196 0.019770568351883479 0 -0.02246447116688257 0.019284913296001849 0 -0.022455409350805824 0.02009117574872658 0 -0.022519995031097206 0.021054703467413276 0 -0.02235133155281873 0.021046345825930585 0 -0.022344762526434563 0.020984453156535285 0 -0.00062957377894950226 0.0080778520096893135 0 -0.00085777978579747226 0.0076506444388675593 0 -0.00015133664392290782 0.0077518107596764654 0 -0.015958005665016373 0.012557430382325251 0 -0.0082860753925075963 0.011536278665161314 0 -0.0082860753925075963 0.011536278665161314 0 -0.0039092543497329909 0.011109130384371974 0 0.00075088477060114643 0.0067472732816093476 0 0.0027033738143668099 0.0068763955079908148 0 0.0027650473847851023 0.0054328658670978469 0 -0.02235133155281873 0.021046345825930585 0 -0.022344762526434563 0.020984453156535285 0 -0.022300725550604073 0.021001810019530064 0 -0.0082860753925075963 0.011536278665161314 0 -0.0089702849454574938 0.013141655056321809 0 -0.022344762526434563 0.020984453156535285 0 -0.022229291588193738 0.021090243651883035 0 -0.022300725550604073 0.021001810019530064 0 -0.022344762526434563 0.020984453156535285 0 -0.022495737039808346 0.020803896213437929 0 -0.022229291588193738 0.021090243651883035 0 -0.015958005665016373 0.012557430382325251 0 -0.019018816526810776 0.017260625519060453 0 -0.02246447116688257 0.019284913296001849 0 -0.022455409350805824 0.02009117574872658 0 -0.022495737039808346 0.020803896213437929 0 -0.022455409350805824 0.02009117574872658 0 -0.022495737039808346 0.020803896213437929 0 -0.022184623703988861 0.020944016234187939 0 -0.022519995031097206 0.021054703467413276 0 -0.022344762526434563 0.020984453156535285 0 -0.022495737039808346 0.020803896213437929 0 -0.022495737039808346 0.020803896213437929 0 -0.022325410032886319 0.020998074182647937 0 -0.022184623703988861 0.020944016234187939 0 -0.022495737039808346 0.020803896213437929 0 -0.022325410032886319 0.020998074182647937 0 -0.022369098876333267 0.020976789654201106 0 -0.022325410032886319 0.020998074182647937 0 -0.022369098876333267 0.020976789654201106 0 -0.022351092336210659 0.021041484055870481 0 -0.022495737039808346 0.020803896213437929 0 -0.022229291588193738 0.021090243651883035 0 -0.022369098876333267 0.020976789654201106 0 -0.022369098876333267 0.020976789654201106 0 -0.022271986634291703 0.021014626096565049 0 -0.022351092336210659 0.021041484055870481 0 -0.022229291588193738 0.021090243651883035 0 -0.022369098876333267 0.020976789654201106 0 -0.022271986634291703 0.021014626096565049 0 -0.022229291588193738 0.021090243651883035 0 -0.022271986634291703 0.021014626096565049 0 -0.021955761740405526 0.021414543916258341 0 -0.021105822279149769 0.023102534558380728 0 -0.021177276823363275 0.023019733911741558 0 -0.020204098288835827 0.022209838895135715 0 -0.020444484079943027 0.023789750996067741 0 -0.017770431638401862 0.023564905092036396 0 -0.020444484079943027 0.023789750996067741 0 -0.017770431638401862 0.023564905092036396 0 -0.019944430787109248 0.025377900793692065 0 -0.021105822279149769 0.023102534558380728 0 -0.020280715293920698 0.023852279858138318 0 -0.020204098288835827 0.022209838895135715 0 -0.020444484079943027 0.023789750996067741 0 -0.021495612180241739 0.022571760488182678 0 -0.020859212031897001 0.023425367307710946 0 -0.020860377623540011 0.023419651918138867 0 -0.020846199532682578 0.023426827058768397 0 -0.021177276823363275 0.023019733911741558 0 -0.020833963292548895 0.023166572676742731 0 -0.022325410032886319 0.020998074182647937 0 -0.022351092336210659 0.021041484055870481 0 -0.022185879758678143 0.021127807806584863 0 -0.020876752652067326 0.023410559257994942 0 -0.020859212031897001 0.023425367307710946 0 -0.020860377623540011 0.023419651918138867 0 -0.020280715293920698 0.023852279858138318 0 -0.020212190580541536 0.024425495828702667 0 -0.020859212031897001 0.023425367307710946 0 -0.020846199532682578 0.023426827058768397 0 -0.020844129991210627 0.023437230934194555 0 -0.022642333211102397 0.022268897506434761 0 -0.021591377054025796 0.021952335667417316 0 -0.022137889067602383 0.021418773441164343 0 -0.020833963292548895 0.023166572676742731 0 -0.020212190580541536 0.024425495828702667 0 -0.022642333211102397 0.022268897506434761 0 -0.021070373791123011 0.02300419848257958 0 -0.021591377054025796 0.021952335667417316 0 -0.022257468256212262 0.022935844157125174 0 -0.020476377654164966 0.023387502902418686 0 -0.022060676087397719 0.023771300520132724 0 -0.020833963292548895 0.023166572676742731 0 -0.02050689359126549 0.023255333744426798 0 -0.021070373791123011 0.02300419848257958 0 -0.021591377054025796 0.021952335667417316 0 -0.020436379081884618 0.021891048138479224 0 -0.021591377054025796 0.021952335667417316 0 -0.021342457062593523 0.021130715414194808 0 -0.022137889067602383 0.021418773441164343 0 -0.021342457062593523 0.021130715414194808 0 -0.022010126195292419 0.020785134218057801 0 -0.022137889067602383 0.021418773441164343 0 -0.021591377054025796 0.021952335667417316 0 -0.021342457062593523 0.021130715414194808 0 -0.020436379081884618 0.021891048138479224 0 -0.021452032441319192 0.020401733481160259 0 -0.021342457062593523 0.021130715414194808 0 -0.02079866777168345 0.020382808814476901 0 -0.021452032441319192 0.020401733481160259 0 -0.021342457062593523 0.021130715414194808 0 -0.022010126195292419 0.020785134218057801 0 -0.020833963292548895 0.023166572676742731 0 -0.021386810048249761 0.021841712003377738 0 -0.022325410032886319 0.020998074182647937 0 -0.022185879758678143 0.021127807806584863 0 -0.022184623703988861 0.020944016234187939 0 -0.021967807164747961 0.020142754717121118 0 -0.022010126195292419 0.020785134218057801 0 -0.022671731395581336 0.020884180399266389 0 -0.022010126195292419 0.020785134218057801 0 -0.022671731395581336 0.020884180399266389 0 -0.022137889067602383 0.021418773441164343 0 -0.022642333211102397 0.022268897506434761 0 -0.022671731395581336 0.020884180399266389 0 -0.022137889067602383 0.021418773441164343 0 0.0070600129052272604 0.0060087267720852133 0 0.006807966429939436 0.0048671339803152093 0 0.0056901016830740109 0.0051739963597471142 0 0.0070600129052272604 0.0060087267720852133 0 0.0052804027368098441 0.0065110350300455824 0 0.0056901016830740109 0.0051739963597471142 0 0.0070600129052272604 0.0060087267720852133 0 0.006109229157376779 0.0077489167284920607 0 0.0052804027368098441 0.0065110350300455824 0 0.0052804027368098441 0.0065110350300455824 0 0.0056901016830740109 0.0051739963597471142 0 0.0042783124124983916 0.0056121000185112976 0 0.0056901016830740109 0.0051739963597471142 0 0.0042783124124983916 0.0056121000185112976 0 0.0047317810118117139 0.0043748755071719011 0 0.0042783124124983916 0.0056121000185112976 0 0.0027650473847851023 0.0054328658670978469 0 0.0047317810118117139 0.0043748755071719011 0 -0.022300725550604073 0.021001810019530064 0 -0.022352736917184503 0.021098459605132781 0 -0.022477125752640999 0.02119401549283436 0 -0.0089702849454574938 0.013141655056321809 0 -0.0078668869911201599 0.013741500402209441 0 0.0042783124124983916 0.0056121000185112976 0 0.0038209149108529559 0.0065998498820555272 0 0.0027650473847851023 0.0054328658670978469 0 0.0052804027368098441 0.0065110350300455824 0 0.0042783124124983916 0.0056121000185112976 0 0.0038209149108529559 0.0065998498820555272 0 0.0038209149108529559 0.0065998498820555272 0 0.0027033738143668099 0.0068763955079908148 0 0.0027650473847851023 0.0054328658670978469 0 -0.022229291588193738 0.021090243651883035 0 -0.022300725550604073 0.021001810019530064 0 -0.022352736917184503 0.021098459605132781 0 -0.022229291588193738 0.021090243651883035 0 -0.022352736917184503 0.021098459605132781 0 -0.021955761740405526 0.021414543916258341 0 -0.022352736917184503 0.021098459605132781 0 -0.021955761740405526 0.021414543916258341 0 -0.022633219078804317 0.021134806655814246 0 -0.021955761740405526 0.021414543916258341 0 -0.021495612180241739 0.022571760488182678 0 -0.022633219078804317 0.021134806655814246 0 -0.021105822279149769 0.023102534558380728 0 -0.021307429470246431 0.022928695898354091 0 -0.020204098288835827 0.022209838895135715 0 -0.021955761740405526 0.021414543916258341 0 -0.021495612180241739 0.022571760488182678 0 -0.021495612180241739 0.022571760488182678 0 -0.022243176656789185 0.023626331484999187 0 -0.022633219078804317 0.021134806655814246 0 -0.020444484079943027 0.023789750996067741 0 -0.021495612180241739 0.022571760488182678 0 -0.022243176656789185 0.023626331484999187 0 -0.020444484079943027 0.023789750996067741 0 -0.022243176656789185 0.023626331484999187 0 -0.021447523701797255 0.02488995462280854 0 -0.018122641126203803 0.024464095764517253 0 -0.017300293264311171 0.02608378351066986 0 -0.022243176656789185 0.023626331484999187 0 -0.022633219078804317 0.021134806655814246 0 -0.024363107463269036 0.024385990516127814 0 -0.022352736917184503 0.021098459605132781 0 -0.022477125752640999 0.02119401549283436 0 -0.022633219078804317 0.021134806655814246 0 -0.022477125752640999 0.02119401549283436 0 -0.022633219078804317 0.021134806655814246 0 -0.02236096995373418 0.02049980251556854 0 -0.0078668869911201599 0.013741500402209441 0 -0.0058581414850678946 0.014520989336411456 0 0.0056901016830740109 0.0051739963597471142 0 0.0047317810118117139 0.0043748755071719011 0 0.0064119215506407562 0.0036179362192520015 0 -0.022477125752640999 0.02119401549283436 0 -0.021476301780759464 0.020857118369747209 0 -0.02236096995373418 0.02049980251556854 0 0.0073105057030281514 0.0043113584429775864 0 0.006807966429939436 0.0048671339803152093 0 0.0064119215506407562 0.0036179362192520015 0 0.006807966429939436 0.0048671339803152093 0 0.0056901016830740109 0.0051739963597471142 0 0.0064119215506407562 0.0036179362192520015 0 -0.021165436496071666 0.019692755766518376 0 -0.021545459437050253 0.019773998964335966 0 -0.021384454135698502 0.019396344269886973 0 -0.021545459437050253 0.019773998964335966 0 -0.021631195398273378 0.019512870352541217 0 -0.021384454135698502 0.019396344269886973 0 -0.021165436496071666 0.019692755766518376 0 -0.021545459437050253 0.019773998964335966 0 -0.021492076125889832 0.020183099479540167 0 -0.020999562219565379 0.020141732579574054 0 -0.021165436496071666 0.019692755766518376 0 -0.021492076125889832 0.020183099479540167 0 -0.020999562219565379 0.020141732579574054 0 -0.021476301780759464 0.020857118369747209 0 -0.021492076125889832 0.020183099479540167 0 -0.021476301780759464 0.020857118369747209 0 -0.021492076125889832 0.020183099479540167 0 -0.02236096995373418 0.02049980251556854 0 -0.021545459437050253 0.019773998964335966 0 -0.021492076125889832 0.020183099479540167 0 -0.02236096995373418 0.02049980251556854 0 -0.014446549273964831 0.031934585593644288 0 -0.017300293264311171 0.02608378351066986 0 -0.021545459437050253 0.019773998964335966 0 -0.021941663141266093 0.019636132412918568 0 -0.02236096995373418 0.02049980251556854 0 -0.025765988068497125 0.028069814097665416 0 -0.024733822281808562 0.027181863301784577 0 -0.024363107463269036 0.024385990516127814 0 -0.021545459437050253 0.019773998964335966 0 -0.021941663141266093 0.019636132412918568 0 -0.021631195398273378 0.019512870352541217 0 -0.025765988068497125 0.028069814097665416 0 -0.025338355120405383 0.028144419117990961 0 -0.025152619870648683 0.027838644894816671 0 -0.025765988068497125 0.028069814097665416 0 -0.025338355120405383 0.028144419117990961 0 -0.02505642456901698 0.028729390077019079 0 -0.025338355120405383 0.028144419117990961 0 -0.024828685535002077 0.028037133189686394 0 -0.02505642456901698 0.028729390077019079 0 -0.025338355120405383 0.028144419117990961 0 -0.024828685535002077 0.028037133189686394 0 -0.025152619870648683 0.027838644894816671 0 -0.025765988068497125 0.028069814097665416 0 -0.025152619870648683 0.027838644894816671 0 -0.024733822281808562 0.027181863301784577 0 -0.024828685535002077 0.028037133189686394 0 -0.025152619870648683 0.027838644894816671 0 -0.024733822281808562 0.027181863301784577 0 -0.024248451492841158 0.027725561674314655 0 -0.024240118710508497 0.028453344502462605 0 -0.023033775630520163 0.028260139919306242 0 -0.024828685535002077 0.028037133189686394 0 -0.024248451492841158 0.027725561674314655 0 -0.024733822281808562 0.027181863301784577 0 -0.024828685535002077 0.028037133189686394 0 -0.024248451492841158 0.027725561674314655 0 -0.024240118710508497 0.028453344502462605 0 -0.024828685535002077 0.028037133189686394 0 -0.024240118710508497 0.028453344502462605 0 -0.02505642456901698 0.028729390077019079 0 -0.023033775630520163 0.028260139919306242 0 -0.023484837053960577 0.027185364683510394 0 -0.022223068462545761 0.02719115056764378 0 -0.024248451492841158 0.027725561674314655 0 -0.023033775630520163 0.028260139919306242 0 -0.023484837053960577 0.027185364683510394 0 -0.023484837053960577 0.027185364683510394 0 -0.023075611263957078 0.025493724758818882 0 -0.022223068462545761 0.02719115056764378 0 -0.024248451492841158 0.027725561674314655 0 -0.023484837053960577 0.027185364683510394 0 -0.024733822281808562 0.027181863301784577 0 -0.023484837053960577 0.027185364683510394 0 -0.024733822281808562 0.027181863301784577 0 -0.023075611263957078 0.025493724758818882 0 -0.022243176656789185 0.023626331484999187 0 -0.024363107463269036 0.024385990516127814 0 -0.023075611263957078 0.025493724758818882 0 -0.024733822281808562 0.027181863301784577 0 -0.024363107463269036 0.024385990516127814 0 -0.023075611263957078 0.025493724758818882 0 -0.023075611263957078 0.025493724758818882 0 -0.021553123831985266 0.026198784630495017 0 -0.022223068462545761 0.02719115056764378 0 -0.023075611263957078 0.025493724758818882 0 -0.021447523701797255 0.02488995462280854 0 -0.021553123831985266 0.026198784630495017 0 -0.022243176656789185 0.023626331484999187 0 -0.023075611263957078 0.025493724758818882 0 -0.021447523701797255 0.02488995462280854 0 -0.021447523701797255 0.02488995462280854 0 -0.021553123831985266 0.026198784630495017 0 -0.019944430787109248 0.025377900793692065 0 -0.020406697310033622 0.028581163041779614 0 -0.0197891124234395 0.029926260238227285 0 -0.021553123831985266 0.026198784630495017 0 -0.021266910840471054 0.028108253217720439 0 -0.019736570232118892 0.029525907498256836 0 -0.021553123831985266 0.026198784630495017 0 -0.022223068462545761 0.02719115056764378 0 -0.021266910840471054 0.028108253217720439 0 -0.023033775630520163 0.028260139919306242 0 -0.022223068462545761 0.02719115056764378 0 -0.021266910840471054 0.028108253217720439 0 -0.021266910840471054 0.028108253217720439 0 -0.020375080897203898 0.030772620939521492 0 -0.019736570232118892 0.029525907498256836 0 -0.021266910840471054 0.028108253217720439 0 -0.022269041582302793 0.029641053721859226 0 -0.020513552725531493 0.031139903383111418 0 -0.019797901799452754 0.030737583868617802 0 -0.019418777290035931 0.031933551076239748 0 -0.023033775630520163 0.028260139919306242 0 -0.021266910840471054 0.028108253217720439 0 -0.022269041582302793 0.029641053721859226 0 -0.022269041582302793 0.029641053721859226 0 -0.020513552725531493 0.031139903383111418 0 -0.022689636185318111 0.031171322620462794 0 -0.019798789645977789 0.034210442357511667 0 -0.020513552725531493 0.031139903383111418 0 -0.021727193044569416 0.032839723656028351 0 -0.020513552725531493 0.031139903383111418 0 -0.021727193044569416 0.032839723656028351 0 -0.022689636185318111 0.031171322620462794 0 -0.021727193044569416 0.032839723656028351 0 -0.022689636185318111 0.031171322620462794 0 -0.024143688345031118 0.032625196794069181 0 -0.022689636185318111 0.031171322620462794 0 -0.024143688345031118 0.032625196794069181 0 -0.024509462347064349 0.030639053277320697 0 -0.024509462347064349 0.030639053277320697 0 -0.023808189322067682 0.029553778538621622 0 -0.025314907902800547 0.029511769607060871 0 -0.022269041582302793 0.029641053721859226 0 -0.022689636185318111 0.031171322620462794 0 -0.023808189322067682 0.029553778538621622 0 -0.022689636185318111 0.031171322620462794 0 -0.024509462347064349 0.030639053277320697 0 -0.023808189322067682 0.029553778538621622 0 -0.024240118710508497 0.028453344502462605 0 -0.023033775630520163 0.028260139919306242 0 -0.023808189322067682 0.029553778538621622 0 -0.023033775630520163 0.028260139919306242 0 -0.022269041582302793 0.029641053721859226 0 -0.023808189322067682 0.029553778538621622 0 -0.024240118710508497 0.028453344502462605 0 -0.023808189322067682 0.029553778538621622 0 -0.02505642456901698 0.028729390077019079 0 -0.023808189322067682 0.029553778538621622 0 -0.025314907902800547 0.029511769607060871 0 -0.02505642456901698 0.028729390077019079 0 -0.014993471635743754 0.03378732151814217 0 -0.014422308394954963 0.03219330927614384 0 -0.014092097653164033 0.032495270978437164 0 -0.014446549273964831 0.031934585593644288 0 -0.0131995031029423 0.036179694731982896 0 -0.025765988068497125 0.028069814097665416 0 -0.025314907902800547 0.029511769607060871 0 -0.02657859723939518 0.030340150656194963 0 -0.025765988068497125 0.028069814097665416 0 -0.025314907902800547 0.029511769607060871 0 -0.02505642456901698 0.028729390077019079 0 -0.014446549273964831 0.031934585593644288 0 -0.013535699978811409 0.0342869796487906 0 -0.021941663141266093 0.019636132412918568 0 -0.021631195398273378 0.019512870352541217 0 -0.021603312405172825 0.019205454353336163 0 -0.0131995031029423 0.036179694731982896 0 -0.013535699978811409 0.0342869796487906 0 -0.024509462347064349 0.030639053277320697 0 -0.025314907902800547 0.029511769607060871 0 -0.02657859723939518 0.030340150656194963 0 -0.0039056608658561845 0.05320403741907706 0 -0.0052296387821065236 0.057090339235295488 0 -0.0057359251026524258 0.054395147411754101 0 -0.0080186915312169607 0.054650481426733309 0 -0.0052296387821065236 0.057090339235295488 0 -0.0057359251026524258 0.054395147411754101 0 -0.024143688345031118 0.032625196794069181 0 -0.024509462347064349 0.030639053277320697 0 -0.02657859723939518 0.030340150656194963 0 -0.013957131363452131 0.039402195156968356 0 -0.0131995031029423 0.036179694731982896 0 -0.0039056608658561845 0.05320403741907706 0 -0.0047501495527257822 0.055623001760049889 0 -0.0034652990438093973 0.054624959149145356 0 -0.013304571784562617 0.043301163030591373 0 -0.0131995031029423 0.036179694731982896 0 -0.010607020725844385 0.036437419320410953 0 -0.013535699978811409 0.0342869796487906 0 -0.0023042120927842884 0.053190741857153175 0 -0.0031037091547972194 0.053236497034120311 0 -0.0034652990438093973 0.054624959149145356 0 -0.0071094451975878842 0.038084642078475089 0 -0.010607020725844385 0.036437419320410953 0 -0.020934349961097585 0.019177155931365823 0 -0.021241034196598337 0.01884330816011168 0 -0.021266753051117613 0.019127106417608029 0 -0.020934349961097585 0.019177155931365823 0 -0.021266753051117613 0.019127106417608029 0 -0.021384454135698502 0.019396344269886973 0 -0.020934349961097585 0.019177155931365823 0 -0.021165436496071666 0.019692755766518376 0 -0.021384454135698502 0.019396344269886973 0 -0.021266753051117613 0.019127106417608029 0 -0.021541182529238864 0.019242559886898113 0 -0.021384454135698502 0.019396344269886973 0 -0.0047501495527257822 0.055623001760049889 0 -0.0034652990438093973 0.054624959149145356 0 -0.0044160202412803365 0.055924113239622653 0 -0.021241034196598337 0.01884330816011168 0 -0.021266753051117613 0.019127106417608029 0 -0.021541182529238864 0.019242559886898113 0 -0.021631195398273378 0.019512870352541217 0 -0.021603312405172825 0.019205454353336163 0 -0.021384454135698502 0.019396344269886973 0 -0.013535699978811409 0.0342869796487906 0 -0.014282550898656156 0.033464111461311383 0 -0.016266917092395753 0.026967646393581846 0 -0.014773128843535193 0.028056204351466621 0 -0.015951966717033937 0.029284332151618127 0 -0.018658256680028126 0.027316077914226061 0 -0.020212190580541536 0.024425495828702667 0 -0.016266917092395753 0.026967646393581846 0 -0.017911786865037693 0.027338301418136639 0 -0.015951966717033937 0.029284332151618127 0 -0.016266917092395753 0.026967646393581846 0 -0.014773128843535193 0.028056204351466621 0 -0.015498852979690413 0.024817605957069323 0 -0.022391796915485259 0.026212036165755029 0 -0.02072381290660032 0.025697795714026382 0 -0.021072394379495225 0.024291651095616675 0 -0.022391796915485259 0.026212036165755029 0 -0.02072381290660032 0.025697795714026382 0 -0.020368624273281941 0.026963892447457151 0 -0.020476377654164966 0.023387502902418686 0 -0.020659862476816147 0.024511224749859208 0 -0.022060676087397719 0.023771300520132724 0 -0.022391796915485259 0.026212036165755029 0 -0.021072394379495225 0.024291651095616675 0 -0.023065019532544601 0.023254794635648932 0 -0.02037577201771746 0.024421378715937442 0 -0.020212190580541536 0.024425495828702667 0 -0.016266917092395753 0.026967646393581846 0 -0.015498852979690413 0.024817605957069323 0 -0.017335734667511569 0.025463250519202868 0 -0.017770431638401862 0.023564905092036396 0 -0.015498852979690413 0.024817605957069323 0 -0.017335734667511569 0.025463250519202868 0 -0.017335734667511569 0.025463250519202868 0 -0.019944430787109248 0.025377900793692065 0 -0.017911786865037693 0.027338301418136639 0 -0.017770431638401862 0.023564905092036396 0 -0.017335734667511569 0.025463250519202868 0 -0.019944430787109248 0.025377900793692065 0 -0.021553123831985266 0.026198784630495017 0 -0.019944430787109248 0.025377900793692065 0 -0.01967680893714939 0.027691427465224138 0 -0.020444484079943027 0.023789750996067741 0 -0.021447523701797255 0.02488995462280854 0 -0.019944430787109248 0.025377900793692065 0 -0.018842236229892912 0.027462994078374832 0 -0.018209992224411539 0.028238792556959855 0 -0.021553123831985266 0.026198784630495017 0 -0.01967680893714939 0.027691427465224138 0 -0.020205304895142436 0.029761962335799443 0 -0.019944430787109248 0.025377900793692065 0 -0.01967680893714939 0.027691427465224138 0 -0.017991736936862977 0.027798830808021788 0 -0.016266917092395753 0.026967646393581846 0 -0.017335734667511569 0.025463250519202868 0 -0.017911786865037693 0.027338301418136639 0 -0.01967680893714939 0.027691427465224138 0 -0.017991736936862977 0.027798830808021788 0 -0.018707068101565288 0.029258269494008251 0 -0.018209992224411539 0.028238792556959855 0 -0.017251773223850086 0.029620259170061898 0 -0.018707068101565288 0.029258269494008251 0 -0.018208975987049954 0.030725712008095037 0 -0.016350967694232194 0.030036631678016543 0 -0.017991736936862977 0.027798830808021788 0 -0.018707068101565288 0.029258269494008251 0 -0.016350967694232194 0.030036631678016543 0 -0.018707068101565288 0.029258269494008251 0 -0.020205304895142436 0.029761962335799443 0 -0.018208975987049954 0.030725712008095037 0 -0.01967680893714939 0.027691427465224138 0 -0.018707068101565288 0.029258269494008251 0 -0.020205304895142436 0.029761962335799443 0 -0.018341751488913472 0.032491646570517382 0 -0.019648445756276115 0.033120582459854303 0 -0.020375080897203898 0.030772620939521492 0 -0.0188087338666512 0.032036131937199258 0 -0.0197891124234395 0.029926260238227285 0 -0.018730238769356991 0.0327290554497233 0 -0.020205304895142436 0.029761962335799443 0 -0.018208975987049954 0.030725712008095037 0 -0.018341751488913472 0.032491646570517382 0 -0.020375080897203898 0.030772620939521492 0 -0.019736570232118892 0.029525907498256836 0 -0.018475942363878395 0.034651149765814133 0 -0.019418777290035931 0.031933551076239748 0 -0.018730238769356991 0.0327290554497233 0 -0.018208975987049954 0.030725712008095037 0 -0.017852568110832721 0.032073387764873493 0 -0.018208975987049954 0.030725712008095037 0 -0.016862244272073709 0.031751284564257513 0 -0.016350967694232194 0.030036631678016543 0 -0.018208975987049954 0.030725712008095037 0 -0.017852568110832721 0.032073387764873493 0 -0.016862244272073709 0.031751284564257513 0 -0.017450957348464753 0.032787566681530163 0 -0.017852568110832721 0.032073387764873493 0 -0.016862244272073709 0.031751284564257513 0 -0.017251773223850086 0.029620259170061898 0 -0.017077841445030717 0.030532665554728076 0 -0.016862244272073709 0.031751284564257513 0 -0.016350967694232194 0.030036631678016543 0 -0.015045432821428874 0.031972745310741658 0 -0.016642030939604521 0.033272870044905499 0 -0.016862244272073709 0.031751284564257513 0 -0.015045432821428874 0.031972745310741658 0 -0.014773128843535193 0.028056204351466621 0 -0.015951966717033937 0.029284332151618127 0 -0.014043919098558035 0.031218855672526812 0 -0.022391796915485259 0.026212036165755029 0 -0.021727128595954763 0.029359052550126698 0 -0.020368624273281941 0.026963892447457151 0 -0.018658256680028126 0.027316077914226061 0 -0.017077841445030717 0.030532665554728076 0 -0.021727128595954763 0.029359052550126698 0 -0.018916458318195509 0.028287450966454977 0 -0.018201868502024498 0.03012167754445606 0 -0.018916458318195509 0.028287450966454977 0 -0.018201868502024498 0.03012167754445606 0 -0.016770077574725158 0.028453358179519141 0 -0.015859498770719613 0.030859150961144236 0 -0.018201868502024498 0.03012167754445606 0 -0.016770077574725158 0.028453358179519141 0 -0.018916458318195509 0.028287450966454977 0 -0.018132074410566874 0.026682071557385213 0 -0.016770077574725158 0.028453358179519141 0 -0.021727128595954763 0.029359052550126698 0 -0.018916458318195509 0.028287450966454977 0 -0.020368624273281941 0.026963892447457151 0 -0.018916458318195509 0.028287450966454977 0 -0.018132074410566874 0.026682071557385213 0 -0.020368624273281941 0.026963892447457151 0 -0.02037577201771746 0.024421378715937442 0 -0.020116876687911681 0.024581881701800673 0 -0.018132074410566874 0.026682071557385213 0 -0.020368624273281941 0.026963892447457151 0 -0.019105755026274221 0.025338443523582031 0 -0.02072381290660032 0.025697795714026382 0 -0.021072394379495225 0.024291651095616675 0 -0.019105755026274221 0.025338443523582031 0 -0.02072381290660032 0.025697795714026382 0 -0.020368624273281941 0.026963892447457151 0 -0.019105755026274221 0.025338443523582031 0 -0.018132074410566874 0.026682071557385213 0 -0.019105755026274221 0.025338443523582031 0 -0.01769470627983416 0.025117447202076971 0 -0.019105755026274221 0.025338443523582031 0 -0.01769470627983416 0.025117447202076971 0 -0.018720049665323705 0.023791205899498572 0 -0.01769470627983416 0.025117447202076971 0 -0.018720049665323705 0.023791205899498572 0 -0.016957812452766282 0.02388163569279109 0 -0.020476377654164966 0.023387502902418686 0 -0.018720049665323705 0.023791205899498572 0 -0.019704897977765163 0.024251974641804265 0 -0.020659862476816147 0.024511224749859208 0 -0.019105755026274221 0.025338443523582031 0 -0.019704897977765163 0.024251974641804265 0 -0.019105755026274221 0.025338443523582031 0 -0.018720049665323705 0.023791205899498572 0 -0.019704897977765163 0.024251974641804265 0 -0.02050689359126549 0.023255333744426798 0 -0.020006563466293835 0.023390537770093398 0 -0.020476377654164966 0.023387502902418686 0 -0.020659862476816147 0.024511224749859208 0 -0.019704897977765163 0.024251974641804265 0 -0.015490941528112324 0.024264040398413476 0 -0.016957812452766282 0.02388163569279109 0 -0.01606677789598426 0.022862712263984571 0 -0.015490941528112324 0.024264040398413476 0 -0.016957812452766282 0.02388163569279109 0 -0.015984362238751645 0.026211058960459145 0 -0.01769470627983416 0.025117447202076971 0 -0.016957812452766282 0.02388163569279109 0 -0.015984362238751645 0.026211058960459145 0 -0.018132074410566874 0.026682071557385213 0 -0.01769470627983416 0.025117447202076971 0 -0.015984362238751645 0.026211058960459145 0 -0.015490941528112324 0.024264040398413476 0 -0.015984362238751645 0.026211058960459145 0 -0.014929454496758403 0.025437396147426523 0 -0.015105967283028406 0.027348953985777521 0 -0.014592220203609452 0.027995070334698766 0 -0.015984362238751645 0.026211058960459145 0 -0.014878968050646691 0.026465768734574849 0 -0.014929454496758403 0.025437396147426523 0 -0.015984362238751645 0.026211058960459145 0 -0.016770077574725158 0.028453358179519141 0 -0.013603868174332406 0.029032207162327905 0 -0.018132074410566874 0.026682071557385213 0 -0.015984362238751645 0.026211058960459145 0 -0.016770077574725158 0.028453358179519141 0 -0.015859498770719613 0.030859150961144236 0 -0.016770077574725158 0.028453358179519141 0 -0.013603868174332406 0.029032207162327905 0 -0.013834492662847867 0.029149847666321428 0 -0.014592220203609452 0.027995070334698766 0 -0.014181468868349926 0.026538378448317787 0 -0.014878968050646691 0.026465768734574849 0 -0.013920108248440685 0.026210328799793455 0 -0.013920108248440685 0.026210328799793455 0 -0.014240319007045383 0.025818775875016763 0 -0.013389469585958196 0.025698576947872209 0 -0.014878968050646691 0.026465768734574849 0 -0.014240319007045383 0.025818775875016763 0 -0.014929454496758403 0.025437396147426523 0 -0.014878968050646691 0.026465768734574849 0 -0.013920108248440685 0.026210328799793455 0 -0.014240319007045383 0.025818775875016763 0 -0.01370983237306659 0.02619552485375079 0 -0.013616594763551343 0.025987132241239167 0 -0.013657157671862553 0.026027072684120023 0 -0.013852317052417863 0.026353533763322244 0 -0.013920108248440685 0.026210328799793455 0 -0.013765066374707464 0.026196826852752968 0 -0.01370983237306659 0.02619552485375079 0 -0.013765066374707464 0.026196826852752968 0 -0.013616594763551343 0.025987132241239167 0 -0.013920108248440685 0.026210328799793455 0 -0.013765066374707464 0.026196826852752968 0 -0.013616594763551343 0.025987132241239167 0 -0.013920108248440685 0.026210328799793455 0 -0.013616594763551343 0.025987132241239167 0 -0.013389469585958196 0.025698576947872209 0 -0.013616594763551343 0.025987132241239167 0 -0.013592731862898794 0.025851188609944876 0 -0.013389469585958196 0.025698576947872209 0 -0.013616594763551343 0.025987132241239167 0 -0.013635880851856581 0.025936013794622799 0 -0.013657157671862553 0.026027072684120023 0 -0.013592731862898794 0.025851188609944876 0 -0.013635880851856581 0.025936013794622799 0 -0.013690667091749041 0.025897058691331725 0 -0.013616594763551343 0.025987132241239167 0 -0.013592731862898794 0.025851188609944876 0 -0.013635880851856581 0.025936013794622799 0 -0.013658866039018377 0.025978396627543414 0 -0.013635880851856581 0.025936013794622799 0 -0.013690667091749041 0.025897058691331725 0 -0.013658866039018377 0.025978396627543414 0 -0.013635880851856581 0.025936013794622799 0 -0.013657157671862553 0.026027072684120023 0 -0.015258421032405748 0.026520448007239773 0 -0.013644585433123784 0.026596458231747607 0 -0.014212918221392146 0.025977049026582245 0 -0.017385357196117911 0.019880858507717765 0 -0.017177517982294357 0.020154762729267601 0 -0.013681234723187921 0.026117671951353904 0 -0.014212918221392146 0.025977049026582245 0 -0.013690667091749041 0.025897058691331725 0 -0.013592731862898794 0.025851188609944876 0 -0.013681234723187921 0.026117671951353904 0 -0.013690667091749041 0.025897058691331725 0 -0.013389469585958196 0.025698576947872209 0 -0.012897206430143677 0.024675117027778904 0 -0.013521855244233884 0.024418818106979143 0 -0.017385357196117911 0.019880858507717765 0 -0.016558528447791397 0.020434677700639954 0 -0.013592731862898794 0.025851188609944876 0 -0.013681234723187921 0.026117671951353904 0 -0.013389469585958196 0.025698576947872209 0 -0.011826575522205581 0.025054114066399964 0 -0.013389469585958196 0.025698576947872209 0 -0.012897206430143677 0.024675117027778904 0 -0.017385357196117911 0.019880858507717765 0 -0.016408947136118037 0.018353149060682861 0 -0.011826575522205581 0.025054114066399964 0 -0.012897206430143677 0.024675117027778904 0 -0.01282968330425133 0.023644588105433968 0 -0.012897206430143677 0.024675117027778904 0 -0.013521855244233884 0.024418818106979143 0 -0.01282968330425133 0.023644588105433968 0 -0.01765879381948247 0.011181623592271487 0 -0.017766394689583579 0.011399988785543172 0 -0.0176180741074736 0.011483393342750869 0 -0.01765879381948247 0.011181623592271487 0 -0.0176180741074736 0.011483393342750869 0 -0.017390587105770509 0.011477463628415832 0 -0.017766394689583579 0.011399988785543172 0 -0.017769028670198233 0.011521738285722742 0 -0.0176180741074736 0.011483393342750869 0 -0.014929454496758403 0.025437396147426523 0 -0.014123789424372743 0.025069247789299122 0 -0.014413707942552811 0.024136650971733113 0 -0.014240319007045383 0.025818775875016763 0 -0.014929454496758403 0.025437396147426523 0 -0.014123789424372743 0.025069247789299122 0 -0.014240319007045383 0.025818775875016763 0 -0.013389469585958196 0.025698576947872209 0 -0.014123789424372743 0.025069247789299122 0 -0.013389469585958196 0.025698576947872209 0 -0.014123789424372743 0.025069247789299122 0 -0.013521855244233884 0.024418818106979143 0 -0.013521855244233884 0.024418818106979143 0 -0.014413707942552811 0.024136650971733113 0 -0.013690381340181055 0.023270164283778396 0 -0.014123789424372743 0.025069247789299122 0 -0.013521855244233884 0.024418818106979143 0 -0.014413707942552811 0.024136650971733113 0 -0.013521855244233884 0.024418818106979143 0 -0.013690381340181055 0.023270164283778396 0 -0.01282968330425133 0.023644588105433968 0 -0.015490941528112324 0.024264040398413476 0 -0.014413707942552811 0.024136650971733113 0 -0.014938711396639957 0.023270247719582703 0 -0.015490941528112324 0.024264040398413476 0 -0.014929454496758403 0.025437396147426523 0 -0.014413707942552811 0.024136650971733113 0 -0.014413707942552811 0.024136650971733113 0 -0.014938711396639957 0.023270247719582703 0 -0.013690381340181055 0.023270164283778396 0 -0.014938711396639957 0.023270247719582703 0 -0.013690381340181055 0.023270164283778396 0 -0.015075399255667348 0.021572056412390201 0 -0.014716510161517857 0.021984748239805799 0 -0.015469703724604749 0.021239083632781784 0 -0.013690381340181055 0.023270164283778396 0 -0.013474195698863994 0.021958830769519464 0 -0.01282968330425133 0.023644588105433968 0 -0.016180968114850577 0.017020877025847973 0 -0.016408947136118037 0.018353149060682861 0 -0.017114224087237773 0.01176574124323569 0 -0.017390587105770509 0.011477463628415832 0 -0.01734669787704814 0.01172534794894343 0 -0.017114224087237773 0.01176574124323569 0 -0.017273317366763907 0.011906827170466773 0 -0.017110390109277791 0.012016575641614234 0 -0.017114224087237773 0.01176574124323569 0 -0.017273317366763907 0.011906827170466773 0 -0.01734669787704814 0.01172534794894343 0 -0.013690381340181055 0.023270164283778396 0 -0.013474195698863994 0.021958830769519464 0 -0.01474744216043376 0.021704009493451523 0 -0.013474195698863994 0.021958830769519464 0 -0.01474744216043376 0.021704009493451523 0 -0.014393808859793572 0.019564519024536646 0 -0.017708632264973004 0.011632206773887507 0 -0.017769028670198233 0.011521738285722742 0 -0.0176180741074736 0.011483393342750869 0 -0.017708632264973004 0.011632206773887507 0 -0.017510225606757513 0.011654625669499034 0 -0.017640065089045323 0.011774563435062836 0 -0.017708632264973004 0.011632206773887507 0 -0.0176180741074736 0.011483393342750869 0 -0.017510225606757513 0.011654625669499034 0 -0.017510225606757513 0.011654625669499034 0 -0.017390587105770509 0.011477463628415832 0 -0.01734669787704814 0.01172534794894343 0 -0.0176180741074736 0.011483393342750869 0 -0.017510225606757513 0.011654625669499034 0 -0.017390587105770509 0.011477463628415832 0 -0.017273317366763907 0.011906827170466773 0 -0.017444633799023748 0.01182606613330498 0 -0.01741617184304764 0.011988525275153374 0 -0.017273317366763907 0.011906827170466773 0 -0.01734669787704814 0.01172534794894343 0 -0.017444633799023748 0.01182606613330498 0 -0.017510225606757513 0.011654625669499034 0 -0.017444633799023748 0.01182606613330498 0 -0.017640065089045323 0.011774563435062836 0 -0.017510225606757513 0.011654625669499034 0 -0.01734669787704814 0.01172534794894343 0 -0.017444633799023748 0.01182606613330498 0 -0.017444633799023748 0.01182606613330498 0 -0.017640065089045323 0.011774563435062836 0 -0.01759068060253214 0.011961206088913382 0 -0.017790632494976973 0.011862148254487661 0 -0.017640065089045323 0.011774563435062836 0 -0.01759068060253214 0.011961206088913382 0 -0.01778595989711481 0.011723961651609742 0 -0.017708632264973004 0.011632206773887507 0 -0.017640065089045323 0.011774563435062836 0 -0.017790632494976973 0.011862148254487661 0 -0.01778595989711481 0.011723961651609742 0 -0.017640065089045323 0.011774563435062836 0 -0.017770674506847724 0.012100108589691915 0 -0.017790632494976973 0.011862148254487661 0 -0.01759068060253214 0.011961206088913382 0 -0.017770674506847724 0.012100108589691915 0 -0.01759068060253214 0.011961206088913382 0 -0.017481497610797387 0.012142043273297378 0 -0.01759068060253214 0.011961206088913382 0 -0.01741617184304764 0.011988525275153374 0 -0.017481497610797387 0.012142043273297378 0 -0.017444633799023748 0.01182606613330498 0 -0.01759068060253214 0.011961206088913382 0 -0.01741617184304764 0.011988525275153374 0 -0.017273317366763907 0.011906827170466773 0 -0.01741617184304764 0.011988525275153374 0 -0.017289019909213634 0.012104734742052634 0 -0.01741617184304764 0.011988525275153374 0 -0.017481497610797387 0.012142043273297378 0 -0.017289019909213634 0.012104734742052634 0 -0.017493062765908875 0.012406467519094404 0 -0.017327198736753705 0.012292201939354236 0 -0.017481497610797387 0.012142043273297378 0 -0.017327198736753705 0.012292201939354236 0 -0.017481497610797387 0.012142043273297378 0 -0.017289019909213634 0.012104734742052634 0 -0.026693895482150655 0.0071101238615178487 0 -0.026972854489097021 0.0056376682420759177 0 -0.017770674506847724 0.012100108589691915 0 -0.017493062765908875 0.012406467519094404 0 -0.017481497610797387 0.012142043273297378 0 -0.035114978436928949 -0.00038768652432508388 0 -0.035661478571930409 0.00093162389685185452 0 -0.037410695265880922 -0.0018645268798554594 0 -0.016180968114850577 0.017020877025847973 0 -0.016539447187916206 0.015557613019694027 0 -0.017114224087237773 0.01176574124323569 0 -0.016814810926386772 0.012070989240359089 0 -0.017110390109277791 0.012016575641614234 0 -0.016814810926386772 0.012070989240359089 0 -0.017110390109277791 0.012016575641614234 0 -0.017059550448423368 0.012234654218446279 0 -0.017273317366763907 0.011906827170466773 0 -0.017110390109277791 0.012016575641614234 0 -0.017289019909213634 0.012104734742052634 0 -0.017110390109277791 0.012016575641614234 0 -0.017289019909213634 0.012104734742052634 0 -0.017059550448423368 0.012234654218446279 0 -0.017127203130065893 0.012433554520391207 0 -0.017327198736753705 0.012292201939354236 0 -0.017059550448423368 0.012234654218446279 0 -0.017327198736753705 0.012292201939354236 0 -0.017289019909213634 0.012104734742052634 0 -0.017059550448423368 0.012234654218446279 0 -0.016814810926386772 0.012070989240359089 0 -0.017059550448423368 0.012234654218446279 0 -0.01680968183881329 0.012333415785593349 0 -0.016938861651968572 0.012378959571413634 0 -0.017127203130065893 0.012433554520391207 0 -0.017059550448423368 0.012234654218446279 0 -0.016938861651968572 0.012378959571413634 0 -0.017059550448423368 0.012234654218446279 0 -0.01680968183881329 0.012333415785593349 0 -0.016938861651968572 0.012378959571413634 0 -0.01671353468146048 0.01241312063514804 0 -0.01680968183881329 0.012333415785593349 0 -0.01762564476349578 0.013622564756006152 0 -0.016539447187916206 0.015557613019694027 0 -0.016660345478675686 0.012685942718610241 0 -0.01671353468146048 0.01241312063514804 0 -0.01680968183881329 0.012333415785593349 0 -0.016660345478675686 0.012685942718610241 0 -0.016814810926386772 0.012070989240359089 0 -0.01680968183881329 0.012333415785593349 0 -0.016152506416225391 0.015626681537960881 0 -0.014393808859793572 0.019564519024536646 0 -0.016863904870350391 0.017666588987361825 0 -0.014393808859793572 0.019564519024536646 0 -0.016901006166862482 0.019620036358047585 0 -0.016863904870350391 0.017666588987361825 0 -0.015469703724604749 0.021239083632781784 0 -0.017094399585887165 0.019700536401477398 0 -0.01474744216043376 0.021704009493451523 0 -0.014393808859793572 0.019564519024536646 0 -0.016901006166862482 0.019620036358047585 0 -0.01673898987598444 0.019726451631769806 0 -0.020094864908328236 0.017734704898985005 0 -0.019065421069978626 0.019865615210879931 0 -0.01673898987598444 0.019726451631769806 0 -0.019065421069978626 0.019865615210879931 0 -0.018097299927986324 0.021165531708301613 0 -0.01673898987598444 0.019726451631769806 0 -0.020094864908328236 0.017734704898985005 0 -0.02104423543742617 0.016529737025342564 0 -0.017094399585887165 0.019700536401477398 0 -0.018352737454053591 0.018558466896455968 0 -0.016901006166862482 0.019620036358047585 0 -0.016863904870350391 0.017666588987361825 0 -0.018446517856803044 0.016459145893876606 0 -0.016901006166862482 0.019620036358047585 0 -0.018446517856803044 0.016459145893876606 0 -0.02104423543742617 0.016529737025342564 0 -0.016863904870350391 0.017666588987361825 0 -0.017357517635441473 0.016066812263149263 0 -0.018446517856803044 0.016459145893876606 0 -0.016152506416225391 0.015626681537960881 0 -0.016863904870350391 0.017666588987361825 0 -0.017357517635441473 0.016066812263149263 0 -0.018309020992860602 0.014360669040600434 0 -0.017357517635441473 0.016066812263149263 0 -0.018446517856803044 0.016459145893876606 0 -0.019974968832098851 0.014974196066819588 0 -0.019033386671679996 0.014820135142451701 0 -0.018446517856803044 0.016459145893876606 0 -0.020094864908328236 0.017734704898985005 0 -0.02104423543742617 0.016529737025342564 0 -0.02543667721561349 0.015584579758567599 0 -0.019974968832098851 0.014974196066819588 0 -0.018446517856803044 0.016459145893876606 0 -0.02104423543742617 0.016529737025342564 0 -0.021715432995797146 0.014444329582103982 0 -0.02104423543742617 0.016529737025342564 0 -0.02543667721561349 0.015584579758567599 0 -0.021706049019279385 0.015115656908136623 0 -0.021977932197152047 0.014475370438177933 0 -0.020094864908328236 0.017734704898985005 0 -0.021140284789498812 0.018984281616381628 0 -0.02051303208563093 0.019334915083008407 0 -0.020094864908328236 0.017734704898985005 0 -0.029201586675563506 0.017820553399266546 0 -0.02543667721561349 0.015584579758567599 0 -0.028563432413974153 0.013793427197581741 0 -0.029201586675563506 0.017820553399266546 0 -0.02543667721561349 0.015584579758567599 0 -0.02051303208563093 0.019334915083008407 0 -0.02079866777168345 0.020382808814476901 0 -0.019723902564089024 0.02100003111910537 0 -0.021178969752151909 0.019820658485327269 0 -0.021140284789498812 0.018984281616381628 0 -0.02051303208563093 0.019334915083008407 0 -0.021178969752151909 0.019820658485327269 0 -0.02051303208563093 0.019334915083008407 0 -0.02079866777168345 0.020382808814476901 0 -0.020094864908328236 0.017734704898985005 0 -0.02051303208563093 0.019334915083008407 0 -0.019065421069978626 0.019865615210879931 0 -0.02051303208563093 0.019334915083008407 0 -0.019065421069978626 0.019865615210879931 0 -0.019723902564089024 0.02100003111910537 0 -0.019723902564089024 0.02100003111910537 0 -0.020436379081884618 0.021891048138479224 0 -0.018760284015269895 0.022376728941439755 0 -0.019065421069978626 0.019865615210879931 0 -0.019723902564089024 0.02100003111910537 0 -0.018097299927986324 0.021165531708301613 0 -0.019723902564089024 0.02100003111910537 0 -0.018760284015269895 0.022376728941439755 0 -0.018097299927986324 0.021165531708301613 0 -0.021342457062593523 0.021130715414194808 0 -0.02079866777168345 0.020382808814476901 0 -0.020591582742377431 0.021104112214835071 0 -0.02079866777168345 0.020382808814476901 0 -0.019723902564089024 0.02100003111910537 0 -0.020591582742377431 0.021104112214835071 0 -0.019723902564089024 0.02100003111910537 0 -0.020591582742377431 0.021104112214835071 0 -0.020436379081884618 0.021891048138479224 0 -0.021342457062593523 0.021130715414194808 0 -0.020591582742377431 0.021104112214835071 0 -0.020436379081884618 0.021891048138479224 0 -0.021070373791123011 0.02300419848257958 0 -0.018720049665323705 0.023791205899498572 0 -0.020436379081884618 0.021891048138479224 0 -0.018720049665323705 0.023791205899498572 0 -0.020436379081884618 0.021891048138479224 0 -0.018760284015269895 0.022376728941439755 0 -0.018720049665323705 0.023791205899498572 0 -0.016957812452766282 0.02388163569279109 0 -0.018760284015269895 0.022376728941439755 0 -0.016957812452766282 0.02388163569279109 0 -0.017344585389039643 0.02238541171055386 0 -0.01606677789598426 0.022862712263984571 0 -0.016957812452766282 0.02388163569279109 0 -0.018760284015269895 0.022376728941439755 0 -0.017344585389039643 0.02238541171055386 0 -0.017344585389039643 0.02238541171055386 0 -0.01606677789598426 0.022862712263984571 0 -0.016640402016448529 0.021617540019182993 0 -0.014938711396639957 0.023270247719582703 0 -0.015075399255667348 0.021572056412390201 0 -0.01606677789598426 0.022862712263984571 0 -0.015490941528112324 0.024264040398413476 0 -0.014938711396639957 0.023270247719582703 0 -0.01606677789598426 0.022862712263984571 0 -0.015075399255667348 0.021572056412390201 0 -0.01673898987598444 0.019726451631769806 0 -0.016640402016448529 0.021617540019182993 0 -0.015075399255667348 0.021572056412390201 0 -0.01606677789598426 0.022862712263984571 0 -0.016640402016448529 0.021617540019182993 0 -0.01673898987598444 0.019726451631769806 0 -0.018097299927986324 0.021165531708301613 0 -0.016640402016448529 0.021617540019182993 0 -0.017344585389039643 0.02238541171055386 0 -0.018097299927986324 0.021165531708301613 0 -0.016640402016448529 0.021617540019182993 0 -0.018760284015269895 0.022376728941439755 0 -0.017344585389039643 0.02238541171055386 0 -0.018097299927986324 0.021165531708301613 0 
</DataArray>
</PointData>
<CellData Scalars="region_id,cross_section_updated," Vectors="" Tensors="stress,">
<DataArray type="Float64" Name="region_id" format="ascii">
5 5 5 5 5 6 5 5 5 5 5 5 5 6 5 5 5 5 6 5 5 6 5 5 5 5 6 5 5 5 5 6 5 5 5 5 5 5 5 5 5 5 5 5 5 6 5 5 6 5 5 5 5 5 6 5 5 5 5 5 5 5 6 5 5 5 5 6 5 5 5 5 5 5 5 5 5 6 5 5 6 5 5 6 5 5 5 5 6 5 5 5 5 5 5 5 6 6 6 5 5 6 5 5 5 5 5 6 5 5 5 5 5 5 5 5 5 5 5 5 5 6 5 5 5 6 5 5 5 5 5 5 6 5 5 5 5 5 5 5 5 5 5 5 5 5 5 5 5 5 5 5 5 5 5 5 5 5 6 5 5 5 6 5 5 6 5 5 5 5 5 5 5 5 5 5 5 6 5 5 5 5 5 5 5 5 6 5 5 5 5 5 5 5 5 6 5 5 5 5 5 5 5 5 5 6 5 5 5 5 5 5 5 5 5 5 5 5 5 5 5 5 5 5 5 5 5 5 5 6 5 5 5 6 5 6 5 6 5 5 6 5 5 5 6 5 6 5 6 5 6 6 5 6 5 5 6 5 6 5 5 5 6 5 6 6 5 5 6 5 5 5 6 5 6 6 6 5 6 5 5 5 6 5 6 6 6 5 5 6 6 5 5 5 5 6 5 6 5 5 6 5 5 5 6 5 6 6 6 5 5 5 6 5 6 6 6 6 5 5 5 6 6 5 5 6 6 6 5 6 5 5 5 5 6 5 5 5 5 5 5 5 6 5 5 5 5 5 5 6 6 5 5 5 6 5 5 5 6 5 6 5 6 6 5 5 5 5 6 5 5 6 5 5 5 5 6 5 6 5 5 5 5 5 6 6 5 5 5 5 5 5 5 5 6 5 5 5 6 5 5 6 5 6 5 5 5 5 5 5 5 5 5 5 5 6 5 6 5 6 5 5 5 6 5 6 5 6 5 5 5 5 5 5 6 5 6 5 5 5 6 5 5 5 6 5 6 6 5 5 5 5 6 5 5 5 5 6 6 5 5 6 5 6 5 6 6 5 5 5 6 5 5 5 5 6 5 5 5 5 5 5 5 5 5 5 5 6 5 5 5 5 6 5 5 5 6 5 6 6 6 5 5 5 6 6 5 6 5 5 6 5 5 5 5 6 5 5 5 5 5 5 5 5 5 5 5 6 6 5 5 6 5 5 5 6 5 5 5 5 5 5 6 5 5 5 6 5 5 5 6 5 5 5 5 5 5 5 5 5 5 5 6 5 5 5 6 5 5 5 5 5 5 5 6 5 5 5 5 5 6 5 5 5 5 5 5 5 5 5 5 5 5 5 5 5 5 5 5 5 6 5 5 5 5 6 5 5 6 5 5 5 5 5 5 5 6 5 5 5 5 5 5 5 5 6 5 6 5 5 6 5 5 5 6 5 5 6 5 5 5 6 5 6 5 5 6 5 6 5 5 5 5 5 5 5 5 5 5 5 5 5 5 5 5 5 5 5 5 5 5 6 5 6 5 6 5 5 5 5 5 5 5 5 5 5 5 5 5 5 5 6 5 5 5 5 5 5 5 5 5 6 5 5 5 5 5 5 5 5 5 5 5 5 5 5 5 5 5 5 5 5 5 5 5 5 5 5 5 5 5 6 5 5 6 5 5 5 6 6 5 6 5 5 5 5 5 6 5 5 5 5 5 6 5 5 5 5 5 5 5 5 5 5 5 5 5 5 5 5 5 5 5 5 5 5 5 5 5 5 5 5 5 5 5 5 5 5 5 5 5 5 5 5 5 5 5 5 5 5 5 5 5 6 5 5 5 5 5 5 5 5 5 5 5 5 5 5 5 6 5 5 5 5 6 5 5 5 5 5 5 5 5 5 5 5 5 5 5 5 5 5 5 5 5 5 5 5 5 5 5 5 6 5 5 6 5 6 6 6 6 5 5 6 5 5 5 5 5 5 5 5 5 5 5 5 5 5 5 5 5 6 5 5 6 5 6 5 5 5 5 6 5 6 5 5 5 5 6 5 5 5 6 5 5 5 5 5 6 5 6 5 5 6 6 5 6 5 5 5 5 5 5 5 5 5 5 5 6 5 5 5 6 5 5 5 6 5 5 6 6 6 5 5 5 5 5 5 5 5 5 5 5 6 5 5 5 5 5 5 5 5 6 6 6 5 5 5 5 5 5 5 5 6 6 5 5 5 6 5 5 6 5 5 5 5 5 5 5 5 5 5 5 6 5 5 5 5 5 5 5 5 6 5 5 5 5 5 5 5 5 5 5 6 5 6 6 6 5 5 5 5 5 5 5 6 6 5 6 5 5 5 5 5 6 5 6 6 5 5 5 6 5 6 5 5 5 5 6 5 5 5 5 5 5 5 5 5 5 5 5 5 5 5 5 5 6 5 5 5 6 5 5 5 5 5 6 5 5 5 5 5 5 6 5 6 5 5 5 5 5 5 5 5 6 5 5 5 6 5 5 5 5 5 5 5 5 5 5 5 5 5 5 5 5 5 5 5 5 5 5 5 5 5 6 6 6 5 5 5 5 6 5 5 5 5 6 5 5 5 5 5 5 5 6 5 5 5 5 5 5 5 5 6 5 5 5 5 5 5 5 5 5 5 5 5 6 5 5 5 5 5 5 6 5 5 5 5 5 5 5 5 6 5 5 5 6 5 5 5 5 5 5 5 5 5 5 5 5 6 5 5 5 5 5 5 5 5 5 5 5 5 5 5 5 5 5 5 5 5 5 5 5 5 5 5 5 5 5 5 5 5 5 5 5 5 5 5 5 5 5 5 5 5 5 5 5 6 5 5 5 5 5 5 5 5 5 5 5 5 5 5 5 5 5 5 5 5 5 5 5 5 6 5 5 5 5 5 5 5 5 5 5 6 5 5 6 5 5 5 5 5 5 5 5 5 6 5 6 5 5 5 5 6 5 5 6 5 6 5 5 5 5 5 6 5 5 5 5 5 5 5 5 6 5 5 5 5 5 5 5 5 5 5 5 5 5 5 6 5 6 6 5 5 5 5 5 6 5 5 5 5 5 5 5 5 5 5 5 5 5 5 5 6 5 5 5 5 5 5 5 5 5 5 5 5 5 5 5 5 6 5 5 5 5 5 6 6 5 5 6 5 5 5 5 5 5 5 5 5 5 6 5 5 5 5 5 5 5 5 5 6 5 6 5 5 5 5 5 6 5 5 5 5 6 5 5 5 6 5 5 5 6 5 5 6 5 5 5 5 5 5 5 5 5 5 5 5 5 5 5 5 6 5 5 5 5 5 5 5 6 5 5 5 5 5 5 5 5 5 5 5 5 5 5 5 5 5 5 5 5 5 5 5 5 5 5 5 6 5 5 5 5 6 5 5 5 6 5 5 5 5 5 5 5 5 5 6 5 6 5 5 5 5 5 5 5 5 5 5 5 5 5 5 5 5 5 5 6 6 5 5 5 6 5 5 6 5 5 6 5 5 5 6 5 5 6 5 5 5 5 5 5 5 5 5 5 5 5 5 5 5 5 5 5 5 5 6 5 6 5 5 5 5 5 5 5 5 5 5 5 6 5 6 5 5 5 6 5 5 5 5 5 6 5 5 5 5 5 5 6 5 5 5 5 5 5 5 5 5 5 5 6 5 5 5 5 5 5 5 5 6 5 5 5 6 5 5 6 5 5 5 5 5 6 5 5 5 5 5 5 5 5 5 6 5 5 6 5 6 5 6 6 6 5 6 5 5 5 5 5 5 6 5 5 5 5 5 5 6 5 5 5 5 5 5 5 6 5 5 5 5 6 5 5 5 5 5 6 5 6 5 5 5 5 5 5 5 5 5 5 6 5 5 5 5 5 5 5 6 5 5 5 5 5 5 5 6 5 6 5 5 5 5 5 5 5 5 6 5 5 5 6 6 5 5 5 5 5 6 6 5 6 5 5 6 5 5 6 5 5 5 5 5 5 5 5 6 5 5 5 5 5 6 5 5 5 5 6 5 5 6 5 5 5 5 5 5 5 5 5 5 5 5 5 5 5 5 5 5 5 5 5 5 5 5 5 5 5 5 5 5 5 5 5 5 5 5 5 5 5 5 5 6 5 5 6 5 5 5 5 5 6 5 5 5 5 6 5 5 5 5 5 5 5 5 5 5 5 5 5 5 5 5 5 5 5 5 5 5 5 5 6 5 5 5 6 5 5 5 5 5 5 6 5 5 5 5 5 5 5 5 5 5 5 6 5 6 6 5 5 6 5 5 5 5 5 5 5 5 5 5 5 6 5 5 6 5 5 5 5 5 5 5 5 5 5 5 5 5 5 5 6 5 5 5 5 5 5 5 6 5 6 5 5 5 5 6 5 6 5 5 5 5 5 5 5 5 5 6 5 5 5 5 5 5 5 5 5 5 5 5 5 5 5 5 5 6 5 5 5 5 5 5 5 5 5 5 5 5 5 5 5 5 5 5 5 5 5 5 5 5 5 6 6 5 5 5 5 5 5 5 5 5 5 5 6 5 5 5 5 6 5 5 5 5 6 5 5 5 5 5 5 5 5 6 5 5 5 5 5 5 5 5 5 6 5 5 5 5 5 5 5 5 5 5 5 5 5 5 5 5 5 5 5 5 6 5 5 5 5 5 5 5 5 5 5 5 5 5 5 6 5 6 5 5 5 5 5 5 5 5 6 5 5 6 5 5 5 5 5 5 5 5 5 5 5 5 5 5 5 5 5 5 5 5 5 5 5 5 5 5 5 5 5 5 5 5 5 5 5 5 6 5 5 6 5 5 5 5 6 5 6 5 5 6 5 6 5 5 5 5 5 6 5 5 5 5 5 5 5 5 5 5 5 5 6 5 5 5 6 5 5 5 5 5 5 5 5 5 6 5 5 5 5 6 6 5 5 5 5 5 5 5 5 6 5 5 5 5 5 6 5 5 5 6 5 5 5 6 5 5 5 5 6 5 5 5 5 5 5 5 5 5 5 5 5 5 5 6 5 5 5 5 5 5 6 5 6 6 5 6 5 6 5 5 5 5 6 5 5 5 5 6 5 5 5 5 5 5 5 5 5 6 5 5 5 5 5 5 5 5 5 5 5 5 5 5 6 5 5 5 6 5 5 5 6 5 6 5 5 5 5 5 5 5 5 5 5 5 5 5 5 5 5 6 5 5 5 5 5 5 6 5 5 5 5 5 5 5 5 5 5 5 5 5 5 5 5 5 5 6 5 5 5 5 5 5 5 5 5 5 5 5 5 5 5 5 5 5 5 5 5 5 5 5 5 5 5 5 5 5 5 5 5 5 6 5 5 5 5 6 5 5 5 5 5 5 5 6 5 5 5 5 5 5 5 5 5 6 5 5 6 5 5 5 5 5 6 5 5 5 6 5 5 6 5 5 5 5 5 5 5 5 5 5 5 5 5 5 5 5 5 5 5 5 6 5 5 5 5 5 5 5 5 5 5 6 6 5 6 5 5 5 5 5 6 5 5 5 5 6 5 5 5 5 5 6 5 6 5 5 6 5 5 5 5 5 5 5 5 6 5 5 5 5 5 5 6 5 5 5 5 5 5 6 5 5 5 5 6 5 5 6 5 6 5 5 6 5 5 5 5 5 5 6 5 5 5 5 6 5 5 5 5 5 5 5 5 6 6 5 5 5 5 5 5 5 5 6 5 5 5 5 5 5 6 5 5 5 5 5 5 5 6 5 5 5 6 5 5 5 5 5 5 5 5 5 5 5 5 6 5 5 5 5 6 5 5 6 5 5 5 5 6 5 5 5 6 6 5 5 5 6 5 5 5 6 5 5 5 5 5 5 5 5 5 6 5 5 5 6 5 5 5 5 5 5 5 5 5 5 5 5 6 5 6 5 5 6 5 5 6 5 5 5 5 5 5 5 6 5 5 5 5 5 6 5 6 5 5 5 6 6 5 6 6 5 6 5 5 5 5 5 5 6 5 6 5 5 5 5 5 5 5 5 5 5 5 5 5 6 5 5 6 5 6 5 5 6 5 5 5 6 6 5 5 6 5 5 5 5 5 5 5 5 5 5 5 5 5 5 5 5 5 5 5 5 5 5 5 6 6 5 6 5 6 5 5 6 6 5 5 6 5 5 6 5 5 6 5 6 5 5 5 5 6 5 5 5 5 6 5 6 6 5 6 5 5 6 6 5 5 5 6 5 5 5 5 6 6 5 5 5 5 5 6 5 5 5 5 5 5 5 5 5 5 5 6 5 6 5 6 5 5 6 5 6 5 5 5 5 5 5 5 5 6 5 5 6 5 5 5 5 6 5 5 5 5 5 5 5 5 5 5 5 5 6 5 5 5 5 5 5 5 5 5 5 5 6 5 5 5 5 5 5 6 5 6 5 5 6 5 5 5 5 5 5 5 5 5 5 5 5 5 5 5 5 5 6 6 5 5 5 6 5 5 6 5 5 5 5 5 5 5 5 5 5 5 5 5 5 5 5 5 5 5 5 5 5 5 5 5 6 6 5 5 5 5 5 5 5 5 5 5 5 6 5 5 5 5 5 5 5 5 5 5 5 5 5 5 5 5 5 5 5 5 5 5 5 5 5 5 5 5 5 5 5 5 5 6 5 5 5 5 5 6 5 5 6 5 5 6 6 5 5 5 5 5 5 5 5 5 5 5 5 5 6 5 5 6 5 5 5 5 5 5 6 5 5 6 5 5 5 5 5 5 5 5 5 5 5 5 5 6 5 5 5 5 5 5 5 6 5 5 5 5 5 5 5 5 5 5 5 5 6 5 5 6 5 5 5 5 5 5 5 5 5 5 5 5 5 5 5 5 5 5 5 5 6 5 5 6 5 6 5 5 5 6 5 5 6 5 6 5 5 5 6 5 5 5 5 6 5 5 5 5 5 5 5 6 5 5 5 6 5 5 5 5 5 5 5 5 5 5 5 5 6 5 5 5 5 5 5 5 5 6 5 5 5 5 5 5 5 5 5 5 5 6 5 5 5 5 5 5 5 5 5 5 5 5 5 5 5 5 5 5 5 6 6 5 5 5 6 5 5 5 5 5 5 5 5 5 5 5 5 6 5 5 5 5 5 5 5 5 5 6 5 5 5 5 5 5 5 5 5 5 5 5 5 5 5 5 6 5 6 5 5 5 5 5 6 5 5 5 5 6 5 5 5 6 5 5 5 6 5 5 5 5 5 5 5 5 5 6 5 5 5 6 5 5 6 5 5 5 5 5 5 6 5 5 5 5 5 5 5 5 6 5 5 5 6 5 5 5 5 5 5 5 5 5 5 5 5 5 5 5 5 5 5 5 5 5 5 5 5 5 5 5 6 5 5 5 5 5 5 5 6 5 5 5 5 5 5 5 5 5 5 5 5 5 5 5 5 5 5 5 5 5 5 5 5 5 6 5 6 5 5 5 5 5 5 6 5 5 5 6 5 5 6 5 5 5 5 5 5 5 5 5 5 5 5 6 5 5 5 5 5 6 5 5 5 5 5 5 5 5 5 5 5 5 5 6 5 5 5 6 5 5 5 5 5 5 5 5 5 5 5 5 6 6 5 5 5 5 6 5 5 5 5 5 5 5 5 5 6 6 5 5 5 5 5 6 5 5 5 5 5 6 5 5 5 5 5 6 5 6 5 5 5 5 6 5 6 5 6 6 5 5 5 5 5 5 5 6 6 5 5 5 5 5 5 6 6 6 5 6 6 5 5 5 6 5 5 5 5 5 6 6 6 5 6 5 5 5 6 5 6 6 5 5 5 5 5 5 5 6 6 5 5 6 6 6 5 5 5 5 5 5 5 5 5 5 5 5 5 5 5 5 5 5 5 5 5 5 5 5 5 5 5 5 5 5 5 5 5 5 5 5 5 5 5 5 6 5 5 5 5 5 5 5 5 5 5 6 5 5 5 5 5 5 6 5 5 6 5 5 5 5 5 5 5 5 5 5 5 5 5 6 5 6 5 5 5 5 6 5 5 5 6 5 5 6 5 5 5 6 5 5 6 5 5 5 5 5 6 5 5 5 5 5 5 5 6 5 5 5 5 5 5 5 6 5 5 6 5 5 5 5 6 5 6 5 5 5 5 5 6 5 5 5 5 6 5 5 5 5 5 5 6 6 5 5 5 5 5 6 5 5 6 5 5 5 5 5 5 5 5 5 5 6 5 5 5 5 5 5 5 5 5 5 5 5 5 5 5 5 5 5 6 5 5 5 5 5 5 6 5 5 5 5 5 5 5 6 6 5 5 5 5 6 5 5 5 5 5 5 5 6 5 5 6 5 6 6 6 5 5 5 5 5 5 6 5 5 5 5 5 6 5 5 5 5 6 5 5 5 6 5 5 5 6 5 5 5 5 5 5 5 5 5 5 5 5 5 5 5 5 5 5 5 5 5 5 5 5 5 6 5 5 5 5 5 5 5 6 5 6 5 5 5 5 5 5 6 5 5 6 5 5 5 6 5 5 6 5 5 5 5 5 6 5 5 5 6 6 5 5 5 5 5 5 5 5 5 5 5 5 6 5 5 5 5 5 5 5 5 5 6 5 5 5 5 5 6 6 5 5 5 5 5 5 5 5 5 6 5 5 5 5 5 5 5 5 6 5 5 5 5 5 5 5 5 5 5 5 5 5 5 5 5 5 5 6 5 5 5 5 6 5 6 5 6 5 5 5 5 5 5 5 5 5 5 5 5 5 5 5 5 5 6 5 5 5 5 5 6 5 5 5 6 6 5 5 5 5 5 6 5 5 5 5 6 5 5 5 5 5 5 5 5 6 5 5 5 5 5 5 5 6 5 5 5 5 5 5 5 5 5 6 5 5 5 5 5 5 5 5 5 5 5 5 5 5 5 5 5 5 6 5 5 5 5 5 5 5 5 5 5 5 5 5 6 5 5 5 5 5 5 6 5 5 6 5 5 6 5 5 5 5 5 5 5 5 5 5 5 5 5 5 5 5 5 5 5 5 5 5 5 5 5 5 6 5 6 5 6 6 5 5 5 6 5 5 5 5 5 5 5 5 5 6 6 5 6 5 5 5 5 5 5 5 5 5 5 5 5 5 5 6 5 6 6 5 6 5 5 5 5 5 5 5 5 5 6 6 5 5 5 5 5 5 5 5 5 5 5 5 5 5 5 5 5 5 5 5 5 5 6 5 5 5 5 5 6 5 5 5 5 5 6 5 5 5 6 5 5 5 5 5 5 5 5 5 6 5 5 5 5 6 5 5 5 5 5 5 6 5 5 5 5 5 5 5 6 5 5 5 5 6 5 5 5 5 5 5 5 5 5 5 6 5 5 5 5 6 5 5 5 6 5 5 5 5 5 6 5 5 5 5 5 5 5 5 5 5 5 5 5 5 6 6 5 5 6 5 5 5 5 5 5 5 6 5 5 5 5 5 5 6 5 5 5 5 5 5 5 5 5 5 5 5 5 5 5 5 5 5 5 5 5 5 5 6 5 5 5 5 5 5 5 5 6 5 5 5 5 6 5 5 5 5 5 6 5 6 5 6 5 5 5 5 5 5 5 6 5 5 5 6 5 5 5 5 5 6 5 5 5 5 5 6 5 6 5 5 6 5 6 5 5 5 5 5 6 5 5 5 6 5 5 5 5 5 5 5 5 5 5 6 5 5 5 5 5 5 5 5 5 5 5 5 5 5 5 5 5 5 5 5 5 5 6 5 5 5 5 5 5 5 5 5 5 5 5 5 5 5 5 5 5 6 5 5 5 6 5 5 5 5 5 5 6 5 5 5 6 6 5 6 5 6 6 5 6 5 5 6 5 5 6 6 5 5 5 5 5 5 5 5 6 5 6 5 5 5 5 5 5 5 5 5 5 5 5 5 5 5 5 5 5 5 5 5 5 6 5 5 5 5 5 5 5 5 6 5 5 6 5 5 6 6 5 5 6 5 5 5 5 5 5 5 5 5 5 5 5 5 5 5 5 5 5 5 5 5 5 5 5 5 5 5 5 5 5 5 5 5 5 5 5 5 5 5 6 5 6 5 5 5 5 5 5 5 5 5 5 5 5 5 5 5 5 5 5 5 5 5 5 5 5 5 5 5 5 5 5 5 5 5 5 5 5 5 5 5 5 6 5 5 6 5 5 5 5 5 6 5 6 5 5 6 5 5 5 5 5 5 6 5 5 5 5 5 5 5 5 5 5 5 6 5 5 6 6 5 6 5 5 6 5 5 5 5 6 5 5 5 5 5 5 5 5 5 6 5 6 5 5 5 5 5 5 5 6 5 6 5 5 5 5 5 5 5 5 5 6 5 6 5 5 5 5 5 5 5 5 5 5 6 5 5 5 6 5 5 6 5 5 6 5 5 5 5 6 5 5 5 6 5 5 5 5 5 5 5 5 5 5 5 5 5 5 6 5 5 5 5 5 5 6 5 6 5 6 5 5 5 6 5 5 5 5 5 5 5 5 6 5 5 5 5 5 6 5 5 6 5 5 5 5 5 5 5 5 5 6 5 5 5 6 5 5 5 5 5 5 6 5 5 5 5 5 5 5 5 5 5 5 5 5 5 5 5 5 5 5 5 5 5 5 5 5 5 5 5 5 5 5 6 5 5 5 5 5 6 5 5 6 6 5 5 5 5 6 5 5 5 5 5 6 5 5 5 5 5 5 5 5 5 5 5 5 5 5 5 5 6 5 5 5 5 5 5 5 5 6 6 5 5 5 5 5 5 6 5 5 5 5 6 5 5 5 5 5 5 5 5 5 5 5 5 5 5 5 5 5 5 5 5 5 5 5 5 6 5 5 6 5 5 5 5 5 5 5 5 5 5 5 5 5 5 5 5 5 5 5 5 5 5 5 5 5 5 5 6 5 6 5 5 5 5 5 6 5 5 5 5 5 5 5 5 5 5 5 5 5 5 5 5 5 5 5 5 6 6 5 6 5 5 5 5 5 5 5 5 5 5 5 5 5 5 5 5 6 5 5 5 6 5 5 5 5 5 5 5 5 5 5 5 5 5 6 5 5 5 5 5 5 5 5 5 5 5 5 5 5 5 5 5 5 5 5 5 5 6 5 5 5 5 5 5 5 5 5 5 5 5 5 6 5 6 5 5 6 6 5 5 5 5 5 5 5 5 5 5 5 5 5 5 5 5 5 5 5 5 6 5 5 6 5 5 5 6 5 5 5 5 5 5 6 5 5 5 6 5 5 5 5 5 5 5 5 6 5 5 6 5 5 6 5 6 5 5 5 5 6 6 5 5 6 6 5 5 6 5 5 5 5 6 5 5 6 6 5 6 5 5 5 5 5 5 5 5 5 5 5 5 5 5 5 5 5 5 5 5 6 5 5 5 5 6 5 5 5 5 6 6 5 5 5 5 5 5 5 5 5 5 5 5 6 5 5 5 6 5 5 5 5 5 5 5 6 5 5 5 6 5 5 6 6 5 5 5 6 5 5 5 6 5 5 5 5 5 5 5 5 5 5 5 5 5 5 5 5 5 5 6 5 5 5 5 5 5 5 5 5 5 5 5 5 5 5 5 5 5 6 6 5 5 5 5 5 6 6 5 6 5 5 5 5 5 5 5 5 5 6 5 5 5 6 5 5 5 5 5 5 5 5 5 5 5 5 5 5 6 5 5 5 5 5 5 5 6 5 5 6 5 5 5 5 5 5 6 5 5 5 5 6 5 5 5 5 5 5 6 5 5 5 5 5 5 5 5 6 6 5 5 5 6 6 5 5 5 5 5 6 5 5 5 5 5 5 6 5 5 5 5 6 5 5 5 5 5 6 5 5 5 5 6 5 5 5 5 5 5 5 5 5 5 5 5 5 5 5 5 5 5 5 5 5 5 5 5 5 6 5 5 5 5 6 5 6 5 6 5 5 6 5 5 6 5 5 6 5 5 5 5 5 5 6 5 5 6 5 6 6 6 5 5 6 5 6 6 5 5 5 6 5 6 5 5 5 5 5 5 6 5 5 5 6 5 5 5 5 5 5 5 6 5 5 5 6 5 6 6 5 5 5 5 5 5 5 6 5 5 5 5 5 5 5 5 6 6 5 5 5 5 6 5 5 6 5 5 5 6 5 5 5 6 6 5 5 5 5 6 5 5 5 5 5 6 6 5 5 5 5 5 5 5 5 5 5 5 5 5 5 5 5 5 5 5 5 5 5 5 5 5 5 5 5 5 5 5 6 5 5 5 6 5 5 5 5 5 5 5 5 5 5 5 5 5 5 5 6 5 6 6 5 5 6 5 5 5 5 5 5 5 5 5 5 5 5 5 5 5 5 5 5 5 5 5 5 5 6 5 5 6 6 5 5 5 5 5 5 5 6 5 5 5 6 5 5 5 5 6 6 5 5 5 5 5 5 5 6 5 5 5 5 6 5 5 5 5 6 5 5 5 5 5 5 5 5 5 5 5 5 5 5 5 5 5 5 5 6 5 5 5 5 5 5 5 5 5 5 5 5 5 5 5 5 6 5 5 5 6 5 5 5 5 5 5 5 5 5 6 5 5 5 5 5 5 5 5 5 5 5 5 5 5 5 5 5 5 5 5 5 6 5 5 5 5 5 5 5 5 5 5 5 5 5 5 5 5 5 6 5 5 5 5 5 6 5 5 5 5 5 5 5 5 5 5 5 5 5 5 5 5 5 5 5 5 5 5 5 5 5 5 5 6 5 5 6 5 5 5 6 5 5 5 5 5 5 5 5 5 5 5 5 5 5 5 6 5 6 5 5 5 5 5 5 5 5 5 6 5 5 5 5 5 5 5 5 5 6 6 5 5 5 5 5 5 5 5 5 5 5 5 5 5 5 5 5 5 5 5 5 5 5 5 5 5 5 5 5 5 5 5 5 5 5 5 5 5 5 5 5 5 5 5 5 5 5 5 5 5 5 5 5 5 5 5 5 5 5 5 5 5 5 5 5 5 5 5 5 5 5 6 5 5 5 5 5 5 6 5 5 5 5 5 5 5 5 5 6 5 6 5 5 5 5 5 5 5 5 5 5 5 5 5 5 5 5 5 5 5 5 5 5 5 5 5 5 5 5 5 5 5 5 5 5 6 5 5 5 6 6 5 5 5 5 5 5 5 5 5 5 5 5 5 5 5 5 5 5 5 5 5 5 6 6 5 5 5 5 5 5 5 5 6 5 5 5 5 5 5 6 5 5 5 5 5 6 5 5 5 5 6 5 5 5 6 5 5 5 6 5 5 6 5 5 5 5 5 5 5 5 5 5 5 5 5 6 5 5 5 5 5 5 5 5 6 5 5 5 5 5 5 5 5 5 5 5 6 5 5 5 6 5 5 5 5 6 5 5 5 5 5 5 5 5 6 5 6 5 5 6 5 5 5 5 5 6 5 5 5 5 5 5 5 5 5 5 5 5 6 5 5 5 5 5 5 5 5 5 6 5 5 5 5 5 5 6 5 5 5 5 5 5 5 6 5 5 5 5 5 6 5 5 5 5 5 5 5 5 5 5 5 5 5 5 5 5 5 5 5 5 5 5 5 5 5 5 5 5 5 5 5 5 5 5 5 5 5 5 5 5 5 5 5 5 5 5 5 6 5 6 5 5 5 5 5 5 5 5 5 5 5 5 5 5 6 5 5 5 5 5 5 5 5 5 5 5 5 5 5 5 6 5 5 6 5 6 5 5 5 5 5 6 5 5 5 5 5 5 5 5 5 5 5 5 5 5 5 5 5 5 5 5 6 5 5 5 5 5 5 5 5 5 5 5 6 5 6 5 5 6 5 6 5 5 5 5 5 5 5 6 5 6 5 5 5 5 6 5 5 5 5 6 6 5 5 6 5 5 5 5 5 5 5 5 5 5 5 5 5 5 5 5 6 5 5 5 5 5 5 5 5 5 5 5 5 5 5 6 5 6 5 5 5 5 5 5 5 6 5 6 5 5 5 5 5 5 5 5 5 6 6 5 5 5 6 5 5 5 5 6 5 6 5 5 6 5 6 6 6 5 5 6 5 5 5 6 6 6 5 5 5 5 5 5 5 5 5 5 5 6 5 5 5 5 5 5 6 5 5 5 6 5 5 5 5 5 5 5 5 6 5 5 5 6 5 5 5 5 5 5 5 5 5 5 5 5 5 5 5 5 5 5 5 5 5 5 5 5 5 5 5 5 5 5 5 5 5 5 5 5 5 5 5 5 5 5 5 5 5 5 5 5 5 5 5 5 5 5 5 5 5 5 5 5 6 5 5 5 5 5 6 5 5 5 5 6 5 5 5 6 5 5 5 5 5 5 5 5 5 5 5 5 5 5 5 5 5 5 5 5 5 5 5 5 5 5 5 5 5 5 5 5 5 5 5 5 5 5 5 5 6 5 5 6 5 5 5 5 5 5 5 6 5 5 5 5 5 5 5 5 5 5 5 6 5 5 6 5 6 5 5 5 6 5 5 5 5 5 5 5 5 6 5 5 5 5 6 5 5 5 5 6 5 6 5 5 5 5 5 5 5 5 5 5 5 5 6 5 6 5 5 5 5 5 5 5 5 5 5 5 5 5 6 5 5 5 5 5 5 5 5 5 6 5 5 5 6 5 5 5 5 5 5 5 5 5 5 5 5 5 5 5 5 5 5 5 5 5 5 5 5 5 5 5 5 5 5 5 5 5 5 5 6 5 5 6 5 5 5 5 6 5 5 5 5 5 5 5 5 5 5 5 5 5 5 5 6 5 5 5 5 5 5 5 5 5 6 5 6 5 5 5 5 5 5 5 6 5 5 5 5 5 5 5 5 5 5 5 5 5 5 6 5 5 5 5 5 5 5 5 5 5 5 6 5 5 5 5 5 5 5 5 5 5 5 5 5 5 5 5 5 5 5 5 5 5 5 6 5 6 5 5 5 5 5 5 6 5 6 5 5 5 6 5 5 5 6 5 5 5 6 5 5 6 5 5 5 5 5 5 5 6 5 5 5 5 5 5 5 6 5 5 5 5 5 5 5 5 5 5 5 5 5 6 5 5 5 5 5 5 5 5 6 5 5 5 5 5 5 5 5 5 5 5 5 5 5 5 5 5 5 5 5 6 5 5 5 5 5 5 5 5 5 5 5 5 5 5 5 5 5 5 5 5 5 5 5 5 5 5 5 5 5 5 5 5 5 5 5 5 5 5 5 5 5 5 5 5 5 5 5 5 5 5 6 5 6 5 5 5 6 5 5 6 6 5 6 5 5 5 5 5 5 5 5 5 5 5 5 5 5 5 5 5 5 5 5 5 5 5 5 5 5 5 5 5 5 5 5 5 5 5 6 5 5 5 5 6 5 5 6 5 5 5 6 5 5 5 5 6 5 6 6 5 5 5 5 6 5 5 5 6 5 5 5 6 5 5 5 5 5 5 6 5 5 5 5 5 5 5 5 5 5 5 5 5 5 5 5 5 5 5 5 6 5 5 5 5 5 5 5 5 5 5 5 5 5 5 5 5 5 5 6 5 5 6 5 5 6 5 5 5 5 5 5 5 5 5 5 5 6 5 5 5 5 6 5 5 5 5 6 5 5 5 6 5 5 5 5 5 5 5 5 5 5 5 5 5 5 5 5 5 5 5 5 5 5 5 5 5 6 5 5 5 5 5 5 5 5 6 5 5 5 6 5 5 5 5 5 5 5 5 5 5 5 5 5 5 5 5 5 5 5 5 5 5 5 5 6 5 5 5 6 5 5 5 5 5 5 5 5 6 5 5 6 5 5 5 5 6 5 5 5 5 5 5 5 6 5 6 5 5 6 5 5 6 6 5 5 5 5 5 5 5 5 5 5 5 5 5 5 5 5 5 5 5 5 5 6 5 5 5 5 6 5 5 5 5 5 5 5 5 5 5 5 5 5 6 5 5 6 5 5 5 5 5 5 5 5 5 5 5 5 5 5 5 5 5 5 5 5 5 5 5 5 5 5 5 5 5 5 5 5 5 5 5 5 5 5 5 5 5 5 5 5 5 5 5 5 5 5 5 5 5 5 5 5 5 5 5 5 5 5 5 5 5 5 5 5 5 5 5 5 5 5 5 5 5 5 5 5 5 5 5 5 5 5 5 5 5 5 5 5 5 5 5 5 5 5 5 5 5 5 5 5 5 5 5 5 5 5 5 5 5 5 5 5 5 5 5 5 5 5 5 5 5 5 5 5 6 5 5 5 5 5 5 5 6 5 5 5 5 5 5 5 5 5 6 5 6 5 5 5 6 5 5 6 5 5 5 5 5 5 5 5 5 5 5 5 5 5 5 5 5 5 5 5 5 5 5 5 5 5 5 5 5 5 5 5 5 5 5 5 5 6 5 5 6 6 5 5 6 5 5 6 5 5 5 6 5 5 5 5 5 5 5 5 5 6 5 5 5 5 5 5 6 5 5 5 5 5 5 5 5 5 5 5 5 5 5 5 5 5 5 5 5 5 5 5 5 5 5 5 5 5 5 5 6 5 5 5 5 5 5 5 5 5 5 5 5 5 5 5 5 5 5 5 5 5 5 5 5 5 5 5 5 5 5 5 5 5 5 5 5 5 5 5 5 5 5 5 5 5 5 6 5 6 5 5 5 5 6 5 5 5 5 6 5 5 5 5 6 5 5 5 5 5 5 5 5 6 5 5 6 5 6 5 5 5 5 6 5 5 6 6 5 5 5 5 5 5 6 5 5 5 5 5 5 5 5 5 5 6 6 5 5 5 5 5 6 5 5 6 5 5 5 5 6 5 5 6 5 5 5 5 5 5 5 5 5 5 5 5 5 5 5 5 5 5 5 5 5 5 5 5 5 5 5 5 5 6 5 6 5 5 5 5 5 5 5 5 5 5 5 5 5 6 5 5 5 5 6 6 5 5 5 5 5 5 5 5 5 5 5 5 5 5 5 5 5 5 5 5 5 5 5 5 5 5 5 5 5 5 5 5 5 5 5 5 5 5 5 5 5 5 6 5 5 5 6 5 5 5 5 5 5 5 5 5 5 5 5 5 5 5 5 5 5 5 5 6 5 5 6 5 5 5 5 5 5 5 5 5 6 5 5 5 5 5 6 5 5 5 5 5 6 5 6 5 5 5 5 5 5 5 5 5 5 5 5 5 6 5 5 5 6 6 5 5 5 5 5 5 5 5 6 5 5 6 5 5 6 6 5 5 5 5 5 6 5 5 5 5 5 5 5 6 5 5 6 6 5 5 5 5 5 5 6 6 5 5 5 6 5 5 5 5 5 5 5 6 5 5 5 5 5 5 5 5 5 5 5 5 5 5 5 5 5 5 5 5 5 5 5 5 5 5 6 5 5 5 5 5 5 5 6 5 5 5 5 5 5 5 5 5 5 5 6 5 5 5 5 5 5 5 5 6 5 5 5 5 5 5 5 5 5 5 5 5 5 5 5 5 6 5 5 5 6 5 5 5 5 5 6 5 5 5 5 5 5 5 5 5 5 5 5 5 5 6 5 5 5 5 6 5 5 6 5 5 5 5 5 6 5 5 5 5 5 5 5 5 5 5 5 5 5 5 6 5 6 5 5 5 6 5 6 5 6 5 5 5 5 5 5 6 6 5 5 5 5 5 5 6 5 6 5 5 5 5 5 5 5 5 5 5 5 5 5 5 5 5 5 6 5 5 5 6 6 5 5 5 5 5 6 5 5 6 6 5 5 5 5 5 5 5 5 5 5 5 5 5 5 5 5 5 5 5 5 5 5 5 5 5 5 5 5 5 5 5 5 5 5 5 5 5 5 5 5 5 5 5 5 6 5 5 6 6 6 5 5 5 5 5 5 6 5 5 5 5 5 5 5 5 5 6 5 5 5 6 5 5 5 5 5 5 5 5 5 5 5 5 5 5 5 5 5 5 5 5 6 5 5 5 5 6 5 5 5 5 5 5 5 5 5 5 5 5 5 5 5 5 5 5 5 5 5 5 5 5 5 5 5 5 5 5 5 5 5 5 6 5 6 5 5 5 5 5 5 5 5 6 5 5 5 6 5 6 5 5 5 5 5 5 5 5 6 5 5 5 5 6 5 5 5 5 6 5 5 5 5 5 5 5 6 5 5 5 5 6 5 5 5 5 5 5 5 5 5 5 5 5 5 5 5 5 5 5 5 5 5 5 5 5 5 5 5 5 5 5 5 5 5 5 5 5 5 5 5 5 5 5 5 5 5 5 6 5 5 5 5 6 6 5 5 6 6 5 5 5 5 5 5 5 5 5 5 5 5 5 5 5 5 5 5 5 6 5 5 5 6 6 5 5 5 5 5 5 5 5 5 5 5 5 5 5 5 5 5 5 5 5 5 5 5 5 5 5 5 6 5 5 5 5 5 5 5 6 5 5 5 5 5 5 5 5 5 5 5 5 5 5 5 6 5 5 5 5 5 5 5 5 6 5 6 6 5 5 5 5 5 5 5 5 5 5 5 5 6 5 5 5 5 5 5 5 5 5 5 5 5 5 5 5 5 5 5 6 5 5 5 6 5 5 5 5 5 5 5 5 6 5 5 5 5 5 5 5 5 5 5 5 5 5 5 5 6 5 5 5 6 5 5 5 5 5 5 5 5 5 5 5 5 5 5 5 5 5 5 5 5 5 5 5 5 5 5 5 5 5 5 5 5 5 6 5 6 5 5 5 5 5 5 5 5 6 5 5 5 5 5 5 5 5 5 6 5 5 6 5 5 5 5 5 6 5 5 5 5 6 5 5 5 5 6 5 5 5 6 5 6 5 5 6 5 5 5 5 5 5 5 5 5 5 5 5 5 5 6 5 5 6 5 6 5 5 5 6 5 5 6 5 5 5 5 6 5 6 5 5 5 5 5 5 6 5 6 5 5 5 5 5 6 5 5 5 5 6 5 5 5 5 5 5 6 5 5 5 5 5 5 5 5 5 5 5 5 5 5 5 5 5 5 5 5 5 5 5 5 5 5 5 5 5 5 5 5 5 6 6 5 5 5 5 5 5 5 5 5 5 6 5 5 6 6 5 6 5 5 5 5 5 5 5 6 5 5 5 5 5 5 5 5 5 5 5 5 6 5 5 5 5 6 5 5 5 5 5 5 5 5 5 5 5 5 6 5 5 5 5 5 5 5 5 5 5 5 5 5 5 5 5 5 6 5 5 5 5 5 6 5 5 5 6 5 5 5 5 5 5 6 5 6 5 5 5 6 5 5 5 5 5 5 5 5 5 6 5 5 6 5 5 5 5 5 5 5 6 5 5 5 5 5 5 5 5 5 5 5 5 5 6 5 5 6 5 5 5 5 5 5 6 5 5 5 5 5 5 6 5 5 5 5 5 5 5 6 5 5 5 5 5 5 5 5 5 5 5 5 5 5 5 5 5 5 5 5 5 5 6 5 5 5 5 5 5 5 5 5 5 6 5 5 5 5 6 6 5 5 5 5 6 5 5 5 5 5 5 5 5 5 6 5 5 5 5 5 5 5 5 5 5 5 6 5 5 5 6 5 5 5 6 5 5 5 5 5 5 5 5 5 5 5 5 6 5 5 5 5 5 6 5 5 6 5 5 5 5 5 5 5 5 5 5 5 5 5 5 6 5 5 5 5 5 5 5 6 5 5 5 6 5 5 5 5 5 6 5 5 5 5 5 5 5 5 5 6 5 5 5 5 5 5 5 5 6 5 5 5 5 5 6 5 5 5 5 5 5 5 6 5 5 5 5 5 5 5 5 5 5 5 5 5 5 5 5 5 5 5 5 5 5 5 5 5 5 5 5 5 5 5 5 5 5 5 5 5 5 5 5 5 5 5 5 5 5 5 5 6 5 5 5 5 5 5 5 6 5 5 5 5 5 5 5 5 5 5 5 5 5 5 5 5 5 5 5 5 5 5 6 6 5 5 6 6 5 5 5 5 5 5 5 6 5 5 5 5 5 5 5 5 5 5 5 5 5 5 6 5 5 5 5 5 5 5 5 6 5 5 6 5 5 5 6 5 5 5 5 5 5 5 5 5 5 5 5 5 5 5 5 5 5 5 5 5 5 5 5 5 5 5 5 6 5 5 5 5 5 5 5 5 6 5 5 5 5 5 5 6 6 5 5 5 5 6 5 5 6 5 5 6 5 5 5 5 5 5 6 5 5 5 5 5 5 5 5 6 5 5 5 5 5 5 5 5 5 5 5 6 5 5 6 5 5 5 5 5 5 5 6 5 5 5 6 5 6 5 6 5 5 5 5 5 5 5 5 5 5 5 5 5 5 5 5 5 6 5 6 5 5 5 5 5 5 5 5 5 5 6 5 5 5 5 5 5 5 6 5 5 5 6 5 6 6 5 5 6 5 5 5 5 6 5 5 5 6 5 5 5 6 5 6 6 5 5 5 5 5 5 6 5 5 5 5 5 5 5 5 6 6 6 5 6 5 5 6 6 5 5 6 5 5 5 5 5 5 5 5 5 5 5 6 5 5 5 5 5 5 5 5 5 5 5 5 5 6 6 5 5 5 5 6 5 5 5 6 5 5 5 5 5 6 6 5 5 5 6 5 5 5 5 5 5 5 5 5 5 5 5 5 5 5 6 5 5 5 6 5 5 5 6 5 5 5 5 5 5 6 5 5 5 5 5 6 5 5 5 5 5 5 5 5 6 5 5 5 5 5 5 5 5 5 6 5 5 5 5 6 5 6 5 5 6 5 6 5 5 5 5 5 5 6 5 6 6 5 5 5 5 5 5 5 5 6 5 6 5 6 5 6 5 5 5 5 5 5 5 5 5 5 5 6 5 5 5 6 5 5 5 5 5 5 5 5 6 5 5 5 5 5 5 5 5 5 6 5 5 5 5 6 5 5 6 5 5 5 5 5 5 5 5 5 6 5 5 5 6 5 5 5 5 5 5 5 5 5 5 5 5 5 5 5 5 5 5 5 6 5 5 5 5 5 5 5 5 5 5 6 5 5 5 5 5 5 5 5 5 5 5 5 5 5 5 5 5 5 5 5 5 5 5 5 5 5 5 5 5 5 5 5 5 5 5 5 5 5 5 5 5 5 5 5 5 6 6 5 5 5 5 5 5 5 5 5 5 5 5 5 6 6 5 5 5 6 5 5 6 5 5 5 6 5 5 5 6 5 5 5 5 5 5 5 5 6 5 5 6 5 6 6 5 5 5 5 5 5 6 5 6 6 6 5 5 6 5 5 6 6 5 5 5 5 5 5 5 5 5 5 5 5 5 5 5 5 5 5 5 5 5 6 5 5 5 5 5 5 5 5 5 6 5 5 5 5 5 5 5 6 6 5 5 5 5 5 5 5 5 5 5 5 5 5 5 5 5 5 5 5 5 5 5 5 6 5 6 5 5 5 5 5 5 5 6 5 5 5 6 6 5 5 6 5 5 5 5 6 5 5 5 6 5 5 5 6 5 5 5 5 5 5 5 5 5 6 6 5 5 5 5 5 6 5 5 6 6 6 5 5 5 5 5 6 5 5 5 5 5 5 5 5 5 6 5 6 5 5 5 5 5 5 5 5 5 5 5 5 5 5 5 5 5 5 5 5 5 5 5 5 6 5 5 5 5 6 6 5 5 5 6 5 5 5 5 5 5 5 5 5 5 5 5 5 5 5 5 6 5 5 5 6 5 5 6 5 5 5 5 5 5 5 5 5 5 5 5 5 6 5 5 6 5 5 5 6 5 6 5 6 5 6 6 6 5 5 5 5 5 5 5 5 6 5 5 5 5 5 5 5 5 6 5 5 6 5 5 5 5 5 5 5 5 5 5 5 5 5 5 5 5 5 5 5 5 5 6 5 5 5 5 5 5 5 5 5 5 6 5 6 5 5 6 5 6 5 6 5 5 6 5 6 5 5 6 5 5 5 6 5 5 5 5 5 5 5 5 5 5 5 5 5 5 5 5 5 5 5 5 5 5 5 5 5 5 5 5 5 5 5 5 5 5 5 5 5 5 5 5 5 5 5 5 5 5 5 5 5 5 5 5 5 5 5 5 5 5 5 5 5 6 5 5 6 5 5 5 5 5 5 6 6 5 5 5 5 5 5 5 5 5 5 5 5 5 5 5 5 5 5 6 5 5 5 6 5 5 5 5 5 5 5 5 5 5 5 5 5 5 5 5 6 5 5 5 5 5 5 5 6 5 5 5 5 5 5 5 5 6 5 6 5 5 5 5 5 5 5 5 5 5 5 5 5 5 5 5 6 5 5 5 5 5 5 5 6 5 5 5 5 6 5 5 5 5 5 5 5 6 5 5 6 6 5 5 6 5 5 5 5 5 5 6 5 5 5 5 5 5 5 5 5 6 5 5 6 5 5 6 5 5 6 5 5 5 5 5 6 5 5 5 5 5 5 5 5 6 5 5 5 5 5 5 5 6 5 5 5 5 5 5 5 5 5 5 5 5 6 5 5 5 5 5 5 5 6 6 5 6 5 6 5 5 5 5 5 5 5 5 5 5 5 5 5 5 5 6 5 6 5 5 5 5 5 5 5 5 6 5 6 5 6 5 6 5 6 5 5 6 5 5 5 5 5 6 5 5 5 5 5 5 5 5 6 5 5 5 5 5 6 5 5 6 5 6 6 5 5 5 5 5 5 5 5 6 5 5 5 5 5 5 5 5 5 5 5 5 5 6 5 5 5 5 5 5 5 6 5 5 5 6 5 5 5 5 5 5 5 5 5 5 5 5 5 5 5 5 5 6 5 5 5 5 5 5 5 6 5 5 6 5 5 5 5 5 5 5 5 5 5 5 5 5 5 5 6 5 5 5 5 6 5 5 5 5 5 5 5 5 5 5 5 5 5 5 5 5 5 5 5 5 5 5 5 5 5 6 5 5 5 5 5 5 6 5 5 5 5 5 5 5 5 5 6 6 5 5 5 6 5 6 5 5 5 5 5 5 5 5 5 5 5 5 5 5 5 6 5 5 5 5 5 5 5 5 5 5 5 5 6 6 5 5 5 5 5 5 5 5 6 5 5 6 5 5 6 6 5 5 5 5 5 5 5 6 5 5 5 5 5 5 5 5 5 6 5 5 5 6 5 5 5 5 5 6 5 5 5 5 5 5 5 5 5 5 5 5 6 5 5 5 6 5 5 5 6 5 5 5 5 5 5 5 5 5 5 5 5 5 5 5 5 5 5 5 5 5 5 5 5 5 5 5 5 5 5 5 5 6 5 5 5 5 5 5 5 5 5 5 5 5 5 5 5 5 5 5 5 5 5 5 5 5 6 5 6 5 5 6 5 5 5 5 5 5 5 5 5 6 5 5 5 5 5 5 5 5 5 5 5 5 5 5 6 5 5 5 5 6 5 5 5 6 5 5 5 5 5 5 5 5 5 5 5 5 5 5 5 5 5 5 5 5 5 5 5 5 5 5 5 5 5 5 5 5 5 5 5 5 5 5 5 5 5 5 5 5 5 5 5 5 5 5 5 5 5 5 5 5 5 5 5 5 5 5 5 5 5 5 5 5 5 5 5 5 5 5 5 5 5 5 5 5 5 5 5 5 5 5 5 5 5 5 5 5 5 5 5 5 5 5 5 5 5 5 5 5 5 5 5 5 5 5 5 5 5 5 5 5 5 5 5 5 5 5 5 5 5 5 5 5 5 5 5 5 5 5 5 5 5 5 5 5 5 5 5 5 5 5 5 5 5 5 5 5 5 5 5 5 5 5 5 5 5 5 5 5 5 5 5 5 5 5 5 5 5 5 5 5 5 5 5 5 5 5 5 5 5 5 5 5 5 6 5 5 5 5 5 5 5 5 5 5 5 5 5 5 5 5 6 5 5 5 5 5 5 5 5 6 5 5 5 5 6 5 5 5 5 5 5 5 5 5 5 5 5 5 5 5 5 5 5 5 5 5 5 6 5 5 5 5 5 5 5 5 5 5 5 5 5 6 6 5 5 5 5 5 6 5 6 5 5 5 5 5 5 5 5 5 5 5 6 5 5 5 5 5 5 5 6 5 5 5 5 5 5 5 5 5 5 5 5 5 5 5 6 6 5 5 5 5 5 5 5 5 5 5 5 5 6 5 5 5 5 5 5 5 5 5 5 5 5 5 5 5 5 6 5 5 5 5 5 5 5 6 5 5 5 5 5 5 5 5 5 5 6 6 5 5 5 5 5 5 5 5 5 5 5 5 5 5 5 5 5 5 5 5 5 5 5 5 5 5 5 5 5 5 6 5 5 5 5 5 6 5 5 5 5 5 5 5 5 5 5 6 5 5 5 5 6 5 5 5 5 5 5 5 5 5 5 6 5 6 5 5 5 5 5 5 5 5 5 5 5 5 5 5 5 5 5 5 5 5 5 5 5 5 5 5 5 5 5 5 5 6 5 5 5 5 5 6 5 5 5 5 5 5 5 5 5 5 5 5 5 5 5 5 5 5 6 5 5 6 5 5 5 6 5 5 5 5 5 6 5 5 5 5 5 5 5 5 5 5 6 5 5 5 5 5 5 6 5 5 5 5 5 6 6 5 5 6 5 5 6 5 5 5 5 5 5 5 5 5 5 6 5 5 6 5 5 6 5 5 6 5 5 6 5 5 6 5 5 5 5 5 5 6 5 5 5 5 5 5 5 5 5 5 5 6 5 5 5 5 5 5 5 6 5 5 5 5 6 5 5 5 6 5 5 5 5 5 5 5 5 5 5 5 6 5 5 5 5 5 5 5 5 5 5 5 5 5 5 5 5 5 5 5 5 5 5 5 5 6 5 5 5 5 5 6 5 5 5 5 5 5 5 5 5 5 5 5 5 5 6 5 5 6 5 6 5 5 5 5 6 5 6 6 5 6 5 5 5 5 5 5 5 6 5 6 5 5 5 5 5 5 6 5 5 5 5 5 5 6 5 5 5 5 6 5 5 5 5 5 6 5 5 6 5 5 5 5 6 5 5 5 5 6 5 5 5 5 5 5 6 5 5 5 5 5 5 5 5 5 6 5 5 5 5 5 5 6 5 5 5 5 6 5 5 5 5 5 5 5 5 5 5 5 5 5 5 5 5 6 5 5 5 6 5 5 6 5 5 5 5 5 5 5 5 5 5 5 5 5 5 5 5 6 5 6 5 5 5 5 5 5 5 5 5 5 5 5 5 5 5 5 5 5 5 5 5 5 5 5 5 5 6 5 5 6 5 5 5 5 5 5 5 5 5 5 6 5 5 5 5 6 5 5 5 5 6 5 5 5 5 5 5 5 5 5 6 5 5 5 5 5 5 5 5 5 5 5 5 5 5 5 5 5 5 5 5 5 5 5 5 5 5 5 5 
</DataArray>
<DataArray type="Float64" Name="stress" NumberOfComponents="9" format="ascii">
-1509484664.3907967 1508803592.3229313 0 1508803592.3229313 1078298.4718875885 0 0 0 0 -709504839.17345428 1770887705.9336967 0 1770887705.9336967 -426857652.77017593 0 0 0 0 -340514.99707794189 1523530527.6283779 0 1523530527.6283779 -1088406476.8117027 0 0 0 0 -535389549.49476624 1100510101.5530624 0 1100510101.5530624 -1366631241.0012932 0 0 0 0 -464297844.79141998 1401954280.3859901 0 1401954280.3859901 -1359744323.119668 0 0 0 0 -3127671.3657177314 329468.28481934965 0 329468.28481934965 -204093.05549007561 0 0 0 0 -50498780.46484375 -244968321.30195236 0 -244968321.30195236 260752330.56920052 0 0 0 0 -647715338.69018555 25546918.876209259 0 25546918.876209259 146510404.4121666 0 0 0 0 -1845848877.4134178 1398359116.5696926 0 1398359116.5696926 -515255660.0900383 0 0 0 0 -1512800950.7894058 1749755667.9936523 0 1749755667.9936523 -1710092727.0933456 0 0 0 0 -555133706.95024109 556423949.1024971 0 556423949.1024971 -280928990.72107887 0 0 0 0 -2291631149.6287766 1110382515.8555908 0 1110382515.8555908 -118559302.47938156 0 0 0 0 1821959.3131065369 6720271.0561733246 0 6720271.0561733246 1661.700813293457 0 0 0 0 -1575206.9666735083 259651.52813744638 0 259651.52813744638 -784413.97432304174 0 0 0 0 -3201296.4179897308 6659469.5290908813 0 6659469.5290908813 -521154.65005493164 0 0 0 0 -4264407.8035049438 6656818.8064651489 0 6656818.8064651489 1028.7125890389361 0 0 0 0 -2423601.4134559631 4530680.0517158508 0 4530680.0517158508 470342.30271148682 0 0 0 0 -4303028.7700042725 7229152.4217567444 0 7229152.4217567444 -140474.8211555481 0 0 0 0 -3156441.0952595808 1595237.3719215617 0 1595237.3719215617 -1022645.7373122796 0 0 0 0 -2788262.4895553589 7215632.6417961121 0 7215632.6417961121 -4086065.2267456055 0 0 0 0 -4113170.2396697998 5917554.1267356873 0 5917554.1267356873 -891171.09420776367 0 0 0 0 937843.33633459359 5952441.7491155788 0 5952441.7491155788 -1897207.2604973055 0 0 0 0 66249943.944732666 -26833940.515823364 0 -26833940.515823364 17194477.554031372 0 0 0 0 133518007.78700256 -13870378.513427734 0 -13870378.513427734 -35344269.97428894 0 0 0 0 47994328.337173462 -1270527.2000274658 0 -1270527.2000274658 -645008.60504150391 0 0 0 0 117759691.89600372 122300611.64476585 0 122300611.64476585 96100774.612716675 0 0 0 0 -8628165.2229520828 9191519.2879486009 0 9191519.2879486009 -2575360.296094127 0 0 0 0 -30075289.019012451 137094629.71218109 0 137094629.71218109 96612771.829692841 0 0 0 0 20392676.718887329 48096434.323997498 0 48096434.323997498 -3545429.7325820923 0 0 0 0 63967771.614404678 33995383.312978745 0 33995383.312978745 -52157538.423248291 0 0 0 0 -133773689.56651306 38744076.348442078 0 38744076.348442078 331675607.84188843 0 0 0 0 -9197551.8370298222 2545890.2773233764 0 2545890.2773233764 414273.21926380135 0 0 0 0 -651851625.67566109 469969783.60054207 0 469969783.60054207 -335296939.35749817 0 0 0 0 -73129848.509002686 34740775.151954651 0 34740775.151954651 -60572197.174324036 0 0 0 0 7520083.7130432129 153002510.93515396 0 153002510.93515396 -87850936.491363525 0 0 0 0 -160410527.29568481 225636947.27848053 0 225636947.27848053 167007838.496315 0 0 0 0 78797286.042402327 62890728.363168828 0 62890728.363168828 -251382415.72811127 0 0 0 0 9446282.4777488708 -18329683.237703323 0 -18329683.237703323 -256362049.40350342 0 0 0 0 35085837.499298096 86731420.721740723 0 86731420.721740723 -210368798.86852646 0 0 0 0 35560399.175354004 103722359.88442993 0 103722359.88442993 -213488174.77713013 0 0 0 0 78980934.921837747 106538971.67161077 0 106538971.67161077 -223203827.37242126 0 0 0 0 -25779699.377929688 87161593.158218384 0 87161593.158218384 -77333694.198680878 0 0 0 0 -138291313.84237671 -59449525.457939148 0 -59449525.457939148 -265232165.10438538 0 0 0 0 -209322335.28470612 135395730.65084171 0 135395730.65084171 -73081745.890808105 0 0 0 0 24862750.408081055 32358834.807220459 0 32358834.807220459 -299712792.20336151 0 0 0 0 147113.7128384253 736709.10024965182 0 736709.10024965182 -33875.271029792726 0 0 0 0 -172955370.79859924 158995549.63147736 0 158995549.63147736 -113845893.28244019 0 0 0 0 -160722838.35795212 -105646119.34831142 0 -105646119.34831142 -115733723.77412415 0 0 0 0 25462.762585576624 268222.01673920453 0 268222.01673920453 353940.87707123533 0 0 0 0 -34088542.334243774 143120705.52263641 0 143120705.52263641 -27540385.995605469 0 0 0 0 34033799.014190674 104504114.48159027 0 104504114.48159027 -190289874.59790039 0 0 0 0 87120435.524047852 178617202.4335022 0 178617202.4335022 -426257404.59068298 0 0 0 0 34532014.130279541 85122432.255157471 0 85122432.255157471 -191052249.78525209 0 0 0 0 6344600.9842376709 -1999552.0700912476 0 -1999552.0700912476 -2174384.4696397781 0 0 0 0 -1047049.554787742 2546522.5163716115 0 2546522.5163716115 2573068.3215209171 0 0 0 0 47373071.967666626 6517534.965259552 0 6517534.965259552 -41648850.77394104 0 0 0 0 -22233276.311569214 -16406421.642814636 0 -16406421.642814636 -27173338.128856659 0 0 0 0 -27106212.86126709 31743647.027010679 0 31743647.027010679 -26748009.936729431 0 0 0 0 -1312361.8033218384 34302536.227892876 0 34302536.227892876 -89775430.324295044 0 0 0 0 26838298.673248291 37435548.385444641 0 37435548.385444641 -97829365.17855835 0 0 0 0 221174452.20629883 150235354.65134048 0 150235354.65134048 -29354035.227813721 0 0 0 0 28965385.934585571 59932911.002464294 0 59932911.002464294 -4648180.1099624634 0 0 0 0 -8229365.850602787 10499064.152430756 0 10499064.152430756 -3024473.3304623328 0 0 0 0 103011614.07171631 30393269.326965332 0 30393269.326965332 18673854.422809601 0 0 0 0 158527165.95067596 29450503.419799805 0 29450503.419799805 -66316343.469116211 0 0 0 0 25104761.792053223 77145426.46030426 0 77145426.46030426 -51449798.243499756 0 0 0 0 -49193197.617889404 -62162329.725162506 0 -62162329.725162506 2699102.9555358887 0 0 0 0 1984638.2514529228 911479.40419608541 0 911479.40419608541 -1213511.1326013282 0 0 0 0 21496180.237579346 -47242440.115898132 0 -47242440.115898132 -82989294.496728897 0 0 0 0 -24794511.401687622 -12118315.952350616 0 -12118315.952350616 -52279982.096099854 0 0 0 0 82222996.829147339 53795687.974098206 0 53795687.974098206 -2900991.4149932861 0 0 0 0 123299111.90190125 34500001.420440674 0 34500001.420440674 -19759429.29485321 0 0 0 0 133685749.05704308 13511139.425441742 0 13511139.425441742 -5690028.9669036865 0 0 0 0 135894741.18070984 20049550.290126801 0 20049550.290126801 -10789380.744544983 0 0 0 0 70411377.525047302 -49644198.742181778 0 -49644198.742181778 -32244719.90839386 0 0 0 0 119105575.66536713 24249515.406475067 0 24249515.406475067 -24520456.254440308 0 0 0 0 -37731972.400543213 27637645.617012024 0 27637645.617012024 36488552.224853516 0 0 0 0 3356428.1270218082 1633206.1880536415 0 1633206.1880536415 -583846.89511118084 0 0 0 0 2113204.4821281433 4032832.2293024063 0 4032832.2293024063 1172023.8671569824 0 0 0 0 946208.8198890686 2002514.356584549 0 2002514.356584549 1772433.9045410156 0 0 0 0 498202.70437087864 3125579.7310571484 0 3125579.7310571484 233120.75860079605 0 0 0 0 32674591.86000824 15308309.178489685 0 15308309.178489685 -46022562.212356567 0 0 0 0 4750662.7281847 8232773.0824460983 0 8232773.0824460983 -18050823.523162842 0 0 0 0 6956349.6049186811 5524380.050491605 0 5524380.050491605 -2490336.1971672131 0 0 0 0 -3276271.7725830078 -56414432.06444931 0 -56414432.06444931 -13342899.030269623 0 0 0 0 2589889.6653900146 3969356.6505393982 0 3969356.6505393982 1829048.9846954346 0 0 0 0 -3194358.2302246094 10045264.646656036 0 10045264.646656036 8737319.1663589478 0 0 0 0 11684013.520713806 -6322370.8315086365 0 -6322370.8315086365 5972584.4671936035 0 0 0 0 -655598.15271579102 3284388.0415440202 0 3284388.0415440202 1874425.467646122 0 0 0 0 -5102988.7208480835 -978920.22484970093 0 -978920.22484970093 9606738.4634132385 0 0 0 0 289485.94104766846 5585996.4956550598 0 5585996.4956550598 -4006768.0894165039 0 0 0 0 -1617068.9070739746 4911756.2238998413 0 4911756.2238998413 3406985.9407234192 0 0 0 0 2609229.0626525879 5245945.7460975647 0 5245945.7460975647 -4180718.3413639069 0 0 0 0 2136589.4053039551 3598619.2764472961 0 3598619.2764472961 -7161891.9480133057 0 0 0 0 -478789507.82698059 561059265.81993866 0 561059265.81993866 -589966861.19721985 0 0 0 0 -4694267.7945480347 -1999977.794508934 0 -1999977.794508934 8707968.136138916 0 0 0 0 -277407.82509120554 -588487.25154964998 0 -588487.25154964998 -416490.43445951864 0 0 0 0 26685.93963525258 136121.46128992364 0 136121.46128992364 -73190.711616382003 0 0 0 0 549434.79833322763 2047999.6462720633 0 2047999.6462720633 -1484037.5551481806 0 0 0 0 -3051644.2450332642 3372038.0760002136 0 3372038.0760002136 -1546823.2656326294 0 0 0 0 -1625954.8476715088 1973785.0436897278 0 1973785.0436897278 -2368795.6656894684 0 0 0 0 645032.33626445383 2583470.5648579039 0 2583470.5648579039 -1627013.2625556588 0 0 0 0 -3988019.7668304443 5240760.1006546021 0 5240760.1006546021 266518.84539794922 0 0 0 0 -3084073.6586608887 9179267.9249191284 0 9179267.9249191284 -819701.8977432251 0 0 0 0 -474123.41510772705 -7536204.765537262 0 -7536204.765537262 -2584130.17237854 0 0 0 0 -2062997.5166091919 7149450.5043563843 0 7149450.5043563843 -10553756.164352417 0 0 0 0 -6093902.4192962646 8758826.9372329712 0 8758826.9372329712 4597935.4279403687 0 0 0 0 678384.96131019294 -577180.47156478465 0 -577180.47156478465 -1141104.3292295896 0 0 0 0 -3648410.7744903564 -2037851.3060417175 0 -2037851.3060417175 28056352.448997498 0 0 0 0 -816437.60194396973 655316241.46439362 0 655316241.46439362 -1030198902.0299072 0 0 0 0 -332382995.28033066 657571028.51887417 0 657571028.51887417 -808290550.10875702 0 0 0 0 -556332257.91486359 952136744.56365967 0 952136744.56365967 -767165516.32951593 0 0 0 0 -892317.798185291 1021551112.5698289 0 1021551112.5698289 -1049813435.6556473 0 0 0 0 -544544362.4833374 868222124.55285454 0 868222124.55285454 -486304443.78809357 0 0 0 0 -1244407189.2206573 1359551740.3685112 0 1359551740.3685112 -614235693.49649048 0 0 0 0 -1382725963.19485 641412945.34744072 0 641412945.34744072 -78717033.208183289 0 0 0 0 -413035839.98368835 207541088.33233643 0 207541088.33233643 -81579967.434157133 0 0 0 0 -114385821.61525726 251045551.76044154 0 251045551.76044154 -228408838.73997498 0 0 0 0 -144271019.79257202 -61578763.867774963 0 -61578763.867774963 -69081518.851890564 0 0 0 0 -30454166.420593262 80119793.026519775 0 80119793.026519775 -202983737.21170044 0 0 0 0 -402237015.79098511 163801181.23323059 0 163801181.23323059 -85418021.58190155 0 0 0 0 339196.26105652004 115883.34061828628 0 115883.34061828628 -631045.85642764531 0 0 0 0 -238766957.58926392 411907256.93567657 0 411907256.93567657 -432025642.63194275 0 0 0 0 -362797476.38037109 346776023.41677856 0 346776023.41677856 -347843714.77514648 0 0 0 0 -917874870.92198944 647320039.52653503 0 647320039.52653503 -233003996.37019348 0 0 0 0 3181215.1926592831 3092759.4571805084 0 3092759.4571805084 141448.99653544277 0 0 0 0 -101541086.08143854 -36912594.975123882 0 -36912594.975123882 235688267.2051239 0 0 0 0 -17429492.552200317 33707065.949401855 0 33707065.949401855 -12693820.883529663 0 0 0 0 6160912.2711725235 21477191.191868067 0 21477191.191868067 -7589158.0898666382 0 0 0 0 5640036.9505195618 27432589.360424042 0 27432589.360424042 -41616528.453166962 0 0 0 0 2030960.918964386 62792681.714515686 0 62792681.714515686 14154554.128890991 0 0 0 0 -21131772.772132874 28803474.825296402 0 28803474.825296402 -15664167.758895874 0 0 0 0 1078130.7028334837 282201.11935493816 0 282201.11935493816 38465.168031029403 0 0 0 0 -142545451.22060013 35883752.572692871 0 35883752.572692871 65328395.467262268 0 0 0 0 240514984.20649433 248897434.38839149 0 248897434.38839149 199083518.50505066 0 0 0 0 199929196.4922204 202963537.87360144 0 202963537.87360144 61818956.281097412 0 0 0 0 207137950.82561493 252556484.28034496 0 252556484.28034496 147810119.18740845 0 0 0 0 85061694.990882874 116421716.84629822 0 116421716.84629822 306066.93381500244 0 0 0 0 -46190270.55305481 121388800.7618866 0 121388800.7618866 134010187.1566391 0 0 0 0 11299122.731647491 60254863.687692642 0 60254863.687692642 14681262.227142334 0 0 0 0 41665342.281681061 71332680.692806244 0 71332680.692806244 4420948.2147674561 0 0 0 0 15511481.460910797 79900602.40688324 0 79900602.40688324 67357924.482810974 0 0 0 0 65109296.552070618 82049783.24741745 0 82049783.24741745 -19233.836036682129 0 0 0 0 74667932.169540405 107155607.01146698 0 107155607.01146698 59689384.128967285 0 0 0 0 83810546.684806824 47060828.359519958 0 47060828.359519958 40785795.169151306 0 0 0 0 109652632.05916595 66041189.547351837 0 66041189.547351837 -30444189.250244141 0 0 0 0 43378339.143577576 85763904.032447815 0 85763904.032447815 58041322.404983521 0 0 0 0 44279097.355178833 41212877.383018494 0 41212877.383018494 -29233428.401870728 0 0 0 0 43865939.637947083 6122215.6896820068 0 6122215.6896820068 -80528550.852554321 0 0 0 0 35433677.094306946 21243471.835075378 0 21243471.835075378 -44802636.316307068 0 0 0 0 61842415.624389648 40817281.030952454 0 40817281.030952454 -58948663.486221313 0 0 0 0 24674783.782333374 43289922.874401093 0 43289922.874401093 -30204260.643188477 0 0 0 0 35435797.984634399 64901388.865852356 0 64901388.865852356 6712080.0291347504 0 0 0 0 19671225.261474609 43240882.651763916 0 43240882.651763916 -29413431.324848175 0 0 0 0 20286878.428404927 10259110.820218801 0 10259110.820218801 -52432191.645263672 0 0 0 0 13999597.995552063 8550704.4628448486 0 8550704.4628448486 -48625008.584259033 0 0 0 0 13665474.65171814 6454906.1188354492 0 6454906.1188354492 -19662649.522590637 0 0 0 0 4777738.3002548218 -22421393.609580994 0 -22421393.609580994 -45322411.674850464 0 0 0 0 385506.17490909994 796714.84459209349 0 796714.84459209349 568951.99727618694 0 0 0 0 -8919853.8962936401 -8310623.5356445312 0 -8310623.5356445312 23441106.341257572 0 0 0 0 -9479542.4539871216 -50085228.137199402 0 -50085228.137199402 -90298962.224624634 0 0 0 0 -68332213.837566376 68927140.162097931 0 68927140.162097931 -48669011.684906006 0 0 0 0 -107259.52017118782 1650001.8898213226 0 1650001.8898213226 729305.96697492152 0 0 0 0 -48863718.275909424 35059814.722543716 0 35059814.722543716 -57098366.3046875 0 0 0 0 -26001820.635772705 110866236.91278839 0 110866236.91278839 -46104704.486755371 0 0 0 0 689478.84093681816 1332651.6560280174 0 1332651.6560280174 -1097490.1394094601 0 0 0 0 5394255.3331260681 -28610584.653911591 0 -28610584.653911591 -105053791.41812134 0 0 0 0 -20285721.305171967 34516078.057785034 0 34516078.057785034 -109783073.04537964 0 0 0 0 -37298280.222553253 76175038.316272736 0 76175038.316272736 -82696290.116088867 0 0 0 0 66112487.539451599 46536487.077400208 0 46536487.077400208 -110181894.78262329 0 0 0 0 18327220.653694153 107655990.66964722 0 107655990.66964722 -87911481.364105225 0 0 0 0 42077724.659667969 6451544.2074432373 0 6451544.2074432373 -127427515.89009094 0 0 0 0 -6401056.7918434143 2425887.7009792328 0 2425887.7009792328 -103556118.25572205 0 0 0 0 28456378.346420288 -2733460.8605270386 0 -2733460.8605270386 -80382720.316162109 0 0 0 0 35931533.901412964 -2242912.7293395996 0 -2242912.7293395996 -129683796.77568817 0 0 0 0 65920634.90586853 49409355.586021423 0 49409355.586021423 -90946368.285585403 0 0 0 0 -327816.45153045654 38375734.694011688 0 38375734.694011688 64667691.845619202 0 0 0 0 -251239.64938801154 851440.75738478452 0 851440.75738478452 54282.72451421991 0 0 0 0 18047653.830131531 36298423.328338623 0 36298423.328338623 80008113.839195251 0 0 0 0 -32517700.845916748 174078137.45317078 0 174078137.45317078 -36595994.989200592 0 0 0 0 21582302.15272522 24045252.423049927 0 24045252.423049927 52744.479407914005 0 0 0 0 50226373.380012512 50242047.891746521 0 50242047.891746521 19724667.983154297 0 0 0 0 66831444.984630585 72547840.846319199 0 72547840.846319199 49281702.774353027 0 0 0 0 -6789435.6526260376 8390147.2005691528 0 8390147.2005691528 48973208.600509644 0 0 0 0 -6864399.0043087006 -1895206.6853442788 0 -1895206.6853442788 10269611.577423096 0 0 0 0 7727034.7825469971 21890799.248760223 0 21890799.248760223 18581805.966751099 0 0 0 0 -192363.68935390562 1859801.2223496214 0 1859801.2223496214 -314087.26392000541 0 0 0 0 -463640.29932403564 6378452.1632385254 0 6378452.1632385254 121266.14674758911 0 0 0 0 -16637605.092010498 22948969.149753571 0 22948969.149753571 122571487.48500824 0 0 0 0 24811536.920578003 -97687792.556404114 0 -97687792.556404114 -342229947.7716217 0 0 0 0 12188201.573036194 -45549640.352958679 0 -45549640.352958679 -47351124.371088028 0 0 0 0 -2843101.564458847 3152072.3948688507 0 3152072.3948688507 903959.39727020264 0 0 0 0 -2051047.4291992188 8398816.1543903351 0 8398816.1543903351 4204.9741973876953 0 0 0 0 -3873422.6634750366 7601035.3294219971 0 7601035.3294219971 2008499.9733428955 0 0 0 0 -3271293.0903549194 6831537.4939956665 0 6831537.4939956665 -3672628.1287078857 0 0 0 0 466962.01332439482 2957941.8614839315 0 2957941.8614839315 -1103490.027773384 0 0 0 0 89469600.064865112 135419392.10998249 0 135419392.10998249 -120568322.69725037 0 0 0 0 -341411783.45925903 -132048856.75291443 0 -132048856.75291443 126599488.77526093 0 0 0 0 -167781654.68457031 119577438.80348206 0 119577438.80348206 -18315660.000320435 0 0 0 0 205384963.01413727 -26799666.159469604 0 -26799666.159469604 -274968322.0562439 0 0 0 0 148684270.1212616 115287336.78176117 0 115287336.78176117 -96561359.678100586 0 0 0 0 41935325.580917358 5512559.8336029053 0 5512559.8336029053 -166123760.91342163 0 0 0 0 -10218976.762451172 -9357648.1724319458 0 -9357648.1724319458 -115429891.3228302 0 0 0 0 -187038606.91256714 -24628977.192581177 0 -24628977.192581177 -2486627.4224700928 0 0 0 0 47185510.348693848 -146044308.25508118 0 -146044308.25508118 -254053419.25043488 0 0 0 0 12355.847230535001 537871.46717292815 0 537871.46717292815 145349.56773132086 0 0 0 0 -45983757.986450195 -5401815.2288894653 0 -5401815.2288894653 -5415333.7443695068 0 0 0 0 -15750638.805358887 4301279.1133270264 0 4301279.1133270264 -51007875.052597046 0 0 0 0 -22015009.176265717 20829411.377792358 0 20829411.377792358 18916254.784332275 0 0 0 0 -5047647.5957946777 -13794280.802017212 0 -13794280.802017212 27643474.284912109 0 0 0 0 -23077572.414260864 -9592377.0607452393 0 -9592377.0607452393 17730493.1796875 0 0 0 0 -41534568.453536987 -13446234.167533875 0 -13446234.167533875 25445859.09967041 0 0 0 0 -62763287.073158264 3357408.7502593994 0 3357408.7502593994 31217224.619659424 0 0 0 0 -35521727.81287384 36962900.639686584 0 36962900.639686584 25278218.348846436 0 0 0 0 -7887187.888885498 96412678.803943634 0 96412678.803943634 -15605287.362670898 0 0 0 0 -131365141.69932556 30335710.022842407 0 30335710.022842407 28051469.921287537 0 0 0 0 -4108756.7471160889 23137200.957176208 0 23137200.957176208 17041539.787521362 0 0 0 0 -14837442.467803955 24004655.882873535 0 24004655.882873535 21974878.362922668 0 0 0 0 -16722985.730285645 14253451.075912476 0 14253451.075912476 16298043.515060425 0 0 0 0 -19159162.318735123 -2181052.3944187164 0 -2181052.3944187164 12989971.402786255 0 0 0 0 -39290773.525970459 6723848.1475906372 0 6723848.1475906372 25384929.815170288 0 0 0 0 -23735456.640846252 7029245.6738433838 0 7029245.6738433838 13634741.27633667 0 0 0 0 -19435122.242576599 4609341.2637062073 0 4609341.2637062073 5305008.5816345215 0 0 0 0 -19728724.918884277 13604956.034461975 0 13604956.034461975 23376170.994285583 0 0 0 0 -13771195.594940186 18129353.452928543 0 18129353.452928543 18774350.108901978 0 0 0 0 -8519751.97631073 15307046.086795807 0 15307046.086795807 7546947.1133346558 0 0 0 0 -15131137.35093689 13106898.601150513 0 13106898.601150513 12232071.852890015 0 0 0 0 -20122292.21661377 13347430.346572876 0 13347430.346572876 14467613.946575165 0 0 0 0 -18712535.16481781 14609810.737373352 0 14609810.737373352 1093372.3853759766 0 0 0 0 -133514.76225426421 291731.8167533204 0 291731.8167533204 621718.8937493125 0 0 0 0 -14063720.557006836 13979808.271614075 0 13979808.271614075 12877342.637825012 0 0 0 0 -8885463.9627571106 4474738.9621696472 0 4474738.9621696472 13392403.483856201 0 0 0 0 1692059.2023620605 30468167.230400085 0 30468167.230400085 16374840.012859344 0 0 0 0 -7727458.5788496714 12094880.7259282 0 12094880.7259282 -2826755.0859976821 0 0 0 0 -3154116.5238571167 19155411.824260712 0 19155411.824260712 10283318.939468384 0 0 0 0 352107.87671305984 4515944.2191202268 0 4515944.2191202268 -299429.65531565354 0 0 0 0 44258383.316635132 78606092.495124817 0 78606092.495124817 68734343.283663511 0 0 0 0 -6424085.464738749 9793854.5422075577 0 9793854.5422075577 3069340.2870802209 0 0 0 0 15447091.72731781 36767950.914880753 0 36767950.914880753 11509622.845191956 0 0 0 0 13526760.774917603 29701938.446094513 0 29701938.446094513 12134443.012180328 0 0 0 0 9368778.3572345003 10205500.903329015 0 10205500.903329015 -1906852.0437732118 0 0 0 0 24527674.249969482 30427845.97681427 0 30427845.97681427 -9961984.7672271729 0 0 0 0 -2269859.3253555298 7511244.897436142 0 7511244.897436142 2535917.6316986084 0 0 0 0 -4649495.2398376465 8120440.3670749664 0 8120440.3670749664 1388140.9497833252 0 0 0 0 -5835348.6416252553 6574455.5020529851 0 6574455.5020529851 936053.54700672626 0 0 0 0 -3416749.2776489258 8384760.3243103027 0 8384760.3243103027 -2426721.8827190399 0 0 0 0 -4072710.1744665466 7927478.4099504054 0 7927478.4099504054 4698112.0946677923 0 0 0 0 1129401.2440795898 4293800.9627685547 0 4293800.9627685547 497774.07594394684 0 0 0 0 -35369.206609077752 9487415.7097981367 0 9487415.7097981367 1734410.2537260179 0 0 0 0 2230732.6119995117 5402223.9814147949 0 5402223.9814147949 -1057001.6782226562 0 0 0 0 -2921759.8008207902 9873842.6382428259 0 9873842.6382428259 2501023.2598325722 0 0 0 0 -4024080.751775369 9581030.8154676501 0 9581030.8154676501 613650.92858638125 0 0 0 0 1638455.009563446 8024121.4423751831 0 8024121.4423751831 616414.87831878662 0 0 0 0 -1537459.6284465715 6854600.6320171962 0 6854600.6320171962 1958133.766681422 0 0 0 0 -2139731.6998596191 8780748.1832141876 0 8780748.1832141876 1176125.9262924194 0 0 0 0 -4012659.4612350464 7288821.2299880981 0 7288821.2299880981 1880027.7282214165 0 0 0 0 -2877883.8183674365 9115940.2262792289 0 9115940.2262792289 4012771.9261600459 0 0 0 0 -3897238.6014595032 8508220.9598178864 0 8508220.9598178864 1429110.5616149902 0 0 0 0 -3082369.0801629163 7526526.8583747149 0 7526526.8583747149 85798.683975636959 0 0 0 0 -4796771.9944458008 6806831.3504867554 0 6806831.3504867554 -1044124.21875 0 0 0 0 -2499286.9605712891 7142382.8124084473 0 7142382.8124084473 3982561.3825075626 0 0 0 0 -876356.28703308105 8608921.5469560623 0 8608921.5469560623 -377574.94455718994 0 0 0 0 1998937.8733518329 7630187.9842219846 0 7630187.9842219846 4253231.8426327147 0 0 0 0 -1261118.1448307037 6336589.9775323868 0 6336589.9775323868 2773746.583065033 0 0 0 0 855049.61934723333 7063876.4592243731 0 7063876.4592243731 2264572.5395623222 0 0 0 0 -127907.54314115271 5768303.6151688285 0 5768303.6151688285 176451.25305735751 0 0 0 0 335666.40314865112 6873849.2135505676 0 6873849.2135505676 4292866.6723670959 0 0 0 0 -94308.080924987793 6371163.4603805542 0 6371163.4603805542 4186606.2323417664 0 0 0 0 -229356.79935044795 5358114.9245331492 0 5358114.9245331492 -1182455.6879445184 0 0 0 0 -105809.61158370972 6288411.9440879822 0 6288411.9440879822 3623178.6867828369 0 0 0 0 -2267360.9298095703 5699498.5511169434 0 5699498.5511169434 1677507.1549072266 0 0 0 0 -1350277.6206893921 6683662.3563156128 0 6683662.3563156128 1481260.3787856102 0 0 0 0 -516818.92308764905 5743234.4738542093 0 5743234.4738542093 2853530.7062431239 0 0 0 0 -931054.40089035034 6346849.9570426941 0 6346849.9570426941 4316062.7473297119 0 0 0 0 -7748036.1875680937 6850453.2877201121 0 6850453.2877201121 4530127.4483577982 0 0 0 0 -3848637.0530584976 4945230.727891814 0 4945230.727891814 3262357.5044015273 0 0 0 0 605895.7510297969 4356084.2606835961 0 4356084.2606835961 1884788.5351776853 0 0 0 0 -1732369.2173461914 3683353.037109375 0 3683353.037109375 816693.08903503418 0 0 0 0 -1763456.3084242865 4684638.5632965751 0 4684638.5632965751 1442551.3727526311 0 0 0 0 11793802.495819092 15864813.314109802 0 15864813.314109802 1052194.668674469 0 0 0 0 484396.30102825165 4603360.0695962906 0 4603360.0695962906 1435081.1701202393 0 0 0 0 -437169.33588790894 3817199.7360572815 0 3817199.7360572815 1536721.7155838013 0 0 0 0 -334228.96629030816 1338017.4656857224 0 1338017.4656857224 1257765.9465532526 0 0 0 0 -2469847.1992950439 6176633.2839660645 0 6176633.2839660645 5098732.9766693115 0 0 0 0 -2285926.0147660831 5033125.9309848994 0 5033125.9309848994 2133746.3002313152 0 0 0 0 3276823.2465956546 5732524.6265870892 0 5732524.6265870892 -694136.53354039416 0 0 0 0 104918.50404345989 3482598.2618116839 0 3482598.2618116839 2960095.1403169483 0 0 0 0 1633293.9666595459 25725400.072319031 0 25725400.072319031 27217105.515068054 0 0 0 0 7784847.5910415649 6121501.1256141663 0 6121501.1256141663 15050724.288604736 0 0 0 0 1597861.3149534352 7917272.7763686627 0 7917272.7763686627 -2247085.0004764851 0 0 0 0 1832986.027199015 6360543.1564648096 0 6360543.1564648096 -20143.061652237549 0 0 0 0 10593111.195350647 10023350.566757202 0 10023350.566757202 -21782588.288879395 0 0 0 0 1328512.6827850342 4586578.5823974609 0 4586578.5823974609 259858.03301620483 0 0 0 0 500736.85301589966 8981737.4560050964 0 8981737.4560050964 4084031.7522735596 0 0 0 0 -10792496.636955261 28888101.288154602 0 28888101.288154602 -20483218.86151886 0 0 0 0 3438579.320140902 8389585.5916389991 0 8389585.5916389991 650392.12634546496 0 0 0 0 -51191.421649932861 10132584.295536041 0 10132584.295536041 -144219.89979553223 0 0 0 0 812694.88758464158 2307080.2720277645 0 2307080.2720277645 -473292.25797507167 0 0 0 0 10400886.86902523 7689128.8324055672 0 7689128.8324055672 -20519462.609848022 0 0 0 0 -1226113.5936279297 10668379.433300018 0 10668379.433300018 -85352.887496948242 0 0 0 0 242959.61070796452 5482534.7422342729 0 5482534.7422342729 1216207.8284870237 0 0 0 0 -547301.34081745148 11020406.374173164 0 11020406.374173164 25323.973770141602 0 0 0 0 3805750.9616546631 7023024.4956359863 0 7023024.4956359863 4601218.3792114258 0 0 0 0 682804.59666061401 5028171.5393104553 0 5028171.5393104553 1586847.0829620361 0 0 0 0 2370798.2349742725 4288956.7491898965 0 4288956.7491898965 2150822.7261967808 0 0 0 0 1832397.6859359741 6834608.5814819336 0 6834608.5814819336 3776990.3085441589 0 0 0 0 1777727.2937308624 5715621.8062468851 0 5715621.8062468851 4194926.6260378473 0 0 0 0 1910096.3991540559 5111861.5250625992 0 5111861.5250625992 2992656.4092913792 0 0 0 0 1752650.0923956633 4947551.7741351314 0 4947551.7741351314 3447012.2177240029 0 0 0 0 1678801.5896987915 4292355.7138061523 0 4292355.7138061523 3780416.1801185608 0 0 0 0 -996113.86560821533 5788091.5881576538 0 5788091.5881576538 1675519.7843017578 0 0 0 0 5157917.6034698486 6187641.0740203857 0 6187641.0740203857 1824103.8344898224 0 0 0 0 1129034.9700443521 5753164.3352839872 0 5753164.3352839872 -101020.9761885386 0 0 0 0 1048204.1559524536 6083258.9436264038 0 6083258.9436264038 1692377.544342041 0 0 0 0 2144283.6722403262 6921493.9762793267 0 6921493.9762793267 3384746.9876474068 0 0 0 0 -1801094.5102661531 8159512.9640623406 0 8159512.9640623406 3552158.2611641884 0 0 0 0 54676.848156642169 8599729.5071198419 0 8599729.5071198419 2974722.2278613658 0 0 0 0 -1108139.1367051043 7133984.1974110641 0 7133984.1974110641 -1656372.118859021 0 0 0 0 -372532.13059234619 9263021.517616272 0 9263021.517616272 -392805.67427062988 0 0 0 0 -3521057.4391937256 11232389.993919373 0 11232389.993919373 2545797.797203064 0 0 0 0 2885221.7060165405 12824509.460533142 0 12824509.460533142 -5031852.9910888672 0 0 0 0 8078825.5761988284 9029406.2268087287 0 9029406.2268087287 -2504442.1196739115 0 0 0 0 64436.068520205095 133810.67230328824 0 133810.67230328824 112454.42646030337 0 0 0 0 1111631.105682373 2888161.6055908203 0 2888161.6055908203 3571189.6224365234 0 0 0 0 1819933.0266952515 4189851.5752983093 0 4189851.5752983093 793706.84948730469 0 0 0 0 6530865.0874630306 6794993.1761583947 0 6794993.1761583947 -569661.71604924276 0 0 0 0 -1225106.0322728618 4273024.8091112245 0 4273024.8091112245 2385512.604647398 0 0 0 0 2120489.8143949509 9040034.904065866 0 9040034.904065866 1641043.8719569035 0 0 0 0 -180779.02841186523 12209269.968963623 0 12209269.968963623 3014457.3810119629 0 0 0 0 954399.50149045512 9304784.816995386 0 9304784.816995386 2310868.2647969015 0 0 0 0 -6646737.9798202515 13669701.545669556 0 13669701.545669556 6019496.8583679199 0 0 0 0 5448785.2058486938 13107983.291233063 0 13107983.291233063 3495375.4277496338 0 0 0 0 6468998.5968399048 12037165.381576538 0 12037165.381576538 -2964503.3973693848 0 0 0 0 22194969.87292099 14557009.121224403 0 14557009.121224403 -7458420.1395568848 0 0 0 0 576285.15964448545 353705.01914426638 0 353705.01914426638 196104.43770767376 0 0 0 0 -4734925.2126350403 15115469.044059753 0 15115469.044059753 3205294.441619873 0 0 0 0 -2457781.5829162598 17294049.437553406 0 17294049.437553406 380085.51226043701 0 0 0 0 -2786844.1591567993 17589326.629951477 0 17589326.629951477 1121188.2333679199 0 0 0 0 -9345657.4145278931 19613888.776237488 0 19613888.776237488 1952030.9467773438 0 0 0 0 -5592953.2598571777 16015941.938926697 0 16015941.938926697 1726173.6171875 0 0 0 0 -1761957.5938491821 13209046.065719604 0 13209046.065719604 6170780.8912734985 0 0 0 0 -3402181.8803367615 18362072.038578033 0 18362072.038578033 -2302680.467300415 0 0 0 0 1759157.5785268843 10122572.235876855 0 10122572.235876855 2368148.2539718049 0 0 0 0 -9589165.2209701538 9835687.6522979736 0 9835687.6522979736 -2828743.0641479492 0 0 0 0 -1397613.7884979248 13644448.372493744 0 13644448.372493744 3315476.3517456055 0 0 0 0 593185.2763671875 14840321.777503967 0 14840321.777503967 3890986.2934188843 0 0 0 0 9246260.7799911499 8033084.9284744263 0 8033084.9284744263 6207219.2315177917 0 0 0 0 -15241546.178649902 14060344.173171997 0 14060344.173171997 461601.2109375 0 0 0 0 18914454.29196167 -434562.0319519043 0 -434562.0319519043 -14628769.221237183 0 0 0 0 4220477.6444102637 10491724.966586199 0 10491724.966586199 -2291630.057254076 0 0 0 0 410487.98777825385 106486.47561656218 0 106486.47561656218 -332059.21820669621 0 0 0 0 1179365.1338424683 13102971.500984192 0 13102971.500984192 -3907743.6725540161 0 0 0 0 8575345.71925354 13348959.076160431 0 13348959.076160431 -6618144.3956298828 0 0 0 0 3219361.4788246155 12646504.377842903 0 12646504.377842903 -6468206.9195098877 0 0 0 0 2002358.2008723877 10295345.745919153 0 10295345.745919153 2189704.6742789298 0 0 0 0 2669652.7267074585 10469560.267562866 0 10469560.267562866 873770.41570186615 0 0 0 0 3060730.7183151245 11259550.485771179 0 11259550.485771179 880947.44250488281 0 0 0 0 16446940.913513184 4241167.5212554932 0 4241167.5212554932 -6404063.6850585938 0 0 0 0 540263.14277517796 1289935.9657493494 0 1289935.9657493494 450265.95693194494 0 0 0 0 -11009099.166851044 17105746.10077095 0 17105746.10077095 4579420.8157196045 0 0 0 0 2934384.4333833903 7243693.4363085628 0 7243693.4363085628 -642951.57430034177 0 0 0 0 -10004099.488900006 20910452.431213379 0 20910452.431213379 16409615.626068115 0 0 0 0 -6334919.9080110574 3477165.1350286547 0 3477165.1350286547 2170583.755595413 0 0 0 0 7444583.5128669767 12366229.236023765 0 12366229.236023765 -3460300.7926225066 0 0 0 0 -36482443.574440002 36028742.001487732 0 36028742.001487732 47023385.522968292 0 0 0 0 -37417296.761340141 49706365.042888641 0 49706365.042888641 30785081.281288147 0 0 0 0 -11023594.623493135 29346173.413200378 0 29346173.413200378 -43003272.16834259 0 0 0 0 -50249270.336841583 5403810.1279449463 0 5403810.1279449463 9011049.3581695557 0 0 0 0 508104.37686374178 4111732.1292935051 0 4111732.1292935051 263706.69016591622 0 0 0 0 10843595.406400681 81441841.263656616 0 81441841.263656616 -133814992.98930359 0 0 0 0 46866539.15438652 886876.65200042725 0 886876.65200042725 -1558508.3462944031 0 0 0 0 7977793.3829920758 11314375.056639751 0 11314375.056639751 -3544538.094006978 0 0 0 0 6742806.9541664124 9273560.7808551788 0 9273560.7808551788 -1634327.9136352539 0 0 0 0 2172872.7894058228 9373284.7978591919 0 9373284.7978591919 -1626499.9841227531 0 0 0 0 -31895137.33010006 14573597.25863266 0 14573597.25863266 -2037784.8462219238 0 0 0 0 -143648981.30905294 8303615.0106315613 0 8303615.0106315613 73614207.648254395 0 0 0 0 1638258.6736073722 324357.25683378964 0 324357.25683378964 3047.3627852834761 0 0 0 0 -128709590.98261452 33322238.272232056 0 33322238.272232056 -8329881.4869689941 0 0 0 0 -624133.68477653689 5844.8577033467591 0 5844.8577033467591 128239.55725657195 0 0 0 0 1570632.924571991 11032405.979911804 0 11032405.979911804 -1152998.9000759125 0 0 0 0 4742757.0282669067 11015704.377578735 0 11015704.377578735 -2920597.6615753174 0 0 0 0 -400594.64795637131 11582765.137742996 0 11582765.137742996 -1306173.2938690186 0 0 0 0 2601957.5555744171 8948529.1501903534 0 8948529.1501903534 -3464246.0133514404 0 0 0 0 3189835.2420005798 9753054.0774002075 0 9753054.0774002075 -4826564.380027771 0 0 0 0 8094999.1172094326 11958418.048030466 0 11958418.048030466 -3481264.048021853 0 0 0 0 2745917.536165854 9374213.9223034419 0 9374213.9223034419 1542390.6926640896 0 0 0 0 2704586.4413070679 10023902.150150299 0 10023902.150150299 -3250802.5714569092 0 0 0 0 -38228167.809356213 29813241.963264465 0 29813241.963264465 30554290.883911133 0 0 0 0 -924147837.67347908 -123614603.2599411 0 -123614603.2599411 319195359.31073761 0 0 0 0 -396302802.83789253 1510292.5494747162 0 1510292.5494747162 203837805.71046066 0 0 0 0 -685511961.86335373 15408833.753517151 0 15408833.753517151 245133623.8204422 0 0 0 0 -301520046.90039253 -104974029.62586784 0 -104974029.62586784 66072131.987724304 0 0 0 0 -859094945.48106194 192253894.30604744 0 192253894.30604744 200214806.77272034 0 0 0 0 17820970.276042938 -502623.09638786316 0 -502623.09638786316 13388028.729084015 0 0 0 0 612733.90339855151 1807158.9347342968 0 1807158.9347342968 450056.65780614689 0 0 0 0 -377143293.75973129 170333187.00671387 0 170333187.00671387 358262747.69761658 0 0 0 0 17445419.074456483 42921101.624070778 0 42921101.624070778 2064451.3183135986 0 0 0 0 40357472.101074219 -9172033.4600124359 0 -9172033.4600124359 -101904547.93365955 0 0 0 0 1547357.6532819355 2118869.4087866852 0 2118869.4087866852 1026375.6801591218 0 0 0 0 42981464.073959351 -16037895.582688332 0 -16037895.582688332 -85377074.804862976 0 0 0 0 -21941608.188725471 -8676648.9149208069 0 -8676648.9149208069 51741422.119369507 0 0 0 0 -2795858.9870707393 7103609.781315024 0 7103609.781315024 6391860.5937769599 0 0 0 0 18362717.185756683 -20576788.363571167 0 -20576788.363571167 -37682043.740802765 0 0 0 0 -167492.06106447335 420815.25854941458 0 420815.25854941458 245913.75436849892 0 0 0 0 -454861179.85390854 -130656667.37357712 0 -130656667.37357712 -185281294.2716217 0 0 0 0 -752636658.87208748 -270648257.38019562 0 -270648257.38019562 95189657.207794189 0 0 0 0 -707463610.68243599 -105443390.10922432 0 -105443390.10922432 258166006.67842865 0 0 0 0 -338973685.16270065 79065534.126743317 0 79065534.126743317 49796914.110343933 0 0 0 0 -313889204.21224022 19002945.378912926 0 19002945.378912926 192481669.58506012 0 0 0 0 -314619733.11923218 178220235.76978302 0 178220235.76978302 -21289161.219583511 0 0 0 0 -191308512.82684612 318344816.23034859 0 318344816.23034859 165485310.24659729 0 0 0 0 -308324153.81824875 161849607.92361832 0 161849607.92361832 21046745.634063721 0 0 0 0 -126193718.23651123 178339528.09123039 0 178339528.09123039 -258691366.69210052 0 0 0 0 -142517748.99312973 272323251.63306427 0 272323251.63306427 -143188324.83869171 0 0 0 0 -244593734.37128067 227387149.09022522 0 227387149.09022522 35239414.759507179 0 0 0 0 -2670342.5296168178 8092183.9141733982 0 8092183.9141733982 3930265.2053909935 0 0 0 0 -426418.93355560303 5169545.7373123169 0 5169545.7373123169 -1174824.4645087719 0 0 0 0 3628558.2482265206 7011313.2430202477 0 7011313.2430202477 1667352.4606171325 0 0 0 0 40701493.015932083 -23191040.087753296 0 -23191040.087753296 -35858494.475242615 0 0 0 0 -165371.90970542096 8524129.4499829188 0 8524129.4499829188 47277.750308901072 0 0 0 0 -277070393.57560492 130437130.9318471 0 130437130.9318471 -81971224.243713379 0 0 0 0 -349320264.10872269 136306925.73297596 0 136306925.73297596 5828687.8929290771 0 0 0 0 24470023.603472233 26726489.316693306 0 26726489.316693306 3184557.1497116089 0 0 0 0 2816334.2937466158 5448026.7451364109 0 5448026.7451364109 936785.26846709475 0 0 0 0 12193807.208580017 5436087.7318916321 0 5436087.7318916321 627133.62129211426 0 0 0 0 -511299.54429184645 84479.509238190949 0 84479.509238190949 53445.965824194252 0 0 0 0 494207.79618453979 6960013.6882972717 0 6960013.6882972717 2010751.4088420868 0 0 0 0 5270546.1864956245 5997331.6870936714 0 5997331.6870936714 957554.28511405364 0 0 0 0 -2048704.4011917114 6738817.5884094238 0 6738817.5884094238 2285356.3741140366 0 0 0 0 7396005.0153503418 8177007.7731361389 0 8177007.7731361389 -930106.57758331299 0 0 0 0 6079099.3678283691 4791452.4620780945 0 4791452.4620780945 3249769.9314346313 0 0 0 0 2226589.0617218018 9102221.5467071533 0 9102221.5467071533 1992517.7448761463 0 0 0 0 6492894.0849761963 8605234.1657562256 0 8605234.1657562256 733829.77235412598 0 0 0 0 -1617653.0109405518 7281177.5893821716 0 7281177.5893821716 3716095.2574996948 0 0 0 0 -1263650.1432244696 5858634.7612427231 0 5858634.7612427231 2085723.9343766421 0 0 0 0 2074221.6533241272 4129131.1354789734 0 4129131.1354789734 1724550.368057251 0 0 0 0 3894975.5261507705 7690012.7348444425 0 7690012.7348444425 2415764.7738193832 0 0 0 0 11897019.37978363 16124960.886425018 0 16124960.886425018 4200118.8937835693 0 0 0 0 -496607.41305208206 13481392.447094917 0 13481392.447094917 5849771.4776916504 0 0 0 0 5756052.5454788208 7876886.6864852905 0 7876886.6864852905 1832313.3190230131 0 0 0 0 -1428934.5950590023 5891417.8574059755 0 5891417.8574059755 1267020.5326911248 0 0 0 0 16628419.462631226 12740307.208137512 0 12740307.208137512 6467039.7343711853 0 0 0 0 15050640.001533508 11770066.915164948 0 11770066.915164948 6001739.0950202942 0 0 0 0 20810543.279376984 7667637.1359424591 0 7667637.1359424591 7112735.0360870361 0 0 0 0 -907016.51614717697 7743421.3916967288 0 7743421.3916967288 3938255.2260953188 0 0 0 0 -17026.740661621094 5218795.7908325195 0 5218795.7908325195 1292081.5203552246 0 0 0 0 5333288.0518476199 7314162.6620739214 0 7314162.6620739214 1993438.0343056321 0 0 0 0 7377346.2856318466 9207520.383180026 0 9207520.383180026 -677413.81141694915 0 0 0 0 8721592.1038208008 9085085.9286499023 0 9085085.9286499023 -2870161.1825065613 0 0 0 0 -8213345.3721885681 5354751.3995742798 0 5354751.3995742798 7938003.21434021 0 0 0 0 -7852469.3390598297 483635.7391910553 0 483635.7391910553 4992035.5256271362 0 0 0 0 31295844.006828308 6832493.655620575 0 6832493.655620575 9791946.7882728577 0 0 0 0 1222813.9485701155 6529753.5064230943 0 6529753.5064230943 4759870.7426935099 0 0 0 0 27512258.940711975 6347497.8722305298 0 6347497.8722305298 11943835.094538689 0 0 0 0 37340827.390136719 15850350.677303314 0 15850350.677303314 21291011.284187317 0 0 0 0 41826196.654586315 -2975435.7003507614 0 -2975435.7003507614 -3128904.3876571655 0 0 0 0 -10868344.636245728 7860464.267364502 0 7860464.267364502 370505.04122161865 0 0 0 0 4523249.5578491576 10561166.04291152 0 10561166.04291152 2729256.3796350062 0 0 0 0 4965637.6261882186 11196065.38820504 0 11196065.38820504 -1571297.2321039662 0 0 0 0 2721945.9222564697 5505087.2540283203 0 5505087.2540283203 132794.11708068848 0 0 0 0 7316740.2172241211 7260342.5660686493 0 7260342.5660686493 984672.98913574219 0 0 0 0 -453517.83087507635 8441798.7375317961 0 8441798.7375317961 1261589.6622504145 0 0 0 0 2881633.1382293701 5542016.4217834473 0 5542016.4217834473 3377039.2470092773 0 0 0 0 1434326.8788785751 4953565.9573922455 0 4953565.9573922455 389767.58365427703 0 0 0 0 -6383904.5073318481 11890328.348526001 0 11890328.348526001 2654298.9455680847 0 0 0 0 -3853981.5636254475 11300357.010634914 0 11300357.010634914 3664432.1735937269 0 0 0 0 -2708788.1458902471 12291653.830006018 0 12291653.830006018 2890017.0851567308 0 0 0 0 -5166947.9025688171 17371129.847223282 0 17371129.847223282 6855717.0315971375 0 0 0 0 -6777736.0357894897 18666884.646724701 0 18666884.646724701 6868053.7781066895 0 0 0 0 18233751.802690506 15754126.539237022 0 15754126.539237022 3401544.4804534912 0 0 0 0 2056701.3622165956 1349916.8266469161 0 1349916.8266469161 776357.26319161803 0 0 0 0 -9225564.035484314 12927950.558134079 0 12927950.558134079 14990017.620201111 0 0 0 0 14985191.805271149 17961326.153131485 0 17961326.153131485 1920962.0399475098 0 0 0 0 13251079.910902023 19522785.311240196 0 19522785.311240196 1712702.8835601807 0 0 0 0 -1179900.7449493408 16941687.685009003 0 16941687.685009003 5508167.5549545288 0 0 0 0 1832107.1414076649 8964845.7484170571 0 8964845.7484170571 378748.044640515 0 0 0 0 2319976.2067604065 16667615.381530762 0 16667615.381530762 5571704.6193618774 0 0 0 0 -1991777.2506713867 17613324.154129028 0 17613324.154129028 5635440.132232666 0 0 0 0 -3439008.4349060059 15953451.668266296 0 15953451.668266296 8062013.2935926914 0 0 0 0 -3635702.4367675781 15329470.949636936 0 15329470.949636936 9104085.2087249756 0 0 0 0 -2109752.5478820801 17328977.634994507 0 17328977.634994507 5103264.3585014343 0 0 0 0 -12994691.610427856 18644302.07699585 0 18644302.07699585 8404546.985452652 0 0 0 0 -3504156.2554931641 18405526.79041481 0 18405526.79041481 6812212.8196868896 0 0 0 0 -6048735.1157531738 17028999.746196747 0 17028999.746196747 6379756.3180198669 0 0 0 0 -4632379.4357814789 22155816.66881752 0 22155816.66881752 4449556.4464263916 0 0 0 0 2178941.8929367065 15147417.73677063 0 15147417.73677063 5679143.422870636 0 0 0 0 -649250.33770751953 16824497.52746582 0 16824497.52746582 4757824.6652679443 0 0 0 0 -378714.99909674749 939233.86699403264 0 939233.86699403264 1433449.0069695488 0 0 0 0 6836058.7172851562 21153278.192668915 0 21153278.192668915 3220611.3714942932 0 0 0 0 -2515364.3699645996 8919546.8608551025 0 8919546.8608551025 -3353552.451590538 0 0 0 0 7148408.3406524658 16662065.493721008 0 16662065.493721008 2082794.5404663086 0 0 0 0 -7897700.5697154999 2302633.0958909988 0 2302633.0958909988 16689708.34765625 0 0 0 0 -3001296.1990177855 9480862.0476265904 0 9480862.0476265904 2069731.1855192706 0 0 0 0 -4436818.6416015625 8246197.2616882324 0 8246197.2616882324 -2433049.780456543 0 0 0 0 -2073702.0277099609 7617076.424987793 0 7617076.424987793 -1209081.1915283203 0 0 0 0 -14830135.360404968 6102677.841170311 0 6102677.841170311 14720783.238037109 0 0 0 0 5716768.135730058 6948563.5602724999 0 6948563.5602724999 895225.98934917524 0 0 0 0 18002045.181152344 16196902.19519043 0 16196902.19519043 961246.94766235352 0 0 0 0 -5558325.4961117757 3740283.655519437 0 3740283.655519437 566666.81587341428 0 0 0 0 4442213.8289886191 9241764.0861726962 0 9241764.0861726962 -4466978.4337646291 0 0 0 0 244117.66943644825 421705.46137868054 0 421705.46137868054 -209898.18699977547 0 0 0 0 -37974.58243560791 8152560.6737251282 0 8152560.6737251282 -3151425.0812492371 0 0 0 0 4373562.0321807861 14537374.959306717 0 14537374.959306717 4733467.4037399292 0 0 0 0 3660310.445019722 12882715.665270805 0 12882715.665270805 3707137.4350509644 0 0 0 0 308173.0546968542 10837837.46473621 0 10837837.46473621 -1699466.8502650876 0 0 0 0 -5516281.4527102076 8972426.2687036656 0 8972426.2687036656 3517816.5633344501 0 0 0 0 2817095.3380737305 15571938.053368568 0 15571938.053368568 4224068.4274940491 0 0 0 0 -5790317.347949516 10021534.829196548 0 10021534.829196548 1851490.4028585926 0 0 0 0 6124983.37865448 20505993.976989746 0 20505993.976989746 -765089.86352539062 0 0 0 0 -6265901.4382133484 15376494.369430542 0 15376494.369430542 6412294.3747444153 0 0 0 0 -4022259.7143383026 7132385.0009613223 0 7132385.0009613223 2340607.4689898202 0 0 0 0 -2601296.0145263672 20895386.216407776 0 20895386.216407776 965596.80656242371 0 0 0 0 -11418363.295600891 528109.81119346619 0 528109.81119346619 11470110.77456665 0 0 0 0 -16625456.873214722 7990576.253074646 0 7990576.253074646 1161672.3405599594 0 0 0 0 -20802736.521003723 5062287.8754043579 0 5062287.8754043579 11138114.561286926 0 0 0 0 -8250827.3436897248 10505260.354814863 0 10505260.354814863 5156848.9940246381 0 0 0 0 -18550034.723409653 6741197.1886930466 0 6741197.1886930466 10085313.93353653 0 0 0 0 -17947399.93428421 8880482.1969504356 0 8880482.1969504356 17483504.09180069 0 0 0 0 -40077584.079294205 18135040.769454479 0 18135040.769454479 17141007.064414978 0 0 0 0 -28279999.840120316 -25930534.257075787 0 -25930534.257075787 17125362.243011475 0 0 0 0 -93558429.174377441 -40040626.205291748 0 -40040626.205291748 18289017.540496826 0 0 0 0 -19393891.685150146 -2394870.6139373779 0 -2394870.6139373779 14919505.793718338 0 0 0 0 -74740263.06098938 12099409.965984344 0 12099409.965984344 19780800.085186005 0 0 0 0 -36112381.261444092 49153500.845005989 0 49153500.845005989 -7301348.4175033569 0 0 0 0 -26330129.345603943 12240269.938398361 0 12240269.938398361 19189719.293727875 0 0 0 0 847996.65776443481 16210909.771272659 0 16210909.771272659 12206516.194881439 0 0 0 0 -16827174.019767761 24175153.260295868 0 24175153.260295868 5234442.1467418671 0 0 0 0 -5303709.831608694 11695855.78427022 0 11695855.78427022 3717407.1937344614 0 0 0 0 -563033.02534738183 12062353.706278373 0 12062353.706278373 3253412.8902564514 0 0 0 0 -7163616.9153137207 21643357.205347061 0 21643357.205347061 4595640.7991538048 0 0 0 0 2937085.9094772339 13305537.641170502 0 13305537.641170502 -1764440.0350379944 0 0 0 0 10624951.05648534 6867286.4362752158 0 6867286.4362752158 -2569706.8362702988 0 0 0 0 6612317.5633583069 12815505.93188858 0 12815505.93188858 -1529431.1017575264 0 0 0 0 2909632.8632974625 13443970.485255957 0 13443970.485255957 1827964.3916320801 0 0 0 0 30860448.512367249 9704454.5246677399 0 9704454.5246677399 -2499779.1468200684 0 0 0 0 -802616.74846239015 176271.14309323952 0 176271.14309323952 158927.57963097468 0 0 0 0 2096653.0393137932 14183119.759146214 0 14183119.759146214 421.55059051513672 0 0 0 0 1404523.9115533829 18873743.082712054 0 18873743.082712054 6987928.6275749207 0 0 0 0 2088866.2923049927 10718501.462870598 0 10718501.462870598 366336.45167922974 0 0 0 0 5262464.4088973999 17343162.814649582 0 17343162.814649582 5163315.0779104233 0 0 0 0 -3229090.6996259689 10964154.932470083 0 10964154.932470083 5956199.2265167236 0 0 0 0 -4561036.3395147324 5547356.7105975151 0 5547356.7105975151 -890869.18589782715 0 0 0 0 -763676.20487309503 12469651.681273814 0 12469651.681273814 5485865.7307037171 0 0 0 0 -13058324.028827667 10739471.126163483 0 10739471.126163483 3690490.3325786591 0 0 0 0 27715705.312913895 19553285.283450127 0 19553285.283450127 10718368.130924225 0 0 0 0 27441933.364900589 18463731.294613838 0 18463731.294613838 8351082.324256897 0 0 0 0 11380918.985528553 2716651.4984077248 0 2716651.4984077248 -3001224.8914675266 0 0 0 0 27281203.036899567 19530325.464363098 0 19530325.464363098 12349387.755126953 0 0 0 0 9445766.4031600952 5354063.6491508484 0 5354063.6491508484 2361863.3546142578 0 0 0 0 103586527.01457214 34606651.227111816 0 34606651.227111816 -12882752.946998596 0 0 0 0 -944541.1742834216 5686861.5896890899 0 5686861.5896890899 4407089.9576204084 0 0 0 0 87293088.946641922 -18790658.153532028 0 -18790658.153532028 -36070845.378479004 0 0 0 0 26858870.898422241 18834948.130485535 0 18834948.130485535 13410084.661636353 0 0 0 0 27790932.927261353 17835498.597114563 0 17835498.597114563 14388277.011695862 0 0 0 0 29114339.086502075 16507947.74471283 0 16507947.74471283 10689867.658035278 0 0 0 0 30108682.421295166 14297052.564102173 0 14297052.564102173 15363599.841703415 0 0 0 0 33894360.775241852 15918964.165245056 0 15918964.165245056 9374875.2098655701 0 0 0 0 27104312.332305908 15133870.04416275 0 15133870.04416275 13530361.063522339 0 0 0 0 37112534.61774826 12621181.43888092 0 12621181.43888092 10625679.024337769 0 0 0 0 23292527.742103577 15928292.714719772 0 15928292.714719772 13644989.642932892 0 0 0 0 22626454.802768707 7766677.9129981995 0 7766677.9129981995 8665829.6257858276 0 0 0 0 16043042.181704998 11200561.586173773 0 11200561.586173773 10393164.098117828 0 0 0 0 -2638521.5645826152 10613199.45311372 0 10613199.45311372 5117662.9892141838 0 0 0 0 27581353.981210232 13290774.750425339 0 13290774.750425339 5378567.5012168884 0 0 0 0 -18963442.489875793 4556723.1099567413 0 4556723.1099567413 18294616.481971741 0 0 0 0 19438095.132669449 8600286.003780365 0 8600286.003780365 4974574.5948562622 0 0 0 0 -6080299.1210966939 9651514.3089699857 0 9651514.3089699857 4549414.5335778147 0 0 0 0 18696588.576915741 14649489.77042675 0 14649489.77042675 -1651725.6996564865 0 0 0 0 21212845.998023987 6175566.6201810837 0 6175566.6201810837 -11784818.035484314 0 0 0 0 20180122.383796692 24227897.584630966 0 24227897.584630966 -26614609.800163269 0 0 0 0 18388935.768302917 14572017.692663193 0 14572017.692663193 8706691.6481246948 0 0 0 0 25568672.79629612 12344644.615915775 0 12344644.615915775 8053103.5208053589 0 0 0 0 12178250.486228943 10671003.953380585 0 10671003.953380585 12992451.418786049 0 0 0 0 20423933.304434776 26656450.896710634 0 26656450.896710634 22227050.955020905 0 0 0 0 820367.86331973784 1307437.5628567622 0 1307437.5628567622 459947.04433639534 0 0 0 0 37739185.047250271 34027592.285726547 0 34027592.285726547 -63330097.5424366 0 0 0 0 -357829728.26994896 -206387738.83464622 0 -206387738.83464622 45365086.983419418 0 0 0 0 -125679720.75618935 -39995659.536040306 0 -39995659.536040306 1217386.1240234375 0 0 0 0 -220927206.46146965 -76496614.303541183 0 -76496614.303541183 17655048.804580688 0 0 0 0 38960408.896021485 30439460.728748798 0 30439460.728748798 13326026.128334045 0 0 0 0 3839543.3425087212 4273420.4606897589 0 4273420.4606897589 1093037.804502815 0 0 0 0 -167249904.47135687 43116381.823257446 0 43116381.823257446 15525055.742408752 0 0 0 0 -160613605.24530411 29789211.139307022 0 29789211.139307022 23176971.481994629 0 0 0 0 -315193877.84318542 60292521.809829712 0 60292521.809829712 30051761.968276978 0 0 0 0 -164924611.39815521 54439230.735710144 0 54439230.735710144 6317603.7925949097 0 0 0 0 -123714373.32728577 54727641.217102051 0 54727641.217102051 872743.22800064087 0 0 0 0 -281221202.99251938 143543929.97505188 0 143543929.97505188 -7320365.0872497559 0 0 0 0 16019424.507369995 -25131771.37689209 0 -25131771.37689209 12242591.367482185 0 0 0 0 -105782646.67798615 20672687.089572906 0 20672687.089572906 3387118.8179016113 0 0 0 0 29516310.676778793 12327533.113485336 0 12327533.113485336 8982242.2836685181 0 0 0 0 2044133.5257797241 -24463436.743240356 0 -24463436.743240356 -7857035.2516384125 0 0 0 0 -25359347.800765991 45733941.834672928 0 45733941.834672928 -32266099.59614563 0 0 0 0 -128013181.62979507 92076651.685375214 0 92076651.685375214 -12567851.173126221 0 0 0 0 -461856252.61064148 149969856.71135712 0 149969856.71135712 -82955791.944149017 0 0 0 0 -230131602.05392075 -31166320.404993057 0 -31166320.404993057 -14131780.808080673 0 0 0 0 -383156893.89466548 109704279.83471131 0 109704279.83471131 -63594931.667633057 0 0 0 0 -396426875.50277328 106249870.65854645 0 106249870.65854645 65586195.854469299 0 0 0 0 -353925135.51332664 -192502957.05840969 0 -192502957.05840969 -214036832.15869141 0 0 0 0 -22618757.605033875 -7514876.7570705414 0 -7514876.7570705414 -2999608.5177497864 0 0 0 0 520651.47164916992 69046854.775442123 0 69046854.775442123 -78264383.522859573 0 0 0 0 701803.46163012832 112222.83838960528 0 112222.83838960528 -1438017.2201799154 0 0 0 0 -14440854.801812172 20979900.909230232 0 20979900.909230232 -18410910.406295776 0 0 0 0 21511959.422492981 -4220500.9713668823 0 -4220500.9713668823 99620168.844093323 0 0 0 0 21500334.345928192 -517394.06438922882 0 -517394.06438922882 67631924.916358948 0 0 0 0 -198255655.33041382 62651397.906944275 0 62651397.906944275 200287394.52591705 0 0 0 0 1145406.9417755082 -458890.55011655018 0 -458890.55011655018 -1296472.6196954828 0 0 0 0 -56672288.365421295 -48508089.870869637 0 -48508089.870869637 256250462.75288391 0 0 0 0 46589274.327758789 -134256691.90032959 0 -134256691.90032959 7938763.4142303467 0 0 0 0 1226558.8898573369 -879131.05544457957 0 -879131.05544457957 -1341333.8108343165 0 0 0 0 -65273.209594726562 17481516.404376984 0 17481516.404376984 -16158934.995223999 0 0 0 0 46075859.578361511 4813867.3933696747 0 4813867.3933696747 -146528323.11140823 0 0 0 0 -4731229.7604484558 5945482.8296527863 0 5945482.8296527863 -2607946.0225982666 0 0 0 0 36293665.881858826 -27068188.058250427 0 -27068188.058250427 -17810860.891658783 0 0 0 0 42878215.043327332 23450955.363622665 0 23450955.363622665 3683650.9652175903 0 0 0 0 -273587.64543914795 36302097.527325153 0 36302097.527325153 70700682.676818848 0 0 0 0 -77964543.153717041 84113283.648136139 0 84113283.648136139 154996069.49333191 0 0 0 0 267426.9455965329 828697.9041413404 0 828697.9041413404 -173738.09069141001 0 0 0 0 9162973.035446167 8091059.2470016479 0 8091059.2470016479 -2954698.3683738708 0 0 0 0 11333737.65901947 20262627.248344421 0 20262627.248344421 3785536.4457168579 0 0 0 0 6188.5472030639648 20493610.612621307 0 20493610.612621307 15819173.854068756 0 0 0 0 24489.423489346398 11625601.912675403 0 11625601.912675403 2730139.5989685059 0 0 0 0 3041819.5804748535 13523423.862686157 0 13523423.862686157 1831846.274723053 0 0 0 0 -7970705.7019805908 7141149.1356430054 0 7141149.1356430054 4137072.2760238647 0 0 0 0 -4933429.0836219788 1746701.3017940521 0 1746701.3017940521 -517685.37484741211 0 0 0 0 1346092.7857513428 15523635.329156876 0 15523635.329156876 3756327.3143920898 0 0 0 0 -14146.736739717424 56847.418793577701 0 56847.418793577701 -35152.189114801935 0 0 0 0 6198112.7141742706 -8435051.633723259 0 -8435051.633723259 6819950.4258117676 0 0 0 0 421422.35881580599 1966598.9811983742 0 1966598.9811983742 -197969.37787489966 0 0 0 0 -2596202.6268081665 8033879.9094944 0 8033879.9094944 8517463.2030448914 0 0 0 0 -9983229.8336906433 -598850.7064743042 0 -598850.7064743042 11324301.344932556 0 0 0 0 -1753547.4718245417 -22466.09908987768 0 -22466.09908987768 420774.40498782706 0 0 0 0 416529.01582336426 5103833.3471050262 0 5103833.3471050262 -554113.80759048462 0 0 0 0 -6209911.576751709 4791416.2725830078 0 4791416.2725830078 5557843.5955665112 0 0 0 0 -1323693.8726119995 3637750.7174282074 0 3637750.7174282074 -1266368.8201179504 0 0 0 0 -802366.55070134252 983912.75581465848 0 983912.75581465848 312513.16078437888 0 0 0 0 -2680823.7556915283 9229433.422996521 0 9229433.422996521 -6760004.0800800323 0 0 0 0 -41920.284994125366 -13008321.295766115 0 -13008321.295766115 51811753.356555939 0 0 0 0 -371423.79419294 1392501.3212774731 0 1392501.3212774731 -1500578.6707075275 0 0 0 0 -6936515.0880432129 3358032.1145172119 0 3358032.1145172119 -955370.97724914551 0 0 0 0 -603266.31588745117 3763322.613858223 0 3763322.613858223 1657479.7914047241 0 0 0 0 -2416201.2171020508 6822104.9635314941 0 6822104.9635314941 -1203341.8940187693 0 0 0 0 2348168.9025173113 4902720.4129856974 0 4902720.4129856974 1195839.4603820927 0 0 0 0 -1084242.2911376953 3418057.2553119659 0 3418057.2553119659 1759539.5212190151 0 0 0 0 -497964.01280578412 3272707.4358575679 0 3272707.4358575679 -11990.532578542829 0 0 0 0 -15916122.76663208 9346607.0260848999 0 9346607.0260848999 21342567.304397583 0 0 0 0 -22600584.780139923 -11131073.293469429 0 -11131073.293469429 68603916.395996094 0 0 0 0 -180093.01293479744 207163.3603027463 0 207163.3603027463 67195.997744478285 0 0 0 0 -8805800.9590377808 11680658.11841774 0 11680658.11841774 14643598.872421265 0 0 0 0 -6092179.6303074732 2972369.2886805125 0 2972369.2886805125 1381153.9282742999 0 0 0 0 -14359815.339431763 7845163.6956939697 0 7845163.6956939697 22068773.617649078 0 0 0 0 -7154861.525352478 16249309.113418579 0 16249309.113418579 11091619.690113068 0 0 0 0 -13786200.325447083 24777579.158754349 0 24777579.158754349 1242292.0968780518 0 0 0 0 -18168020.227516174 16090194.431077957 0 16090194.431077957 26943953.842987061 0 0 0 0 -5765188.9131736755 -1529302.399772644 0 -1529302.399772644 26301368.934875488 0 0 0 0 -16901935.339942932 15366884.827444077 0 15366884.827444077 21626747.671340942 0 0 0 0 -30309889.602890015 34795795.29901123 0 34795795.29901123 4381861.8779792786 0 0 0 0 -13778949.702301025 19054415.550941467 0 19054415.550941467 25290087.317222595 0 0 0 0 -33140553.717065811 8411222.3239865303 0 8411222.3239865303 39384077.677467346 0 0 0 0 -11621893.510986328 32018853.806343079 0 32018853.806343079 -3746332.7176017761 0 0 0 0 -10615865.925827026 46407759.604293823 0 46407759.604293823 -114706469.82317352 0 0 0 0 -7233583.6954498291 33503412.321617126 0 33503412.321617126 -31738970.04101944 0 0 0 0 -2612137.5441836566 15118794.28504746 0 15118794.28504746 2888592.9910736084 0 0 0 0 15021030.859817505 -23843898.191194534 0 -23843898.191194534 39104613.979389191 0 0 0 0 26643126.358406067 4326523.5290374756 0 4326523.5290374756 89039671.522983551 0 0 0 0 -29156063.188034058 -15193434.909378052 0 -15193434.909378052 52970954.100364685 0 0 0 0 -80934290.510574341 21347077.662622452 0 21347077.662622452 97330176.357967377 0 0 0 0 -57898639.111923218 70331395.69761467 0 70331395.69761467 -13062922.415555954 0 0 0 0 132523929.80480194 3184639.7383594513 0 3184639.7383594513 -57633477.46390152 0 0 0 0 -30293667.853855133 6210769.7451176643 0 6210769.7451176643 38956060.415786743 0 0 0 0 -48368432.644227028 112192364.15924621 0 112192364.15924621 84919212.825378418 0 0 0 0 109478396.14520264 124385290.48388481 0 124385290.48388481 49062395.453704834 0 0 0 0 -1145255.0593143646 1162489.8338445146 0 1162489.8338445146 1093921.2045015953 0 0 0 0 39077443.620601654 163535391.18683434 0 163535391.18683434 140374757.01077271 0 0 0 0 -1363316.2563398629 1617665.4928357676 0 1617665.4928357676 402449.66237316001 0 0 0 0 -5121988.9442367554 8378334.01679039 0 8378334.01679039 7871634.979268074 0 0 0 0 -267673.62328109145 70709.557122496888 0 70709.557122496888 -46287.90714549832 0 0 0 0 -5716048.4073486328 5442458.8927536011 0 5442458.8927536011 27404922.112060547 0 0 0 0 -6134759.6399230957 3912251.6298894882 0 3912251.6298894882 22273198.354515076 0 0 0 0 -8067127.1878204346 28205198.592853546 0 28205198.592853546 57395136.432384491 0 0 0 0 2788158.6508789062 17865659.663505554 0 17865659.663505554 17444010.306572914 0 0 0 0 6387304.1391830444 1026623.8281459808 0 1026623.8281459808 9947283.9211082458 0 0 0 0 8006003.7682285309 24691947.882234454 0 24691947.882234454 25087816.084205627 0 0 0 0 2096745.845413208 3748372.0591888428 0 3748372.0591888428 13304175.911762238 0 0 0 0 26571230.821556091 56006647.290214539 0 56006647.290214539 34799487.674468994 0 0 0 0 17209347.236358643 36409038.735015869 0 36409038.735015869 -2229365.9275779724 0 0 0 0 179905510.26889038 5695891.7841377258 0 5695891.7841377258 -10466538.555290222 0 0 0 0 94199098.645805359 205352582.77539825 0 205352582.77539825 32373185.708457947 0 0 0 0 76305906.447387695 39996585.699914932 0 39996585.699914932 -5599833.3538188934 0 0 0 0 61207925.451824188 -34594814.522864342 0 -34594814.522864342 -7171050.2633285522 0 0 0 0 4809624.4572143555 -41013764.330860138 0 -41013764.330860138 21038336.617454529 0 0 0 0 14194637.945049286 63385724.914847374 0 63385724.914847374 53839985.994659424 0 0 0 0 -665518.77252903953 680428.40395223722 0 680428.40395223722 645931.25508560985 0 0 0 0 -104045371.93907166 83772268.952981949 0 83772268.952981949 54036446.584716797 0 0 0 0 301820599.33730316 274544310.04879284 0 274544310.04879284 150442104.11215019 0 0 0 0 -15049138.040084839 187106381.31538391 0 187106381.31538391 186392122.29628372 0 0 0 0 7968512.5552825928 180567885.4361496 0 180567885.4361496 177949254.1771698 0 0 0 0 8682439.590461731 163562737.10810852 0 163562737.10810852 144497310.43532181 0 0 0 0 17978590.256778717 124531221.24895382 0 124531221.24895382 68310216.872970581 0 0 0 0 -38586216.687965393 128153326.37518692 0 128153326.37518692 163124073.20413303 0 0 0 0 -51035200.859893799 3592316.1716442108 0 3592316.1716442108 118988406.15533447 0 0 0 0 -19086661.302154541 70316051.138435364 0 70316051.138435364 189579883.989254 0 0 0 0 -631762.83536233753 623492.14462046698 0 623492.14462046698 607319.67134183645 0 0 0 0 197780559.58920288 165719422.08906364 0 165719422.08906364 100950938.06555477 0 0 0 0 -224188278.33818817 -27686019.678279877 0 -27686019.678279877 173564688.83711243 0 0 0 0 -144761004.18919373 -27857965.848388672 0 -27857965.848388672 117352653.80556679 0 0 0 0 -17117818.805244446 12564796.49241066 0 12564796.49241066 557876179.92977333 0 0 0 0 18713902.881774902 39628709.354909897 0 39628709.354909897 193740253.19746017 0 0 0 0 -29090141.841449738 162671363.0122056 0 162671363.0122056 265407201.77937698 0 0 0 0 9198085.0392303467 128322526.87811279 0 128322526.87811279 233705151.72633743 0 0 0 0 164624.72509002686 159950793.36005592 0 159950793.36005592 278575119.84725189 0 0 0 0 -47491.419738769531 167158808.28268242 0 167158808.28268242 178355229.6386013 0 0 0 0 18552635.202880859 168331405.25861931 0 168331405.25861931 186875685.13687897 0 0 0 0 -29149180.826408386 162071853.94427299 0 162071853.94427299 187662227.5601368 0 0 0 0 9567260.3014068604 153154880.55591583 0 153154880.55591583 139497830.46133041 0 0 0 0 -13012.761978149414 153583836.31028366 0 153583836.31028366 54821653.856609344 0 0 0 0 -33595037.439315796 134032639.47414017 0 134032639.47414017 140253869.55530691 0 0 0 0 -15709805.314926147 156994838.02642155 0 156994838.02642155 88624710.232265472 0 0 0 0 -56906108.353668213 121993722.54918861 0 121993722.54918861 77644286.217176914 0 0 0 0 -34600195.568000793 78585539.754663467 0 78585539.754663467 21918690.247865677 0 0 0 0 36640220.376022339 201442813.8704586 0 201442813.8704586 142328273.81721115 0 0 0 0 -42754516.546401978 145077414.17299843 0 145077414.17299843 177815166.51344061 0 0 0 0 -20716824.779724121 124635102.4691391 0 124635102.4691391 -35494615.414545059 0 0 0 0 -92100623.373764038 135124217.11396694 0 135124217.11396694 161627786.9046402 0 0 0 0 -87268560.472792625 188547186.39210594 0 188547186.39210594 -88641436.220722198 0 0 0 0 -69574656.46638155 59062619.9871068 0 59062619.9871068 -71738649.963039398 0 0 0 0 -47842538.761245728 161058282.78881931 0 161058282.78881931 -181646196.76409817 0 0 0 0 -20309.54857635498 137156741.7987833 0 137156741.7987833 -80651065.277080536 0 0 0 0 -21118268.710647583 81985071.22115612 0 81985071.22115612 -189009404.52562714 0 0 0 0 -28437510.477226257 94040593.265712738 0 94040593.265712738 -107444436.16675568 0 0 0 0 -3067.3569641113281 114439017.93721104 0 114439017.93721104 -201305635.16179657 0 0 0 0 -22048659.701721191 59559105.428098679 0 59559105.428098679 -276882722.54037094 0 0 0 0 -991510.352439899 519010.87184006814 0 519010.87184006814 3404758.6208937541 0 0 0 0 -1165.6302185058594 2089786.154964447 0 2089786.154964447 1174241.0027923584 0 0 0 0 1141849.4093170166 13221647.737401962 0 13221647.737401962 48989486.468086243 0 0 0 0 960526.36043144763 -494231.88302228227 0 -494231.88302228227 -622897.36587922554 0 0 0 0 -23207388.57131958 14682485.793540955 0 14682485.793540955 3377928.3832176328 0 0 0 0 -19611539.781295776 6377699.0759181976 0 6377699.0759181976 3080714.9740133286 0 0 0 0 1812926.0225563049 7872274.1662834883 0 7872274.1662834883 30073809.821260452 0 0 0 0 -3733080.449453868 214123.38979900256 0 214123.38979900256 3807172.0387927955 0 0 0 0 3269973.6226819679 1622153.0980339162 0 1622153.0980339162 -15083.586526100524 0 0 0 0 -3951747.7661476135 103686063.01672029 0 103686063.01672029 -195749617.69022369 0 0 0 0 3788193.6040642969 1099435.7785780896 0 1099435.7785780896 -795116.88736749627 0 0 0 0 -81753421.677528381 60002188.928678513 0 60002188.928678513 -29364331.888607025 0 0 0 0 -105361181.89636612 26882653.292266846 0 26882653.292266846 60312071.951061249 0 0 0 0 -87602614.595581055 -438062.41960525513 0 -438062.41960525513 29755141.066332817 0 0 0 0 -19029057.769882202 285346.83005905151 0 285346.83005905151 14337107.372348428 0 0 0 0 -25056700.92779541 9727941.3517479897 0 9727941.3517479897 14853924.912120819 0 0 0 0 -4109546.7770322412 -329523.73105228413 0 -329523.73105228413 3814164.3984304275 0 0 0 0 5079905.2409057617 21310523.824304581 0 21310523.824304581 21308269.534237862 0 0 0 0 -68073758.283296585 -27704005.355593443 0 -27704005.355593443 4914079.9849853516 0 0 0 0 -68141326.86630249 -54469167.737487793 0 -54469167.737487793 -40174868.888243914 0 0 0 0 -69869243.115570068 -25101926.961913824 0 -25101926.961913824 47607017.198945999 0 0 0 0 -75179778.477172852 -116672975.29208851 0 -116672975.29208851 -50254268.940747023 0 0 0 0 -3975330.2696568072 -575014.74157504737 0 -575014.74157504737 3678286.1661182633 0 0 0 0 -13352875.345474243 -2501949.1351222992 0 -2501949.1351222992 16398480.117350101 0 0 0 0 29916015.722053528 24575622.227594376 0 24575622.227594376 -4843795.4884033203 0 0 0 0 18387406.686500549 -5414292.5073795319 0 -5414292.5073795319 -34153400.575594902 0 0 0 0 22597554.52696991 54343820.13265419 0 54343820.13265419 57442109.04870224 0 0 0 0 -38701.019973741662 29298106.387550369 0 29298106.387550369 31100915.358074188 0 0 0 0 6549364.6540985107 21664263.968696594 0 21664263.968696594 39699210.23815918 0 0 0 0 8095682.1051692963 17476018.209779739 0 17476018.209779739 26215723.138538361 0 0 0 0 3726181.3374938965 9383243.8932609558 0 9383243.8932609558 20982810.510986328 0 0 0 0 55058349.099868774 -91833087.720924377 0 -91833087.720924377 214693516.44441891 0 0 0 0 207372366.34477615 -83617702.80744791 0 -83617702.80744791 786497.68198776245 0 0 0 0 55220668.300971985 -51834082.778355598 0 -51834082.778355598 31897556.715141296 0 0 0 0 159716486.33086777 86416856.024240971 0 86416856.024240971 56589457.458917618 0 0 0 0 389290241.19528198 -53534130.572108269 0 -53534130.572108269 140493690.68925667 0 0 0 0 16350831.057403564 4750951.6431655884 0 4750951.6431655884 31834135.529272079 0 0 0 0 127356106.99988556 -44199696.492572784 0 -44199696.492572784 -137644445.87481117 0 0 0 0 54927449.401367188 -36494591.874653816 0 -36494591.874653816 -13434877.574062347 0 0 0 0 23787631.038017273 -107052342.16250134 0 -107052342.16250134 31666675.803157806 0 0 0 0 85000156.024795532 -80871739.475048065 0 -80871739.475048065 -95514610.978515625 0 0 0 0 29178638.182098389 -51944422.301303864 0 -51944422.301303864 -106740046.61708927 0 0 0 0 -3032844.3494873047 -94886858.649555206 0 -94886858.649555206 -75185033.45523639 0 0 0 0 8861880.6100311279 -89421731.138506889 0 -89421731.138506889 -126363029.93012238 0 0 0 0 -31132477.256622314 -63816375.993087769 0 -63816375.993087769 -85444176.838973999 0 0 0 0 -12240103.354248047 -100855643.25583267 0 -100855643.25583267 -90258029.80633831 0 0 0 0 -7507220.9976654053 -109733243.1166563 0 -109733243.1166563 -8751137.3231468201 0 0 0 0 23998440.006652832 -75805822.2780056 0 -75805822.2780056 -75325963.556594044 0 0 0 0 -94157321.271392822 -55756581.645096779 0 -55756581.645096779 -68056199.986091614 0 0 0 0 -56015405.281459808 -103077206.42669678 0 -103077206.42669678 -13815774.776500702 0 0 0 0 -75138168.847709656 -45002743.126515388 0 -45002743.126515388 89043517.448703766 0 0 0 0 -28860182.970184326 -84714026.161806107 0 -84714026.161806107 -17136588.069988966 0 0 0 0 5011333.2124023438 -103622870.05223846 0 -103622870.05223846 96803697.049129486 0 0 0 0 -27069515.908905029 -51564598.032720566 0 -51564598.032720566 24690095.415836334 0 0 0 0 -11636134.932182312 9578573.7747755051 0 9578573.7747755051 163576934.53201103 0 0 0 0 -29188813.074697495 -45333542.550808668 0 -45333542.550808668 76432613.874530792 0 0 0 0 -89304116.870201111 -9985609.7548999786 0 -9985609.7548999786 145091344.32096863 0 0 0 0 -63285438.241401672 21321090.634972572 0 21321090.634972572 -16958052.849622726 0 0 0 0 -36646087.793556213 82755146.23664093 0 82755146.23664093 86761050.147759438 0 0 0 0 5050790.9067077637 10105702.763965607 0 10105702.763965607 120940347.00644302 0 0 0 0 226152401.11088562 96831606.861375809 0 96831606.861375809 255826649.26965714 0 0 0 0 192579082.69509888 146599081.80436039 0 146599081.80436039 198180582.91109657 0 0 0 0 402504377.74752808 294831190.32624054 0 294831190.32624054 141600507.16134834 0 0 0 0 33843152.199714661 -45100745.06959343 0 -45100745.06959343 224058734.50054169 0 0 0 0 176280601.94943237 31468005.676570892 0 31468005.676570892 178673485.10512209 0 0 0 0 308812064.77805328 300109809.58197927 0 300109809.58197927 979426053.90230179 0 0 0 0 372397216.43466187 203309180.92661667 0 203309180.92661667 286216116.72027397 0 0 0 0 130119358.03060913 102522045.80573368 0 102522045.80573368 493446583.47841263 0 0 0 0 691578444.07543945 550673097.44344521 0 550673097.44344521 269985347.72185135 0 0 0 0 314244155.01351929 266635664.90957451 0 266635664.90957451 390130364.85807419 0 0 0 0 695086678.83992004 242722940.31241989 0 242722940.31241989 186983942.87727356 0 0 0 0 753173049.87248611 428924494.97979116 0 428924494.97979116 -107661993.5655899 0 0 0 0 -465882.50472085178 561487.05175629631 0 561487.05175629631 214071.7328263931 0 0 0 0 19076334.233383179 121782814.89894676 0 121782814.89894676 311255206.23019409 0 0 0 0 634070447.75492477 164331994.63471365 0 164331994.63471365 -91028673.410858154 0 0 0 0 378499493.39658928 56183441.913555145 0 56183441.913555145 -126580057.3673172 0 0 0 0 460616552.42105103 286983837.12885284 0 286983837.12885284 -16139222.828399658 0 0 0 0 533509588.19128799 396719897.74631214 0 396719897.74631214 87059211.335128784 0 0 0 0 420859096.23085022 221314683.01101494 0 221314683.01101494 267804224.65680313 0 0 0 0 260834929.29259491 188686271.64162827 0 188686271.64162827 62181443.45195961 0 0 0 0 460392179.75365257 291549027.59899735 0 291549027.59899735 -104854026.63800812 0 0 0 0 427419572.05883789 412638998.06498909 0 412638998.06498909 129434779.0515213 0 0 0 0 545304589.83290863 386657363.53051949 0 386657363.53051949 -59835565.81812191 0 0 0 0 304051129.44702148 228536576.2769146 0 228536576.2769146 -8417850.45362854 0 0 0 0 96174196.793991089 85815566.987979889 0 85815566.987979889 30526723.130317688 0 0 0 0 -6410462.5986328125 66635979.370510101 0 66635979.370510101 -22357911.222187042 0 0 0 0 302594489.5776062 250236288.16890144 0 250236288.16890144 -71716223.771934509 0 0 0 0 437171997.74856567 326098121.430233 0 326098121.430233 -61594544.172561646 0 0 0 0 3355867.5530244708 742053.5768127311 0 742053.5768127311 -921032.24957705475 0 0 0 0 -127717723.76938629 211239265.29210091 0 211239265.29210091 -87931604.91016674 0 0 0 0 -53861900.539276123 -10659817.061197281 0 -10659817.061197281 -46952553.045003891 0 0 0 0 268167319.73666382 180195778.95848274 0 180195778.95848274 46979537.934702873 0 0 0 0 477523806.91933441 164714742.94911385 0 164714742.94911385 -259064269.03983307 0 0 0 0 1615897.9075592086 212806.92995502427 0 212806.92995502427 -584893.34610523283 0 0 0 0 -9827768.6129226685 89686033.628479004 0 89686033.628479004 -37744956.28012085 0 0 0 0 -131738495.26953506 155895853.88877916 0 155895853.88877916 411853340.04254532 0 0 0 0 219880845.64116669 394211073.30779743 0 394211073.30779743 265146575.62659454 0 0 0 0 -26094658.77325058 253609100.62586308 0 253609100.62586308 196881703.68845367 0 0 0 0 135652486.01129913 70901193.771177292 0 70901193.771177292 48337070.187240601 0 0 0 0 16842155.229003906 134906441.89115143 0 134906441.89115143 53367471.7206707 0 0 0 0 -84571853.378814697 44406282.656497955 0 44406282.656497955 92436143.359008789 0 0 0 0 357453795.58014297 -44380016.256528854 0 -44380016.256528854 103337598.31121826 0 0 0 0 218998321.14260101 289796313.94948387 0 289796313.94948387 316968818.65866089 0 0 0 0 127022157.77372742 26147864.602226257 0 26147864.602226257 309499021.8416872 0 0 0 0 478118466.73524475 202125116.93766022 0 202125116.93766022 20651673.865516663 0 0 0 0 145515697.12844849 66231880.464748383 0 66231880.464748383 56168822.630535126 0 0 0 0 121294403.78176498 -41901289.754578114 0 -41901289.754578114 9241399.8779678345 0 0 0 0 -3231238.1678161621 17814603.480876923 0 17814603.480876923 114673029.57499313 0 0 0 0 47158096.686401367 10577381.081985474 0 10577381.081985474 2254276.7112121582 0 0 0 0 -56959427.754333496 27514069.911563873 0 27514069.911563873 -39584925.323810577 0 0 0 0 -21135491.297622681 -37140687.066413879 0 -37140687.066413879 33739517.7448349 0 0 0 0 -83307966.677228928 39373297.868866205 0 39373297.868866205 -43385554.996566772 0 0 0 0 -272750538.10324097 83579905.271327972 0 83579905.271327972 -26456154.114356995 0 0 0 0 -129259723.65267944 45718322.925979614 0 45718322.925979614 -67085371.662536621 0 0 0 0 -287083791.00125122 -19674124.958324432 0 -19674124.958324432 -36388620.12625885 0 0 0 0 -120040755.67776871 -15458016.081880093 0 -15458016.081880093 -28830087.341278076 0 0 0 0 -160892932.51885986 68438395.008163452 0 68438395.008163452 -5674057.3849067688 0 0 0 0 -154119031.30182266 28153073.831851006 0 28153073.831851006 -93107389.265472412 0 0 0 0 -27158671.860626221 73128661.689243317 0 73128661.689243317 -13158940.071416855 0 0 0 0 -223555096.42842865 27017897.028255463 0 27017897.028255463 78831479.203132629 0 0 0 0 -123460161.6902771 110970618.97497177 0 110970618.97497177 67262283.470466614 0 0 0 0 -873944.40160671435 3630425.3555028588 0 3630425.3555028588 1463686.4216453545 0 0 0 0 -62095408.640106201 27694115.232124329 0 27694115.232124329 -17003676.358718872 0 0 0 0 -237886673.42476654 106002000.9673214 0 106002000.9673214 39279576.653348923 0 0 0 0 -555570.32079616562 1819068.0703553949 0 1819068.0703553949 1798279.6948469877 0 0 0 0 -1410893.5321350098 1003253.1125574112 0 1003253.1125574112 -87345.792213439941 0 0 0 0 -109092.93874383718 6229370.804200314 0 6229370.804200314 1083670.6772136604 0 0 0 0 -3390871.338364318 2433373.5972270854 0 2433373.5972270854 42217.831215959042 0 0 0 0 6861597.999819912 433499.61798742227 0 433499.61798742227 -1173522.7052849159 0 0 0 0 2776925.2452492453 11005161.438578676 0 11005161.438578676 -103372.21706467308 0 0 0 0 24647620.825241089 -907165.67945480347 0 -907165.67945480347 -4587271.3180541992 0 0 0 0 16875263.552131653 14436787.992760658 0 14436787.992760658 -16751175.770645142 0 0 0 0 1213668.5874025878 965010.12485860288 0 965010.12485860288 -390305.02362360805 0 0 0 0 -387353481.11932373 55489337.746143341 0 55489337.746143341 16901705.359130859 0 0 0 0 -7500313.9437942505 14026218.858694077 0 14026218.858694077 1595270.9785499573 0 0 0 0 -5008645.1057052612 8725457.5403366089 0 8725457.5403366089 2016109.373167038 0 0 0 0 11784278.884223938 11595385.029771805 0 11595385.029771805 145417.54369735718 0 0 0 0 1033572.9654808044 12294086.147116661 0 12294086.147116661 4025239.8537902832 0 0 0 0 1056074.0425033569 12231827.221684456 0 12231827.221684456 2533063.9790496826 0 0 0 0 6178487.3781509399 8872669.6475753784 0 8872669.6475753784 1528266.0446777344 0 0 0 0 5121885.9995574951 12252727.038162231 0 12252727.038162231 765314.21002578735 0 0 0 0 5503860.7448730469 14826678.88583374 0 14826678.88583374 4872865.1065139771 0 0 0 0 1477777.2230987549 10954024.385612488 0 10954024.385612488 1826296.1134338379 0 0 0 0 1533854.5780487061 10589953.844738007 0 10589953.844738007 3403904.3424263 0 0 0 0 1386433.5370559692 11145664.761571884 0 11145664.761571884 3007850.1363754272 0 0 0 0 1123257.6667022705 11129678.504104614 0 11129678.504104614 5184501.0876665115 0 0 0 0 -3581815.2601623535 9714395.6702041626 0 9714395.6702041626 -241566.91078090668 0 0 0 0 7218636.8537597656 11140722.15606308 0 11140722.15606308 10139374.718925476 0 0 0 0 -3549397.5749206543 9010659.9534263611 0 9010659.9534263611 3933077.8660202026 0 0 0 0 -4208439.2290725708 9709498.9327068329 0 9709498.9327068329 3603234.3588104248 0 0 0 0 -2516894.8420263194 5985151.2692533657 0 5985151.2692533657 1885543.5088435216 0 0 0 0 -4568867.4079284668 8350577.9506187439 0 8350577.9506187439 3083543.1439476013 0 0 0 0 7161805.5872497559 11152075.523852348 0 11152075.523852348 10497471.996887207 0 0 0 0 -4407881.7160134986 11616646.691171829 0 11616646.691171829 1459841.5119442623 0 0 0 0 3698688.8502731323 28484531.6354599 0 28484531.6354599 17431768.649773121 0 0 0 0 1757324.2699264586 14247774.505999554 0 14247774.505999554 -1201120.1623616451 0 0 0 0 -3854208.7150421143 -5664522.7712612152 0 -5664522.7712612152 7329213.3362493515 0 0 0 0 1272312.3193511963 13931886.428697586 0 13931886.428697586 754258.90777206421 0 0 0 0 -5234885.3408813477 11327495.560337067 0 11327495.560337067 3498133.5871963501 0 0 0 0 -46267567.467529297 -6119447.444229126 0 -6119447.444229126 -18421201.022949219 0 0 0 0 -10312678.728001863 7214231.130244608 0 7214231.130244608 4800041.7566726208 0 0 0 0 -33296184.743713379 26467926.439347267 0 26467926.439347267 17530381.571697235 0 0 0 0 -4149983.8073533326 -1235875.271560574 0 -1235875.271560574 2534681.4916921742 0 0 0 0 -8034746.2643890381 7050345.6812438965 0 7050345.6812438965 5405534.7959861755 0 0 0 0 17952759.880218506 -36317795.566955566 0 -36317795.566955566 -5347730.2527999878 0 0 0 0 -2558282.5597553253 4115801.5884299278 0 4115801.5884299278 1667657.0216445923 0 0 0 0 -4187348.7100982666 -1334298.0628948212 0 -1334298.0628948212 -3057110.5396995544 0 0 0 0 -2347669.9160512686 -79342.808686835691 0 -79342.808686835691 1379914.5308640208 0 0 0 0 2311227.6748046875 6801981.6725387573 0 6801981.6725387573 -3389628.0822544098 0 0 0 0 -3587248.6180496216 2866719.7192630768 0 2866719.7192630768 9879253.7156524658 0 0 0 0 -893331.81419372559 2619047.2898273468 0 2619047.2898273468 1884417.488052845 0 0 0 0 -2083051.8520696629 4186357.5125310645 0 4186357.5125310645 -617706.98776496015 0 0 0 0 -2439303.3265533447 2746515.6122703552 0 2746515.6122703552 2033887.4319972992 0 0 0 0 -8878325.60181427 11302368.960723877 0 11302368.960723877 -7763247.9528884888 0 0 0 0 -8082982.6799240112 8574365.4835147858 0 8574365.4835147858 1175956.8720817566 0 0 0 0 -11669439.730285645 4181650.5409240723 0 4181650.5409240723 -3671058.0289764404 0 0 0 0 -1415129.4729614258 1622161.8219604492 0 1622161.8219604492 -523567.21212887764 0 0 0 0 -4371894.4969644397 1627826.7112779254 0 1627826.7112779254 3400986.1543612545 0 0 0 0 -64649477.886398315 173886230.70365715 0 173886230.70365715 -103257140.43721771 0 0 0 0 -1833930.2534538433 1167697.8197712116 0 1167697.8197712116 1036066.5971182324 0 0 0 0 -188413348.7243042 154743326.01561356 0 154743326.01561356 -27071476.61460495 0 0 0 0 -66285447.039726257 24961476.713853836 0 24961476.713853836 -46114603.998497009 0 0 0 0 -2144095.8498789556 2428272.238228146 0 2428272.238228146 -78884.44093808718 0 0 0 0 560233.81118985265 3929191.3195356652 0 3929191.3195356652 -392120.98635294475 0 0 0 0 -1143161.9957351685 3443286.492852211 0 3443286.492852211 -741095.20966148376 0 0 0 0 -1544114.642527692 2341536.4648523498 0 2341536.4648523498 1098067.0243951716 0 0 0 0 -1773782.4271850586 2029999.6312561035 0 2029999.6312561035 1505826.3769292831 0 0 0 0 -1379945.4905166626 2415064.4066085815 0 2415064.4066085815 1363595.2735137939 0 0 0 0 -93962891.434315681 15779254.231561422 0 15779254.231561422 73023438.048091888 0 0 0 0 -99431442.093776703 26451887.749045372 0 26451887.749045372 108643886.18302536 0 0 0 0 -77987084.725426674 114917479.02629852 0 114917479.02629852 -55001956.991743088 0 0 0 0 -2214649.4260625839 40847127.316487312 0 40847127.316487312 6305005.2347393036 0 0 0 0 -14692027.086568832 48426003.329992294 0 48426003.329992294 8235666.100399971 0 0 0 0 -8789423.5159749985 35016594.246692657 0 35016594.246692657 38631469.599170685 0 0 0 0 9627765.2960281372 28954714.986001968 0 28954714.986001968 11589633.509975433 0 0 0 0 -4330523.7586574554 31975653.267986298 0 31975653.267986298 12597255.816332817 0 0 0 0 87573.493977546692 41799144.664029121 0 41799144.664029121 -5099414.2918128967 0 0 0 0 -4030819.7866962031 12576326.358616913 0 12576326.358616913 2342458.4802657366 0 0 0 0 12433966.517623901 29404250.94411087 0 29404250.94411087 2812185.822716713 0 0 0 0 18887246.115825653 18029922.103814006 0 18029922.103814006 4116003.1491889954 0 0 0 0 13580395.443916321 20699812.361489058 0 20699812.361489058 5633805.4357376099 0 0 0 0 -6235642.8351847827 11977536.699608201 0 11977536.699608201 2808205.1038673036 0 0 0 0 4768991.0999145508 12877509.921318054 0 12877509.921318054 4856766.1617739201 0 0 0 0 11163627.81811142 19252110.887452126 0 19252110.887452126 2354245.60779953 0 0 0 0 10560088.901012421 17402974.4332757 0 17402974.4332757 -1077096.6005477905 0 0 0 0 1618454.1815271415 14848516.577155458 0 14848516.577155458 -1383014.494201048 0 0 0 0 -2760245.2191314697 11735395.080453873 0 11735395.080453873 15298062.279415131 0 0 0 0 9580747.7864522934 31217668.421849251 0 31217668.421849251 -6276711.1010971069 0 0 0 0 -6913157.1582976952 10112360.797659859 0 10112360.797659859 -527284.20788623393 0 0 0 0 -1512180.6315513188 10934365.257763492 0 10934365.257763492 1140952.5330208098 0 0 0 0 -418519.55668926612 2884097.150555037 0 2884097.150555037 290300.55229685397 0 0 0 0 -2148696.5050039291 18514365.932460308 0 18514365.932460308 4354321.7934036255 0 0 0 0 -11346801.205284119 31952549.659736633 0 31952549.659736633 7579146.3762636185 0 0 0 0 -18749944.023193359 8360046.2552490234 0 8360046.2552490234 20078509.277482986 0 0 0 0 -33593443.64692688 10906089.023474693 0 10906089.023474693 21632346.239334106 0 0 0 0 -70957493.962985039 9422832.8432507515 0 9422832.8432507515 33519734.098407745 0 0 0 0 -37852076.47990799 61606868.319173813 0 61606868.319173813 -47489846.635555267 0 0 0 0 -13005811.831512451 31937890.582825661 0 31937890.582825661 -37284008.375076294 0 0 0 0 -13621788.185611725 6544008.3547096252 0 6544008.3547096252 -25204592.29050827 0 0 0 0 -8626397.7690505981 20054484.932094574 0 20054484.932094574 -43793082.238773346 0 0 0 0 -9413120.1505036354 18071949.587695599 0 18071949.587695599 -20363923.694641113 0 0 0 0 -70597468.355316162 -6940773.2236633301 0 -6940773.2236633301 50760563.887733459 0 0 0 0 -2859921.9390544351 2239845.827186252 0 2239845.827186252 1044260.5266695879 0 0 0 0 -42470087.073797226 17847114.324272394 0 17847114.324272394 14260672.696224213 0 0 0 0 -44680102.869865417 39331218.859027863 0 39331218.859027863 -16474313.778270721 0 0 0 0 -22199685.80162859 17443534.327299118 0 17443534.327299118 4392309.9594497681 0 0 0 0 -34118790.976807594 12342489.250112534 0 12342489.250112534 17786854.045143127 0 0 0 0 -30155095.35609436 18659230.632528305 0 18659230.632528305 5961142.2080192566 0 0 0 0 -37732520.260249138 10176958.798938751 0 10176958.798938751 16551021.658050537 0 0 0 0 -19235274.305082321 8783189.2806682587 0 8783189.2806682587 14441271.805057526 0 0 0 0 10701501.780525208 15966924.80163002 0 15966924.80163002 21868983.114429474 0 0 0 0 -9481993.6114735808 10008085.411770642 0 10008085.411770642 492624.0741494894 0 0 0 0 -4001231.4959836751 15070723.935263582 0 15070723.935263582 -442078.82505225763 0 0 0 0 -14197527.195048917 11516509.642652266 0 11516509.642652266 4063014.8577838261 0 0 0 0 24582060.22038269 37625636.657593727 0 37625636.657593727 24555890.63576889 0 0 0 0 -58669834.602539062 239532894.62791252 0 239532894.62791252 91576541.433154583 0 0 0 0 -370928595.84490967 -141888579.42333031 0 -141888579.42333031 -37018351.856639862 0 0 0 0 31726672.672134399 33708408.761285782 0 33708408.761285782 84361382.233653069 0 0 0 0 -144793164.55523682 -185421695.39899063 0 -185421695.39899063 90813814.816040039 0 0 0 0 164085221.79473877 -19634065.650054932 0 -19634065.650054932 -104365787.81504917 0 0 0 0 12482943.727844238 34623716.552734375 0 34623716.552734375 18135207.764999151 0 0 0 0 -167452513.07749939 113750477.71461678 0 113750477.71461678 154778345.72526169 0 0 0 0 -10276685.194998026 9967569.4457318056 0 9967569.4457318056 3225404.9888382498 0 0 0 0 -203318.69477771968 -375581.21386336023 0 -375581.21386336023 179705.68683795072 0 0 0 0 21215609.158798218 -67760523.355153084 0 -67760523.355153084 15794557.908645183 0 0 0 0 6320005.5999450684 19305155.250045776 0 19305155.250045776 -35303130.293243408 0 0 0 0 -57591200.012084961 10198738.917297363 0 10198738.917297363 10175289.007171631 0 0 0 0 -2673122.0554893538 -2003245.6385786291 0 -2003245.6385786291 3453803.574843308 0 0 0 0 1803499.1784877777 42325175.06743896 0 42325175.06743896 94737585.917064667 0 0 0 0 103440.17915344238 22126300.491024017 0 22126300.491024017 80851469.852451324 0 0 0 0 -3116560.1238058247 475738.7186139822 0 475738.7186139822 1858122.1077131759 0 0 0 0 -200101781.63837814 -43532282.769133091 0 -43532282.769133091 -4565466.6766586304 0 0 0 0 72295810.701477051 96668518.00697422 0 96668518.00697422 62522532.699477196 0 0 0 0 15082017.190856934 61192729.565383673 0 61192729.565383673 118689150.46652985 0 0 0 0 16219149.429347992 63563509.689513922 0 63563509.689513922 50591023.99912262 0 0 0 0 21578271.618694305 108310450.50597072 0 108310450.50597072 130551591.22935486 0 0 0 0 67520931.257904053 215074980.12883186 0 215074980.12883186 95430562.899637938 0 0 0 0 -41266846.182220459 213699496.07944202 0 213699496.07944202 61954105.57171917 0 0 0 0 25251486.032928467 110889859.63353395 0 110889859.63353395 -47320592.85807991 0 0 0 0 -205517352.3351593 179266062.37015629 0 179266062.37015629 71678352.22252655 0 0 0 0 -66346215.962417603 32513556.751441956 0 32513556.751441956 45040115.527282715 0 0 0 0 29368283.812675238 148988545.87103543 0 148988545.87103543 75563700.014247894 0 0 0 0 -1089956.5281504616 154316.77216022275 0 154316.77216022275 694008.0987319015 0 0 0 0 -58761692.071380615 48787425.481960297 0 48787425.481960297 143253884.41388369 0 0 0 0 -200680426.75179291 207000453.13774586 0 207000453.13774586 -17986008.625637054 0 0 0 0 225458365.23580933 29124317.282905579 0 29124317.282905579 -42182890.83184433 0 0 0 0 48976487.671257019 -2160424.4511289597 0 -2160424.4511289597 14005926.532821655 0 0 0 0 8971298.8550415039 74266528.64601326 0 74266528.64601326 -62216922.39421463 0 0 0 0 -91566122.744567871 -25585503.42665863 0 -25585503.42665863 -66811177.213428974 0 0 0 0 -258229280.29859924 103531830.03978729 0 103531830.03978729 10366526.899196625 0 0 0 0 -80160050.444259644 85182256.187915802 0 85182256.187915802 -46866000.613142014 0 0 0 0 749448.73215911537 1067722.5201033298 0 1067722.5201033298 667513.56732529029 0 0 0 0 14608528.519302368 15278668.082047462 0 15278668.082047462 -11678658.248819351 0 0 0 0 74025240.573608398 -3715634.0491867065 0 -3715634.0491867065 -6132244.9019804001 0 0 0 0 12634767.461334229 2191158.9583530426 0 2191158.9583530426 20818603.348936081 0 0 0 0 56132624.915496826 27059495.373755455 0 27059495.373755455 3829949.6552619934 0 0 0 0 26698174.089477539 -18640098.387285233 0 -18640098.387285233 -18909031.400875092 0 0 0 0 90216392.005462646 11841399.282943726 0 11841399.282943726 -17115652.684067726 0 0 0 0 156212641.26647949 61341875.268692017 0 61341875.268692017 7156764.7611122131 0 0 0 0 75945655.402374268 2426659.5745849609 0 2426659.5745849609 8746515.5809612274 0 0 0 0 67639766.843448639 24450745.732312441 0 24450745.732312441 44966951.73009491 0 0 0 0 96598605.654434204 77628049.061229706 0 77628049.061229706 16804465.691571236 0 0 0 0 -2078666.3224257156 2355098.6295277681 0 2355098.6295277681 1742802.4850130347 0 0 0 0 -3479855.1325073242 4739723.5242569447 0 4739723.5242569447 3872423.4177961349 0 0 0 0 -13223575.916658314 13392479.711086515 0 13392479.711086515 5794112.3139290093 0 0 0 0 -18232156.557334937 15453887.995794877 0 15453887.995794877 11112485.546570601 0 0 0 0 2507552.6985748746 6646820.5037714196 0 6646820.5037714196 3915892.0905541712 0 0 0 0 160624724.04519653 47809765.639881134 0 47809765.639881134 -13777283.447532654 0 0 0 0 191920852.03707886 21186983.981918335 0 21186983.981918335 8861049.5639953613 0 0 0 0 6247989.6326522827 10892714.493716121 0 10892714.493716121 6290862.1664762497 0 0 0 0 150907629.74917603 56806451.405406952 0 56806451.405406952 -35593690.302879333 0 0 0 0 146686302.16253662 47219550.536394119 0 47219550.536394119 33529277.029960632 0 0 0 0 13051340.25982666 11845197.155296326 0 11845197.155296326 6308715.647277832 0 0 0 0 252908838.99645996 142098192.75768852 0 142098192.75768852 5717097.4685211182 0 0 0 0 -10396376.188589923 15058225.167531792 0 15058225.167531792 5260653.3548981091 0 0 0 0 94757.124564770609 14364903.463710386 0 14364903.463710386 -1256625.611076666 0 0 0 0 -14893476.083690643 11160711.311172485 0 11160711.311172485 -10647729.35307312 0 0 0 0 -10802958.512811016 6208429.712793624 0 6208429.712793624 4476938.8269891394 0 0 0 0 21778425.267776489 167630584.44879246 0 167630584.44879246 307417466.01930809 0 0 0 0 -28634651.642478943 155361347.52325535 0 155361347.52325535 407685347.83835793 0 0 0 0 129920152.49853516 454509373.65690994 0 454509373.65690994 881154515.34879971 0 0 0 0 858982558.30195618 108291842.20802021 0 108291842.20802021 290262661.60770416 0 0 0 0 -26493714.176635742 -103056606.36545277 0 -103056606.36545277 432313514.67087078 0 0 0 0 -385815.6101804655 1145290.0318286009 0 1145290.0318286009 701917.5712693464 0 0 0 0 842709638.0017662 158544942.80413103 0 158544942.80413103 26864204.147422791 0 0 0 0 50024.58202676475 512006.01671635639 0 512006.01671635639 -158533.85205263924 0 0 0 0 -3636045.5991103128 736395.25280328467 0 736395.25280328467 1504388.8036667334 0 0 0 0 -1989301.95262146 3877102.759103775 0 3877102.759103775 3364355.2027587891 0 0 0 0 100972654.42418671 -49127607.012758255 0 -49127607.012758255 -26049900.584676743 0 0 0 0 24524411.886245728 54824895.12488842 0 54824895.12488842 107632301.7099781 0 0 0 0 -3836627.8389682472 930094.27964183502 0 930094.27964183502 1065501.526257873 0 0 0 0 -2085825.7094421387 9930152.0883655548 0 9930152.0883655548 14904843.048009872 0 0 0 0 -4268009.5019866973 936441.80692452332 0 936441.80692452332 990541.25434103142 0 0 0 0 -54328057.884002686 6177427.9567451477 0 6177427.9567451477 13913659.911190033 0 0 0 0 27427784.405273438 18918356.601512909 0 18918356.601512909 42607476.698060036 0 0 0 0 -5908610.9576721191 -7710994.1612854004 0 -7710994.1612854004 12082643.194465637 0 0 0 0 -827818.95141601562 -9715118.1025428772 0 -9715118.1025428772 12836323.818443298 0 0 0 0 -692730.81548086554 -33832.129688050598 0 -33832.129688050598 396619.07138113678 0 0 0 0 11217065.032012939 1698050.6843719482 0 1698050.6843719482 6880946.2295818329 0 0 0 0 -5814199.165435791 14926955.849423409 0 14926955.849423409 122876576.1682415 0 0 0 0 26359905.377853394 84035415.556428909 0 84035415.556428909 149224023.27033281 0 0 0 0 22755932.379425049 40145973.03597641 0 40145973.03597641 91181314.760965347 0 0 0 0 -35577761.983847141 58162147.637680829 0 58162147.637680829 187449592.38677025 0 0 0 0 90104896.491195679 203779885.37000084 0 203779885.37000084 264136149.11501503 0 0 0 0 61814270.414176941 138575638.78276825 0 138575638.78276825 170837538.65171814 0 0 0 0 60920025.827194214 86659850.955098867 0 86659850.955098867 125777592.11412239 0 0 0 0 192169981.36062622 103871338.68509769 0 103871338.68509769 155352861.82449436 0 0 0 0 268423478.66494751 292872516.25653768 0 292872516.25653768 153947780.78914833 0 0 0 0 101091280.49138641 365298483.4872489 0 365298483.4872489 158792299.80210781 0 0 0 0 94304140.620529175 346456612.30607653 0 346456612.30607653 376647001.46749878 0 0 0 0 70021317.284378052 272663078.26760101 0 272663078.26760101 157595017.21168518 0 0 0 0 322660666.74033356 283466728.63191795 0 283466728.63191795 113958870.73740768 0 0 0 0 207911588.48057556 249166483.16838551 0 249166483.16838551 263227966.33869219 0 0 0 0 202897864.49515152 52113950.486488819 0 52113950.486488819 -233249696.43228531 0 0 0 0 -65427271.534393311 129497543.56444263 0 129497543.56444263 102128148.50815076 0 0 0 0 1534397.0910890326 -716121.90526200272 0 -716121.90526200272 -434539.40115142916 0 0 0 0 -18973631.468509674 20377440.358046293 0 20377440.358046293 -14954711.322164536 0 0 0 0 27054211.93359375 180867966.23372364 0 180867966.23372364 -289110696.34337187 0 0 0 0 -25571887.624397278 -3182258.7525234222 0 -3182258.7525234222 9036289.4834947586 0 0 0 0 -811937.73684915155 -628500.35761110624 0 -628500.35761110624 1002036.9134113989 0 0 0 0 405659.35731506348 -189652.82710456848 0 -189652.82710456848 8843727.9133617878 0 0 0 0 114539707.49932861 53337373.044070482 0 53337373.044070482 22577519.447555542 0 0 0 0 -10463655.660064697 -23210300.445750237 0 -23210300.445750237 35545576.354732513 0 0 0 0 -36197499.566009521 10762360.907802582 0 10762360.907802582 39693188.140281677 0 0 0 0 169207556.48391724 -14296351.87810421 0 -14296351.87810421 -35609659.059704781 0 0 0 0 740846.5814544335 -352456.41100858152 0 -352456.41100858152 -241360.20821183641 0 0 0 0 347885392.71852875 191052558.5538435 0 191052558.5538435 43992585.723760605 0 0 0 0 135225397.81617737 265852227.18041134 0 265852227.18041134 247097147.05553198 0 0 0 0 87021906.40096283 185624112.26106358 0 185624112.26106358 117828174.47002029 0 0 0 0 102016185.80593872 227094806.31731224 0 227094806.31731224 137580904.40117264 0 0 0 0 136643983.35016632 186732549.820117 0 186732549.820117 181501021.80908489 0 0 0 0 88957404.40296936 69375422.958628178 0 69375422.958628178 25220026.363789797 0 0 0 0 -559427.93933461607 -731691.9663580968 0 -731691.9663580968 696989.36532073235 0 0 0 0 18139815.44543457 39806435.317436695 0 39806435.317436695 -65918685.433138132 0 0 0 0 -256089.91488580406 -414574.94377744105 0 -414574.94377744105 311351.51931413519 0 0 0 0 13880575.340906143 9520224.4279581308 0 9520224.4279581308 -219501461.89664841 0 0 0 0 68112408.367019653 245704611.04756117 0 245704611.04756117 283365299.48674536 0 0 0 0 -18862521.561401367 137168381.94699192 0 137168381.94699192 -113866660.52310324 0 0 0 0 31989388.491363525 102312556.62781286 0 102312556.62781286 -21015766.917828083 0 0 0 0 11830981.404884338 101863593.29802752 0 101863593.29802752 87549125.090104103 0 0 0 0 28341098.344192505 84051316.509570122 0 84051316.509570122 52084551.077651978 0 0 0 0 2274693.2078266144 65139826.780320883 0 65139826.780320883 76955387.888860703 0 0 0 0 -8999739.6923065186 26368303.634942532 0 26368303.634942532 4080443.182182312 0 0 0 0 3467519.9041561894 3144570.2510260809 0 3144570.2510260809 1382289.1689624558 0 0 0 0 48311179.411247015 29700936.515541166 0 29700936.515541166 11372134.096206665 0 0 0 0 57901173.588531494 27765894.657279015 0 27765894.657279015 7449437.3318042755 0 0 0 0 47948127.948578835 10304714.457773283 0 10304714.457773283 3340003.1195297241 0 0 0 0 -20015539.531205736 9087013.7011275589 0 9087013.7011275589 6288707.1048595533 0 0 0 0 59672780.353790283 15991489.404964447 0 15991489.404964447 4395194.0954856873 0 0 0 0 118546663.04080963 129665326.82511806 0 129665326.82511806 74816458.397853851 0 0 0 0 116790512.19597626 150771122.04319763 0 150771122.04319763 59687354.1687603 0 0 0 0 63810460.146469116 228627295.49428463 0 228627295.49428463 68046233.993732929 0 0 0 0 12639186.632675171 177882499.85426998 0 177882499.85426998 122910658.52998161 0 0 0 0 -105660732.97335815 95692473.285962582 0 95692473.285962582 104085837.7208786 0 0 0 0 56264912.890846252 113242062.12519836 0 113242062.12519836 104177787.47168541 0 0 0 0 40188780.240097046 200180297.78776169 0 200180297.78776169 118946509.62997198 0 0 0 0 5120153.6106491089 162630743.79857445 0 162630743.79857445 112312114.51656914 0 0 0 0 78485516.984573364 265391615.11853838 0 265391615.11853838 159632019.56922483 0 0 0 0 63151062.461204529 178295760.56803608 0 178295760.56803608 135164359.58439064 0 0 0 0 9248599.292049408 173260355.95655966 0 173260355.95655966 22879542.876573563 0 0 0 0 3768328.4582691193 189000442.34763873 0 189000442.34763873 -11121058.193175316 0 0 0 0 119011741.85009003 207147769.23353434 0 207147769.23353434 -4566249.2133760452 0 0 0 0 122348926.85613251 175032482.67406845 0 175032482.67406845 -1925768.746360302 0 0 0 0 100529243.41477966 180470993.07554865 0 180470993.07554865 5234611.2021751404 0 0 0 0 96008483.579555511 173520717.44230998 0 173520717.44230998 43717417.878765106 0 0 0 0 187430931.4815979 170831490.18547249 0 170831490.18547249 -7597009.3151283264 0 0 0 0 176676527.27580833 119154284.97842669 0 119154284.97842669 -5649036.7711982727 0 0 0 0 329629900.32850647 98616103.419590473 0 98616103.419590473 -63242616.566091537 0 0 0 0 208071032.19876099 102043527.84920979 0 102043527.84920979 -46284299.723663807 0 0 0 0 221068770.69008446 51138806.843474865 0 51138806.843474865 8342908.7322292328 0 0 0 0 123882429.97763824 3960086.3688497543 0 3960086.3688497543 -8015050.0531816483 0 0 0 0 152988281.48697853 66925809.761715651 0 66925809.761715651 4741562.8496809006 0 0 0 0 164235004.59248352 104143838.5891161 0 104143838.5891161 33777835.904186249 0 0 0 0 9179039.2668013349 5442696.0143317431 0 5442696.0143317431 1044883.0780233368 0 0 0 0 1392207.3306909464 4770417.3290572688 0 4770417.3290572688 -624204.67944686371 0 0 0 0 -4220757.3339885809 6853662.9601607397 0 6853662.9601607397 9083663.8962722868 0 0 0 0 -81384547.796051025 45669890.438598633 0 45669890.438598633 42671338.854232788 0 0 0 0 -6049099.7640380859 4725268.3862245083 0 4725268.3862245083 -2125043.9515113831 0 0 0 0 346012086.11663628 21192633.399089456 0 21192633.399089456 145217371.93923569 0 0 0 0 -51471590.031173706 -32365700.266672134 0 -32365700.266672134 -214025653.91942596 0 0 0 0 5249528.6746165426 2366871.5782000311 0 2366871.5782000311 -5090439.6260820664 0 0 0 0 774999329.26287842 -46273836.862939835 0 -46273836.862939835 -104860324.81353986 0 0 0 0 871389980.644104 132788541.92863178 0 132788541.92863178 -11910010.64037323 0 0 0 0 382946479.64494324 -424200479.63897562 0 -424200479.63897562 583256120.52750921 0 0 0 0 477999253.36195278 -39797364.548945546 0 -39797364.548945546 -87027515.506561279 0 0 0 0 4836983.8142903512 4488870.4028945379 0 4488870.4028945379 -8151760.2564887665 0 0 0 0 327749613.40776062 -58326378.987221241 0 -58326378.987221241 -86688119.742799759 0 0 0 0 312333647.86960316 90714658.549778312 0 90714658.549778312 -56183787.562820435 0 0 0 0 459366805.15982246 119340220.73649913 0 119340220.73649913 -51192165.592500687 0 0 0 0 535045504.23519897 72084457.192892075 0 72084457.192892075 -22572478.397752762 0 0 0 0 401786165.23834229 312272724.21669722 0 312272724.21669722 102951978.9570694 0 0 0 0 293628267.89797974 192950428.27607942 0 192950428.27607942 -8769073.7206296921 0 0 0 0 249136726.01913452 238502720.07569993 0 238502720.07569993 -15235049.321456909 0 0 0 0 1161238.239553459 -349682.32496900205 0 -349682.32496900205 -174599.53924666269 0 0 0 0 841124283.58015442 -99553498.121243954 0 -99553498.121243954 -770570892.36430371 0 0 0 0 239443076.27134705 328446658.38750768 0 328446658.38750768 287338609.05979323 0 0 0 0 671241905.53271484 350699177.92752457 0 350699177.92752457 108352052.64993095 0 0 0 0 3975020.7341156006 212313622.00776291 0 212313622.00776291 244537605.81969166 0 0 0 0 -26473642.194372177 52832050.125082612 0 52832050.125082612 -44457633.928725243 0 0 0 0 -38533908.752794266 97935506.900322735 0 97935506.900322735 -56619194.753217697 0 0 0 0 -10605810.615036011 191462728.14788961 0 191462728.14788961 65042628.367165565 0 0 0 0 -1047190.4501953125 114692879.14490938 0 114692879.14490938 -201876567.23690414 0 0 0 0 1887512.0297849476 -273459.99813701352 0 -273459.99813701352 -218599.26664354635 0 0 0 0 199641438.49886703 538496703.12877345 0 538496703.12877345 -341757706.68127418 0 0 0 0 41685555.10043335 306453702.33113235 0 306453702.33113235 -16065092.331243277 0 0 0 0 6304915.0727386475 568716858.14684463 0 568716858.14684463 426731059.09507412 0 0 0 0 251289301.68670654 366236620.45414686 0 366236620.45414686 466867074.67293227 0 0 0 0 526414913.14924622 138733333.51221862 0 138733333.51221862 98350683.345210239 0 0 0 0 817836242.42713928 170404676.68787026 0 170404676.68787026 557268098.07968521 0 0 0 0 909353068.52615356 441942251.18909389 0 441942251.18909389 338310199.80804288 0 0 0 0 -268533456.65380859 248489642.95578977 0 248489642.95578977 84327416.303283304 0 0 0 0 609215007.09468079 -360018514.20849097 0 -360018514.20849097 -504697609.48529106 0 0 0 0 729026719.32893372 -133489477.99542433 0 -133489477.99542433 61018246.469844341 0 0 0 0 915524984.70692444 -22476364.939819332 0 -22476364.939819332 -206694001.96145076 0 0 0 0 1145636648.79776 -347285545.89396453 0 -347285545.89396453 36769445.278279543 0 0 0 0 -324846.34729499929 1310170.2815806083 0 1310170.2815806083 2259317.869774139 0 0 0 0 2026680381.2200012 -102776865.97198439 0 -102776865.97198439 257154566.36147738 0 0 0 0 1055684989.5610352 -199945985.07818627 0 -199945985.07818627 -154680629.64816973 0 0 0 0 994428218.73027039 -471387906.49712193 0 -471387906.49712193 278990276.5169425 0 0 0 0 839709422.50273132 -306264185.39986497 0 -306264185.39986497 263336889.7258451 0 0 0 0 198390079.94871521 -308989734.35393834 0 -308989734.35393834 444889767.97312927 0 0 0 0 63132690.73500061 -293334201.58758736 0 -293334201.58758736 -217126835.68439674 0 0 0 0 -2079553.9384273924 535189.02801471576 0 535189.02801471576 51434.557108107489 0 0 0 0 121095847.41413116 -297399051.70750952 0 -297399051.70750952 709141369.07343674 0 0 0 0 34329401.305206299 -125595474.18199158 0 -125595474.18199158 265675459.51530075 0 0 0 0 70660726.770782471 -252332446.27105474 0 -252332446.27105474 481309256.36603165 0 0 0 0 115705489.48278809 -206449976.56770515 0 -206449976.56770515 361138604.06609726 0 0 0 0 181338013.81848145 -274637552.63751984 0 -274637552.63751984 277655934.94722748 0 0 0 0 180459982.77331543 -183162279.63081932 0 -183162279.63081932 47271792.997142792 0 0 0 0 241741747.146698 -250690154.69499016 0 -250690154.69499016 10916454.115726471 0 0 0 0 206901814.95443726 -298007531.63080025 0 -298007531.63080025 114944285.18564606 0 0 0 0 5312995.561685578 5248296.1798005253 0 5248296.1798005253 -3181716.0584095377 0 0 0 0 -179168494.41229248 150495126.9291153 0 150495126.9291153 104379005.14295959 0 0 0 0 -21855932.413057327 408983.54565733671 0 408983.54565733671 6230287.6175208092 0 0 0 0 738646072.2270813 -180477904.47020173 0 -180477904.47020173 -330579228.81361902 0 0 0 0 -1465763.4149447568 4183388.5155482627 0 4183388.5155482627 6098648.101968145 0 0 0 0 110784142.2197876 291515544.75383949 0 291515544.75383949 -25592867.582888126 0 0 0 0 159474141.99971008 347862015.23550594 0 347862015.23550594 66557478.062308252 0 0 0 0 -22307727.56892395 302877660.82656491 0 302877660.82656491 438929590.60999274 0 0 0 0 -46935957.304737091 219456663.78353405 0 219456663.78353405 188272453.09109592 0 0 0 0 13459993.924995422 184718429.33763981 0 184718429.33763981 188253154.37998915 0 0 0 0 76358650.272018433 187421161.38706207 0 187421161.38706207 64968009.50181818 0 0 0 0 36962646.338188171 124560797.58376551 0 124560797.58376551 -3346110.6146330833 0 0 0 0 -4283595.255241394 129989962.38096428 0 129989962.38096428 23390544.122172356 0 0 0 0 -9851620.3118419647 104187635.56215495 0 104187635.56215495 -59292762.943881035 0 0 0 0 -60006165.325523376 69268795.728548169 0 69268795.728548169 -83400571.398387074 0 0 0 0 -76972717.590553284 108360195.25746882 0 108360195.25746882 -56033980.545551538 0 0 0 0 111173235.98433685 191314725.35162067 0 191314725.35162067 -408119770.95617104 0 0 0 0 772214.62586797774 -145486.52219161391 0 -145486.52219161391 -74627.34899578616 0 0 0 0 -159280167.21715927 477442438.27173108 0 477442438.27173108 842048939.26457393 0 0 0 0 -75196729.203046799 430779566.50221038 0 430779566.50221038 399977860.68064404 0 0 0 0 -47902382.68724823 442093765.6895749 0 442093765.6895749 404185483.04099655 0 0 0 0 106659925.44268036 328987472.9161315 0 328987472.9161315 322675552.52266306 0 0 0 0 -131970208.00284958 102565130.45180917 0 102565130.45180917 400205419.78492689 0 0 0 0 -60410742.293018341 84122374.212080419 0 84122374.212080419 233394806.25061035 0 0 0 0 386513.47794342041 106892412.62414265 0 106892412.62414265 179067256.95272073 0 0 0 0 122868442.14402771 121560075.61904512 0 121560075.61904512 176756183.87899101 0 0 0 0 47082285.493774414 147280598.97902727 0 147280598.97902727 203756226.61367655 0 0 0 0 -36028824.020935059 113530273.69794214 0 113530273.69794214 263520489.91036439 0 0 0 0 -4826079.0254001617 175120479.89088899 0 175120479.89088899 203152374.30986261 0 0 0 0 -26148105.597198486 179787480.00102663 0 179787480.00102663 263086279.93095237 0 0 0 0 1150526.2682304382 163607083.67063624 0 163607083.67063624 199586326.55750322 0 0 0 0 -213960.75561523438 153739102.09198713 0 153739102.09198713 204559112.99364281 0 0 0 0 2168289.2308349609 156800518.80263615 0 156800518.80263615 205547807.47359812 0 0 0 0 7880210.3701477051 169453241.75705779 0 169453241.75705779 153975219.00463104 0 0 0 0 33193407.255508423 212799675.40902424 0 212799675.40902424 272555738.28005886 0 0 0 0 5861007.8802490234 156106799.28687668 0 156106799.28687668 266294333.07038689 0 0 0 0 15795753.544921875 155623932.27547216 0 155623932.27547216 298688211.07813191 0 0 0 0 4053102.1811447144 162675046.29916239 0 162675046.29916239 245347355.00369358 0 0 0 0 -1364676.923614502 150935403.40964556 0 150935403.40964556 222341563.35167205 0 0 0 0 17298338.543312073 182710892.68135023 0 182710892.68135023 222113419.37337336 0 0 0 0 21058753.194862366 177342167.31617641 0 177342167.31617641 202604026.35654664 0 0 0 0 29937095.719848633 200887389.16095352 0 200887389.16095352 230242921.31771111 0 0 0 0 51771426.614715576 161498873.66912448 0 161498873.66912448 137274419.3953476 0 0 0 0 25369667.129119873 187241191.38078368 0 187241191.38078368 195771992.74193048 0 0 0 0 40070343.852668762 167497087.19578624 0 167497087.19578624 147875012.64201856 0 0 0 0 -4149388.1117630005 113978598.78862786 0 113978598.78862786 201700944.88159153 0 0 0 0 13049374.521202087 74170492.281902581 0 74170492.281902581 59863101.909903593 0 0 0 0 73614267.431015015 104999626.12699103 0 104999626.12699103 42295261.441583276 0 0 0 0 53521819.213790894 58831109.486132085 0 58831109.486132085 45072848.457824707 0 0 0 0 67774789.853378296 89088482.827707052 0 89088482.827707052 59426382.361495972 0 0 0 0 104181854.66844749 82237122.880429089 0 82237122.880429089 53516972.411619186 0 0 0 0 89032219.46792984 122521379.37575579 0 122521379.37575579 111391959.23252678 0 0 0 0 35366040.766647339 145870143.61295795 0 145870143.61295795 149234644.26983786 0 0 0 0 29865682.282424927 166510019.73183203 0 166510019.73183203 136857308.95109487 0 0 0 0 14170348.111625671 151299105.71042144 0 151299105.71042144 148806560.7887392 0 0 0 0 -738100.92182922363 3605846.754694581 0 3605846.754694581 485150.85585072637 0 0 0 0 114680936.00527954 50055338.908292294 0 50055338.908292294 48331234.209088802 0 0 0 0 188352673.08436584 20061175.019011021 0 20061175.019011021 32739186.139492154 0 0 0 0 123442450.37615967 60458465.476170778 0 60458465.476170778 -34262795.059711397 0 0 0 0 127576170.26940918 76414804.519901752 0 76414804.519901752 49246037.825493813 0 0 0 0 183213991.82049561 76957197.135317802 0 76957197.135317802 42698672.954294682 0 0 0 0 126423508.60881853 57156827.439044774 0 57156827.439044774 35849507.367435455 0 0 0 0 -100609417.54361725 27317517.107127428 0 27317517.107127428 -3930118.6972255707 0 0 0 0 246485337.78855515 73597893.085754871 0 73597893.085754871 -19315893.320193291 0 0 0 0 -217815.23037719727 182693819.63103223 0 182693819.63103223 -124494819.41883087 0 0 0 0 -274394.86714036297 840807.80783678591 0 840807.80783678591 67774.364444356412 0 0 0 0 183240045.30743408 126138045.99403238 0 126138045.99403238 -59947055.170345306 0 0 0 0 80212312.354766846 167426451.44924355 0 167426451.44924355 83653744.28454408 0 0 0 0 -107559289.25561523 169598948.62628746 0 169598948.62628746 83705410.286726952 0 0 0 0 61816749.041397095 249132244.53500128 0 249132244.53500128 -67269369.48286438 0 0 0 0 73193668.294662476 243210047.93487215 0 243210047.93487215 95822763.798164755 0 0 0 0 130972065.76928711 143152920.43103313 0 143152920.43103313 94678381.782623798 0 0 0 0 158352538.98840332 114672662.67776424 0 114672662.67776424 -3353948.337802887 0 0 0 0 155642914.5478363 130015102.69929409 0 130015102.69929409 87240778.674319267 0 0 0 0 158952802.24502945 207506657.3696785 0 207506657.3696785 126843623.73285866 0 0 0 0 105682172.75544357 160418315.02767396 0 160418315.02767396 246042740.39968491 0 0 0 0 205383864.28038025 171580284.014534 0 171580284.014534 246359660.06595144 0 0 0 0 128852.12886810303 191902960.94928122 0 191902960.94928122 308595730.74476147 0 0 0 0 93449323.293182373 196089289.12572813 0 196089289.12572813 180487875.67696238 0 0 0 0 83020656.96762085 183747175.16021585 0 183747175.16021585 191242693.31034279 0 0 0 0 75062103.631832123 165968959.91511345 0 165968959.91511345 173375023.10694218 0 0 0 0 129688348.480896 143719970.28908587 0 143719970.28908587 102885406.07372022 0 0 0 0 121586595.95991516 130267442.1975503 0 130267442.1975503 112224422.51120853 0 0 0 0 126945247.14103699 200277436.41051054 0 200277436.41051054 175761335.34328562 0 0 0 0 148622239.92131805 164693656.0396533 0 164693656.0396533 278405240.28611088 0 0 0 0 110882696.8993988 199132790.35384274 0 199132790.35384274 271633449.46940041 0 0 0 0 148160582.62078094 222410110.54729223 0 222410110.54729223 271607187.70165348 0 0 0 0 85155162.118347168 202957857.60591698 0 202957857.60591698 268432144.313591 0 0 0 0 32812968.573944092 209300231.68555164 0 209300231.68555164 462496351.77142143 0 0 0 0 14827037.294837952 121692870.92172813 0 121692870.92172813 984215851.36432171 0 0 0 0 930040.71017831564 -267296.69423051924 0 -267296.69423051924 -201680.82048745756 0 0 0 0 18589416.080194473 56961112.294154763 0 56961112.294154763 382482869.5297575 0 0 0 0 -1806258.7085723877 44586351.859698296 0 44586351.859698296 425669777.84940195 0 0 0 0 2088687.189781189 142927291.53439951 0 142927291.53439951 441698082.26002598 0 0 0 0 107338277.43003845 200953459.24576902 0 200953459.24576902 417046119.76859283 0 0 0 0 285761193.82600403 290926268.38120651 0 290926268.38120651 442123641.74355888 0 0 0 0 189866178.66436005 71971038.496962547 0 71971038.496962547 453955040.74063754 0 0 0 0 -127527.88377380371 118972105.86669731 0 118972105.86669731 598509013.12826061 0 0 0 0 163423007.32308197 329546114.34174252 0 329546114.34174252 357950020.55545998 0 0 0 0 242499516.9888916 134576681.20260382 0 134576681.20260382 -893205.07599067688 0 0 0 0 123302549.22842407 24639277.122764587 0 24639277.122764587 10505027.850126266 0 0 0 0 -441678.98008693755 -769405.2440818639 0 -769405.2440818639 586089.29847203614 0 0 0 0 4331137.649017334 88531253.8056283 0 88531253.8056283 209415939.5494194 0 0 0 0 225180.94328308105 47935589.834959507 0 47935589.834959507 62526415.209575415 0 0 0 0 2245012.1529862955 -151629.38326820917 0 -151629.38326820917 -330623.12941997405 0 0 0 0 13190994.628616333 -7626767.7959728241 0 -7626767.7959728241 -2628856.0637769699 0 0 0 0 -29158422.370601654 33856678.452431679 0 33856678.452431679 -24823574.928104401 0 0 0 0 121814593.51727295 19349623.989442825 0 19349623.989442825 -79544576.641945839 0 0 0 0 -51487301.154499054 3882758.4638562202 0 3882758.4638562202 45935951.09992981 0 0 0 0 8559126.98097229 36260005.507933617 0 36260005.507933617 93707550.501168251 0 0 0 0 -6808909.1911621094 -25009347.415366173 0 -25009347.415366173 31027193.456420422 0 0 0 0 12121433.073154449 8021552.3578872681 0 8021552.3578872681 -10724684.360304832 0 0 0 0 -32852546.620498657 -5108329.9837083817 0 -5108329.9837083817 18218700.259067535 0 0 0 0 -5164466.9669799805 9274251.4137439728 0 9274251.4137439728 24176306.437236786 0 0 0 0 -913112.4294641763 -1167149.2512875649 0 -1167149.2512875649 1308504.5731447903 0 0 0 0 7675642.6071166992 11176239.434100628 0 11176239.434100628 130973.35344409943 0 0 0 0 -812026.65571272373 -105633.96367630735 0 -105633.96367630735 1639290.504304755 0 0 0 0 -15116605.095031738 -72526271.160453796 0 -72526271.160453796 -153904610.37987709 0 0 0 0 -7850112.0094718933 14136110.496896267 0 14136110.496896267 10175579.009643555 0 0 0 0 14202555.466674805 33040711.258559227 0 33040711.258559227 162998915.88980675 0 0 0 0 5501474.6774291992 1810396.9179992676 0 1810396.9179992676 -2212800.0749282837 0 0 0 0 2936787.5761964396 630579.05869794264 0 630579.05869794264 -172539.76716086571 0 0 0 0 -3093561.9206848145 24772086.303361893 0 24772086.303361893 176613593.36662102 0 0 0 0 -76467925.441833496 -12257337.524715424 0 -12257337.524715424 -104422312.12880707 0 0 0 0 -705507.1327521652 -504939.2737862824 0 -504939.2737862824 1823375.9847061851 0 0 0 0 -255466.25927734375 -207726.46997070312 0 -207726.46997070312 1086452.1011276245 0 0 0 0 -2237710.6130673513 894232.88213911839 0 894232.88213911839 2587833.8217030335 0 0 0 0 -2967813.2745361328 -107540444.78107452 0 -107540444.78107452 -157065218.41430283 0 0 0 0 -76814540.467391968 -59680021.161903858 0 -59680021.161903858 -145345995.20005035 0 0 0 0 -30235264.410644531 -51635800.647464752 0 -51635800.647464752 -157811944.87628555 0 0 0 0 -26296207.084716797 -109687846.5437088 0 -109687846.5437088 -152094692.51269913 0 0 0 0 -69480390.887512207 -39542411.536821365 0 -39542411.536821365 -147594160.08789062 0 0 0 0 -3583436.717191007 -548499.53912638407 0 -548499.53912638407 3465037.9489202108 0 0 0 0 -58541239.602752686 -60675675.789283752 0 -60675675.789283752 -156208837.89259338 0 0 0 0 -14894510.876342773 -70745195.224224091 0 -70745195.224224091 -138399376.56720161 0 0 0 0 -231315.71539306641 -81353218.400178909 0 -81353218.400178909 -150285805.95855331 0 0 0 0 -26180588.929443359 -96809229.405333519 0 -96809229.405333519 -125005311.32913208 0 0 0 0 34485594.478210449 -76107619.588981628 0 -76107619.588981628 -141002897.26441574 0 0 0 0 44220256.921264648 39870313.194252014 0 39870313.194252014 -298728765.5614655 0 0 0 0 35312337.585479736 -92060472.012214661 0 -92060472.012214661 -134506803.4419632 0 0 0 0 82486241.192245483 -12260936.185112 0 -12260936.185112 -303729053.77371216 0 0 0 0 1301943.201153934 -597252.86848487891 0 -597252.86848487891 -124829.52412253106 0 0 0 0 8539667.5904541016 -28634712.054870605 0 -28634712.054870605 -190042632.15006065 0 0 0 0 72265554.875442505 -47604382.498604774 0 -47604382.498604774 -216797079.08362961 0 0 0 0 17605427.179718018 8448503.7549667358 0 8448503.7549667358 -229172356.26310492 0 0 0 0 -84911788.490722656 10104833.000320435 0 10104833.000320435 -155442833.66727066 0 0 0 0 -14879589.623535156 -20870307.368156433 0 -20870307.368156433 -183078128.12559509 0 0 0 0 -41200169.514038086 12057012.080509186 0 12057012.080509186 -211409701.51197052 0 0 0 0 -73098050.688842773 38880640.400527954 0 38880640.400527954 -191555298.12496376 0 0 0 0 23270746.948497772 -27659695.56438899 0 -27659695.56438899 -195411734.68878555 0 0 0 0 17873346.573684692 -79213189.991662025 0 -79213189.991662025 -233968820.77386856 0 0 0 0 34164819.752655029 -12784509.512987137 0 -12784509.512987137 -141939829.84278369 0 0 0 0 -1706127.9955196381 8285723.2097898722 0 8285723.2097898722 4098282.7353954315 0 0 0 0 -70483.368446350098 1145056.9334774017 0 1145056.9334774017 5975670.5375494957 0 0 0 0 3795796.512802124 -7637601.6192836761 0 -7637601.6192836761 -150952.18677520752 0 0 0 0 798744.59765625 1513063.0290393829 0 1513063.0290393829 6126193.6907606125 0 0 0 0 -980072.60143633932 -139490.83709768089 0 -139490.83709768089 1377613.0708184158 0 0 0 0 287408.5025177002 1652612.459980011 0 1652612.459980011 6266478.3885521889 0 0 0 0 534222.14288123697 493528.88669152092 0 493528.88669152092 520181.47905842657 0 0 0 0 -704444.93686516583 10651.906832162291 0 10651.906832162291 1787732.0569280139 0 0 0 0 4518479.7270355225 9384157.1797151566 0 9384157.1797151566 114927981.68530464 0 0 0 0 -8980930.7118301392 64748855.902337551 0 64748855.902337551 208957958.16767502 0 0 0 0 16357653.307327271 74291582.915118217 0 74291582.915118217 138122747.62160039 0 0 0 0 24794726.060894012 94559859.414456606 0 94559859.414456606 177667604.09241867 0 0 0 0 11570271.432723999 96063383.348277092 0 96063383.348277092 178667912.62214327 0 0 0 0 -342216.41606284678 -44520.090525265783 0 -44520.090525265783 694920.88891697628 0 0 0 0 9205689.9417419434 104376289.43236423 0 104376289.43236423 169516561.54673576 0 0 0 0 22557599.946224213 97357586.172116995 0 97357586.172116995 161565239.741745 0 0 0 0 20244017.008178711 105259874.23571205 0 105259874.23571205 150107095.90075821 0 0 0 0 -4112132.5943527222 101940405.72488737 0 101940405.72488737 205244342.2580471 0 0 0 0 3294165.171497345 107846178.05357695 0 107846178.05357695 203975761.36758995 0 0 0 0 -16823275.135074615 100744275.6112783 0 100744275.6112783 244046214.60391235 0 0 0 0 -12580516.370956421 105993745.97692871 0 105993745.97692871 248623092.14507848 0 0 0 0 -22841607.171691895 111708384.77199364 0 111708384.77199364 378051493.10334873 0 0 0 0 13848170.224220276 163235498.0573504 0 163235498.0573504 268942286.525177 0 0 0 0 -4562111.719329834 17981964.944530725 0 17981964.944530725 256421076.62724876 0 0 0 0 9384345.5157775879 16859128.060596466 0 16859128.060596466 178532892.95996571 0 0 0 0 -7752662.8406524658 44275026.273732662 0 44275026.273732662 268748506.0201931 0 0 0 0 -5270806.9298858643 56914957.763637543 0 56914957.763637543 173707565.47968757 0 0 0 0 156887877.73099327 -68064532.720985651 0 -68064532.720985651 -585734359.15253448 0 0 0 0 62389858.149421692 25877650.983996391 0 25877650.983996391 -377681300.71508789 0 0 0 0 -744405.83097829763 -187553.91059800703 0 -187553.91059800703 776497.92540961923 0 0 0 0 -399757903.30910492 -337872488.83990955 0 -337872488.83990955 -352244740.56929016 0 0 0 0 -222070199.81936646 -684600639.33861065 0 -684600639.33861065 -806725630.5058136 0 0 0 0 138578176.06393433 -64781982.607213974 0 -64781982.607213974 -504668195.98799515 0 0 0 0 -8360889.1045265198 -32504023.479379654 0 -32504023.479379654 -377493736.98905182 0 0 0 0 -31939617.894877672 -254558126.10658228 0 -254558126.10658228 -489919158.78899765 0 0 0 0 85532408.855865479 -169123511.64988518 0 -169123511.64988518 -686642006.29642534 0 0 0 0 60915747.851020813 -8299964.1874904633 0 -8299964.1874904633 -344666683.44103622 0 0 0 0 68234778.76656723 -149916470.9622364 0 -149916470.9622364 -223639746.0928421 0 0 0 0 79847134.96553421 74290385.38048172 0 74290385.38048172 -66156567.065050125 0 0 0 0 86965232.776519775 -72184359.527192831 0 -72184359.527192831 120425901.09407616 0 0 0 0 143485726.23987579 -105900458.69864082 0 -105900458.69864082 -429797940.17395782 0 0 0 0 -153641591.71729326 71330123.18424511 0 71330123.18424511 10495049.950686932 0 0 0 0 310357944.11239815 109323550.91253471 0 109323550.91253471 -36289766.458355904 0 0 0 0 -11805770.60121727 175440617.25323677 0 175440617.25323677 120315976.89195251 0 0 0 0 98159903.785616398 176261140.43253797 0 176261140.43253797 -384203505.44590569 0 0 0 0 17904188.050618172 305495526.30850267 0 305495526.30850267 -93513621.638082504 0 0 0 0 -342458.65183938516 1316096.6224995935 0 1316096.6224995935 105910.83317873254 0 0 0 0 598533867.21648264 -91744867.891303539 0 -91744867.891303539 -468262659.79757786 0 0 0 0 -65764259.405409813 -82642366.041045666 0 -82642366.041045666 -206944098.27004433 0 0 0 0 -73515377.697489738 -131774773.68931437 0 -131774773.68931437 -405512277.85369492 0 0 0 0 73740950.012097359 22005168.285794258 0 22005168.285794258 -403650274.43235087 0 0 0 0 -3383820.3304648399 -32230288.381959438 0 -32230288.381959438 -188390824.26337314 0 0 0 0 -1318823.4883717578 969308.81956566195 0 969308.81956566195 394219.80973854137 0 0 0 0 -1306801.52823056 624517.45304191532 0 624517.45304191532 1578336.1590902566 0 0 0 0 3459302.4133396149 -59329452.671525776 0 -59329452.671525776 24281242.498877138 0 0 0 0 252986481.16778183 156683124.89549446 0 156683124.89549446 22934536.307152271 0 0 0 0 -1150107.3107954129 162361.73047048226 0 162361.73047048226 795219.4971617884 0 0 0 0 29067969.341525078 -219030394.61984205 0 -219030394.61984205 -570398109.3750515 0 0 0 0 231229432.29225349 237043324.06040096 0 237043324.06040096 347673736.06860447 0 0 0 0 440464589.67358398 421085551.16355705 0 421085551.16355705 508549213.87143421 0 0 0 0 483591557.67160225 223929074.29989147 0 223929074.29989147 174299660.68052244 0 0 0 0 694941061.38230324 661092249.36283183 0 661092249.36283183 338147404.71007645 0 0 0 0 426209588.14393616 325811169.56392384 0 325811169.56392384 304788526.19988906 0 0 0 0 350921082.34682083 249806886.90950757 0 249806886.90950757 313182694.96793342 0 0 0 0 -927190557.72519135 -85846640.815186158 0 -85846640.815186158 211153697.72248316 0 0 0 0 390104790.83760071 136766540.3949945 0 136766540.3949945 191549464.60822761 0 0 0 0 -1347188964.1683493 745279806.83893383 0 745279806.83893383 -922383786.10803294 0 0 0 0 -947643.64579529688 426592.26880048122 0 426592.26880048122 1025417.2563404875 0 0 0 0 -981611038.97654343 430781007.46298957 0 430781007.46298957 -27840919.242842734 0 0 0 0 582147789.70581818 218511401.00626898 0 218511401.00626898 98871150.367103815 0 0 0 0 -888909266.84279251 -671033546.26802063 0 -671033546.26802063 1068943972.3259087 0 0 0 0 -1363814725.6152687 57400360.702978134 0 57400360.702978134 245703700.85953212 0 0 0 0 456961471.3967905 -503753035.18904811 0 -503753035.18904811 157781605.11410427 0 0 0 0 517981591.62220764 615171604.64657688 0 615171604.64657688 6649994.0781497955 0 0 0 0 519979074.76724625 288329819.41430712 0 288329819.41430712 245980607.14199257 0 0 0 0 512598576.5170784 303335169.10856819 0 303335169.10856819 225665584.04694939 0 0 0 0 427737452.42396545 325511580.21146965 0 325511580.21146965 220262249.20200348 0 0 0 0 -2444748.1727928789 1077555.335554922 0 1077555.335554922 1348842.7737161228 0 0 0 0 579750689.26528168 334461675.3462553 0 334461675.3462553 207774876.02444363 0 0 0 0 13476006.825904746 17451538.714770302 0 17451538.714770302 9113819.4362780079 0 0 0 0 -27189812.094076157 105333206.22821072 0 105333206.22821072 -113435062.12311625 0 0 0 0 19062785.755969048 5424440.4637765512 0 5424440.4637765512 -49073950.968897998 0 0 0 0 -31504761.657077789 91812406.235912174 0 91812406.235912174 -148171125.83592957 0 0 0 0 -86208119.904388428 416934376.19531953 0 416934376.19531953 -466672771.26109326 0 0 0 0 -138994483.31842804 217627401.70168766 0 217627401.70168766 -197327961.51847577 0 0 0 0 2509609.9787344048 2119493.0413946873 0 2119493.0413946873 129581.35371434013 0 0 0 0 6197707.6452674866 -27201366.499077559 0 -27201366.499077559 48063035.192417383 0 0 0 0 129954203.31243515 185499330.83736241 0 185499330.83736241 -259417965.99910533 0 0 0 0 117635609.12831497 27101924.200886488 0 27101924.200886488 -160232644.77837935 0 0 0 0 -73303579.632627487 41855766.685558796 0 41855766.685558796 18901775.981945038 0 0 0 0 12932143.257918797 17501154.512040582 0 17501154.512040582 7603583.2015369758 0 0 0 0 -69013073.726213455 27451507.73324275 0 27451507.73324275 30978385.239105225 0 0 0 0 -57439236.766687393 18906496.123993397 0 18906496.123993397 35926510.327537537 0 0 0 0 -54999553.353645325 23312841.948490143 0 23312841.948490143 -3989105.765007019 0 0 0 0 8854425.8429988436 6134064.2106892271 0 6134064.2106892271 -654446.79066867754 0 0 0 0 -284427725.65427399 577902819.27955437 0 577902819.27955437 416618817.73391724 0 0 0 0 37080869.007650375 12259998.763441324 0 12259998.763441324 68134056.692950606 0 0 0 0 47253465.390972137 16843037.212779999 0 16843037.212779999 -3940963.0751686096 0 0 0 0 10085722.43897659 19460027.204975959 0 19460027.204975959 -158142.7538185697 0 0 0 0 49000285.646715164 163713388.77210426 0 163713388.77210426 -353206369.55122328 0 0 0 0 -406428447.20105553 -349015465.61919212 0 -349015465.61919212 -115470912.29113436 0 0 0 0 12359005.26605501 2409848.489993033 0 2409848.489993033 -464421.55659728497 0 0 0 0 -46363577.005168915 5742073.63230896 0 5742073.63230896 7321532.2951583862 0 0 0 0 -51457172.938659668 623647.88360881805 0 623647.88360881805 14029929.87279892 0 0 0 0 -55307363.461578369 1360373.2498416901 0 1360373.2498416901 14294254.197692871 0 0 0 0 707991665.78558731 673844261.50938225 0 673844261.50938225 328931489.88064861 0 0 0 0 58989269.338790894 -707779414.69573689 0 -707779414.69573689 -1208203864.0334969 0 0 0 0 1042672263.5076065 553827450.92231369 0 553827450.92231369 -124308053.03090668 0 0 0 0 880794144.05437469 351789028.69548798 0 351789028.69548798 -123829113.62120438 0 0 0 0 571205189.52672577 282114114.65604401 0 282114114.65604401 -116642231.19680405 0 0 0 0 1017110093.513649 -29726701.858945847 0 -29726701.858945847 -441755237.76313782 0 0 0 0 1232906046.1235809 277741047.95049286 0 277741047.95049286 -361294407.28488159 0 0 0 0 496469329.49831009 234356477.37150574 0 234356477.37150574 -36459089.174068451 0 0 0 0 795270903.40975571 503902973.36800385 0 503902973.36800385 169005568.03327942 0 0 0 0 538150735.45417404 277835783.16255665 0 277835783.16255665 151958854.32410812 0 0 0 0 99012095.638932228 20066003.656417847 0 20066003.656417847 52290612.29460144 0 0 0 0 -333343131.82080841 720768665.461936 0 720768665.461936 271733447.27987897 0 0 0 0 124669442.13744354 36550112.750091553 0 36550112.750091553 -199331671.17791367 0 0 0 0 -1705396.3680917211 621646.48730409238 0 621646.48730409238 1006368.2269080235 0 0 0 0 454926397.76947784 280019118.84037399 0 280019118.84037399 3718159.6486415863 0 0 0 0 136870761.75249481 160257291.11742783 0 160257291.11742783 163941133.32580566 0 0 0 0 139803050.52335358 192243232.59280968 0 192243232.59280968 -344577326.79405403 0 0 0 0 223545501.43302917 180859877.71787071 0 180859877.71787071 -174504050.21187997 0 0 0 0 332083876.38947296 86848701.15937233 0 86848701.15937233 -190763869.76269531 0 0 0 0 413063818.3565228 117264584.46912944 0 117264584.46912944 -401864790.91059875 0 0 0 0 413109631.76191711 120716784.89408493 0 120716784.89408493 -245770489.91110229 0 0 0 0 4593908.3177542742 1738535.993395674 0 1738535.993395674 -282585.04799245205 0 0 0 0 505639306.99581909 212111388.87442398 0 212111388.87442398 -535166405.88157272 0 0 0 0 46143598.77498436 99502065.992217064 0 99502065.992217064 -377131955.58223665 0 0 0 0 318569686.87144232 192793037.85790706 0 192793037.85790706 -119453966.70944595 0 0 0 0 143319209.87178421 -14676434.585680962 0 -14676434.585680962 -501961327.32639647 0 0 0 0 213703008.79924393 129035776.06773281 0 129035776.06773281 -374458890.3031044 0 0 0 0 354314643.5076828 102335475.89490318 0 102335475.89490318 -435724653.47241974 0 0 0 0 257911714.48583436 36776134.27919364 0 36776134.27919364 -604709101.14118958 0 0 0 0 263313544.65480924 -84000189.87924993 0 -84000189.87924993 -759663505.8177948 0 0 0 0 171256516.36927032 -132397766.55578613 0 -132397766.55578613 -852770915.15392685 0 0 0 0 175416061.42473221 116186317.53786278 0 116186317.53786278 -989041936.1966095 0 0 0 0 410613546.27970886 -122775996.69493866 0 -122775996.69493866 -320574605.78095245 0 0 0 0 71086728.453624725 54991416.77371788 0 54991416.77371788 -407932189.13832092 0 0 0 0 533807842.95387268 333383569.42445755 0 333383569.42445755 -358253714.07185745 0 0 0 0 100499813.29430008 -273077003.74428749 0 -273077003.74428749 -921709716.71081543 0 0 0 0 340581930.94032288 -123129304.05089569 0 -123129304.05089569 -1373837701.8036222 0 0 0 0 106658972.76530457 -999725.87549972534 0 -999725.87549972534 -549157904.83573914 0 0 0 0 -8946235.0045051575 -81020646.665969849 0 -81020646.665969849 -232378289.96573639 0 0 0 0 74359653.489967346 -68475644.553573608 0 -68475644.553573608 -537684620.88617849 0 0 0 0 75433903.83372879 6260441.4185199738 0 6260441.4185199738 -197304674.7454071 0 0 0 0 40597637.009877205 6935491.8213787079 0 6935491.8213787079 -154573357.76459503 0 0 0 0 67096481.331161499 -73153173.391613007 0 -73153173.391613007 -235761282.35413361 0 0 0 0 66183606.425742626 -41084884.790831327 0 -41084884.790831327 -8165552.9825706482 0 0 0 0 52976674.293210983 -97041000.634670258 0 -97041000.634670258 33621173.839920044 0 0 0 0 110966936.6174202 -49221324.674053192 0 -49221324.674053192 -82055166.372707367 0 0 0 0 63349233.29817009 -39587985.238265038 0 -39587985.238265038 -56753134.445915222 0 0 0 0 124906124.44526148 5533299.2121720314 0 5533299.2121720314 100735869.98710251 0 0 0 0 90188956.522003174 -74421431.277219772 0 -74421431.277219772 49235634.957184792 0 0 0 0 2755470.3103254624 13209269.92968644 0 13209269.92968644 8260734.2106511202 0 0 0 0 3353295.5838117599 36032216.159740448 0 36032216.159740448 10909306.123085022 0 0 0 0 87136608.543367386 -68233246.551747799 0 -68233246.551747799 57766554.722419739 0 0 0 0 62680872.101966858 -39673100.510910034 0 -39673100.510910034 30308012.432128906 0 0 0 0 -34411666.26473999 -10839187.722904205 0 -10839187.722904205 -4650045.1582490802 0 0 0 0 3754513.3223906569 774159.66456035245 0 774159.66456035245 -133351.91760365106 0 0 0 0 -44555712.830657959 -12318040.783813477 0 -12318040.783813477 -4589903.1545848846 0 0 0 0 88174812.252063751 28645832.434010506 0 28645832.434010506 -1201215.4600744247 0 0 0 0 3767162.471282959 33137731.886123657 0 33137731.886123657 21783520.953491211 0 0 0 0 2835429.4590833243 15197574.103845794 0 15197574.103845794 -8200329.102234263 0 0 0 0 69594573.967891693 -14557584.578931332 0 -14557584.578931332 -14976480.139385223 0 0 0 0 -70481861.535335541 43527940.105266094 0 43527940.105266094 -64671042.250083923 0 0 0 0 -56780993.657066345 175178447.36148834 0 175178447.36148834 40532100.546858788 0 0 0 0 -52231762.788978577 51348328.558265686 0 51348328.558265686 4894017.4014282227 0 0 0 0 13180368.398956299 34586387.795608521 0 34586387.795608521 -64430845.165992737 0 0 0 0 13248860.149879456 57377609.552764893 0 57377609.552764893 -74071962.933138847 0 0 0 0 80210147.629577637 65820005.578887939 0 65820005.578887939 24077067.391113281 0 0 0 0 56354862.447692871 161257563.81790543 0 161257563.81790543 18266151.867721558 0 0 0 0 43275940.68195343 79080153.65411377 0 79080153.65411377 60538266.962501526 0 0 0 0 -493383.0461475458 11977794.047873449 0 11977794.047873449 -8455989.37828945 0 0 0 0 100418763.72080231 143655581.5408783 0 143655581.5408783 176868756.5912323 0 0 0 0 314244.42098796088 163365.21301675774 0 163365.21301675774 -451324.19459988177 0 0 0 0 66637234.988018036 6487026.7923212051 0 6487026.7923212051 73788238.740829468 0 0 0 0 9391654.9059066772 35739932.0027771 0 35739932.0027771 59286322.388908386 0 0 0 0 95079856.683448792 51970648.914739609 0 51970648.914739609 25773008.590568542 0 0 0 0 57512638.07749939 80853063.569757462 0 80853063.569757462 8365863.6546173096 0 0 0 0 13076585.606838226 40501943.563751221 0 40501943.563751221 68068535.598394394 0 0 0 0 28341488.028182745 27030993.325453758 0 27030993.325453758 12701670.396636963 0 0 0 0 -5178685.2987375259 33153783.74512291 0 33153783.74512291 45919128.569351196 0 0 0 0 -5994541.2755870819 -3418441.5041847229 0 -3418441.5041847229 -14907794.149551392 0 0 0 0 -32223892.636316299 7267241.2052078247 0 7267241.2052078247 23954467.016292572 0 0 0 0 -20642529.934417486 -1434012.1371164322 0 -1434012.1371164322 30274679.228088379 0 0 0 0 -11149574.665841103 42608637.171820164 0 42608637.171820164 79897914.558235168 0 0 0 0 -13684640.311553955 66870601.631061554 0 66870601.631061554 83630205.305114746 0 0 0 0 -62616443.693042755 -28582421.341739655 0 -28582421.341739655 45478176.046798706 0 0 0 0 40398010.527168274 58031637.249382019 0 58031637.249382019 50671222.553703308 0 0 0 0 32711555.037910461 103558066.10083008 0 103558066.10083008 198031090.45483398 0 0 0 0 82450427.050621033 55413238.589157104 0 55413238.589157104 68197394.564979553 0 0 0 0 101538109.09229279 137380569.85080719 0 137380569.85080719 148741694.99560547 0 0 0 0 137650470.88575745 207748217.20459366 0 207748217.20459366 203477770.30337524 0 0 0 0 -1089403.4253113233 381578.05138416169 0 381578.05138416169 1229220.6730299369 0 0 0 0 2865888.9728055871 8521206.2707978599 0 8521206.2707978599 5911071.5342908856 0 0 0 0 26424616.253810883 -766559.05908966064 0 -766559.05908966064 62468481.864681244 0 0 0 0 -20152461.444345474 6330649.2565155029 0 6330649.2565155029 15960122.723370552 0 0 0 0 -23682834.923374891 9474128.6074228287 0 9474128.6074228287 16849654.997497559 0 0 0 0 1713790.0384275746 4002275.9572094521 0 4002275.9572094521 1064105.6692956388 0 0 0 0 -25265360.248152733 -11227551.605882645 0 -11227551.605882645 3807745.2504043579 0 0 0 0 69550150.037757874 -72975379.360984802 0 -72975379.360984802 83024894.929443359 0 0 0 0 577119.6131141606 3049158.8016415709 0 3049158.8016415709 5072959.725027591 0 0 0 0 395254201.39660263 155894657.52823257 0 155894657.52823257 81896855.189964294 0 0 0 0 524263356.30314445 357363999.32003593 0 357363999.32003593 -36176949.646347046 0 0 0 0 4296077.4496579897 1193237.8838474918 0 1193237.8838474918 902723.46934675705 0 0 0 0 495466787.72060776 100063817.6591568 0 100063817.6591568 30921033.76798439 0 0 0 0 959513295.32672691 363602791.37711334 0 363602791.37711334 331999433.95233917 0 0 0 0 1128849512.7815933 320625390.38064957 0 320625390.38064957 -65712302.84718895 0 0 0 0 -255363.48516403278 1301126.9956084201 0 1301126.9956084201 240537.92977359705 0 0 0 0 798523894.86761808 895639180.52696753 0 895639180.52696753 360169914.46511078 0 0 0 0 358923125.01469231 -6910510.4195165634 0 -6910510.4195165634 1030846847.2603531 0 0 0 0 1193911.2816370255 127378.30772779789 0 127378.30772779789 606194.10246150009 0 0 0 0 80853122.867326736 -247859532.86624718 0 -247859532.86624718 428012015.69901085 0 0 0 0 80061708.050613403 -12089809.402067184 0 -12089809.402067184 63458189.560516357 0 0 0 0 46709585.745102406 -45181681.077419758 0 -45181681.077419758 30632118.301719666 0 0 0 0 53590052.839381218 -58382086.785137653 0 -58382086.785137653 146660078.33919525 0 0 0 0 153770979.00691986 -119775514.88408279 0 -119775514.88408279 62459894.204229355 0 0 0 0 222130453.59449196 9171694.8833789825 0 9171694.8833789825 -37843003.155990601 0 0 0 0 716810776.88235283 -285186414.20523262 0 -285186414.20523262 -43611842.185810089 0 0 0 0 830296938.44437671 -9992903.0234155655 0 -9992903.0234155655 -247507339.25769043 0 0 0 0 506688751.79715252 170256967.36005092 0 170256967.36005092 -290043629.0990715 0 0 0 0 423831623.32490158 -115499297.48781967 0 -115499297.48781967 -77373241.413543701 0 0 0 0 280353333.0237484 295233318.86566925 0 295233318.86566925 28182730.892128468 0 0 0 0 569867056.59714317 265923256.88982773 0 265923256.88982773 -171754215.09998131 0 0 0 0 264744365.3261497 43382789.233362317 0 43382789.233362317 -122163213.19684601 0 0 0 0 45969933.968969345 -82789430.64812088 0 -82789430.64812088 -49894091.585144043 0 0 0 0 109247789.77368164 32619265.850860596 0 32619265.850860596 -86960118.650173187 0 0 0 0 15680442.644096375 -83235503.432660103 0 -83235503.432660103 -154039912.36866379 0 0 0 0 126973382.67189407 3165478.0748653412 0 3165478.0748653412 -38207885.358982086 0 0 0 0 163844817.70293999 442439164.80713415 0 442439164.80713415 381700143.63069344 0 0 0 0 -26086700.670108795 -74376655.82049942 0 -74376655.82049942 648795773.63887644 0 0 0 0 375475629.13609982 305644195.44926739 0 305644195.44926739 305314450.67453194 0 0 0 0 -565341.89385538071 2455959.5926596127 0 2455959.5926596127 282735.65791405737 0 0 0 0 -19238353.582045555 575081073.65945053 0 575081073.65945053 164326289.95923233 0 0 0 0 -21458.091797991889 804077.30406877864 0 804077.30406877864 -229313.97214062884 0 0 0 0 -6302193.5608336627 756006744.61475956 0 756006744.61475956 -333179575.42321396 0 0 0 0 -510768154.60531378 183389343.48725128 0 183389343.48725128 143531613.49011421 0 0 0 0 249386790.87344295 249900844.88868958 0 249900844.88868958 -490732066.93862152 0 0 0 0 1040547317.8857763 484743382.08249736 0 484743382.08249736 -36136968.248790741 0 0 0 0 255632750.97966576 52857801.29189682 0 52857801.29189682 40209440.668129444 0 0 0 0 78481461.055146694 245206411.63093662 0 245206411.63093662 415422486.60021591 0 0 0 0 239005212.22507858 123174469.05363846 0 123174469.05363846 348750797.34698486 0 0 0 0 15356615.513156891 35856277.754405975 0 35856277.754405975 18056072.409885406 0 0 0 0 -280374157.46707749 170313887.15787506 0 170313887.15787506 226420724.12355423 0 0 0 0 -25315168.45063448 -8626469.8100404739 0 -8626469.8100404739 72388410.121906281 0 0 0 0 -239187115.42663479 204095519.08950615 0 204095519.08950615 -177272799.40350628 0 0 0 0 -2720295.6759217326 1721225.6973847244 0 1721225.6973847244 664375.31734265387 0 0 0 0 -563692647.87077856 548708285.60263062 0 548708285.60263062 -128545241.05966163 0 0 0 0 -11903379.629156956 1760197.0086677107 0 1760197.0086677107 5552934.6247584522 0 0 0 0 -30138278.482957363 -3698326.1484336853 0 -3698326.1484336853 3403012.9065790176 0 0 0 0 -20929544.284286499 58330318.242659569 0 58330318.242659569 65119084.302945614 0 0 0 0 75645581.770584106 129187169.49622726 0 129187169.49622726 102161303.22169638 0 0 0 0 -13945955.12220962 15602034.306870678 0 15602034.306870678 5504648.695569478 0 0 0 0 -36663182.035618544 -4883782.7002105713 0 -4883782.7002105713 25692230.505998611 0 0 0 0 -16302644.420616791 8939625.2435827255 0 8939625.2435827255 5775182.8221035004 0 0 0 0 -38007641.556100368 31188055.087064743 0 31188055.087064743 45707609.930864334 0 0 0 0 -33385712.820146918 58370100.685468674 0 58370100.685468674 18686254.670132637 0 0 0 0 -23530536.410353184 61207294.590653896 0 61207294.590653896 -15105162.484037399 0 0 0 0 -8997107.7644968219 6536837.552106007 0 6536837.552106007 6200252.8774008937 0 0 0 0 -40589674.899003386 51578731.931460381 0 51578731.931460381 140738506.33087349 0 0 0 0 -52691884.320958853 114310753.63910675 0 114310753.63910675 96270873.824518204 0 0 0 0 -53043086.778110266 127797553.72571659 0 127797553.72571659 286341573.85725498 0 0 0 0 -15842772.253189087 36884076.406784058 0 36884076.406784058 70306022.003065109 0 0 0 0 -29912765.854547024 -9661295.2242488861 0 -9661295.2242488861 172052677.36523438 0 0 0 0 -16019740.590713501 19253010.475092411 0 19253010.475092411 1183763.4570515156 0 0 0 0 -14230261.013968445 1469023.2313577104 0 1469023.2313577104 3972709.4996044016 0 0 0 0 127507861.04217529 6637286.496011734 0 6637286.496011734 -83728918.148670197 0 0 0 0 -63790740.996570587 -81539584.942029834 0 -81539584.942029834 253452080.60656738 0 0 0 0 -50420955.161651611 -7756449.5814857483 0 -7756449.5814857483 159820690.71755219 0 0 0 0 37084762.363890648 -174390640.06961837 0 -174390640.06961837 295636600.32027435 0 0 0 0 -51040202.454711914 -53121408.000693321 0 -53121408.000693321 420853432.02644634 0 0 0 0 -82317229.536987305 -91597691.422120571 0 -91597691.422120571 474203174.6042614 0 0 0 0 -91350263.690414429 -16478164.082974434 0 -16478164.082974434 284939993.14643812 0 0 0 0 -82595040.77746582 15893339.725429535 0 15893339.725429535 263017269.01897907 0 0 0 0 -112669686.46479797 -33818337.572729111 0 -33818337.572729111 363671803.93776703 0 0 0 0 -34953142.067970276 -59566901.246334553 0 -59566901.246334553 90204682.150497437 0 0 0 0 -28494178.059562683 18425599.233640671 0 18425599.233640671 46060175.781309128 0 0 0 0 -13971860.705716997 4636427.5706833052 0 4636427.5706833052 4921622.9840850364 0 0 0 0 -33267416.016464233 -17928351.476763725 0 -17928351.476763725 47142890.411281586 0 0 0 0 -35472229.077049255 48538623.090449333 0 48538623.090449333 126954962.11983204 0 0 0 0 -82749144.745879173 11350454.337840512 0 11350454.337840512 182008188.70515251 0 0 0 0 -107794319.8213501 94195719.045232773 0 94195719.045232773 312682377.46086788 0 0 0 0 -105304731.55978394 90678631.815623283 0 90678631.815623283 175345038.78586292 0 0 0 0 -11076696.703178406 95802387.136180878 0 95802387.136180878 146455868.85036659 0 0 0 0 -38328198.098070145 21454225.688277304 0 21454225.688277304 33660151.007661819 0 0 0 0 -27915411.101296663 29540113.200620651 0 29540113.200620651 -778335.65122032166 0 0 0 0 -16096892.078806251 17664609.48189643 0 17664609.48189643 4120640.7719548987 0 0 0 0 -43835815.281951904 5258960.4026260376 0 5258960.4026260376 33657311.899411865 0 0 0 0 -44694247.490832806 -1967239.5020313263 0 -1967239.5020313263 40521701.346466064 0 0 0 0 -35861167.288794041 22943181.35569191 0 22943181.35569191 95096911.417924881 0 0 0 0 -18224275.704764094 14307210.486750893 0 14307210.486750893 10368647.969005469 0 0 0 0 38195698.149719238 27146091.917321086 0 27146091.917321086 -5152071.3110382557 0 0 0 0 4349182.7798843384 703769.67237401009 0 703769.67237401009 22292663.951321125 0 0 0 0 -19693274.928084262 11767897.619861841 0 11767897.619861841 10693143.711422635 0 0 0 0 -27714427.795143127 22971272.267655373 0 22971272.267655373 150090.64788818359 0 0 0 0 3561975.2608947754 6022338.8678171635 0 6022338.8678171635 9409946.4666152 0 0 0 0 -19196193.316963196 -1445842.8059680462 0 -1445842.8059680462 30156392.686069727 0 0 0 0 -39601353.429130554 -9534173.7278249264 0 -9534173.7278249264 14056835.105724335 0 0 0 0 9223422.7789230347 25373890.681501269 0 25373890.681501269 -29614880.710973144 0 0 0 0 4297304.8322542785 5497447.3837798052 0 5497447.3837798052 -449772.99949833378 0 0 0 0 -8990176.1611022949 7449076.9661055617 0 7449076.9661055617 -1911890.486002326 0 0 0 0 -41592189.699356556 30836084.723231487 0 30836084.723231487 3299777.2343592644 0 0 0 0 -8645331.5238647461 1658971.9073913097 0 1658971.9073913097 -278214.58695220947 0 0 0 0 -23122978.022186279 11793481.795143127 0 11793481.795143127 14961491.896197081 0 0 0 0 -9947949.8925704956 10501263.375999928 0 10501263.375999928 6088079.2006263733 0 0 0 0 -28420722.986850739 19581384.51646471 0 19581384.51646471 11407228.508290291 0 0 0 0 38484688.936401367 19504111.310516357 0 19504111.310516357 10480417.082517624 0 0 0 0 -70925350.245651245 46463397.079950213 0 46463397.079950213 20213717.532423913 0 0 0 0 -61155973.015398026 21773577.744342804 0 21773577.744342804 12806920.473720312 0 0 0 0 -2009602.602620773 -617662.44758306257 0 -617662.44758306257 468197.61191336293 0 0 0 0 -25023657.337768555 -1912298.4019024372 0 -1912298.4019024372 -3219372.3213100433 0 0 0 0 -53379384.792480469 -23541832.374345064 0 -23541832.374345064 4041623.2590152621 0 0 0 0 -9864256.9457004759 11816090.220879994 0 11816090.220879994 5903183.7164291777 0 0 0 0 -5543883.2107086182 3785000.6677873135 0 3785000.6677873135 -896193.64575052261 0 0 0 0 -195667.1894697994 8195473.8992336653 0 8195473.8992336653 2517984.5343075977 0 0 0 0 -5041417.1731872559 2742498.6436750889 0 2742498.6436750889 -461285.70044136047 0 0 0 0 2582907.5553518422 9124559.3805086706 0 9124559.3805086706 5119960.2945418404 0 0 0 0 1103572.5776667083 8901175.9468151685 0 8901175.9468151685 -1182971.9398057412 0 0 0 0 -4703009.6815182902 2817684.867517164 0 2817684.867517164 -631022.67678455252 0 0 0 0 22385752.667480469 3233018.4387030602 0 3233018.4387030602 1912736.1127176285 0 0 0 0 2335121.1001982298 438967.18114489876 0 438967.18114489876 -656936.28251326981 0 0 0 0 43636436.09674263 68167213.457006454 0 68167213.457006454 -11781473.763687849 0 0 0 0 -18183309.231071472 46668282.885688782 0 46668282.885688782 -51614048.615773201 0 0 0 0 -4121573.8399963379 11252074.094904959 0 11252074.094904959 37457288.086741447 0 0 0 0 -89466084.14604187 -23006800.807231307 0 -23006800.807231307 17161512.909929037 0 0 0 0 -2979739.306060791 -21483998.790929899 0 -21483998.790929899 28651304.874135256 0 0 0 0 -70526076.863021851 43282466.784318805 0 43282466.784318805 44973753.299173534 0 0 0 0 -15598321.092428394 14660723.823015288 0 14660723.823015288 8875281.5435812473 0 0 0 0 38722374.414970398 3674280.9042959213 0 3674280.9042959213 21507439.674069405 0 0 0 0 -19117197.151511192 6281678.3715791702 0 6281678.3715791702 26734412.527692795 0 0 0 0 6813663.9739758968 60995397.536726952 0 60995397.536726952 6832366.006603241 0 0 0 0 -7962155.7188448906 53832907.08052063 0 53832907.08052063 3910080.053563118 0 0 0 0 42180047.504265904 105531388.27991128 0 105531388.27991128 20562429.980506897 0 0 0 0 83576279.297203541 54281436.490298271 0 54281436.490298271 2930408.5001993179 0 0 0 0 1022825.3718681606 102664.14208535757 0 102664.14208535757 -1082365.3153856248 0 0 0 0 19269111.566500664 115882.22584486008 0 115882.22584486008 -4818976.780241251 0 0 0 0 124978280.12612846 -13700428.200317025 0 -13700428.200317025 -4168456.6686487198 0 0 0 0 30499224.699462891 45382711.291625977 0 45382711.291625977 8404272.6403579712 0 0 0 0 19771957.925514221 41332111.45523262 0 41332111.45523262 7862065.7490597963 0 0 0 0 2658844.661365509 62485942.855485916 0 62485942.855485916 77591073.930350304 0 0 0 0 83571892.071987629 86099094.506179333 0 86099094.506179333 34148267.912340164 0 0 0 0 34469998.441772461 58525548.637326717 0 58525548.637326717 -21528620.111221313 0 0 0 0 -13016659.909800194 16000285.141376875 0 16000285.141376875 8600654.7763443664 0 0 0 0 -15270731.692511082 29596664.399211645 0 29596664.399211645 46626793.16662693 0 0 0 0 12744179.754472733 45831014.119344711 0 45831014.119344711 19088615.19217968 0 0 0 0 20700037.157216072 59053375.577036619 0 59053375.577036619 31315888.855129242 0 0 0 0 -42103113.568092346 12592719.803193212 0 12592719.803193212 26357470.07450819 0 0 0 0 -8404732.1654255949 18079672.216393571 0 18079672.216393571 8695749.3119670283 0 0 0 0 -16021302.627227783 29449331.336907387 0 29449331.336907387 18175758.009458542 0 0 0 0 17388447.739947319 50273186.049163818 0 50273186.049163818 11440995.78997612 0 0 0 0 -37262446.180732727 31474326.275786281 0 31474326.275786281 35082511.287044525 0 0 0 0 38532140.003189087 22106160.625747681 0 22106160.625747681 7098244.6622419357 0 0 0 0 -52676085.692359924 -16560370.942192405 0 -16560370.942192405 -2709414.5620985031 0 0 0 0 -14237307.773691263 9294356.3037125617 0 9294356.3037125617 6680096.1122805011 0 0 0 0 -33479686.143539429 -35051345.772278666 0 -35051345.772278666 14319926.283427894 0 0 0 0 -1493607.5670538694 -587950.62705102563 0 -587950.62705102563 266610.18477578321 0 0 0 0 31832134.764547586 149546096.39351559 0 149546096.39351559 -20374094.458447456 0 0 0 0 102143267.19726612 211063732.60446131 0 211063732.60446131 -205038936.17668915 0 0 0 0 25540092.866987228 142426741.52411938 0 142426741.52411938 9512803.5964071751 0 0 0 0 50095296.013289511 258452654.79977632 0 258452654.79977632 56005528.776212692 0 0 0 0 -24383537.157325864 101931930.8168931 0 101931930.8168931 74979544.41867733 0 0 0 0 -24958580.845753193 109744049.02333307 0 109744049.02333307 40406768.712659836 0 0 0 0 -5868171.0214486122 77819111.693135262 0 77819111.693135262 82323436.913650751 0 0 0 0 10582721.438872457 56420519.38796854 0 56420519.38796854 -59785556.163126945 0 0 0 0 -42630437.461044788 98398805.367853165 0 98398805.367853165 36227052.285912514 0 0 0 0 3256031.1865316257 48731964.886559725 0 48731964.886559725 -64381316.230424881 0 0 0 0 2325600.9861675631 395395.79237860907 0 395395.79237860907 -2688536.5758653516 0 0 0 0 206276.64544352889 55585199.580922127 0 55585199.580922127 -67359388.199302435 0 0 0 0 5755667.672957778 32665890.67742157 0 32665890.67742157 -82086657.430017471 0 0 0 0 52278994.830209255 50289909.826899529 0 50289909.826899529 -76929366.339900017 0 0 0 0 53661878.68094635 19043372.608941078 0 19043372.608941078 -178843709.90894318 0 0 0 0 67373770.094168216 41402040.986347973 0 41402040.986347973 -156632087.48677063 0 0 0 0 -4381833.2213945389 -28196691.43403101 0 -28196691.43403101 -79487729.477368832 0 0 0 0 1983857.1851414442 3371187.9352092743 0 3371187.9352092743 -52303034.069475174 0 0 0 0 -1178498.2128601712 1857616.782579734 0 1857616.782579734 341634.23722995201 0 0 0 0 21183073.397168159 27948996.021638542 0 27948996.021638542 28972974.560537755 0 0 0 0 18400548.787199497 31567450.579779565 0 31567450.579779565 24648148.2389936 0 0 0 0 19504265.575510025 -615209.95096874237 0 -615209.95096874237 6311293.5762758255 0 0 0 0 5014938.5247300267 11532065.196040392 0 11532065.196040392 19330258.20280838 0 0 0 0 33494571.09311986 15006543.534548998 0 15006543.534548998 6384207.1435146332 0 0 0 0 30701446.739456177 24679693.939911842 0 24679693.939911842 14332137.135623932 0 0 0 0 409394.06739902496 26313195.934214592 0 26313195.934214592 64428492.744419098 0 0 0 0 -27950.240779522574 43153.586393018137 0 43153.586393018137 -48267.883325512055 0 0 0 0 2215288.8831885634 972414.11208450794 0 972414.11208450794 -45507939.304172516 0 0 0 0 3929798.0909210024 729621.80672411597 0 729621.80672411597 -4999941.6566883894 0 0 0 0 7043682.6589078903 728001.59738636017 0 728001.59738636017 -9322562.3872842789 0 0 0 0 21629200.4606812 -2572336.9476399422 0 -2572336.9476399422 -8747777.1774048805 0 0 0 0 9187401.1699280739 7365728.5499472618 0 7365728.5499472618 -18946057.221076012 0 0 0 0 14973651.100773096 1663601.7348613739 0 1663601.7348613739 -15227673.728850842 0 0 0 0 4602269.640591681 5288154.1165969372 0 5288154.1165969372 -9868149.5163131654 0 0 0 0 5820518.4230946302 1169257.2961277962 0 1169257.2961277962 -7137482.944067955 0 0 0 0 4898892.1619967818 4307715.4990329742 0 4307715.4990329742 -7192400.2345317341 0 0 0 0 5818829.9608819485 1918848.1081228256 0 1918848.1081228256 -10416654.561448097 0 0 0 0 8288784.8041679831 6089317.6380990585 0 6089317.6380990585 -1656045.7663147878 0 0 0 0 3260554.064917326 15702235.673692226 0 15702235.673692226 8500521.9233565331 0 0 0 0 19118179.939136505 5597433.6921329498 0 5597433.6921329498 20439728.144519806 0 0 0 0 -4130834.8063316345 6321899.375328064 0 6321899.375328064 20654103.964805603 0 0 0 0 7066954.3062314354 10171144.717260208 0 10171144.717260208 4117984.5423346348 0 0 0 0 258326.21619975287 963603.86814312637 0 963603.86814312637 2223106.1376677193 0 0 0 0 11380670.92480278 -16746866.937149048 0 -16746866.937149048 17192669.588134766 0 0 0 0 8118327.777053833 6573263.2497463226 0 6573263.2497463226 38230854.257555008 0 0 0 0 7774907.7868385315 3552363.6203947067 0 3552363.6203947067 12898764.177532196 0 0 0 0 9540779.111158371 -7501896.7403640747 0 -7501896.7403640747 29730713.698608398 0 0 0 0 18218136.883419037 5443988.5665092468 0 5443988.5665092468 10471421.04514122 0 0 0 0 6646195.5364995543 5872214.4087000433 0 5872214.4087000433 -634273.63306921953 0 0 0 0 8272.5787913361564 818791.77015995653 0 818791.77015995653 1472943.6879810467 0 0 0 0 73095480.167714357 154936606.24883175 0 154936606.24883175 288002848.42277527 0 0 0 0 7887284.7398565374 2617928.3350570742 0 2617928.3350570742 -2245336.5833738972 0 0 0 0 25136623.766218185 -1074460.3991651535 0 -1074460.3991651535 -14772267.740722179 0 0 0 0 1004060.0596812963 -7687692.5807548165 0 -7687692.5807548165 -7257204.0075569153 0 0 0 0 -1879584.2705113443 4855424.8838069681 0 4855424.8838069681 1552187.5234152181 0 0 0 0 6731362.4049892426 -1692063.1235337257 0 -1692063.1235337257 7495181.6850528717 0 0 0 0 10907033.575295925 12885101.827053785 0 12885101.827053785 1243092.6081066132 0 0 0 0 589471.23193856585 6093016.1539806891 0 6093016.1539806891 6008994.9508730322 0 0 0 0 5216163.7620053291 15041844.022817612 0 15041844.022817612 8705035.402015686 0 0 0 0 21163136.715429306 8242035.9179372787 0 8242035.9179372787 3062321.341583252 0 0 0 0 13803485.981738091 16129720.491614342 0 16129720.491614342 10285042.400644302 0 0 0 0 14306772.722800374 18318931.25939393 0 18318931.25939393 4869907.3226108551 0 0 0 0 3014988.454729557 11473859.026211262 0 11473859.026211262 3633804.7757153511 0 0 0 0 9772513.2212904394 13001391.681549668 0 13001391.681549668 -14499934.714514732 0 0 0 0 11602835.737448215 6765609.3334746361 0 6765609.3334746361 -7645575.5081591606 0 0 0 0 -10506579.507064819 16890761.315546036 0 16890761.315546036 -11264818.785696983 0 0 0 0 -1013550.4548840113 15252621.258100582 0 15252621.258100582 -50491.901913689449 0 0 0 0 -9738331.9818868637 20463010.5773592 0 20463010.5773592 -14910681.768981934 0 0 0 0 -6598190.6576156616 15765028.078929901 0 15765028.078929901 -14573844.492878914 0 0 0 0 -9246739.4919834137 16722005.536659241 0 16722005.536659241 -14410904.093514919 0 0 0 0 2383362.0638160706 11382377.317427635 0 11382377.317427635 6650345.4416942596 0 0 0 0 11782403.367996216 39234772.296183586 0 39234772.296183586 18937843.498626232 0 0 0 0 13321840.085181225 24385534.634773135 0 24385534.634773135 -1942664.8819744012 0 0 0 0 604353.34146118164 -10032920.08964777 0 -10032920.08964777 -13290027.203435898 0 0 0 0 1652922.7158031464 42624583.101495743 0 42624583.101495743 -368022.63358688354 0 0 0 0 15623962.088590622 51976323.293157101 0 51976323.293157101 -17959319.611068726 0 0 0 0 26198255.219610214 48970123.772051334 0 48970123.772051334 1267706.9034490585 0 0 0 0 3322306.6709446916 20594868.955121502 0 20594868.955121502 7605486.6838605423 0 0 0 0 -8561366.6905288696 25498413.056350708 0 25498413.056350708 -13062905.605964661 0 0 0 0 -5773960.7701530457 23801921.167476654 0 23801921.167476654 -14474232.531778336 0 0 0 0 7281986.6479475703 13342341.781901985 0 13342341.781901985 4517622.1591583667 0 0 0 0 33352323.326246738 31458230.73897171 0 31458230.73897171 -41172289.230579138 0 0 0 0 -8050983.5056247711 28575114.703615189 0 28575114.703615189 818287.92930984497 0 0 0 0 17956274.08662796 19494680.110574722 0 19494680.110574722 -27609013.474575996 0 0 0 0 50390318.355289459 41676877.422971688 0 41676877.422971688 -13029786.576858521 0 0 0 0 51146866.212995686 5859309.0766715631 0 5859309.0766715631 -18174544.125113487 0 0 0 0 6968385.7113084793 17601189.525706291 0 17601189.525706291 -20579013.196077824 0 0 0 0 -48991161.951408386 39019863.15308857 0 39019863.15308857 17300530.857507706 0 0 0 0 -659656.90734314919 20156908.954301357 0 20156908.954301357 6824895.3312072754 0 0 0 0 -16349497.316526413 11006861.425428391 0 11006861.425428391 36321431.114744186 0 0 0 0 -34038794.239208221 60322951.555768967 0 60322951.555768967 16775274.919460297 0 0 0 0 -2779590.0145835876 56890965.429439545 0 56890965.429439545 -4379053.2918081284 0 0 0 0 -44028473.930971146 77412371.723121643 0 77412371.723121643 -39507301.751194 0 0 0 0 -43758358.417953491 62534855.782592773 0 62534855.782592773 -2844966.1531944275 0 0 0 0 40295153.802499771 94791463.857120514 0 94791463.857120514 -63565667.913269043 0 0 0 0 307135.65057373047 32710761.038635254 0 32710761.038635254 -7229619.0567398071 0 0 0 0 -2264921.688337326 24226687.656779766 0 24226687.656779766 -17262113.141822815 0 0 0 0 -985222.36994934082 22366860.413787842 0 22366860.413787842 -14678105.971069813 0 0 0 0 15564434.994981766 29878941.903526306 0 29878941.903526306 -16369317.934452057 0 0 0 0 1959147.7519888878 39476285.369488716 0 39476285.369488716 -13532698.364830017 0 0 0 0 8388571.2231082916 38223805.863399506 0 38223805.863399506 -24196431.980407715 0 0 0 0 67920809.899723053 24361508.94959259 0 24361508.94959259 -25476553.379327774 0 0 0 0 23323449.410367966 11207277.308181763 0 11207277.308181763 -3991245.1794652939 0 0 0 0 -1339228.3492431641 19642536.628051758 0 19642536.628051758 -6726710.9298305511 0 0 0 0 -15072680.851707458 15338981.566120148 0 15338981.566120148 4357219.770570755 0 0 0 0 -4004375.8647003174 12340351.506801605 0 12340351.506801605 132815.13035583496 0 0 0 0 -19197922.918519974 26407415.617011547 0 26407415.617011547 -12852451.608802795 0 0 0 0 -4726418.7077331543 15413713.39200592 0 15413713.39200592 -20106710.062307358 0 0 0 0 6331751.2108535767 16158876.849609375 0 16158876.849609375 -15013724.947471619 0 0 0 0 -2235738.7019805908 20649544.683681488 0 20649544.683681488 -16389702.445892334 0 0 0 0 -4504762.2403697968 16622830.49414444 0 16622830.49414444 -18689239.973449707 0 0 0 0 -7633785.5875511169 12266514.406726837 0 12266514.406726837 -21665269.677658081 0 0 0 0 30186463.080718994 -10442760.340417862 0 -10442760.340417862 13147862.268733978 0 0 0 0 -18058173.627344131 3799567.982509613 0 3799567.982509613 18392619.806932449 0 0 0 0 -21972636.851503372 -2938438.3299560547 0 -2938438.3299560547 30258185.597150803 0 0 0 0 -18306248.871900558 10270256.912451267 0 10270256.912451267 28301589.551361084 0 0 0 0 1875029.8745307922 -604710.51624679565 0 -604710.51624679565 16934522.308021545 0 0 0 0 23417350.587742329 10114505.882146835 0 10114505.882146835 6998506.7511863708 0 0 0 0 131039547.03759384 17093148.444021225 0 17093148.444021225 1354488.5823421478 0 0 0 0 131739043.90063858 -25749458.141720772 0 -25749458.141720772 -18901627.232316971 0 0 0 0 30422934.830942154 -8951149.1702957153 0 -8951149.1702957153 21740547.309906006 0 0 0 0 -1401470.5587329865 -5849572.1477146149 0 -5849572.1477146149 -18082847.767290115 0 0 0 0 415853.49388776743 12865.190757042263 0 12865.190757042263 -1149716.0694015995 0 0 0 0 137983563.03175354 -14230345.148934364 0 -14230345.148934364 -5120669.6739358902 0 0 0 0 133952622.09847289 -54099624.164235771 0 -54099624.164235771 13623940.843994141 0 0 0 0 205238.02151635289 15409.217898939736 0 15409.217898939736 -158044.87637575902 0 0 0 0 -75247784.400588989 129730861.80910683 0 129730861.80910683 -73815387.633723259 0 0 0 0 -89841968.450910091 52713217.738981485 0 52713217.738981485 -51501007.676025391 0 0 0 0 -61893733.778979301 26731015.394977093 0 26731015.394977093 -14883555.428840637 0 0 0 0 -59540092.733722687 69804990.199764252 0 69804990.199764252 -125300334.78121567 0 0 0 0 -83449464.126351357 66305629.584670067 0 66305629.584670067 -24408168.189044952 0 0 0 0 709322.47195273079 892747.47267595306 0 892747.47267595306 419900.69472556189 0 0 0 0 -134194740.9897604 87800853.881747246 0 87800853.881747246 -53186303.571777344 0 0 0 0 -92069380.265695572 138271299.95503044 0 138271299.95503044 -121980255.78978479 0 0 0 0 33372067.374745369 -17845001.300506115 0 -17845001.300506115 -14659299.076816559 0 0 0 0 34238771.790624619 -42099696.058545113 0 -42099696.058545113 18325700.575956345 0 0 0 0 310652.10603854293 6417.7308752965182 0 6417.7308752965182 -1045192.5269480571 0 0 0 0 -39781773.754983902 -12025359.157094002 0 -12025359.157094002 14814787.802873611 0 0 0 0 48122155.924312592 -56986282.106397629 0 -56986282.106397629 -11118955.24023056 0 0 0 0 227448673.08801651 -8323178.6064748764 0 -8323178.6064748764 -20202331.006634235 0 0 0 0 -40417825.847975731 -155657347.06568193 0 -155657347.06568193 -20974833.551382065 0 0 0 0 -212833087.6721611 40693154.40544796 0 40693154.40544796 67830665.833132744 0 0 0 0 182215077.06811017 236077240.67164463 0 236077240.67164463 127476672.61563492 0 0 0 0 171609845.29721451 187394393.01085854 0 187394393.01085854 62518036.899084091 0 0 0 0 155828012.91893232 274790715.1677568 0 274790715.1677568 265029525.08753014 0 0 0 0 41744272.811188221 46977081.931628227 0 46977081.931628227 86987162.975608826 0 0 0 0 91976526.008145332 50147309.149415016 0 50147309.149415016 17134076.056968689 0 0 0 0 49450449.573280334 109633505.70343208 0 109633505.70343208 161557738.95970154 0 0 0 0 63773291.751815796 16318413.903100014 0 16318413.903100014 -10769429.967941284 0 0 0 0 30585252.479587555 17822665.982589722 0 17822665.982589722 46227560.167243958 0 0 0 0 4968108.6208591461 -10914128.776709557 0 -10914128.776709557 26541542.355369568 0 0 0 0 -12821985.297832489 22169459.035997868 0 22169459.035997868 -10931737.494148254 0 0 0 0 -49265006.343288422 16544757.644153595 0 16544757.644153595 -5967196.8455657959 0 0 0 0 -30523694.99455452 56587252.005819321 0 56587252.005819321 -64730916.250499725 0 0 0 0 -48184477.54088974 39421592.965827942 0 39421592.965827942 -85910017.806529999 0 0 0 0 -12919309.468547821 70933687.8510952 0 70933687.8510952 -58053545.979656219 0 0 0 0 192811323.88828659 105897421.73551178 0 105897421.73551178 -58834732.976143837 0 0 0 0 -14107331.7315979 31711431.327018738 0 31711431.327018738 17930138.633684158 0 0 0 0 395018407.86369514 213598595.60835838 0 213598595.60835838 -132971587.26421165 0 0 0 0 -18635569.046485901 22472939.204918146 0 22472939.204918146 -68543043.621929169 0 0 0 0 -78537939.350481033 166899221.22647095 0 166899221.22647095 -110639213.85188437 0 0 0 0 607325.2634249106 756135.88916626107 0 756135.88916626107 469610.28261435032 0 0 0 0 644864.50417661667 36386645.679929256 0 36386645.679929256 -8719489.7695960999 0 0 0 0 111941362.25408936 39548885.202224731 0 39548885.202224731 -17293135.325770378 0 0 0 0 28200178.50151062 65921335.669724464 0 65921335.669724464 126274558.889431 0 0 0 0 280208.78248970583 325015.36190833896 0 325015.36190833896 214735.63409148902 0 0 0 0 113600626.78170204 345572328.27890968 0 345572328.27890968 424441614.86797714 0 0 0 0 269086785.69215155 426948684.8781476 0 426948684.8781476 282821313.0962677 0 0 0 0 211643556.05863953 294236660.52771378 0 294236660.52771378 78472118.478922844 0 0 0 0 211778320.95289898 291740271.62883717 0 291740271.62883717 107890331.88738632 0 0 0 0 275816949.40811157 234321087.40229988 0 234321087.40229988 159043667.86022758 0 0 0 0 212088788.34079266 133097860.06580639 0 133097860.06580639 13081259.754367828 0 0 0 0 182825.47559467889 84991.60678953398 0 84991.60678953398 -48385.854941533878 0 0 0 0 285647236.09250498 28736979.037073612 0 28736979.037073612 17247213.145767212 0 0 0 0 455376527.62790966 134983393.34016895 0 134983393.34016895 -229880890.62068939 0 0 0 0 550537110.26768112 -12700522.613750458 0 -12700522.613750458 -208591831.10507202 0 0 0 0 510837437.20828056 263575550.22581863 0 263575550.22581863 16039892.32941407 0 0 0 0 366344659.92922783 380393647.62497616 0 380393647.62497616 153033007.34841728 0 0 0 0 27181021.177347183 -5053767.423330307 0 -5053767.423330307 20210985.127626419 0 0 0 0 22112951.659680367 -16939790.776716232 0 -16939790.776716232 -7528917.0593757629 0 0 0 0 2845096.0765800476 7701341.5647144318 0 7701341.5647144318 18662026.413817883 0 0 0 0 71865612.882925034 15581151.782590866 0 15581151.782590866 19561532.416936874 0 0 0 0 10419757.819051743 -34222550.379318237 0 -34222550.379318237 3364280.2846450806 0 0 0 0 37064724.872203827 -10532359.144774437 0 -10532359.144774437 11207847.942146301 0 0 0 0 -416263.18455701158 2636725.5166644575 0 2636725.5166644575 5738075.2949583512 0 0 0 0 -3023295.1597080231 9499255.0841965675 0 9499255.0841965675 23434675.896911621 0 0 0 0 -1549668.8556593237 -1901670.3918574629 0 -1901670.3918574629 2803480.9598588822 0 0 0 0 706804.27144750021 3032657.3697994128 0 3032657.3697994128 801318.18970360514 0 0 0 0 188692.04072904587 528557.70442795753 0 528557.70442795753 -269536.82537269592 0 0 0 0 -45478787.183269501 -23549963.139907837 0 -23549963.139907837 47537908.600566864 0 0 0 0 1310957.440959645 3024708.8707428537 0 3024708.8707428537 758512.9161618771 0 0 0 0 -44351275.844496727 59404958.127096653 0 59404958.127096653 73164803.578613281 0 0 0 0 2691650.944103241 -745449417.17067909 0 -745449417.17067909 -327388965.83659172 0 0 0 0 -147805724.42240906 -92380494.781703949 0 -92380494.781703949 8718719.9188582897 0 0 0 0 -4548925.8322429657 -332734694.66623497 0 -332734694.66623497 -392477226.90397644 0 0 0 0 -221684370.66828489 81718011.956167698 0 81718011.956167698 -36181439.11730957 0 0 0 0 1006841462.5596733 -73850827.995155334 0 -73850827.995155334 -723272199.92163086 0 0 0 0 101120431.35424519 -23576528.79655695 0 -23576528.79655695 -58796734.0754776 0 0 0 0 297040742.91275215 717451401.40151405 0 717451401.40151405 1875698176.2201347 0 0 0 0 1278737250.7441769 -676743572.54429054 0 -676743572.54429054 304355904.03132629 0 0 0 0 -559861804.07984161 165357580.23428154 0 165357580.23428154 366633327.34782791 0 0 0 0 4013709.514395237 -3571676.7072335482 0 -3571676.7072335482 8626705.8576402664 0 0 0 0 -1082682.5367776528 3996795.6747790053 0 3996795.6747790053 7433903.7207614295 0 0 0 0 715589254.56344986 376650002.52744293 0 376650002.52744293 -68687615.150344849 0 0 0 0 1524125131.1082668 591583883.35800171 0 591583883.35800171 -304727000.56275368 0 0 0 0 3117406.5191710191 624163.26965152193 0 624163.26965152193 -892705.61922861263 0 0 0 0 363303719.11052322 768667889.39722061 0 768667889.39722061 1316098036.7526665 0 0 0 0 137130764.87055779 193469000.68025398 0 193469000.68025398 183895443.10863304 0 0 0 0 -13081613.651445866 33918886.667009354 0 33918886.667009354 107111109.76822662 0 0 0 0 -12676720.517120123 17380667.299231052 0 17380667.299231052 -2539810.6359040737 0 0 0 0 593885037.88187659 364079550.49914891 0 364079550.49914891 -39561982.47933197 0 0 0 0 789920189.17753983 555759679.2661314 0 555759679.2661314 43127096.563877106 0 0 0 0 593675962.70205975 368642767.17098856 0 368642767.17098856 -126046244.51295853 0 0 0 0 882960960.60098076 391669531.86100578 0 391669531.86100578 -280619851.20157051 0 0 0 0 1107803419.510519 -267173323.58252144 0 -267173323.58252144 -85145779.907465935 0 0 0 0 1581264927.1257772 613511754.75091505 0 613511754.75091505 -236869786.98303986 0 0 0 0 242798817.67518616 702413615.54439735 0 702413615.54439735 207444407.27400351 0 0 0 0 860319959.41581726 330530561.12369156 0 330530561.12369156 -387794550.94740295 0 0 0 0 17308173.897593498 -4608805.0047656298 0 -4608805.0047656298 710547.82038974762 0 0 0 0 -278831947.4301033 170042681.643013 0 170042681.643013 -90679214.324409485 0 0 0 0 1703859.5169792175 -4840001.492401123 0 -4840001.492401123 8146996.4652271271 0 0 0 0 -164320.35521274782 4324793.027292707 0 4324793.027292707 4675114.7389488565 0 0 0 0 16990723.244774818 -3099408.9170610905 0 -3099408.9170610905 -5321721.891201973 0 0 0 0 21724251.711252213 20583243.309234142 0 20583243.309234142 4752684.9242563248 0 0 0 0 8971370.3538150787 7263746.5676283836 0 7263746.5676283836 -1578317.3386411667 0 0 0 0 10851672.974201202 1891314.2001066208 0 1891314.2001066208 12787769.101923466 0 0 0 0 1922302233.1882973 214283134.75098944 0 214283134.75098944 -62881137.713003635 0 0 0 0 1107326405.8452301 587377458.83302116 0 587377458.83302116 -308151451.57287884 0 0 0 0 826827046.37846756 247568824.88330746 0 247568824.88330746 122267300.94915771 0 0 0 0 -224538.27395501733 243160.52034553071 0 243160.52034553071 424774.18644020706 0 0 0 0 803438856.63670731 490502920.41808224 0 490502920.41808224 90729473.560043335 0 0 0 0 189671.48103266396 621359.82214309927 0 621359.82214309927 1109123.7754651285 0 0 0 0 933484586.19406128 -185210198.30044103 0 -185210198.30044103 764174579.40770912 0 0 0 0 795210036.70113945 848839266.94811153 0 848839266.94811153 684431049.33846855 0 0 0 0 1592250269.9730701 777862540.83360386 0 777862540.83360386 132707702.67577362 0 0 0 0 5918394.3342108727 69991535.938597322 0 69991535.938597322 621818749.45378876 0 0 0 0 -1784040.6830533035 956566.99232066376 0 956566.99232066376 3924970.86734372 0 0 0 0 583653861.36460161 898610169.91209054 0 898610169.91209054 428848144.80712605 0 0 0 0 -1218118.5324800722 492210.42405345384 0 492210.42405345384 840100.48974263598 0 0 0 0 370146506.09675598 154230083.9105494 0 154230083.9105494 -79794320.924063206 0 0 0 0 476212268.67781448 405652690.89177704 0 405652690.89177704 -202787665.48399448 0 0 0 0 761015359.10689104 304209328.34549797 0 304209328.34549797 -10242878.980538845 0 0 0 0 394471511.46338844 489566271.87574911 0 489566271.87574911 2323501.150460124 0 0 0 0 22552572.66431725 68327028.198592976 0 68327028.198592976 23669498.284507453 0 0 0 0 4081756.7860093117 -20197783.198229074 0 -20197783.198229074 -2582378.4368035793 0 0 0 0 24171735.572599888 28643926.388050318 0 28643926.388050318 -5854290.969558239 0 0 0 0 151251976.21171951 -293476420.13075924 0 -293476420.13075924 291333347.89735031 0 0 0 0 539913806.54448509 228728478.16730022 0 228728478.16730022 -115003773.33595133 0 0 0 0 -2518899.6921427445 2206971.5419044662 0 2206971.5419044662 2689037.5985177523 0 0 0 0 370672664.39403152 269799587.11783504 0 269799587.11783504 279212257.46425056 0 0 0 0 -240958233.57176971 77687936.804299593 0 77687936.804299593 94509340.416896343 0 0 0 0 -309744940.12008286 101658765.9063406 0 101658765.9063406 91191089.475092888 0 0 0 0 -247139435.98293877 95942728.682880878 0 95942728.682880878 74978254.031981468 0 0 0 0 -151281130.88573837 60182205.747699738 0 60182205.747699738 17245060.411426544 0 0 0 0 -160157898.31681252 48621988.126343846 0 48621988.126343846 51187028.180639267 0 0 0 0 -217741355.17169762 105702741.05931664 0 105702741.05931664 60199810.823197126 0 0 0 0 -122327356.9090929 121709665.60252239 0 121709665.60252239 5133343.2566148043 0 0 0 0 -37788892.266088486 76882606.364853859 0 76882606.364853859 -3603192.169260025 0 0 0 0 -120343395.87038231 126523672.97042251 0 126523672.97042251 15948114.53776598 0 0 0 0 -230377744.60469818 251722915.67159629 0 251722915.67159629 -104869736.01278934 0 0 0 0 -252909071.62383652 122195439.96216261 0 122195439.96216261 53549960.047439933 0 0 0 0 -254476788.65722156 132503105.98305339 0 132503105.98305339 96207427.873457432 0 0 0 0 -364967032.63895035 236632457.14024436 0 236632457.14024436 32370195.989275813 0 0 0 0 -331553210.76257896 185092347.21135306 0 185092347.21135306 92642420.385612726 0 0 0 0 -686947666.34190464 -153484097.52768117 0 -153484097.52768117 229151528.50529027 0 0 0 0 -61510509.985107422 -152359681.44839311 0 -152359681.44839311 131220922.1780709 0 0 0 0 -1663047.7328351447 845627.53191262763 0 845627.53191262763 2463044.9115517745 0 0 0 0 39082646.841150284 10462279.884248018 0 10462279.884248018 14564762.620653391 0 0 0 0 474121082.05715561 467777352.20225811 0 467777352.20225811 90821782.47693336 0 0 0 0 353158217.96990633 200527618.19474256 0 200527618.19474256 213289471.76259828 0 0 0 0 -24514408.157314301 -7811686.5060653687 0 -7811686.5060653687 13948453.560713336 0 0 0 0 23612745.015005827 7154267.5874629617 0 7154267.5874629617 -12629844.998596191 0 0 0 0 -77141252.520824432 -4262219.1908261776 0 -4262219.1908261776 44474958.13792944 0 0 0 0 -309195473.53640157 -6056547.3590763453 0 -6056547.3590763453 91606110.125770092 0 0 0 0 -72349211.165335655 18689008.211758584 0 18689008.211758584 12932903.529893875 0 0 0 0 -185556806.77777863 82116119.634798765 0 82116119.634798765 4016941.7529277802 0 0 0 0 -98658562.464895248 55844934.667610407 0 55844934.667610407 10260754.76130724 0 0 0 0 -12299909.311655045 11331173.761864901 0 11331173.761864901 -18511059.244496822 0 0 0 0 -3378174.0809669495 -4414036.8324680328 0 -4414036.8324680328 -120104.85975122452 0 0 0 0 -25558142.690092087 -3044142.3558759689 0 -3044142.3558759689 -2268816.7361636162 0 0 0 0 1783987.8815135956 566238.73507595062 0 566238.73507595062 -9415986.5312576294 0 0 0 0 -52571604.143325806 -14684704.7027421 0 -14684704.7027421 12546752.687719822 0 0 0 0 -39128164.005009174 47097864.597968876 0 47097864.597968876 -59017723.019443512 0 0 0 0 21882496.031230927 66081415.334984303 0 66081415.334984303 -141965593.28610098 0 0 0 0 -422457040.80721283 126529866.10094023 0 126529866.10094023 85618157.553061008 0 0 0 0 -221014547.70923042 213538562.71214104 0 213538562.71214104 -113267312.86421871 0 0 0 0 -260870851.36906052 103860694.09192133 0 103860694.09192133 70951276.423211098 0 0 0 0 -152300540.60750484 -2746771.6073793024 0 -2746771.6073793024 18015836.420824051 0 0 0 0 -152769012.56535721 -7858810.9343104362 0 -7858810.9343104362 53759595.161463737 0 0 0 0 -277902995.08784866 29442789.865793705 0 29442789.865793705 56536321.549203873 0 0 0 0 -372131921.79587555 -12864300.263381004 0 -12864300.263381004 82275191.956193447 0 0 0 0 -31901753.873325348 143449556.26887274 0 143449556.26887274 -252641853.93391466 0 0 0 0 -1671769.1036913451 -81645.399569982896 0 -81645.399569982896 799749.5805082696 0 0 0 0 -162393.70449478924 2548279.0293479101 0 2548279.0293479101 944823.39302114327 0 0 0 0 -1174816980.6559906 181507029.89908504 0 181507029.89908504 116348701.24310637 0 0 0 0 -176429370.19636917 -64688120.47858572 0 -64688120.47858572 56756211.431860924 0 0 0 0 -680521445.85010636 -142100977.23254859 0 -142100977.23254859 216231974.98927402 0 0 0 0 -748822859.04515266 465852019.8008554 0 465852019.8008554 -89142048.709009171 0 0 0 0 -234524760.36338139 -236542644.83878255 0 -236542644.83878255 200394477.0748539 0 0 0 0 -547884728.59278107 132477991.9570539 0 132477991.9570539 52177720.007116318 0 0 0 0 -176936417.39820862 -237123955.03004074 0 -237123955.03004074 101077744.39311695 0 0 0 0 -172175905.96380329 -291305997.4913044 0 -291305997.4913044 73117115.823339462 0 0 0 0 -186753421.85510635 -293394992.1858139 0 -293394992.1858139 120143364.98626137 0 0 0 0 -158134975.81112289 -274879535.80243683 0 -274879535.80243683 25030104.809421539 0 0 0 0 -130124068.66337204 427852349.73588943 0 427852349.73588943 -664507462.38977623 0 0 0 0 -1837400.9945977125 -277304.00112446398 0 -277304.00112446398 161534.62656173832 0 0 0 0 -1021816545.8373394 498703441.39903641 0 498703441.39903641 146996332.07546043 0 0 0 0 -126136460.85349274 -205596910.96132088 0 -205596910.96132088 -4477167.9108552933 0 0 0 0 -322203747.80106735 -83107931.136822224 0 -83107931.136822224 62371997.900232315 0 0 0 0 89379053.872440338 -34548994.852632523 0 -34548994.852632523 64748899.741888046 0 0 0 0 -4171128.8589461325 1530714.7813502839 0 1530714.7813502839 2819290.7368688062 0 0 0 0 -3822366.852640152 -2976138.7356753349 0 -2976138.7356753349 26851218.642124176 0 0 0 0 140267952.14543915 75332348.162570953 0 75332348.162570953 69797764.453739166 0 0 0 0 -3562275.0665473938 -15584455.227611542 0 -15584455.227611542 6109638.5571398735 0 0 0 0 -21889176.13136673 26726618.011057377 0 26726618.011057377 42128411.387277126 0 0 0 0 -3668282.6273788493 476474.35879492923 0 476474.35879492923 1872387.0525887287 0 0 0 0 -388891729.86743212 406861475.38971579 0 406861475.38971579 293221198.62585258 0 0 0 0 385035303.26112556 -305301613.78722763 0 -305301613.78722763 -378956326.48590589 0 0 0 0 264483860.91354179 145257724.88323879 0 145257724.88323879 -432914575.85839844 0 0 0 0 151575099.69453621 -194130729.49467754 0 -194130729.49467754 110887344.09914541 0 0 0 0 118294380.63207626 6810681.0339984894 0 6810681.0339984894 7497557.4543933868 0 0 0 0 280982444.72681403 39936595.558086038 0 39936595.558086038 3166625.0958137512 0 0 0 0 3453091.2876262665 -314215.19756889343 0 -314215.19756889343 670007.22195625305 0 0 0 0 -2501657.3171977997 19411.079934120178 0 19411.079934120178 7695907.778459549 0 0 0 0 2152264.5856363494 1144387.5294387219 0 1144387.5294387219 959821.85226011975 0 0 0 0 -5394359.9240398407 4701638.6861228943 0 4701638.6861228943 4788253.5890083313 0 0 0 0 3750603.1681828499 -3724112.1439609528 0 -3724112.1439609528 -18120497.462238312 0 0 0 0 -25567764.501819611 -37786980.807064056 0 -37786980.807064056 -28080751.861389875 0 0 0 0 -15291323.707183838 -11966114.787373543 0 -11966114.787373543 4793605.406308651 0 0 0 0 2445534.7154521942 2574266.3989210129 0 2574266.3989210129 -7606123.8051605225 0 0 0 0 -80195499.264598846 73990988.934108734 0 73990988.934108734 -114104657.36397719 0 0 0 0 -63366587.897768021 258611790.12480211 0 258611790.12480211 -137385524.30651283 0 0 0 0 166419312.29304218 4788950.9092068672 0 4788950.9092068672 -535864650.7386322 0 0 0 0 -565750582.15953827 -20698250.596004486 0 -20698250.596004486 320524060.38162804 0 0 0 0 398737.79421387333 186935.00431135017 0 186935.00431135017 243641.9673192685 0 0 0 0 -28022861.423461914 -43259987.238447189 0 -43259987.238447189 -57784720.87863493 0 0 0 0 -117391803.70914459 -41253124.647082329 0 -41253124.647082329 -19457131.642719269 0 0 0 0 -48475539.160144806 -57284409.840863228 0 -57284409.840863228 -25509393.216409206 0 0 0 0 -151025022.63409472 43046501.23982501 0 43046501.23982501 -95293076.382190704 0 0 0 0 -93275036.897985458 -53204656.332554817 0 -53204656.332554817 -44864327.840021133 0 0 0 0 -59959277.904668808 -36400033.146105766 0 -36400033.146105766 58589367.310484886 0 0 0 0 -99660037.130399704 -13358029.892994881 0 -13358029.892994881 45775470.81038475 0 0 0 0 -41316897.604424477 -23070290.993055344 0 -23070290.993055344 25355172.615498543 0 0 0 0 -45138975.181617737 -43387770.04668498 0 -43387770.04668498 21046336.783819199 0 0 0 0 -53866638.530492783 -21283458.459971905 0 -21283458.459971905 51849747.265907288 0 0 0 0 -49996460.676174164 3859451.9144029617 0 3859451.9144029617 75912403.633330345 0 0 0 0 30953969.680752754 45759617.111704826 0 45759617.111704826 65491672.392794132 0 0 0 0 -41440587.839137554 24940349.526998401 0 24940349.526998401 120054606.77864647 0 0 0 0 -5459753.0860424042 36347899.053576946 0 36347899.053576946 80560245.991903305 0 0 0 0 222937.15857505798 31627193.562431812 0 31627193.562431812 47659205.294210434 0 0 0 0 -31273918.165945053 25683111.116768837 0 25683111.116768837 60170095.647382736 0 0 0 0 32694369.799023867 46980494.079894543 0 46980494.079894543 16172685.387798309 0 0 0 0 -11654022.985752106 27621819.601565361 0 27621819.601565361 27153309.422779679 0 0 0 0 113944550.74481392 64365188.950170517 0 64365188.950170517 -12991799.036808014 0 0 0 0 29525074.133451462 85600167.411783695 0 85600167.411783695 74330585.994447529 0 0 0 0 -9701536.8841845226 16986241.910542287 0 16986241.910542287 -16422298.875627041 0 0 0 0 89013548.702003479 -4929540.2871398926 0 -4929540.2871398926 -65287331.422779083 0 0 0 0 13139183.061355591 40674961.896381378 0 40674961.896381378 -5412029.3016433716 0 0 0 0 13872745.004325867 34956692.551048279 0 34956692.551048279 -25884912.279304504 0 0 0 0 69470366.785525322 72234338.655945778 0 72234338.655945778 -3638352.4637145996 0 0 0 0 6466233.5140571594 24297861.775177002 0 24297861.775177002 -2445387.2632493973 0 0 0 0 -2454811.6636123657 -38532507.87436676 0 -38532507.87436676 -53372421.751499176 0 0 0 0 4939686.488735199 5166528.9691352844 0 5166528.9691352844 -24688987.815475464 0 0 0 0 39395311.233917236 20133227.070964813 0 20133227.070964813 -18411318.434013367 0 0 0 0 -15715345.980974197 39534771.259448051 0 39534771.259448051 -5088862.9794626236 0 0 0 0 -58387595.245113373 -6269576.7731981277 0 -6269576.7731981277 14712589.281626225 0 0 0 0 -29659000.827194214 13162819.010995865 0 13162819.010995865 20914711.474403381 0 0 0 0 -81657289.781763077 480842.37894153595 0 480842.37894153595 36980332.334207535 0 0 0 0 -62797669.820919037 20436395.164317131 0 20436395.164317131 41674640.090459824 0 0 0 0 -90692818.694042206 19828099.91578126 0 19828099.91578126 38867778.650766373 0 0 0 0 -2918246.4902148321 3408975.4179514106 0 3408975.4179514106 7989654.7331636269 0 0 0 0 70745536.722459912 -20847871.259205103 0 -20847871.259205103 6123014.212310791 0 0 0 0 145508.04170329124 80615.739157184958 0 80615.739157184958 -27613.030106021091 0 0 0 0 76704993.472513199 47528152.272205353 0 47528152.272205353 42286727.611988068 0 0 0 0 -13035500.703994751 71255050.578261375 0 71255050.578261375 -473800.94324684143 0 0 0 0 -42914760.381881714 -20659047.604950905 0 -20659047.604950905 33961622.768949509 0 0 0 0 -43104101.499755859 -12930866.602451324 0 -12930866.602451324 8699378.8794695735 0 0 0 0 -51637385.821910858 -1862126.6003522873 0 -1862126.6003522873 42125761.811405361 0 0 0 0 -40483545.090267181 701911.18467521667 0 701911.18467521667 30134572.855983734 0 0 0 0 -62428624.764219284 18846340.433806419 0 18846340.433806419 9559161.1351470947 0 0 0 0 56821323.652309895 -13616991.88675642 0 -13616991.88675642 -6239234.9466056824 0 0 0 0 -1636416.603721248 1862729.9477106435 0 1862729.9477106435 7358900.8597279191 0 0 0 0 -35655006.802511215 -16374171.525346756 0 -16374171.525346756 7235346.6151866913 0 0 0 0 23879578.83149147 6528707.4715766907 0 6528707.4715766907 7100727.4057855606 0 0 0 0 297981.5783165535 160696.43565395009 0 160696.43565395009 -50547.66385981068 0 0 0 0 36919594.973124743 -4155482.2451379299 0 -4155482.2451379299 3803030.8236236572 0 0 0 0 84214030.700370789 -36730712.225736618 0 -36730712.225736618 -19095197.261899948 0 0 0 0 38800124.519427419 15016226.283174992 0 15016226.283174992 -30819929.796009064 0 0 0 0 21277599.309497833 -22537733.450017929 0 -22537733.450017929 7096052.1023483276 0 0 0 0 47912359.761974335 -16608840.232658386 0 -16608840.232658386 -37665351.492931366 0 0 0 0 102210220.16121292 101720362.70664787 0 101720362.70664787 99674793.911244392 0 0 0 0 199163227.68707371 77043757.294261932 0 77043757.294261932 38550366.337453842 0 0 0 0 97459313.577072144 -36934777.188400269 0 -36934777.188400269 3299867.8212628365 0 0 0 0 106580767.43638611 -29116984.342556 0 -29116984.342556 -50787399.810668945 0 0 0 0 102888683.56810188 9470886.1752252579 0 9470886.1752252579 -40990269.305007935 0 0 0 0 66215365.589439392 -10631602.499528885 0 -10631602.499528885 11101201.944446564 0 0 0 0 -50720802.559169769 16734346.010351181 0 16734346.010351181 -34062909.631149292 0 0 0 0 103044837.9521637 -21983745.301198959 0 -21983745.301198959 -52753335.274723053 0 0 0 0 118071817.1515274 -54999761.426073074 0 -54999761.426073074 -39605340.083972931 0 0 0 0 343594808.30512238 52035479.813072205 0 52035479.813072205 -31213264.808253527 0 0 0 0 41226722.734153748 -19401077.516788483 0 -19401077.516788483 -28831311.410770416 0 0 0 0 51800699.273637295 -17709046.812982082 0 -17709046.812982082 -95537192.955547333 0 0 0 0 -26476682.265890121 52941821.300461769 0 52941821.300461769 16695105.682868958 0 0 0 0 -14450319.748267174 1279709.6476554871 0 1279709.6476554871 -9151833.06665802 0 0 0 0 64038250.618837357 55957589.166185379 0 55957589.166185379 840348.6502456665 0 0 0 0 59511745.389036179 -6075362.5821285248 0 -6075362.5821285248 -41586655.83644104 0 0 0 0 96223539.326440811 -10656927.115179062 0 -10656927.115179062 -53443975.28068924 0 0 0 0 92146688.995075226 -9941944.4713039398 0 -9941944.4713039398 -42143499.775945663 0 0 0 0 106945462.73778725 111304950.55720711 0 111304950.55720711 39335238.555427551 0 0 0 0 227952673.24397278 15082810.894550323 0 15082810.894550323 -50651806.78436327 0 0 0 0 -15056688.304382324 62581263.679519653 0 62581263.679519653 54271090.193688393 0 0 0 0 6089703.9989051819 21365693.069135666 0 21365693.069135666 -767149.60507202148 0 0 0 0 17124063.26077652 47699405.564094543 0 47699405.564094543 8793473.0320529938 0 0 0 0 13486329.813648224 52956668.226387978 0 52956668.226387978 20098460.067970276 0 0 0 0 8281058.4878005981 44319661.141876221 0 44319661.141876221 5795838.2385864258 0 0 0 0 286195.87299346924 23273891.720439911 0 23273891.720439911 16516687.36004734 0 0 0 0 5277873.4147014618 25244874.749817848 0 25244874.749817848 -1167195.2425079346 0 0 0 0 -3947661.8171539307 12298424.051055908 0 12298424.051055908 -8939206.8124275208 0 0 0 0 -1856845.9381313324 12466710.269144058 0 12466710.269144058 -14785453.811668396 0 0 0 0 -11410744.156677246 13395025.626209259 0 13395025.626209259 -10567374.239009857 0 0 0 0 -388418.5068359375 23458991.994965553 0 23458991.994965553 -1441733.5299301147 0 0 0 0 -432506.50410969718 1810758.4468768537 0 1810758.4468768537 -394390.52485325374 0 0 0 0 275490699.05508041 121516404.05157471 0 121516404.05157471 35488362.911521912 0 0 0 0 -59188332.949098587 27921588.790399551 0 27921588.790399551 27050420.440364838 0 0 0 0 -159810.21627459489 435071.17793813813 0 435071.17793813813 -476670.93242380209 0 0 0 0 -10507922.848155022 15165216.171290874 0 15165216.171290874 -19753660.59299469 0 0 0 0 231946414.52719879 -129755330.56124687 0 -129755330.56124687 -152938017.68635941 0 0 0 0 100432561.64025593 163371932.20147896 0 163371932.20147896 360170336.18639374 0 0 0 0 3225012.1429920197 3640795.1092643738 0 3640795.1092643738 -5020367.4389801025 0 0 0 0 1511376.3427685555 3170589.4279843066 0 3170589.4279843066 -6133208.9906959496 0 0 0 0 -5904755.3772506714 11610648.603176117 0 11610648.603176117 -12776770.903053284 0 0 0 0 -2653143.6343176626 4893627.8506751936 0 4893627.8506751936 -1001644.2559870221 0 0 0 0 -8261857.3694629669 11803450.991765022 0 11803450.991765022 -12792533.312767029 0 0 0 0 -11718823.811203003 22826980.55651474 0 22826980.55651474 -19950410.557048738 0 0 0 0 -2439490.7626084341 3601611.5499746529 0 3601611.5499746529 -74484.729296740144 0 0 0 0 -13197588.487930298 21298455.749885559 0 21298455.749885559 -14896398.214122772 0 0 0 0 922405.86697726697 755055.79533256032 0 755055.79533256032 347282.24379520118 0 0 0 0 -79427584.297426701 132293437.56397915 0 132293437.56397915 -109128968.86927986 0 0 0 0 -66289592.452326775 114081288.18361187 0 114081288.18361187 -137019828.06006622 0 0 0 0 17504895.084169388 -88542672.269742966 0 -88542672.269742966 -3218292.8176307678 0 0 0 0 -63254793.795572281 108334410.84946823 0 108334410.84946823 134484398.67538071 0 0 0 0 321452985.96761179 76884475.501464367 0 76884475.501464367 -126215869.47713852 0 0 0 0 434191.9756518025 309937.10648076609 0 309937.10648076609 121335.97904424183 0 0 0 0 -86319896.206649303 36600044.919312954 0 36600044.919312954 55061082.344284058 0 0 0 0 -81221108.184540272 19657644.302719116 0 19657644.302719116 43952342.312389374 0 0 0 0 -7251656.0367450714 68999893.525730133 0 68999893.525730133 22653442.738750458 0 0 0 0 -95787907.563436508 56641195.081663132 0 56641195.081663132 78636498.997220993 0 0 0 0 -6394433.6295018494 107412018.7751359 0 107412018.7751359 -143361.09962463379 0 0 0 0 121336131.06864548 222721487.3676796 0 222721487.3676796 99212973.429373741 0 0 0 0 119192415.38056946 73565659.063999176 0 73565659.063999176 -22350072.225410461 0 0 0 0 17727628.169971943 42760299.922167778 0 42760299.922167778 2836008.0195655823 0 0 0 0 20981054.717213631 46375055.22814703 0 46375055.22814703 -28303564.846504211 0 0 0 0 -38619088.108072281 27149113.43438673 0 27149113.43438673 14664020.838310242 0 0 0 0 -26605428.15316391 56715208.846282959 0 56715208.846282959 16894431.675135612 0 0 0 0 3615491.3756027222 3066187.1595726013 0 3066187.1595726013 -1714238.2947635651 0 0 0 0 -426385.77054242813 6739248.0181026459 0 6739248.0181026459 -3265850.513593141 0 0 0 0 2661530.3471479416 4532622.8466844559 0 4532622.8466844559 -1552539.7373580933 0 0 0 0 276797.16023302078 5334536.6638054848 0 5334536.6638054848 -1715523.2126922607 0 0 0 0 571044.45182490349 3127444.4120764732 0 3127444.4120764732 -1270813.8124694824 0 0 0 0 1136285.9559564735 6085077.5957502769 0 6085077.5957502769 -7775687.6202723775 0 0 0 0 -1462740.661605835 -10984555.848955154 0 -10984555.848955154 -34431689.520217896 0 0 0 0 404475936.17411995 103216910.7783165 0 103216910.7783165 -236076508.84118652 0 0 0 0 82433898.841270447 -27256071.501796722 0 -27256071.501796722 -143131474.96669197 0 0 0 0 41103503.854324341 25370103.189319611 0 25370103.189319611 -7094315.7234039307 0 0 0 0 -3152026.9824957848 18520111.362052917 0 18520111.362052917 -3725448.7103883028 0 0 0 0 476829.26928806305 9863580.1715393066 0 9863580.1715393066 -3554812.2323338985 0 0 0 0 -4130634.8633025289 8214709.9290869236 0 8214709.9290869236 1662642.6021728516 0 0 0 0 -20757591.2146101 13687456.44934082 0 13687456.44934082 -2449040.5648269653 0 0 0 0 -6860675.3617286682 13905991.078552246 0 13905991.078552246 -4540148.8119354248 0 0 0 0 -967206.41199600138 5503440.9657730423 0 5503440.9657730423 -1334385.1091969199 0 0 0 0 811038.23600769043 5643734.1234893799 0 5643734.1234893799 -2938581.0511474609 0 0 0 0 3481869.153357029 15151870.80789566 0 15151870.80789566 -10629764.063468933 0 0 0 0 3682398.2310905457 3406339.4260253906 0 3406339.4260253906 -2536369.5447616577 0 0 0 0 456777.66976261139 2997222.5832633972 0 2997222.5832633972 -1189781.6777648926 0 0 0 0 -1354972.9639190861 4395396.9102854785 0 4395396.9102854785 19272.958026248962 0 0 0 0 2193910.846229245 2976316.6133704437 0 2976316.6133704437 -4703923.0822015069 0 0 0 0 2686902.4158124924 4743173.372833252 0 4743173.372833252 -5696693.2830238342 0 0 0 0 -6635348.1833281964 2578423.7660332322 0 2578423.7660332322 1213289.18699646 0 0 0 0 13129247.640491486 -18591269.883140564 0 -18591269.883140564 5056450.1370391846 0 0 0 0 17396276.658818245 3975949.7859191895 0 3975949.7859191895 -13988820.350959778 0 0 0 0 -16593316.116820335 -15155211.097751617 0 -15155211.097751617 -5861155.3874969482 0 0 0 0 23273888.27043581 -1274710.0566492081 0 -1274710.0566492081 -17275459.737365723 0 0 0 0 -11898518.239519119 -935552.5491104126 0 -935552.5491104126 14346870.743026733 0 0 0 0 14462073.971351624 -6415689.4939689636 0 -6415689.4939689636 -50474635.287239075 0 0 0 0 -139638.78918492945 472153.51153188571 0 472153.51153188571 206679.10499323159 0 0 0 0 35865482.89221859 39065377.925443649 0 39065377.925443649 -202577.41014099121 0 0 0 0 10465087.429460526 33850453.964286804 0 33850453.964286804 2049514.8023605347 0 0 0 0 31263816.521698952 25666350.365589142 0 25666350.365589142 -13235176.303024292 0 0 0 0 7065828.9526481628 14692012.712409973 0 14692012.712409973 -11993092.058708191 0 0 0 0 -11525118.0253582 -4999858.3992767334 0 -4999858.3992767334 -32437732.075309753 0 0 0 0 11708216.367812859 9242007.4902560618 0 9242007.4902560618 -6988392.4361888859 0 0 0 0 6536570.5210707188 17087604.192306519 0 17087604.192306519 -10745420.161987305 0 0 0 0 7970494.2875857353 29501763.615852356 0 29501763.615852356 -32510188.823440552 0 0 0 0 21259479.823041916 27897420.916881561 0 27897420.916881561 -23001704.463233948 0 0 0 0 7065250.2859450448 9832391.5880175121 0 9832391.5880175121 -7589812.3484806996 0 0 0 0 27122940.281097412 1222349.1381702423 0 1222349.1381702423 -21433277.219825745 0 0 0 0 8855611.8058605194 19612056.44716835 0 19612056.44716835 -17234044.638084412 0 0 0 0 33022024.328794479 20581573.612325668 0 20581573.612325668 -14076040.211906433 0 0 0 0 -7872752.1225413261 17982626.11822404 0 17982626.11822404 -14152920.96705164 0 0 0 0 29338466.235729694 17279696.375543594 0 17279696.375543594 -16969240.591369629 0 0 0 0 25183082.371938705 30517902.791505814 0 30517902.791505814 -15481837.676750183 0 0 0 0 -28233540.908912659 51096118.477053642 0 51096118.477053642 19159423.237665653 0 0 0 0 -38451617.543388367 -586176.36323833466 0 -586176.36323833466 -5453874.4855651855 0 0 0 0 -4059574.9482583618 9850302.1762397364 0 9850302.1762397364 6263158.8993630512 0 0 0 0 -26534995.847938538 46759492.158184052 0 46759492.158184052 28097022.207594723 0 0 0 0 -24223226.816975951 14743812.742173553 0 14743812.742173553 -8822467.3417739868 0 0 0 0 -23658560.035031438 2301533.8212800026 0 2301533.8212800026 -12557726.829185486 0 0 0 0 -8236206.6769866943 6988057.4813766479 0 6988057.4813766479 -12067190.352714539 0 0 0 0 -6588890.3492431641 9046669.6901855469 0 9046669.6901855469 -12436856.179302216 0 0 0 0 1863990.652299881 16099970.473430634 0 16099970.473430634 -12963208.409309387 0 0 0 0 -3799698.3502197266 12979907.0807724 0 12979907.0807724 -9895458.2721481323 0 0 0 0 -18878191.396294355 17439009.320489645 0 17439009.320489645 -12037084.496269226 0 0 0 0 -9059391.8374443054 11381908.879863739 0 11381908.879863739 -13428971.534645081 0 0 0 0 -17596057.627342224 7066164.7736740112 0 7066164.7736740112 -10849142.814853668 0 0 0 0 -11054167.091972351 11134021.804534912 0 11134021.804534912 -13402917.104530334 0 0 0 0 -15505849.695976257 13406581.615627289 0 13406581.615627289 -12042744.261299133 0 0 0 0 2250717.2442092896 4155067.3455581665 0 4155067.3455581665 -2144072.4237136841 0 0 0 0 -4407552.792350769 10512279.178157806 0 10512279.178157806 -10483995.607017517 0 0 0 0 -177993.2190573141 8068954.0811148873 0 8068954.0811148873 -3156295.0034604892 0 0 0 0 -9745748.6396903992 13856355.231506348 0 13856355.231506348 -12578064.868806839 0 0 0 0 -5845673.0284953117 13483835.125684291 0 13483835.125684291 -11785497.052337646 0 0 0 0 -6580480.2252693176 12237437.843524933 0 12237437.843524933 -14786420.97107029 0 0 0 0 -6537360.8388366699 11776082.39812851 0 11776082.39812851 -14244027.364143372 0 0 0 0 1986424.8573913574 4038582.5209503174 0 4038582.5209503174 1331882.9087219238 0 0 0 0 -7198522.3005828857 7323184.8712768555 0 7323184.8712768555 -13135243.783086777 0 0 0 0 2384895.8833573367 4465289.685040825 0 4465289.685040825 -5427284.153198231 0 0 0 0 -10646780.622268677 17382861.748558044 0 17382861.748558044 -15905867.053016663 0 0 0 0 -2997721.9991519861 9076653.1354416609 0 9076653.1354416609 1093733.465848824 0 0 0 0 -553667.56230201945 622992.91424017958 0 622992.91424017958 -310462.70153337903 0 0 0 0 -13084716.230804443 11564137.246078491 0 11564137.246078491 -18123373.702583313 0 0 0 0 -584341.53319571412 11653529.528942553 0 11653529.528942553 -8148552.9852823354 0 0 0 0 -494959.50821876526 3582279.2086486816 0 3582279.2086486816 -439646.67791748047 0 0 0 0 -1045471.0512328558 4928187.332489159 0 4928187.332489159 -5238763.4998235628 0 0 0 0 -179001539.29181099 -212757553.46451998 0 -212757553.46451998 -287814.81743621826 0 0 0 0 286996740.1173954 -82105964.661420822 0 -82105964.661420822 -72312649.627428055 0 0 0 0 -29275554.325699806 -73309426.648303986 0 -73309426.648303986 -20783290.047763824 0 0 0 0 -178201496.70784378 5718700.0573539734 0 5718700.0573539734 -41238355.743070602 0 0 0 0 17514.324710632674 185728.35420864634 0 185728.35420864634 -208247.78943949193 0 0 0 0 279487131.15877533 183676945.40301037 0 183676945.40301037 -41993018.041473389 0 0 0 0 -13912417.223775864 -54782467.929018021 0 -54782467.929018021 -42135330.761455536 0 0 0 0 -34566807.008110046 -106904440.45170403 0 -106904440.45170403 -46380421.505021095 0 0 0 0 -82410149.043186188 165353881.90647221 0 165353881.90647221 -88390264.511978149 0 0 0 0 148493.20991673926 194622.13421289902 0 194622.13421289902 -697936.86817641929 0 0 0 0 352183867.55873489 -23817455.328199387 0 -23817455.328199387 -99461432.753997564 0 0 0 0 -3212737.0340743065 -1352165.023349762 0 -1352165.023349762 18560987.59419632 0 0 0 0 156416626.94008446 118399184.08912659 0 118399184.08912659 51594621.987800121 0 0 0 0 245060125.55290031 216603371.85383701 0 216603371.85383701 -79574173.048736572 0 0 0 0 647902285.80257225 440077812.98230267 0 440077812.98230267 33924025.578201294 0 0 0 0 726318775.6313076 46490482.45052433 0 46490482.45052433 -179322699.79526615 0 0 0 0 258475053.35045815 169707387.95056343 0 169707387.95056343 36537229.971029997 0 0 0 0 223016693.09154701 206239589.64672852 0 206239589.64672852 -37088607.716714859 0 0 0 0 -48733679.586053848 40776349.34929657 0 40776349.34929657 50414503.481466293 0 0 0 0 455319.34053259902 382675.10336326249 0 382675.10336326249 196451.31079998612 0 0 0 0 347401703.48329425 78868200.314270973 0 78868200.314270973 -237860589.7244339 0 0 0 0 300918840.59212828 350442055.16645241 0 350442055.16645241 173336907.73395348 0 0 0 0 401250656.21175003 347352216.89643764 0 347352216.89643764 15246861.237505436 0 0 0 0 149833725.86821938 100696407.3713069 0 100696407.3713069 170278534.77247238 0 0 0 0 388609698.75391769 267305376.12147713 0 267305376.12147713 170089501.79673862 0 0 0 0 341691342.62471676 368545066.63152981 0 368545066.63152981 135610294.93772888 0 0 0 0 -32069051.878183365 311395665.56916809 0 311395665.56916809 301087480.70765018 0 0 0 0 356214573.70412135 387590633.41153049 0 387590633.41153049 151334691.83620834 0 0 0 0 186791685.20930099 150938764.93376923 0 150938764.93376923 290591526.4087131 0 0 0 0 184902954.35855198 195349178.02898836 0 195349178.02898836 144839697.07600784 0 0 0 0 -6980463.7065601349 83339679.967624664 0 83339679.967624664 163479050.03331852 0 0 0 0 -8599827.0249233246 154633921.61819363 0 154633921.61819363 -168517230.17813015 0 0 0 0 10016737.570919037 6274102.1644620895 0 6274102.1644620895 -26250471.980730057 0 0 0 0 -54204632.775918961 159050223.57899189 0 159050223.57899189 -162016684.98931313 0 0 0 0 967338.80246781185 820118.78895293269 0 820118.78895293269 400204.87039662898 0 0 0 0 -91550542.493876457 116227305.69507027 0 116227305.69507027 28970892.030986786 0 0 0 0 -57988403.970899582 7485817.479549408 0 7485817.479549408 4730062.2593784332 0 0 0 0 -18554305.290748596 54923211.709877014 0 54923211.709877014 58747975.529560089 0 0 0 0 -76707.422336539719 1838462.8049103511 0 1838462.8049103511 946590.9773178976 0 0 0 0 -103155982.10801125 -144905.37235546112 0 -144905.37235546112 32746619.467357635 0 0 0 0 -32937766.58650589 22898143.239240646 0 22898143.239240646 11634175.941162109 0 0 0 0 -41104538.628324509 18929569.818703651 0 18929569.818703651 16489070.846515656 0 0 0 0 -1566710.6470021862 7319258.5317458613 0 7319258.5317458613 4644212.6566471625 0 0 0 0 8007260.1192321777 29214183.504772186 0 29214183.504772186 6697571.0472211838 0 0 0 0 2880610.6248887097 1619313.5313737504 0 1619313.5313737504 -4475041.603336554 0 0 0 0 44386890.664979935 11068493.005221844 0 11068493.005221844 -18232696.714981079 0 0 0 0 58087057.214528561 58028687.182328224 0 58028687.182328224 47365542.868377686 0 0 0 0 31224230.219264984 24485373.570716858 0 24485373.570716858 7217555.410118103 0 0 0 0 30755113.040065765 25463036.660266876 0 25463036.660266876 19883518.153196335 0 0 0 0 37115445.488876343 26023208.579833984 0 26023208.579833984 -16169422.491130829 0 0 0 0 38885394.033224106 18201474.713892937 0 18201474.713892937 -8996726.8265037537 0 0 0 0 29720769.192689896 21956808.349482536 0 21956808.349482536 -30778661.567989349 0 0 0 0 28295058.517181396 31104500.652575493 0 31104500.652575493 10705341.319137573 0 0 0 0 52411597.603404999 20184679.584833145 0 20184679.584833145 9623094.1301491261 0 0 0 0 8397573.1877288818 21605914.138727188 0 21605914.138727188 95599807.363006592 0 0 0 0 116017889.65347862 82958409.560937881 0 82958409.560937881 78396154.255290985 0 0 0 0 -7917335.161026001 12039465.106857777 0 12039465.106857777 78698404.904834747 0 0 0 0 40130509.874307632 387483.4813785553 0 387483.4813785553 50581325.830284119 0 0 0 0 98958439.139623642 55656417.943379402 0 55656417.943379402 -20795079.02923584 0 0 0 0 78230570.582457542 124720994.44295883 0 124720994.44295883 173983374.03535843 0 0 0 0 316778481.65412426 499427576.44292688 0 499427576.44292688 346261429.74005127 0 0 0 0 245674.00608965347 1480649.5424344232 0 1480649.5424344232 1238761.0695063695 0 0 0 0 -256857906.30613899 -24556368.429851532 0 -24556368.429851532 264571683.45627975 0 0 0 0 2125283214.269485 280877027.64061189 0 280877027.64061189 81087977.293117523 0 0 0 0 -60354843.340206146 234076188.138937 0 234076188.138937 483360930.06305885 0 0 0 0 -36553757.543085098 89855426.501047134 0 89855426.501047134 -20437728.304416656 0 0 0 0 55321630.85869503 31163490.644376755 0 31163490.644376755 -31219269.106143951 0 0 0 0 -148043371.13474846 42865236.913778305 0 42865236.913778305 7886982.1836471558 0 0 0 0 300891.67183365696 4288776.304527319 0 4288776.304527319 4088509.5072637722 0 0 0 0 2031674424.0583706 -467154928.12019253 0 -467154928.12019253 -299392942.94995117 0 0 0 0 230059004.81584549 -487386636.5146637 0 -487386636.5146637 514471264.00294495 0 0 0 0 622270321.24637794 -29328994.215288162 0 -29328994.215288162 349993589.8705349 0 0 0 0 1039748816.441185 273050786.82414627 0 273050786.82414627 82637129.809247971 0 0 0 0 228838899.47846985 34670071.080200195 0 34670071.080200195 110585691.27313995 0 0 0 0 245005396.06346893 713439874.50912857 0 713439874.50912857 -429474907.8637085 0 0 0 0 310323528.71986628 98012176.545443535 0 98012176.545443535 -695218781.82131195 0 0 0 0 -189673439.18979836 218826939.53455162 0 218826939.53455162 15373150.621402979 0 0 0 0 480100883.71144104 425299447.80965614 0 425299447.80965614 186979809.67045212 0 0 0 0 43539379.423028946 102626785.68551636 0 102626785.68551636 24231786.434603214 0 0 0 0 -77198635.282144547 150500604.03684235 0 150500604.03684235 193569615.8975296 0 0 0 0 -336354029.28017044 -103646199.8505249 0 -103646199.8505249 290138052.04196453 0 0 0 0 -69011602.322183609 93529264.268242836 0 93529264.268242836 546740901.59926605 0 0 0 0 495133276.1876545 379937557.95378113 0 379937557.95378113 676799027.75509644 0 0 0 0 249462714.80030823 -99652662.610363007 0 -99652662.610363007 270605547.18300056 0 0 0 0 298381187.10008335 -172456911.41483974 0 -172456911.41483974 378709044.48332214 0 0 0 0 -42316606.527166367 -201045423.60302925 0 -201045423.60302925 214927713.42961884 0 0 0 0 -18587795.452486038 100278652.26781654 0 100278652.26781654 231697702.15283203 0 0 0 0 12235564.536086246 4015328.1822839342 0 4015328.1822839342 -3140697.0685918815 0 0 0 0 208264089.34646606 -71720696.224891663 0 -71720696.224891663 4621609.8080596924 0 0 0 0 286465319.85589218 88303944.998924255 0 88303944.998924255 -143465228.8011198 0 0 0 0 -4626914.4769897461 4776913.2378082275 0 4776913.2378082275 4544705.5581512451 0 0 0 0 394679661.80026245 37383773.162719727 0 37383773.162719727 -138411534.25054646 0 0 0 0 438847361.59321404 -77665651.986724854 0 -77665651.986724854 -428620979.54682922 0 0 0 0 154522124.65511322 -971534674.69003296 0 -971534674.69003296 1293086768.4340973 0 0 0 0 758002825.63941193 -1906815492.7418442 0 -1906815492.7418442 -1124869196.4534874 0 0 0 0 406128231.39920044 561416948.91188812 0 561416948.91188812 -166062158.50424194 0 0 0 0 693282963.55433655 530465668.81161499 0 530465668.81161499 -862492547.58242702 0 0 0 0 834784486.21728611 197479528.62075806 0 197479528.62075806 -248772718.7890625 0 0 0 0 459646088.15569305 213724503.93815613 0 213724503.93815613 -233717921.66971207 0 0 0 0 511421472.40686417 308373471.37142181 0 308373471.37142181 -101623577.26664734 0 0 0 0 358134986.09318304 201281157.88882637 0 201281157.88882637 -67873010.254394531 0 0 0 0 511782612.00412333 260530302.91597599 0 260530302.91597599 8290217.6113891602 0 0 0 0 484632665.5258255 370718168.81156921 0 370718168.81156921 -163659624.50015259 0 0 0 0 557845982.90212631 352917296.22549438 0 352917296.22549438 126265681.14493179 0 0 0 0 541991199.84544373 278896880.44704437 0 278896880.44704437 19423059.275726318 0 0 0 0 624914944.1034584 196800237.70362473 0 196800237.70362473 78109139.10824585 0 0 0 0 372606848.06311798 254836647.25900269 0 254836647.25900269 74360073 0 0 0 0 216644603.70620728 245471661.73238373 0 245471661.73238373 111457755.5706749 0 0 0 0 436412775.37515736 230601588.50244522 0 230601588.50244522 -65505001.462997437 0 0 0 0 122776840.99856853 81840286.815189362 0 81840286.815189362 -36906981.811004639 0 0 0 0 101416964.51654625 6592688.7292175293 0 6592688.7292175293 -12289443.127120972 0 0 0 0 207536576.0755167 147124583.91949463 0 147124583.91949463 -25564421.509536743 0 0 0 0 33542409.047121048 103792348.1185379 0 103792348.1185379 -23562268.79095459 0 0 0 0 -26590637.927904129 9165240.55809021 0 9165240.55809021 -39017134.182151794 0 0 0 0 5794560.834197998 109053346.96439362 0 109053346.96439362 73794893.4322052 0 0 0 0 -36310652.950269699 46458144.129184723 0 46458144.129184723 -10460529.648643494 0 0 0 0 22999654.180072784 -7018593.1857070923 0 -7018593.1857070923 31959280.885932922 0 0 0 0 16912295.169021606 75973555.224716187 0 75973555.224716187 191443490.82962036 0 0 0 0 -63098608.079532862 81769185.673196554 0 81769185.673196554 97995695.434860229 0 0 0 0 -59562159.515287399 135618434.06501007 0 135618434.06501007 -29420285.551902771 0 0 0 0 -21330592.295592308 21686137.377605438 0 21686137.377605438 50302485.986095428 0 0 0 0 -51985017.894381523 -13434739.728725433 0 -13434739.728725433 149602035.7948761 0 0 0 0 -1910445.3106320957 -845194.16394414566 0 -845194.16394414566 530075.0357420519 0 0 0 0 110765012.2771225 108203250.51506042 0 108203250.51506042 240504033.20838284 0 0 0 0 525917559.38356781 445003192.25359726 0 445003192.25359726 -1067280928.9586945 0 0 0 0 446313709.43671417 84364078.721050262 0 84364078.721050262 67185265.987228394 0 0 0 0 217946805.79958725 295344667.38098907 0 295344667.38098907 427640571.6594162 0 0 0 0 173481.36003895197 -248959.30346394144 0 -248959.30346394144 169171.88024963811 0 0 0 0 513034844.92670822 295364535.5365181 0 295364535.5365181 72168437.232688904 0 0 0 0 273843004.54709244 895247.2078742981 0 895247.2078742981 -289824252.38225555 0 0 0 0 582394033.59680176 197970493.59918976 0 197970493.59918976 158422439.76119232 0 0 0 0 671614458.32890701 96164578.966339111 0 96164578.966339111 187296828.67296219 0 0 0 0 616679784.56784439 206033854.36170197 0 206033854.36170197 102037777.3838501 0 0 0 0 -75625859.192299366 37175952.863059282 0 37175952.863059282 15062460.055747986 0 0 0 0 1713325409.1594772 202596591.7693181 0 202596591.7693181 -389449174.75505066 0 0 0 0 -354269.50565456203 7403961.2086407067 0 7403961.2086407067 8829760.0313620176 0 0 0 0 884807139.23821259 938662775.89865494 0 938662775.89865494 -622855177.2951355 0 0 0 0 -21089051.039451599 29952259.028941154 0 29952259.028941154 -5187169.5970916748 0 0 0 0 -31164787.723911285 46509781.533555984 0 46509781.533555984 -5851602.470489502 0 0 0 0 -10975914.531671524 39504248.373764038 0 39504248.373764038 -6271423.6336593628 0 0 0 0 -39334940.552879333 10738728.256759644 0 10738728.256759644 9236591.1797714233 0 0 0 0 -8366655.7458610535 22958874.573863983 0 22958874.573863983 5555130.4660167694 0 0 0 0 -8732214.8284358978 18381015.5135355 0 18381015.5135355 28000243.701980591 0 0 0 0 -13192691.598926544 31131261.44500351 0 31131261.44500351 23163944.726257324 0 0 0 0 307365773.81826782 -129155369.73423004 0 -129155369.73423004 133130514.43738699 0 0 0 0 1198319.6327708531 9408793.4607230946 0 9408793.4607230946 -10889405.512731113 0 0 0 0 -15083427.882972717 30953247.48398304 0 30953247.48398304 32179869.798316956 0 0 0 0 637358092.49168777 176848830.02334595 0 176848830.02334595 86450554.577026367 0 0 0 0 -1912062.5018667388 11173796.407237709 0 11173796.407237709 15350062.28623526 0 0 0 0 572816132.96723938 183622613.75534821 0 183622613.75534821 100811558.35313416 0 0 0 0 544853247.3788681 244130778.5115509 0 244130778.5115509 39624378.453353882 0 0 0 0 521288815.09701538 251742256.67576599 0 251742256.67576599 84462870.284423828 0 0 0 0 574214864.98788834 175965461.20368576 0 175965461.20368576 155848119.92904663 0 0 0 0 -150117305.20272827 629831283.47401047 0 629831283.47401047 -424150232.04922485 0 0 0 0 495739.49292926816 1574791.5974063631 0 1574791.5974063631 -309176.70985388011 0 0 0 0 -218891861.74841309 -566818292.73008728 0 -566818292.73008728 -1498087493.3852539 0 0 0 0 1362204610.8881226 109970504.99356079 0 109970504.99356079 -2268403321.2281342 0 0 0 0 416062147.3188324 480338830.08943176 0 480338830.08943176 -57440142.36819458 0 0 0 0 -1867868.1356647499 2338993.515129609 0 2338993.515129609 2087731.4662798196 0 0 0 0 479153120.92745972 371921250.86255646 0 371921250.86255646 128793382.29437256 0 0 0 0 2879976577.1111374 1473160453.7112427 0 1473160453.7112427 -1696566126.1120834 0 0 0 0 559192.32131299935 -367866.90727407904 0 -367866.90727407904 268662.9961406067 0 0 0 0 -138308375.67292023 86122486.919807434 0 86122486.919807434 2158866.5141143799 0 0 0 0 -134060918.08153915 793635190.81188202 0 793635190.81188202 -328339608.73993683 0 0 0 0 -149022497.95983887 25500269.671643257 0 25500269.671643257 -6236859.844039917 0 0 0 0 -252201655.03819275 350096848.68824768 0 350096848.68824768 98565767.591049194 0 0 0 0 -78733367.413398743 72231149.828132629 0 72231149.828132629 1582471.0892028809 0 0 0 0 -93548132.564090729 128223784.57180023 0 128223784.57180023 40331567.961746216 0 0 0 0 -84047426.263542175 76645958.718299866 0 76645958.718299866 -40059262.264465332 0 0 0 0 -112586562.95365906 96397038.651443481 0 96397038.651443481 -14850459.581771851 0 0 0 0 -100623590.28408718 58451818.993431091 0 58451818.993431091 -5468288.029083252 0 0 0 0 -185349110.20415878 85808063.802429199 0 85808063.802429199 -13339074.111953735 0 0 0 0 -171086741.93255615 1819.0934982299805 0 1819.0934982299805 -10565610.773365617 0 0 0 0 -76369423.411243439 3716884.4644851685 0 3716884.4644851685 -10504123.813415527 0 0 0 0 -127527815.58335876 53418017.386100769 0 53418017.386100769 9110065.3307037354 0 0 0 0 -40484191.636043549 42067911.111328125 0 42067911.111328125 5820371.9147415161 0 0 0 0 -71115370.278488159 12499950.481882095 0 12499950.481882095 16877763.829162598 0 0 0 0 -45118851.558692932 82507013.883972168 0 82507013.883972168 31349837.017318726 0 0 0 0 -86582834.168542862 88501006.752353668 0 88501006.752353668 35679794.310775757 0 0 0 0 -15704609.222770691 147743534.7208786 0 147743534.7208786 30955727.276817322 0 0 0 0 25362754.58637619 35681017.633935928 0 35681017.633935928 2672053.9278564453 0 0 0 0 16260731.001716614 48692973.372058868 0 48692973.372058868 7923470.5391464233 0 0 0 0 2060489.1871960526 10482466.081481155 0 10482466.081481155 -11937244.422468092 0 0 0 0 -6500880.8764266968 48028399.900047302 0 48028399.900047302 -14866502.301261902 0 0 0 0 19073504.24315834 39582570.100782394 0 39582570.100782394 -15530852.288764954 0 0 0 0 22008053.385318756 31480601.059253693 0 31480601.059253693 5101386.4871292114 0 0 0 0 -7643142.5819549561 32840718.952377319 0 32840718.952377319 5479470.6259727478 0 0 0 0 21094476.073459625 25887327.546165466 0 25887327.546165466 -14509956.932901382 0 0 0 0 28977183.618976593 12720298.609951019 0 12720298.609951019 -17500376.305122375 0 0 0 0 21703276.091645718 16473844.163151741 0 16473844.163151741 9011656.5900115967 0 0 0 0 -5924758.4261779785 105007336.88850784 0 105007336.88850784 39455110.367353439 0 0 0 0 -16004634.783294678 28491832.324573517 0 28491832.324573517 57342055.81073761 0 0 0 0 16836598.66768074 40456262.473613739 0 40456262.473613739 2540837.688041687 0 0 0 0 -699873.33081889385 10959090.78541193 0 10959090.78541193 8249317.1264551431 0 0 0 0 1351505.7712598145 11137986.424939264 0 11137986.424939264 -10634967.951232523 0 0 0 0 -14536577.857051849 17531500.142320633 0 17531500.142320633 15378131.863544464 0 0 0 0 -588967.57107743621 11762555.379162187 0 11762555.379162187 11111656.042634953 0 0 0 0 -22984302.436138153 32033515.271068573 0 32033515.271068573 15751035.081786156 0 0 0 0 -26905500.435474396 14885187.950408936 0 14885187.950408936 14861056.996025085 0 0 0 0 -16503945.802865028 23217611.715156078 0 23217611.715156078 12273440.243751526 0 0 0 0 -22899316.678201437 15897929.25076437 0 15897929.25076437 44415523.438713074 0 0 0 0 -21795002.561578274 22482863.016635418 0 22482863.016635418 16467138.538894653 0 0 0 0 -44529.166225462221 13311724.6198823 0 13311724.6198823 10303641.34248725 0 0 0 0 -13343594.574026108 5828935.174243927 0 5828935.174243927 6987331.1154632568 0 0 0 0 3555768.0162658691 -12363656.029464722 0 -12363656.029464722 7552101.7653579712 0 0 0 0 -7284913.0019836426 -11421841.586524963 0 -11421841.586524963 39587183.285491943 0 0 0 0 -15817804.561908722 3301584.3864974976 0 3301584.3864974976 20795479.074203491 0 0 0 0 350354.87465290166 2979963.6870267545 0 2979963.6870267545 3420235.52430778 0 0 0 0 -69302137.058662415 15227136.193077087 0 15227136.193077087 8069740.8544769287 0 0 0 0 4941460.14037323 -16851516.354476929 0 -16851516.354476929 21395942.512199402 0 0 0 0 117229598.56359768 200674296.57258034 0 200674296.57258034 28928118.867324829 0 0 0 0 260337810.59278488 -229792068.06138611 0 -229792068.06138611 64546391.917568207 0 0 0 0 -146305167.04076385 -17744137.7059021 0 -17744137.7059021 237389578.89496613 0 0 0 0 -180755.33083035238 1142232.4087711461 0 1142232.4087711461 2127639.6124375351 0 0 0 0 -141758896.49054718 23005057.615966797 0 23005057.615966797 31259863.750610352 0 0 0 0 292094.49343685247 832399.12283341028 0 832399.12283341028 1345284.9502310455 0 0 0 0 14038478.683288574 36941582.231750488 0 36941582.231750488 3450424.0773925781 0 0 0 0 22837753.501186371 21494763.198516846 0 21494763.198516846 27650883.60887146 0 0 0 0 -1238664.9066364961 4458349.9128950723 0 4458349.9128950723 3848818.2658756301 0 0 0 0 4899242.8917160034 10706364.644454956 0 10706364.644454956 8847133.0777740479 0 0 0 0 11952272.844849348 -5645995.5885281563 0 -5645995.5885281563 -106489697.39492035 0 0 0 0 983610.286277771 23274865.12859726 0 23274865.12859726 5911294.9541320801 0 0 0 0 6261121.7638282776 14102644.118537903 0 14102644.118537903 4155000.9856128693 0 0 0 0 13667905.041182518 10609657.122778893 0 10609657.122778893 4813384.2435302734 0 0 0 0 -107338269.02722168 -47388259.740432739 0 -47388259.740432739 30118505.243255615 0 0 0 0 -135141356.48753738 -12874775.535194397 0 -12874775.535194397 17292398.696609497 0 0 0 0 21452208.083206177 171205904.78762817 0 171205904.78762817 -186796683.36332703 0 0 0 0 -46377.639401858672 1333177.5459708329 0 1333177.5459708329 696843.88151620701 0 0 0 0 76201547.107298851 631148849.23277664 0 631148849.23277664 -397935580.38070679 0 0 0 0 -247329145.646492 227554448.45769501 0 227554448.45769501 -118258365.21715164 0 0 0 0 -298849116.26258659 -18615944.692062378 0 -18615944.692062378 185347378.36451721 0 0 0 0 -245920424.31889915 191065629.58105469 0 191065629.58105469 -31791560.644805908 0 0 0 0 -181785471.27379894 376437310.49510956 0 376437310.49510956 -142993545.58935547 0 0 0 0 -3010832.6388092041 -13089460.762302399 0 -13089460.762302399 61845562.503274918 0 0 0 0 -978191.99429346621 65067.400596467778 0 65067.400596467778 854138.93714602292 0 0 0 0 -4297389.109670639 47457580.269611359 0 47457580.269611359 82434777.172889709 0 0 0 0 -4887034.4330210686 297375944.36035347 0 297375944.36035347 -213292544.96773529 0 0 0 0 66287985.374349594 128774136.24074936 0 128774136.24074936 337950.62715148926 0 0 0 0 -221351812.08442497 40766701.727394104 0 40766701.727394104 78344452.576278687 0 0 0 0 34089542.665559769 95538393.882183075 0 95538393.882183075 158288314.37431335 0 0 0 0 54131560.193161011 126165893.2800293 0 126165893.2800293 -130681568.54266357 0 0 0 0 -78153.731326378882 608920.97161870077 0 608920.97161870077 326556.01472317986 0 0 0 0 -51940785.535446167 34194552.081665039 0 34194552.081665039 -34084680.481170654 0 0 0 0 9563568.1386947632 26090396.668426514 0 26090396.668426514 -59334658.462005615 0 0 0 0 8331688.4413414001 5108156.7673721313 0 5108156.7673721313 -67420177.063446045 0 0 0 0 -26499828.01222229 15879200.782012939 0 15879200.782012939 -7779668.6236839294 0 0 0 0 105752.75751468726 1367088.3593064174 0 1367088.3593064174 619165.67893561907 0 0 0 0 12627166.160428047 35265249.308807373 0 35265249.308807373 37747.351593017578 0 0 0 0 29198267.646059036 19617892.019058228 0 19617892.019058228 12477837.72328949 0 0 0 0 314923.92203314533 -1498124.2622195408 0 -1498124.2622195408 469139.16270313412 0 0 0 0 -20234941.971216202 14596831.446291924 0 14596831.446291924 -5738334.7611999512 0 0 0 0 582768.27109813876 1586172.4201489128 0 1586172.4201489128 1258554.4521754719 0 0 0 0 4658352.7523798943 3457796.7265520096 0 3457796.7265520096 2725118.9178771973 0 0 0 0 -82278804.647174835 29325306.458618164 0 29325306.458618164 1815256.0123596191 0 0 0 0 316751.78119225195 -504194.16697541997 0 -504194.16697541997 152533.20079892129 0 0 0 0 -4768486.9870977402 17229787.730064392 0 17229787.730064392 -34239097.34526062 0 0 0 0 36894303.566928864 41804024.489028931 0 41804024.489028931 -53882763.792991638 0 0 0 0 33305068.906158447 17324958.422355652 0 17324958.422355652 -67789829.849439144 0 0 0 0 -47438037.416698456 123082030.41799164 0 123082030.41799164 -132085217.42951965 0 0 0 0 -200116642.76292801 177311081.7724762 0 177311081.7724762 -76787666.5676651 0 0 0 0 -337001688.32510567 55583112.96280098 0 55583112.96280098 12209384.401779175 0 0 0 0 232675.52253896045 663408.44406894781 0 663408.44406894781 784190.65321594477 0 0 0 0 474137306.93896294 294323940.25733757 0 294323940.25733757 -311771019.23403931 0 0 0 0 -107881859.54314041 100897230.60561371 0 100897230.60561371 -64129509.944664001 0 0 0 0 -84258108.812583327 69030512.699385405 0 69030512.699385405 -12401739.364929199 0 0 0 0 22497872.411824226 2812650.256939888 0 2812650.256939888 -5261267.5675506592 0 0 0 0 72588.485466420185 -244577.01399205066 0 -244577.01399205066 60310.836147531867 0 0 0 0 -101881480.98536301 90413137.391204834 0 90413137.391204834 -78464848.315719604 0 0 0 0 -137193811.72242928 89694172.980007172 0 89694172.980007172 -59942481.386672974 0 0 0 0 -50070840.592628479 58782507.057601929 0 58782507.057601929 -48106529.768997192 0 0 0 0 -23067638.664245605 -14460402.383460999 0 -14460402.383460999 6432368.5810623169 0 0 0 0 4938868.6311607361 2448727.2689399719 0 2448727.2689399719 -4464935.2068939209 0 0 0 0 -533508741.64431381 -72124698.027416229 0 -72124698.027416229 690867794.97546387 0 0 0 0 499341518.24775314 1618152997.3833466 0 1618152997.3833466 1020045282.4585114 0 0 0 0 1594096559.0568504 -999090664.00731659 0 -999090664.00731659 951361512.38750029 0 0 0 0 1628292.2898610849 -765305.6641143309 0 -765305.6641143309 -190849.69825647026 0 0 0 0 1252122.2980291732 1760433.3240942359 0 1760433.3240942359 1136236.2179131731 0 0 0 0 -2014741.8966331482 -3210819.2370300293 0 -3210819.2370300293 3348235.914642334 0 0 0 0 -3369193.8495368958 6514850.2705993652 0 6514850.2705993652 2116101.9951553345 0 0 0 0 352502.55285263062 7055278.2123947144 0 7055278.2123947144 -7746894.2409934998 0 0 0 0 2606106.9247112274 9584680.2748508453 0 9584680.2748508453 -26029229.477172852 0 0 0 0 6589557.8646087646 20688837.616474152 0 20688837.616474152 -16958010.362243652 0 0 0 0 -6464740.9808998108 23679037.423912048 0 23679037.423912048 -280301.25018710038 0 0 0 0 21990847.188655853 -40594874.00302124 0 -40594874.00302124 -179454809.2057724 0 0 0 0 7053193.1296124458 21491612.895385742 0 21491612.895385742 -37068505.762573242 0 0 0 0 2007557.1151764812 -588474.44797523553 0 -588474.44797523553 -1062867.3189395219 0 0 0 0 4835884.9750328064 -2956656.7335224152 0 -2956656.7335224152 -32910716.060783386 0 0 0 0 2190000.2944831848 1186854.6075744629 0 1186854.6075744629 -4918947.3449554443 0 0 0 0 237777922.33007431 -197125129.20739365 0 -197125129.20739365 118314090.82528687 0 0 0 0 617454480.38932037 200568452.50809097 0 200568452.50809097 -101358360.21969223 0 0 0 0 558809882.49534607 207286067.44527435 0 207286067.44527435 -76372742.07649231 0 0 0 0 623304910.49377441 136081650.18500519 0 136081650.18500519 -24717413.910308838 0 0 0 0 878353.54872765765 -393711.14267341094 0 -393711.14267341094 -521812.25563590229 0 0 0 0 606518393.61759758 111442613.12467003 0 111442613.12467003 8024370.6690063477 0 0 0 0 454443189.77932739 141170243.99193573 0 141170243.99193573 153676323.19184971 0 0 0 0 592638701.47697067 192010467.27842712 0 192010467.27842712 13970512.520456314 0 0 0 0 518824443.17541122 311410134.88480377 0 311410134.88480377 117269812.37247467 0 0 0 0 330569527.54265594 140833520.3926239 0 140833520.3926239 -30760896.400268555 0 0 0 0 507701525.06643867 591686179.63809967 0 591686179.63809967 766434568.45266724 0 0 0 0 698254861.35553741 -224421096.97557831 0 -224421096.97557831 62448738.582336426 0 0 0 0 592972.91724897921 776575.14489606768 0 776575.14489606768 501496.79080333188 0 0 0 0 1169988642.3517609 202772191.84246063 0 202772191.84246063 -103020687.5198288 0 0 0 0 993774729.04902267 826261924.60020065 0 826261924.60020065 70381876.961135864 0 0 0 0 650007871.86703491 729272559.84281921 0 729272559.84281921 179011368.92515945 0 0 0 0 4369661.2246180624 853194.27975412831 0 853194.27975412831 -1074501.6439266801 0 0 0 0 614754872.17889881 939912236.46289825 0 939912236.46289825 605097329.80414581 0 0 0 0 234659082.64599609 -98729145.497901917 0 -98729145.497901917 94453351.814910889 0 0 0 0 193257376.32448959 20316641.501354218 0 20316641.501354218 -174833903.28573608 0 0 0 0 -37591370.065311432 8104298.5278625488 0 8104298.5278625488 8052459.0002307892 0 0 0 0 -25138714.247046471 19726031.658256531 0 19726031.658256531 11978411.87272644 0 0 0 0 -29232328.964530945 3972823.9569854736 0 3972823.9569854736 166359.82484817505 0 0 0 0 -15662023.534951925 16911238.15542984 0 16911238.15542984 9416400.6017150879 0 0 0 0 -16962369.418008566 20185257.726054192 0 20185257.726054192 3980400.5103302002 0 0 0 0 -44866405.036884308 10514923.026824951 0 10514923.026824951 4402004.8774921894 0 0 0 0 -7595565.6795105934 24303768.921352386 0 24303768.921352386 -8600632.2309875488 0 0 0 0 -39127200.368644238 11704045.763738632 0 11704045.763738632 85021.81844329834 0 0 0 0 -43954903.727702141 -2711861.7853622437 0 -2711861.7853622437 -10343911.6275177 0 0 0 0 -2111447.1730897394 4908563.7247687029 0 4908563.7247687029 -521390.82782718539 0 0 0 0 31417216.118048429 14140069.639746666 0 14140069.639746666 -7532121.2887496948 0 0 0 0 34032340.845161438 30500255.796878815 0 30500255.796878815 95210677.415771484 0 0 0 0 52813377.348819256 -52286259.668243408 0 -52286259.668243408 23866256.796108246 0 0 0 0 10321178.513178349 17026073.106904984 0 17026073.106904984 3280458.4129180908 0 0 0 0 4565501.2653329056 5556059.8235571496 0 5556059.8235571496 -5558441.1969500333 0 0 0 0 39597851.938354626 15713817.084510803 0 15713817.084510803 -23951232.612976074 0 0 0 0 21485868.039008617 -2509978.5439376831 0 -2509978.5439376831 -13857559.295822144 0 0 0 0 6901399.8574670311 -1687696.2950398438 0 -1687696.2950398438 -6462594.0282387361 0 0 0 0 22199847.685747147 8612452.7998352051 0 8612452.7998352051 -15219079.781356812 0 0 0 0 26408771.815639496 -710420.6693611145 0 -710420.6693611145 3006388.6921844482 0 0 0 0 20968295.688083649 20926038.763954163 0 20926038.763954163 27888779.417327881 0 0 0 0 22203715.100825071 4574115.1552343369 0 4574115.1552343369 -5219265.0865020752 0 0 0 0 -738371.21538961446 988796.80464840401 0 988796.80464840401 1217175.3702518716 0 0 0 0 -51026392.297070503 786820.9798374176 0 786820.9798374176 6405413.6893920898 0 0 0 0 54458741.905162811 37232757.452163696 0 37232757.452163696 21743083.157958984 0 0 0 0 236040298.38898754 32464516.481025696 0 32464516.481025696 -64621546.078353882 0 0 0 0 -9737.359877249226 169186.52612150833 0 169186.52612150833 -30671.031053520739 0 0 0 0 -875100.11505711381 2254299.5426733512 0 2254299.5426733512 601430.94239654019 0 0 0 0 320894.86963319778 -5174567.2758655548 0 -5174567.2758655548 -4454330.1080780029 0 0 0 0 -24562442.369910002 10442904.159873962 0 10442904.159873962 6954283.5563201904 0 0 0 0 95368508.699890137 41307635.091892242 0 41307635.091892242 -8927764.2331085205 0 0 0 0 24505.875849435921 740170.453111107 0 740170.453111107 245233.94842566177 0 0 0 0 -2115002.2151145935 74169475.329257965 0 74169475.329257965 25011001.401386261 0 0 0 0 60725126.593740463 35429039.626319885 0 35429039.626319885 -4403328.7434196472 0 0 0 0 -5448575.961823225 -4992336.157304883 0 -4992336.157304883 20588509.163742065 0 0 0 0 -1449914.653844795 6049556.9158766996 0 6049556.9158766996 -2246062.1845763028 0 0 0 0 68302094.741624832 15277872.459785461 0 15277872.459785461 -20791593.997589111 0 0 0 0 42507847.176525116 4780213.3266983032 0 4780213.3266983032 -15907137.258911133 0 0 0 0 51608698.392018318 -12359801.784877777 0 -12359801.784877777 12440825.453353882 0 0 0 0 18904212.85989213 25454952.453967094 0 25454952.453967094 31312327.808319092 0 0 0 0 24035942.658324718 33591521.433552742 0 33591521.433552742 25144638.728317261 0 0 0 0 4315470.8172016144 41113639.79573822 0 41113639.79573822 1153225.8385925293 0 0 0 0 18733756.717496872 23968454.740615845 0 23968454.740615845 18389102.516357422 0 0 0 0 24684282.153242111 33306343.036827087 0 33306343.036827087 -2377.4913787841797 0 0 0 0 5233055.1050844193 11597904.948554993 0 11597904.948554993 -2534914.4225921631 0 0 0 0 -854264.53586762503 3967712.9210781995 0 3967712.9210781995 457174.09922653809 0 0 0 0 21558377.882066727 -2028902.629776001 0 -2028902.629776001 -17698680.543426514 0 0 0 0 28605094.711366653 23991738.44430542 0 23991738.44430542 7634348.9470214844 0 0 0 0 15082293.088363647 -24055847.849411011 0 -24055847.849411011 2800453.4058952332 0 0 0 0 -42297.120172028197 213471.15721607767 0 213471.15721607767 -387465.16645575315 0 0 0 0 -18421909.694728374 24414446.029657364 0 24414446.029657364 -5832778.6228713989 0 0 0 0 -11091427.079128265 12916919.468803406 0 12916919.468803406 -588664.85897064209 0 0 0 0 -8177000.9951293468 10949431.261808395 0 10949431.261808395 -1867408.392791748 0 0 0 0 -9152978.9995293617 11631466.086036682 0 11631466.086036682 -12292933.864852905 0 0 0 0 -19274503.243486404 20944627.985555649 0 20944627.985555649 11965747.961929321 0 0 0 0 -24322819.158718109 11599601.037498474 0 11599601.037498474 2325993.7898788452 0 0 0 0 -34601671.291166306 10733160.784389496 0 10733160.784389496 9759088.7653808594 0 0 0 0 -16024371.3310709 32521366.841171265 0 32521366.841171265 21064957.397636414 0 0 0 0 -9665812.7519054413 23894421.349815369 0 23894421.349815369 17205901.251296997 0 0 0 0 -17116841.120091915 13943115.483848572 0 13943115.483848572 14064588.459060669 0 0 0 0 -7618184.3450212479 25476564.289892197 0 25476564.289892197 -28185331.50302124 0 0 0 0 10619282.773614883 7476531.4243469238 0 7476531.4243469238 -33572248.797340393 0 0 0 0 -1602624.4277803365 8833476.5290826596 0 8833476.5290826596 -3156143.0226831958 0 0 0 0 -9930968.4933776855 25360232.578248978 0 25360232.578248978 27596809.328414917 0 0 0 0 1337917.2376875789 1041395.0196895041 0 1041395.0196895041 -1385069.2503981255 0 0 0 0 11142944.209759235 4515929.9034538269 0 4515929.9034538269 -24576695.5102005 0 0 0 0 5751961.0682756901 12768565.618102551 0 12768565.618102551 8738138.0208129883 0 0 0 0 2534199.0159284193 8032215.6485864604 0 8032215.6485864604 -7690697.8725601081 0 0 0 0 21293546.775054932 32670569.547586441 0 32670569.547586441 -9267433.677031517 0 0 0 0 10545585.404563904 3604348.9921875 0 3604348.9921875 6757386.6769180298 0 0 0 0 -3760383.9512922559 3640694.4104318283 0 3640694.4104318283 3621155.1543130763 0 0 0 0 5712535.8776817322 13151557.769287109 0 13151557.769287109 4852586.6795215607 0 0 0 0 241870.31181240082 17514114.332061768 0 17514114.332061768 -12298304.431182861 0 0 0 0 19273805.710828781 33878683.95262146 0 33878683.95262146 1366848.8868103027 0 0 0 0 23569543.158590317 13058729.247451782 0 13058729.247451782 11238155.912597656 0 0 0 0 -2698162.0406990051 13200860.703193665 0 13200860.703193665 33604895.754959106 0 0 0 0 32324903.905599594 28849256.68460083 0 28849256.68460083 26418297.285682678 0 0 0 0 -14326735.901964188 6607767.3631973267 0 6607767.3631973267 37926107.204498291 0 0 0 0 -237520.6432643634 256817.68727441318 0 256817.68727441318 -55767.170255225152 0 0 0 0 -6793734.738494873 26303356.835382462 0 26303356.835382462 12199434.227581024 0 0 0 0 -6046736.2333869934 39602127.002891541 0 39602127.002891541 2453384.96434021 0 0 0 0 18113805.090648651 23598937.704433441 0 23598937.704433441 9575610.2151603699 0 0 0 0 -4192423.6877746582 7528890.7870559692 0 7528890.7870559692 18001429.932258606 0 0 0 0 10973507.836570576 26015206.244889617 0 26015206.244889617 9263973.0242156982 0 0 0 0 -286389.37932144292 555453.54983500391 0 555453.54983500391 1205320.9043502957 0 0 0 0 1544462.8120136261 26398444.394189835 0 26398444.394189835 6393897.6660861969 0 0 0 0 -1912260.7648391854 10016410.62403238 0 10016410.62403238 -1317593.8297908418 0 0 0 0 -309420.27704811096 34237758.97287178 0 34237758.97287178 9112542.1070575714 0 0 0 0 15366911.957847595 18635428.098190308 0 18635428.098190308 18000547.526428223 0 0 0 0 -106656.50492858887 1501070.8134613037 0 1501070.8134613037 2000113.5748291016 0 0 0 0 -2121232.8632604033 2494235.736495005 0 2494235.736495005 8613892.3473149166 0 0 0 0 3285602.6640529102 2873151.002174329 0 2873151.002174329 172460.79503190704 0 0 0 0 6512825.5606231689 1305774.8490600586 0 1305774.8490600586 7179885.2489624023 0 0 0 0 -394203.92522339476 7050219.2219074313 0 7050219.2219074313 -4588652.5058645457 0 0 0 0 1415847.3502145512 6865776.8476193286 0 6865776.8476193286 4082349.6599742323 0 0 0 0 -203283373.55926132 22904578.984191895 0 22904578.984191895 -177862.90969848633 0 0 0 0 -2060825.2823302485 4805106.7607341651 0 4805106.7607341651 3200768.5891347732 0 0 0 0 18993646.001754761 149286172.17419815 0 149286172.17419815 -7266294.4567952156 0 0 0 0 156726316.39822578 -75587219.546882629 0 -75587219.546882629 -39792046.512825012 0 0 0 0 -16042956.717784882 -26313875.031707764 0 -26313875.031707764 76803070.968960762 0 0 0 0 -66248973.648079872 20596498.06855011 0 20596498.06855011 69451381.382354736 0 0 0 0 -5415588.0885419846 38796586.882164001 0 38796586.882164001 -19221024.004676819 0 0 0 0 20737200.803555071 -54026056.726178408 0 -54026056.726178408 -15507941.510986328 0 0 0 0 671753.15181046491 234532.20722911879 0 234532.20722911879 -636345.44917623699 0 0 0 0 2394388.5861167908 17170259.351146698 0 17170259.351146698 1286056.0139465332 0 0 0 0 1305708.5820175409 8915322.5396259781 0 8915322.5396259781 4786605.3752196319 0 0 0 0 2466105.5502052307 16520226.219551086 0 16520226.219551086 7175791.9794464111 0 0 0 0 -881411.55220794678 10349390.627998352 0 10349390.627998352 2249127.542175293 0 0 0 0 1904587.9492549896 14003761.226173401 0 14003761.226173401 6897341.8190612793 0 0 0 0 2301472.0014076233 15840126.638908386 0 15840126.638908386 11801078.76941967 0 0 0 0 1048771.2922468185 20791578.155338287 0 20791578.155338287 -3797916.5156860352 0 0 0 0 2055763.9081096649 16031909.387001038 0 16031909.387001038 8083899.4672164917 0 0 0 0 -259471.57845330238 22709834.010314941 0 22709834.010314941 8094398.0977325439 0 0 0 0 7217895.3779449463 27559808.153339386 0 27559808.153339386 9461762.8749694824 0 0 0 0 1033748.9820218086 9465424.5852279663 0 9465424.5852279663 22833101.349723816 0 0 0 0 -9663628.7055149078 30820944.618484497 0 30820944.618484497 30773001.885986328 0 0 0 0 -4458264.1157398224 37110121.684623718 0 37110121.684623718 7287069.7670555115 0 0 0 0 -28543012.657034874 57278537.367736816 0 57278537.367736816 -6155166.8372220993 0 0 0 0 1613262.1519107819 13213468.752857208 0 13213468.752857208 5140166.8916320801 0 0 0 0 -256296.44932447234 929003.18092984706 0 929003.18092984706 1062327.0976125672 0 0 0 0 3484494.9703264236 5218863.6815376282 0 5218863.6815376282 9936937.393327713 0 0 0 0 4114648.034072876 6433099.3389091492 0 6433099.3389091492 -1270586.8488359451 0 0 0 0 -152376.34447686351 4119355.8899940103 0 4119355.8899940103 754913.0667174086 0 0 0 0 2830459.7138080597 8894936.3625869751 0 8894936.3625869751 -8407143.7112597227 0 0 0 0 2275487.0287692589 757593.03026182577 0 757593.03026182577 -2219936.6188332215 0 0 0 0 16436332.742516518 -3147526.7474555969 0 -3147526.7474555969 -8033091.2121429443 0 0 0 0 -7080620.292209506 6278083.9507740736 0 6278083.9507740736 5964332.7732391357 0 0 0 0 431913.9749849299 5934532.7419867478 0 5934532.7419867478 4443438.6159751527 0 0 0 0 -3983383.3080291748 3006737.7547302246 0 3006737.7547302246 7892340.3206253052 0 0 0 0 10043.393146038055 3833943.9798793793 0 3833943.9798793793 -1631078.9391555786 0 0 0 0 549054.8152012825 2405017.3728656769 0 2405017.3728656769 -1262651.0281982422 0 0 0 0 461068.6601330773 1549821.7617905587 0 1549821.7617905587 -736643.08377478272 0 0 0 0 3633508.4826079332 4697450.3848969508 0 4697450.3848969508 -1068.1629723012447 0 0 0 0 3113731.8830661774 11543836.610153198 0 11543836.610153198 7274261.7205810547 0 0 0 0 -3007971.2513771057 15064098.265201569 0 15064098.265201569 12093149.294067383 0 0 0 0 1079740.4264897984 7180330.0399683248 0 7180330.0399683248 4969042.9357709289 0 0 0 0 -8840116.2386341095 15915537.455463409 0 15915537.455463409 3861930.7002258301 0 0 0 0 -8617931.2709617615 10901659.371623993 0 10901659.371623993 9642112.9020614624 0 0 0 0 -7141047.1791801453 7315180.3280410767 0 7315180.3280410767 7725911.2499580383 0 0 0 0 -7096231.4993092418 5713212.2270178795 0 5713212.2270178795 12401160.071289062 0 0 0 0 -6804985.0733795166 1383023.919418335 0 1383023.919418335 8399158.4144592285 0 0 0 0 -5509698.9048156738 -1571536.6377410889 0 -1571536.6377410889 18226139.227878571 0 0 0 0 -7427683.4146871567 7773095.3861999512 0 7773095.3861999512 17141327.579391479 0 0 0 0 630880.90113639832 -9485280.7807693481 0 -9485280.7807693481 23632863.288974762 0 0 0 0 -6016890.4078140259 8239339.8673019409 0 8239339.8673019409 12794238.394040108 0 0 0 0 -4351637.303604126 15864407.810604095 0 15864407.810604095 37600237.209655762 0 0 0 0 -1764157.0779304504 1072849.188911438 0 1072849.188911438 2553324.0642280579 0 0 0 0 -1360561.596288681 -2510805.8201713562 0 -2510805.8201713562 4036814.2434997559 0 0 0 0 -3385489.8894805908 -363380.38786315918 0 -363380.38786315918 4842679.8948516846 0 0 0 0 -6382267.5457038879 1658409.2831077576 0 1658409.2831077576 6756776.8924865723 0 0 0 0 -7903888.8066558838 2800710.774597168 0 2800710.774597168 6982686.074005127 0 0 0 0 -5283712.0944747925 1288297.0019378662 0 1288297.0019378662 6874672.9337310791 0 0 0 0 -5825635.2926883698 2927986.2757034302 0 2927986.2757034302 3948228.1856384277 0 0 0 0 -3642646.9133291245 642199.41498374939 0 642199.41498374939 3763051.6481628418 0 0 0 0 -5125444.3178253174 2046633.2718200684 0 2046633.2718200684 2497474.4503479004 0 0 0 0 -3549428.0268936157 1099578.6157073975 0 1099578.6157073975 2939623.943939209 0 0 0 0 -2626627.1224727631 1067629.9942674637 0 1067629.9942674637 2643210.2337493896 0 0 0 0 -3195497.4771690369 -714967.00133132935 0 -714967.00133132935 -1176605.9915161133 0 0 0 0 -403511167.22330475 758263487.05508423 0 758263487.05508423 -1418150505.0077515 0 0 0 0 -729198.31048243307 2259891.2648882866 0 2259891.2648882866 1055301.6366654239 0 0 0 0 3630840.3597458936 1895901.737640664 0 1895901.737640664 951564.61354542151 0 0 0 0 -282764032.43556786 162975849.35304356 0 162975849.35304356 231274042.89730072 0 0 0 0 -2398329.358479931 12043.027843462303 0 12043.027843462303 1621444.2023291737 0 0 0 0 927895.78737640381 2514345.609046936 0 2514345.609046936 982828.33305168152 0 0 0 0 465644.9500518702 1873725.903281495 0 1873725.903281495 570734.52351529896 0 0 0 0 2256292.580915451 3815230.6586608887 0 3815230.6586608887 1410094.2322692871 0 0 0 0 -602636.47584438324 2820650.4501457214 0 2820650.4501457214 2913740.3945770264 0 0 0 0 117778.28909724997 52852.382453974336 0 52852.382453974336 -160666.10041883215 0 0 0 0 1530995.3652870562 2552793.0626150714 0 2552793.0626150714 3029977.6210696697 0 0 0 0 746221.5607213974 1599617.0159187317 0 1599617.0159187317 -132030.14965057373 0 0 0 0 -6720655.445482254 -887223.10634613037 0 -887223.10634613037 5527073.9878234863 0 0 0 0 95788.689971438609 433043.16660686582 0 433043.16660686582 100246.27934648935 0 0 0 0 1196902.50598526 3013814.3401107788 0 3013814.3401107788 1474706.1418943405 0 0 0 0 524892.30265712738 2348730.3303661346 0 2348730.3303661346 -758.31301116943359 0 0 0 0 1295059.6480573574 2621582.6765240189 0 2621582.6765240189 51532.846308293287 0 0 0 0 387097.43404388428 2281495.7950134277 0 2281495.7950134277 -10241.410751342773 0 0 0 0 1770961.6385326385 3012883.0432510376 0 3012883.0432510376 1268868.8719787598 0 0 0 0 2379655.2584896563 2649966.1055203769 0 2649966.1055203769 1593714.4602262527 0 0 0 0 381695.0300951004 2279868.2153701782 0 2279868.2153701782 2368.8473892211914 0 0 0 0 254031.03062257823 2286255.9992850237 0 2286255.9992850237 -42340.769388305023 0 0 0 0 1910931.0225315094 2826358.4967575073 0 2826358.4967575073 404278.41815185547 0 0 0 0 1189292.4289997816 2776738.4458634853 0 2776738.4458634853 933395.66487121582 0 0 0 0 -696579.1233253479 2801029.4630432129 0 2801029.4630432129 182855.02637481689 0 0 0 0 973021.75262451172 2021293.141418457 0 2021293.141418457 152819.23295593262 0 0 0 0 273512.79020192381 538319.41670876555 0 538319.41670876555 782487.83276085183 0 0 0 0 -62531834.743938446 179874043.33833313 0 179874043.33833313 354051.99029767665 0 0 0 0 842782.92621040344 2579985.9122009277 0 2579985.9122009277 582766.96207427979 0 0 0 0 2479279.6625523567 -11859971.431205273 0 -11859971.431205273 11163832.370735168 0 0 0 0 1778611.7333493233 3166215.9066390991 0 3166215.9066390991 -310695.86153411865 0 0 0 0 1186974.9430122622 1248183.2410255242 0 1248183.2410255242 -344163.6856479831 0 0 0 0 4124871.4434585571 5749303.9152984619 0 5749303.9152984619 10642.608390808105 0 0 0 0 2019034.8364380775 1993842.7333387583 0 1993842.7333387583 -532578.72301613539 0 0 0 0 -478876.68886053539 1767733.5943837184 0 1767733.5943837184 -1087970.8650341369 0 0 0 0 1883336.3681735992 2279940.2960205078 0 2279940.2960205078 -107347.99369049072 0 0 0 0 234807.65235616686 2258289.0746986233 0 2258289.0746986233 -1966553.0455884077 0 0 0 0 929421.13163566589 1185216.3242721558 0 1185216.3242721558 -1699709.8271484375 0 0 0 0 -462292741.6522789 142145582.39900208 0 142145582.39900208 387754499.2980957 0 0 0 0 709491.89620624902 4187181.687410336 0 4187181.687410336 -2877908.1108438913 0 0 0 0 2335497.1269748346 1828656.0029767528 0 1828656.0029767528 -946105.50453480706 0 0 0 0 -180391.71080207825 580817.23003387451 0 580817.23003387451 -1669959.2766723633 0 0 0 0 2719164.4878611565 3517150.6818466187 0 3517150.6818466187 -671987.96716308594 0 0 0 0 1247597.5638275146 2516163.15625 0 2516163.15625 199206.73734283447 0 0 0 0 1140482.2643786585 2569221.0596003123 0 2569221.0596003123 -600751.23994901497 0 0 0 0 2097573.689825058 2693071.2495117188 0 2693071.2495117188 235851.20175170898 0 0 0 0 80013.250449180603 3280505.4691238403 0 3280505.4691238403 -2755594.8470363617 0 0 0 0 16143565.965335846 45320704.714920044 0 45320704.714920044 -13207351.821714401 0 0 0 0 70728698.492564201 -73657339.64050293 0 -73657339.64050293 18781389.318466187 0 0 0 0 533184.0501926844 4228102.4297277182 0 4228102.4297277182 -792845.89672993869 0 0 0 0 1288143.9890861111 125795.22666837089 0 125795.22666837089 -1010512.4428080767 0 0 0 0 -119382215.11788708 -71787161.556810617 0 -71787161.556810617 160811402.55529785 0 0 0 0 -29203430.959038734 -169655961.43881989 0 -169655961.43881989 -44595806.886352539 0 0 0 0 142020783.0846014 52077641.005607605 0 52077641.005607605 -300106111.89800262 0 0 0 0 237579443.90288544 -18083495.289405823 0 -18083495.289405823 -253975048.09412384 0 0 0 0 -130442406.03721237 95961487.730751038 0 95961487.730751038 17639151.970214844 0 0 0 0 -232726.79733684729 323876.10731069697 0 323876.10731069697 376216.26873704419 0 0 0 0 -48110764.646161079 60260453.70375824 0 60260453.70375824 31196211.092887878 0 0 0 0 -125380316.48270273 -223124.34601974487 0 -223124.34601974487 22457779.209472656 0 0 0 0 -45589742.289197505 19348497.25822258 0 19348497.25822258 7219094.8726959229 0 0 0 0 -10691323.373911381 13861592.329696655 0 13861592.329696655 3467524.178817749 0 0 0 0 18138854.783437729 -11612434.136104584 0 -11612434.136104584 5162150.1977462769 0 0 0 0 4866621.0234591961 -2371965.1110076904 0 -2371965.1110076904 -8001789.7235565186 0 0 0 0 14397900.838931262 7358676.474029541 0 7358676.474029541 -13949142.940338135 0 0 0 0 13655082.018254697 -830763.26313447952 0 -830763.26313447952 -15667031.472625732 0 0 0 0 -6014373.0982913971 -32571224.032596588 0 -32571224.032596588 -1243160.0891952515 0 0 0 0 178048658.20984602 87106504.142097473 0 87106504.142097473 -102246829.72415161 0 0 0 0 50094408.466236115 41425237.809108734 0 41425237.809108734 -40867418.411998749 0 0 0 0 7039833.7647977313 -1749661.3792331666 0 -1749661.3792331666 -5267330.1120028347 0 0 0 0 16860878.242362976 3998373.405090332 0 3998373.405090332 7086380.2660636902 0 0 0 0 -2303647.8927211217 4524251.44871224 0 4524251.44871224 780887.29025977105 0 0 0 0 55224317.512340546 130091381.46353149 0 130091381.46353149 -51380300.702911377 0 0 0 0 3734648.7863550424 5110891.0666904058 0 5110891.0666904058 -5942486.8729037121 0 0 0 0 3662813.5977263451 1134693.1818847656 0 1134693.1818847656 -14103718.753761292 0 0 0 0 9452100.3189697266 9553784.5693359375 0 9553784.5693359375 -8602891.2280273438 0 0 0 0 557160.70695845049 -187908.12881595641 0 -187908.12881595641 -795305.69179781154 0 0 0 0 -40476985.40757364 -47097725.486719608 0 -47097725.486719608 16274844.357894897 0 0 0 0 3478029.0601802906 5326604.0782460626 0 5326604.0782460626 -5777517.5914495885 0 0 0 0 219686218.9324894 176796942.92377472 0 176796942.92377472 59282154.735023499 0 0 0 0 2553226.6374371946 6627159.6097259521 0 6627159.6097259521 -9153772.9294815063 0 0 0 0 2666072.4264151156 5123123.9553375244 0 5123123.9553375244 -13523547.496292114 0 0 0 0 3478112.5041628778 -3209743.9052801132 0 -3209743.9052801132 -15426770.640975952 0 0 0 0 1891524.3034335822 2909503.3149423599 0 2909503.3149423599 -3865284.3676528931 0 0 0 0 493473.86639392376 -487074.85055541992 0 -487074.85055541992 -1332131.6037139893 0 0 0 0 6569310.9570945203 17813282.536371231 0 17813282.536371231 19779667.609375 0 0 0 0 1040622.5340595245 2333546.832611084 0 2333546.832611084 -1255874.6631999016 0 0 0 0 1607171.4060284444 2031264.5100068394 0 2031264.5100068394 -2146478.0077469945 0 0 0 0 1830671.5930347443 1199694.311340332 0 1199694.311340332 -4296018.9605560303 0 0 0 0 9286464.2356929779 11110526.443328857 0 11110526.443328857 7140868.3042449951 0 0 0 0 1403292.0861942964 870212.04670765623 0 870212.04670765623 -2478328.0596734481 0 0 0 0 637203.06088829041 2330973.0090942383 0 2330973.0090942383 -2642914.7917785645 0 0 0 0 2254026.8071336746 1737381.7757339478 0 1737381.7757339478 -2463699.3446311951 0 0 0 0 1681952.950551033 115730.97388458252 0 115730.97388458252 -1666361.2338410616 0 0 0 0 5984222.255405426 12725444.451675415 0 12725444.451675415 11086700.706039429 0 0 0 0 -44207.644275539089 40969.044820316136 0 40969.044820316136 -35734.609740138054 0 0 0 0 6609353.0561439097 10649383.923611641 0 10649383.923611641 8956097.6560211182 0 0 0 0 29017136.740894765 20793492.912723541 0 20793492.912723541 5231082.6274795532 0 0 0 0 17261291.1355865 12852947.517513275 0 12852947.517513275 13524.634735107422 0 0 0 0 9014795.623030901 10198238.912086487 0 10198238.912086487 8963553.5548858643 0 0 0 0 29977719.721822649 27734287.921871185 0 27734287.921871185 14160724.557159424 0 0 0 0 64367836.247041225 30715395.137760162 0 30715395.137760162 2992821.8376998901 0 0 0 0 48135585.920606613 22221321.801734924 0 22221321.801734924 4527.7692718505859 0 0 0 0 39999997.309695721 34243748.769134521 0 34243748.769134521 19195808.655136108 0 0 0 0 50964360.721734047 36022360.383148193 0 36022360.383148193 19462556.461227417 0 0 0 0 20596580.609351158 20891820.168941498 0 20891820.168941498 19588915.505409241 0 0 0 0 15762177.912278652 22835591.237236023 0 22835591.237236023 27870984.152679443 0 0 0 0 25386047.571009874 37470325.016609192 0 37470325.016609192 41361692.289108276 0 0 0 0 750442.05223106407 2099216.7254638672 0 2099216.7254638672 -1853239.0441440307 0 0 0 0 39000815.967515863 28496909.156085491 0 28496909.156085491 13306060.495422363 0 0 0 0 12280154.604123116 -11327510.310882568 0 -11327510.310882568 -10069928.526596069 0 0 0 0 59443495.615679264 20077078.286819458 0 20077078.286819458 -4157787.9257125854 0 0 0 0 56091408.390007973 21923506.197113037 0 21923506.197113037 -25238.805576054641 0 0 0 0 102952980.07043457 43003014.350196838 0 43003014.350196838 1707932.9299201965 0 0 0 0 58884002.679508686 21152854.751642227 0 21152854.751642227 -2563428.1678009033 0 0 0 0 -15222886.733465195 -31900397.460330963 0 -31900397.460330963 -9256758.4753313065 0 0 0 0 90033029.720779657 48710219.635658264 0 48710219.635658264 -10968015.671340942 0 0 0 0 64686958.859914303 9939739.2511787415 0 9939739.2511787415 11590169.70135498 0 0 0 0 156165668.46347809 45958412.748161316 0 45958412.748161316 -12189105.012130737 0 0 0 0 128891431.2647053 123935128.67753029 0 123935128.67753029 99697696.02545166 0 0 0 0 801031.90937424102 411345.62489558384 0 411345.62489558384 -832893.91794619709 0 0 0 0 89402024.459681511 56369377.413703918 0 56369377.413703918 70029924.663085938 0 0 0 0 90551189.212326527 -3740331.3563804626 0 -3740331.3563804626 -26466184.16885376 0 0 0 0 128078497.0306282 61479154.268596649 0 61479154.268596649 2397281.4787445068 0 0 0 0 98860099.755554199 11865882.021995544 0 11865882.021995544 -19483039.110420227 0 0 0 0 -14500784.414586067 42943426.027645111 0 42943426.027645111 22763387.793460786 0 0 0 0 32057943.563575745 76284312.974945068 0 76284312.974945068 22595036.663381338 0 0 0 0 -814401.029371663 84611.768894359469 0 84611.768894359469 887202.93383732438 0 0 0 0 6177011.4969289303 -2288881.3617858887 0 -2288881.3617858887 -21418767.149963379 0 0 0 0 1743538.0805483637 410973.85538580641 0 410973.85538580641 -1755638.2371064089 0 0 0 0 -1295007.756916523 -4355841.6873855591 0 -4355841.6873855591 -17792000.868919373 0 0 0 0 42791510.632255554 53069761.637794495 0 53069761.637794495 52286545.687614441 0 0 0 0 2121362.1637201472 1047852.9266481176 0 1047852.9266481176 -2261468.3255124539 0 0 0 0 58655518.296233177 45756921.053062439 0 45756921.053062439 29916325.821937561 0 0 0 0 58663189.10607338 46099312.414520264 0 46099312.414520264 39380935.553123474 0 0 0 0 5123947.0453276634 -9901672.0242156982 0 -9901672.0242156982 -31593459.202545166 0 0 0 0 9579781.221997261 3553160.6155471802 0 3553160.6155471802 -25826146.987155914 0 0 0 0 4463055.2545080185 -27672808.112731934 0 -27672808.112731934 -32932262.954299927 0 0 0 0 7340018.8198099136 -3671224.6614761353 0 -3671224.6614761353 -10155005.343521118 0 0 0 0 5641203.0581531525 133336.52345275879 0 133336.52345275879 -11251056.183822632 0 0 0 0 2822079.9539060593 3092038.6399688721 0 3092038.6399688721 -5967118.7832679749 0 0 0 0 4175069.7936038971 342426.52644348145 0 342426.52644348145 -10106943.191726685 0 0 0 0 864132.74243831635 1234686.9557037354 0 1234686.9557037354 -10247363.966369629 0 0 0 0 5224088.9019255638 1572391.2490234375 0 1572391.2490234375 -17614212.012456656 0 0 0 0 29300304.773845196 10137753.962547302 0 10137753.962547302 -16117663.612426758 0 0 0 0 14574615.503844738 45528809.048912048 0 45528809.048912048 -6473987.575378418 0 0 0 0 10112323.699336529 -7072342.6465072632 0 -7072342.6465072632 -25582024.677490234 0 0 0 0 1274984.141210556 6417243.2294845581 0 6417243.2294845581 8039772.1793518066 0 0 0 0 18147076.866348267 18602941.5963974 0 18602941.5963974 20332751.965454102 0 0 0 0 1859542.0163726807 -13228828.936733246 0 -13228828.936733246 -5470686.0463104248 0 0 0 0 2240516.1411178233 1957835.8122310117 0 1957835.8122310117 1097687.9618303329 0 0 0 0 6882193.7136657871 2558811.0969508998 0 2558811.0969508998 -11295224.543315992 0 0 0 0 15163044.510795593 4284755.6630859375 0 4284755.6630859375 -13328893.745571136 0 0 0 0 32899648.781345367 21204202.145553589 0 21204202.145553589 8315168.4831619263 0 0 0 0 -2215294.9506788254 10921665.037986755 0 10921665.037986755 23020032.073295593 0 0 0 0 225352.46256673592 1627276.0497472212 0 1627276.0497472212 1366644.9323983043 0 0 0 0 18837104.355887651 -11672070.460796356 0 -11672070.460796356 -26175903.354522705 0 0 0 0 20389938.713809967 28607186.996391296 0 28607186.996391296 17133740.918916702 0 0 0 0 6048362.9572810251 2806889.3876092322 0 2806889.3876092322 -10798735.108495537 0 0 0 0 40166202.752387881 -7530761.9496593475 0 -7530761.9496593475 -45129052.422668457 0 0 0 0 -32151002.883467674 1152075.9580917358 0 1152075.9580917358 -11276062.423812866 0 0 0 0 25487539.34390831 15047155.928588867 0 15047155.928588867 -46261371.349236488 0 0 0 0 37677144.260671616 -1960279.6648254395 0 -1960279.6648254395 -26979235.883605957 0 0 0 0 82763471.672764778 24149527.282526016 0 24149527.282526016 -28517897.885665894 0 0 0 0 60817706.16295433 12841088.33203125 0 12841088.33203125 -27748663.599943161 0 0 0 0 71233841.935600281 -5921988.1018066406 0 -5921988.1018066406 -28639438.665557861 0 0 0 0 75389179.669988632 16238583.122169495 0 16238583.122169495 -34897027.178863525 0 0 0 0 69696757.574207306 6054675.1809768677 0 6054675.1809768677 -39318332.614639282 0 0 0 0 37504786.428772211 374210.71998405457 0 374210.71998405457 -29937692.020263672 0 0 0 0 48015434.751464844 49171358.034057617 0 49171358.034057617 -17433429.350823402 0 0 0 0 106055359.78085637 63374500.519276619 0 63374500.519276619 -18432673.75831604 0 0 0 0 67802588.751478195 44157173.967460632 0 44157173.967460632 -24952901.799850464 0 0 0 0 25440370.879678726 49721333.682821274 0 49721333.682821274 405874.74842834473 0 0 0 0 27776627.284461975 40433417.110916138 0 40433417.110916138 -11997259.510757446 0 0 0 0 22165521.022591591 25629756.237491608 0 25629756.237491608 -10391890.717926025 0 0 0 0 45649909.074241638 35457300.630462646 0 35457300.630462646 -20132458.671417236 0 0 0 0 39096473.68459034 30263101.37147522 0 30263101.37147522 -18688298.864578247 0 0 0 0 49594248.355859756 3677125.8746185303 0 3677125.8746185303 -32461589.412902832 0 0 0 0 48643473.821028709 16453170.876342773 0 16453170.876342773 -26763733.663986206 0 0 0 0 36452167.523845673 14576026.641403198 0 14576026.641403198 -16624458.813262939 0 0 0 0 43805848.698580265 17581415.258033752 0 17581415.258033752 -19872443.450714111 0 0 0 0 39231840.384656906 11029138.767181396 0 11029138.767181396 -12773160.036621094 0 0 0 0 47604359.63007164 26745257.706558228 0 26745257.706558228 -1034032.5621643066 0 0 0 0 21956013.653357983 9121484.9637365341 0 9121484.9637365341 -13143662.799743652 0 0 0 0 59873.685497381259 -215341.61030656844 0 -215341.61030656844 -696729.06796450168 0 0 0 0 7268905.540176657 3381186.5234280489 0 3381186.5234280489 -9062545.1324397922 0 0 0 0 33438409.083292007 62536728.412029266 0 62536728.412029266 -39912131.678878784 0 0 0 0 37501763.600988388 6633223.3329849243 0 6633223.3329849243 -15174410.237762451 0 0 0 0 31641293.895055771 15467423.472991943 0 15467423.472991943 -7054202.2481384277 0 0 0 0 29180940.285554886 19348585.280105591 0 19348585.280105591 -11914714.810279846 0 0 0 0 32211847.006995201 17715116.776496887 0 17715116.776496887 -9463134.4013366699 0 0 0 0 30070957.891411304 21359078.836393356 0 21359078.836393356 -8240560.9428100586 0 0 0 0 18928726.106248856 23348440.918807983 0 23348440.918807983 -7503732.7540531158 0 0 0 0 15252828.564893723 21178664.430210114 0 21178664.430210114 -2423463.8524780273 0 0 0 0 17515770.319286346 14007092.595912933 0 14007092.595912933 -6138399.3615722656 0 0 0 0 12504573.461385727 20178553.926185608 0 20178553.926185608 -2477660.9009847641 0 0 0 0 42482429.530501604 -8196111.0837521553 0 -8196111.0837521553 -4072025.3216400146 0 0 0 0 7488479.4245682415 5104972.200361263 0 5104972.200361263 -8422704.3274955042 0 0 0 0 21204296.222109795 18199942.898948669 0 18199942.898948669 -6467278.3744621277 0 0 0 0 9160126.5721893311 -25131000.232303619 0 -25131000.232303619 8017138.1190185547 0 0 0 0 41693714.975120544 -15080071.297119141 0 -15080071.297119141 -19006625.708938599 0 0 0 0 27345537.702413559 15872596.232841492 0 15872596.232841492 -5671685.2850646973 0 0 0 0 34063759.630474091 -9732443.1631469727 0 -9732443.1631469727 5492835.35729599 0 0 0 0 27831818.052120209 -15908501.866336823 0 -15908501.866336823 -12605484.136016846 0 0 0 0 27197210.281856537 -15041219.585426331 0 -15041219.585426331 2301538.3300323486 0 0 0 0 1986889.9372711182 2492687.8336868286 0 2492687.8336868286 -15425128.853179932 0 0 0 0 10867963.145652771 15149444.569015503 0 15149444.569015503 -39108023.747321129 0 0 0 0 36146583.643749237 -15758148.379714966 0 -15758148.379714966 -7279950.7254333496 0 0 0 0 -5195843.7501220703 11527036.422653198 0 11527036.422653198 -8835864.1405639648 0 0 0 0 -27724813.114048004 32418571.62310791 0 32418571.62310791 -26716438.420776367 0 0 0 0 -25070539.804256439 556218.47648620605 0 556218.47648620605 1069645.6050109863 0 0 0 0 -2142870.1619911194 34204782.262321472 0 34204782.262321472 -55643490.394165039 0 0 0 0 -2072374.3304595947 32504333.899810791 0 32504333.899810791 -31247802.243148804 0 0 0 0 -1717082.2882270813 25011252.497337341 0 25011252.497337341 -35445913.587295532 0 0 0 0 9662941.4872379303 33846954.748764038 0 33846954.748764038 -39985942.960395813 0 0 0 0 35632541.182071686 57283788.649269104 0 57283788.649269104 -6969320.695602417 0 0 0 0 11841887.001522064 41744695.467971802 0 41744695.467971802 65642540.964080811 0 0 0 0 37086217.601982117 -16498638.968292236 0 -16498638.968292236 21325556.692390442 0 0 0 0 12910357.808585882 49192845.173153877 0 49192845.173153877 -9870216.9042053223 0 0 0 0 14868615.869056702 39427876.336654663 0 39427876.336654663 -36815057.745506287 0 0 0 0 8702244.1908149719 4252638.2449798584 0 4252638.2449798584 15685398.552711487 0 0 0 0 -882229.91733837128 29370039.701364517 0 29370039.701364517 -12776423.043823242 0 0 0 0 -1469716.1265945435 -57331.416397094727 0 -57331.416397094727 -10719352.223754883 0 0 0 0 7220798.3429374695 14759717.976364136 0 14759717.976364136 -29372991.012161255 0 0 0 0 18299683.015792847 -9062700.603515625 0 -9062700.603515625 -7909709.5668334961 0 0 0 0 16573927.931900024 -3895625.4028816223 0 -3895625.4028816223 -22837277.83001709 0 0 0 0 64217699.508207321 -8079747.8010864258 0 -8079747.8010864258 -14787703.232421875 0 0 0 0 32711021.341831207 3742148.0200653076 0 3742148.0200653076 -11720924.595031738 0 0 0 0 23656012.286170006 -2131067.2312297821 0 -2131067.2312297821 -13615246.715682983 0 0 0 0 38931264.667316437 13530083.897903442 0 13530083.897903442 -12136121.579269409 0 0 0 0 -17727996.45885849 -5231740.4898300171 0 -5231740.4898300171 -4256542.9862060547 0 0 0 0 854984.89290896337 542990.61935397983 0 542990.61935397983 168791.69872460514 0 0 0 0 20966168.686321259 9346578.4672851562 0 9346578.4672851562 22215491.388749123 0 0 0 0 -14939909.316726685 -23863659.260322571 0 -23863659.260322571 -30752699.542724609 0 0 0 0 1680578.8869171143 -125095.83127593994 0 -125095.83127593994 -60781812.145860672 0 0 0 0 -7973329.487865448 12622994.883571625 0 12622994.883571625 -938641.76382255554 0 0 0 0 -13526083.300458908 -8630753.1953353882 0 -8630753.1953353882 4874020.1143188477 0 0 0 0 -669504.3203972578 1494555.7528581377 0 1494555.7528581377 546864.56599828694 0 0 0 0 6690999.8531570435 22071233.163414001 0 22071233.163414001 -12000885.975656509 0 0 0 0 -13173224.510650635 1491970.6805648804 0 1491970.6805648804 3858308.35546875 0 0 0 0 -2221852.1643833593 718486.63740447257 0 718486.63740447257 927206.97388722748 0 0 0 0 -29519704.575567245 11630406.414066315 0 11630406.414066315 7756235.6048660278 0 0 0 0 -2192505.5559358597 24212878.511444092 0 24212878.511444092 2048824.4189529419 0 0 0 0 -6998614.9838055782 5004759.2407527342 0 5004759.2407527342 5014374.3869774183 0 0 0 0 4171257.9501274507 10149332.160079263 0 10149332.160079263 8455714.7977246046 0 0 0 0 8062206.8132629395 17905746.784742355 0 17905746.784742355 4443917.0678329468 0 0 0 0 -479447.62585926056 21473317.875415802 0 21473317.875415802 3335807.1371459961 0 0 0 0 -1496856.5298614502 28049800.287994385 0 28049800.287994385 -1149146.3465957642 0 0 0 0 11573364.577754021 25781439.845088959 0 25781439.845088959 -989671.00524902344 0 0 0 0 -689222.8679599762 22400146.413383484 0 22400146.413383484 613790.80547714233 0 0 0 0 -25909415.443917274 26958167.873210907 0 26958167.873210907 5840904.5313644409 0 0 0 0 -995238.02792930603 34399412.222686768 0 34399412.222686768 -3184272.2994041443 0 0 0 0 19617614.922423124 35524267.744319916 0 35524267.744319916 -6424429.1087341309 0 0 0 0 -17406860.137975693 24207839.607223511 0 24207839.607223511 -230089.84201049805 0 0 0 0 -3560643.9746088982 40215860.944450378 0 40215860.944450378 -4117246.9843139648 0 0 0 0 11199.166803359985 36929404.639606476 0 36929404.639606476 1508698.3947143555 0 0 0 0 -47490003.440662384 24494021.250213623 0 24494021.250213623 2564119.7418498993 0 0 0 0 -79435011.409666061 22984115.871870041 0 22984115.871870041 42468260.903686523 0 0 0 0 3101510.4453583527 7251203.7928233184 0 7251203.7928233184 8449030.6892322749 0 0 0 0 -27752319.650876999 31296015.532995224 0 31296015.532995224 489481.97148132324 0 0 0 0 3693549.5337209702 -36933957.613568306 0 -36933957.613568306 69642594.221977234 0 0 0 0 -460255.25719907135 285130.80727726407 0 285130.80727726407 102907.17023339495 0 0 0 0 588554.25019073486 50936894.23456192 0 50936894.23456192 100351672.24900818 0 0 0 0 -15772005.366260529 6823544.7387580872 0 6823544.7387580872 -3318367.195640564 0 0 0 0 17456669.24508667 62225193.308769226 0 62225193.308769226 -11599504.300372124 0 0 0 0 23191322.604762554 25278385.422978878 0 25278385.422978878 -32525389.288635254 0 0 0 0 1727686.0741996765 4946134.660654068 0 4946134.660654068 -18291803.216384888 0 0 0 0 -41227027.246669769 49625292.726951599 0 49625292.726951599 -3315405.8884773254 0 0 0 0 -503321.86379071046 403157.55324903317 0 403157.55324903317 559560.25455160066 0 0 0 0 -56959384.883207321 41334795.075839996 0 41334795.075839996 -11140978.68687439 0 0 0 0 -66267339.614181519 26972193.124092102 0 26972193.124092102 3911155.1265869141 0 0 0 0 2693710.8694021236 5648591.7678691167 0 5648591.7678691167 7209236.340442121 0 0 0 0 -39833633.516870499 39187285.048919678 0 39187285.048919678 -28390685.138092041 0 0 0 0 -36965453.72459507 31115429.114879608 0 31115429.114879608 -16781772.600982666 0 0 0 0 -43462443.620368958 36792091.869934082 0 36792091.869934082 -24984915.516448975 0 0 0 0 -84352515.996658325 54630034.339385986 0 54630034.339385986 -28037171.968715668 0 0 0 0 -33599244.016201019 36882892.648857117 0 36882892.648857117 -60991486.103057861 0 0 0 0 -36435451.763179779 34874523.946681976 0 34874523.946681976 -36172795.568572998 0 0 0 0 -56559093.997550964 35974437.180419922 0 35974437.180419922 -40181554.821334839 0 0 0 0 -18568413.31526804 20683978.660722733 0 20683978.660722733 -37363145.297363281 0 0 0 0 -30134159.939481735 29455916.880149841 0 29455916.880149841 -31726098.729309082 0 0 0 0 -29123043.064308167 29697154.514923096 0 29697154.514923096 -35689126.901031494 0 0 0 0 -20857815.261489868 29683939.420516968 0 29683939.420516968 -45305592.555496216 0 0 0 0 -36036736.814079285 29229887.454315186 0 29229887.454315186 -31586900.355743408 0 0 0 0 -27641236.976892471 36886386.181358337 0 36886386.181358337 -43240750.772399902 0 0 0 0 8020967.5919201132 5251753.9649970625 0 5251753.9649970625 2134785.502982175 0 0 0 0 -28527699.775135994 43206647.711011887 0 43206647.711011887 -45354475.970550537 0 0 0 0 -34313684.371738434 33361569.854690552 0 33361569.854690552 -35615178.280563354 0 0 0 0 -28497987.67791748 47563800.858963013 0 47563800.858963013 -38729047.019042969 0 0 0 0 923452.4862947464 32825195.422557831 0 32825195.422557831 -68264324.16355896 0 0 0 0 -17947175.498203278 51707823.463291168 0 51707823.463291168 -52742853.552886963 0 0 0 0 -90994882.667611122 105168983.97032166 0 105168983.97032166 -87940984.670593262 0 0 0 0 -99970060.976608276 108154648.49563599 0 108154648.49563599 -85791617.432434082 0 0 0 0 529470.20321940305 350975.66723962734 0 350975.66723962734 -346143.13962094486 0 0 0 0 -31761723.888046265 55590894.361713409 0 55590894.361713409 -89154554.891784668 0 0 0 0 -21224022.340990067 13211541.520195007 0 13211541.520195007 -7304087.3403892517 0 0 0 0 -12328257.734763145 41090116.284736633 0 41090116.284736633 12534313.694641113 0 0 0 0 -24519421.040956497 29308732.332923889 0 29308732.332923889 -17466422.436523438 0 0 0 0 -23541668.061956406 32993971.349723816 0 32993971.349723816 -12803358.609970093 0 0 0 0 -17338945.43003273 16058172.785812378 0 16058172.785812378 -13494395.307616711 0 0 0 0 -22864858.249912262 23144845.669387817 0 23144845.669387817 -26927994.755523682 0 0 0 0 -21221478.269299507 24380601.299282074 0 24380601.299282074 -31218433.758071899 0 0 0 0 -22422126.108825684 20186062.033000946 0 20186062.033000946 -26720899.866317749 0 0 0 0 -11692651.284599304 16245462.390724182 0 16245462.390724182 -29654150.675899029 0 0 0 0 -12800467.855640411 13647481.209854126 0 13647481.209854126 -29494387.518470764 0 0 0 0 -19428724.171993077 35562207.207137465 0 35562207.207137465 -10141006.574661255 0 0 0 0 -1432896.8132667183 141143.79092060588 0 141143.79092060588 1542536.7604219392 0 0 0 0 -11433887.087955475 20267406.490531921 0 20267406.490531921 -28775910.642028809 0 0 0 0 -23344799.566711426 4211283.2990264893 0 4211283.2990264893 -5410893.0986847878 0 0 0 0 -854480.24147769064 66850.009945148602 0 66850.009945148602 891358.89337317646 0 0 0 0 -16864811.089702606 17995510.092325211 0 17995510.092325211 1421597.3476867676 0 0 0 0 1290881.0960891247 17284825.224491119 0 17284825.224491119 9917.7369232177734 0 0 0 0 -20681610.230383873 44301246.039358139 0 44301246.039358139 -12037386.168334961 0 0 0 0 -11097599.039234161 36744938.293464661 0 36744938.293464661 -21541598.7133255 0 0 0 0 -22290416.569424629 38584573.674919128 0 38584573.674919128 -16807214.654006958 0 0 0 0 -25590996.758970261 33354052.728385925 0 33354052.728385925 -22097377.755737305 0 0 0 0 -21352008.420959473 38807195.710159302 0 38807195.710159302 -33575163.576446533 0 0 0 0 -19295743.137218475 39271957.361618042 0 39271957.361618042 -36728249.183685303 0 0 0 0 -10129822.736183167 30278058.498458862 0 30278058.498458862 -27542405.067703247 0 0 0 0 -17111715.041000366 12420211.392150879 0 12420211.392150879 -12287943.164886475 0 0 0 0 -23525207.268032074 22732565.092376709 0 22732565.092376709 -31106202.055579185 0 0 0 0 -17862499.569465637 26027293.818798065 0 26027293.818798065 -14070393.440849304 0 0 0 0 11929017.563507557 36968935.5189991 0 36968935.5189991 -11718420.195877075 0 0 0 0 5738548.9054889679 6787240.1961593628 0 6787240.1961593628 -14297676.307941437 0 0 0 0 18030730.137802124 18353204.430328369 0 18353204.430328369 21586.467018127441 0 0 0 0 -15843639.590465546 39242522.021858215 0 39242522.021858215 8596582.5416297913 0 0 0 0 -16596233.47114563 34768274.969703674 0 34768274.969703674 -7980423.3873062134 0 0 0 0 -23165900.614955902 35268798.762733459 0 35268798.762733459 5796.5733489990234 0 0 0 0 -13448633.269115448 36639405.200138092 0 36639405.200138092 -42549550.944755554 0 0 0 0 -12159461.325990677 31310462.386051178 0 31310462.386051178 -20595418.69417572 0 0 0 0 6131119.8278171513 4337162.5000751019 0 4337162.5000751019 2197650.945184391 0 0 0 0 -19958172.434726715 28437841.737888336 0 28437841.737888336 -17724522.171062469 0 0 0 0 -18296209.059038162 22341654.529438019 0 22341654.529438019 -42391.335970129818 0 0 0 0 3483401.3744778447 -585762.05560781434 0 -585762.05560781434 -542889.73389684036 0 0 0 0 35731663.179443836 -12259252.982201576 0 -12259252.982201576 -37139603.365600586 0 0 0 0 2216801.0537898093 819001.37847573496 0 819001.37847573496 -313247.3899038583 0 0 0 0 2957240.1451339722 29110872.737709045 0 29110872.737709045 65454.843681335449 0 0 0 0 9726515.7390365601 11308603.968112946 0 11308603.968112946 -21183126.213912964 0 0 0 0 24657471.848884583 45079952.875518799 0 45079952.875518799 -31954702.430465698 0 0 0 0 322295.60526145063 182191.76933671162 0 182191.76933671162 43749.387598119676 0 0 0 0 2282123.7640075684 -3830203.5573806763 0 -3830203.5573806763 -50470353.281616211 0 0 0 0 132928354.55810738 -3947912.0070877075 0 -3947912.0070877075 -30553424.484512329 0 0 0 0 2359083.0336206909 638846.33701395988 0 638846.33701395988 -2011842.9462431669 0 0 0 0 11184535.004153252 -3314454.0846605301 0 -3314454.0846605301 8220985.7129592896 0 0 0 0 4271531.2469578665 3730211.797279723 0 3730211.797279723 521485.81477993168 0 0 0 0 6549427.3540229797 3223556.4575233459 0 3223556.4575233459 -1616617.7027740479 0 0 0 0 8433115.318693161 4531560.9386329651 0 4531560.9386329651 -4402961.3890762329 0 0 0 0 7596643.0342693329 -1834894.8251132965 0 -1834894.8251132965 -4041976.4457092285 0 0 0 0 1746075.898168013 890030.26395723596 0 890030.26395723596 -2451562.7020676136 0 0 0 0 7815515.121711731 -1498323.6976013184 0 -1498323.6976013184 -3547717.0215368271 0 0 0 0 7815071.5785140991 -1086108.4845962524 0 -1086108.4845962524 -4941220.090713501 0 0 0 0 -3797828.0275726318 7367251.1132659912 0 7367251.1132659912 -17038854.569031715 0 0 0 0 8377184.6295471191 -945889.8557510376 0 -945889.8557510376 -12844014.554595947 0 0 0 0 1047437.2336485758 105527.05880027544 0 105527.05880027544 -623853.94571843743 0 0 0 0 45148668.233295441 22370322.275753021 0 22370322.275753021 -34189765.975326538 0 0 0 0 -5799379.4136879444 41930754.776065826 0 41930754.776065826 -34551712.628890991 0 0 0 0 60812428.176261902 -27174535.507839203 0 -27174535.507839203 -12995543.431266785 0 0 0 0 18496718.207382202 25311045.001560211 0 25311045.001560211 -31296157.26700592 0 0 0 0 -6892679.8071174622 2648631.2439670563 0 2648631.2439670563 11881048.201522827 0 0 0 0 4646981.2366485596 7403987.7765808105 0 7403987.7765808105 -9769521.9017944336 0 0 0 0 23660998.452789307 1149172.2758865356 0 1149172.2758865356 -21093437.166053772 0 0 0 0 3903171.9479969088 558734.90846989118 0 558734.90846989118 -2438406.7295640707 0 0 0 0 183556529.64987946 -181576856.73989105 0 -181576856.73989105 57791681.001243591 0 0 0 0 139613968.85676575 37023932.254142761 0 37023932.254142761 -160291187.15686035 0 0 0 0 -158354001.81999111 42240517.126324654 0 42240517.126324654 -67499748.814971924 0 0 0 0 -915060.58339820057 864795.19745763019 0 864795.19745763019 -96019.218767130747 0 0 0 0 -266899690.86990356 281740641.96740341 0 281740641.96740341 -264128711.12662506 0 0 0 0 -164578030.60616302 -43869473.036960602 0 -43869473.036960602 233814592.95061493 0 0 0 0 -481583844.63910294 346351281.2549324 0 346351281.2549324 1010450.4701690674 0 0 0 0 -215826613.50593948 537558242.51096725 0 537558242.51096725 -219329189.00671387 0 0 0 0 -517486131.72023392 191224401.20925903 0 191224401.20925903 92467796.820526123 0 0 0 0 -144314798.13192558 101615511.94599056 0 101615511.94599056 36396321.482666016 0 0 0 0 -147542427.28601074 214275944.41783142 0 214275944.41783142 -64132661.021179199 0 0 0 0 -139593690.75540161 173527926.17040253 0 173527926.17040253 -157998196.99330902 0 0 0 0 295489364.37848377 -105857839.32622719 0 -105857839.32622719 -8836681.4119567871 0 0 0 0 486717045.37960052 245476070.00508118 0 245476070.00508118 -202444765.45357513 0 0 0 0 744401456.67673492 337195461.98781586 0 337195461.98781586 -388422678.86119843 0 0 0 0 883533493.92737913 -536937993.17794991 0 -536937993.17794991 161771398.30039215 0 0 0 0 471779.51279046573 547167.12787538953 0 547167.12787538953 52555.175127858296 0 0 0 0 -5661371.490447998 11362212.770706177 0 11362212.770706177 -51634.29677970575 0 0 0 0 -4817619.4539489746 10497325.540611267 0 10497325.540611267 -20452634.034179688 0 0 0 0 218388339.52961731 -79768790.833461761 0 -79768790.833461761 31744773.864826202 0 0 0 0 226618593.36688995 -23195048.922325134 0 -23195048.922325134 -108021538.99303436 0 0 0 0 210941344.85446167 54919677.014526367 0 54919677.014526367 -99862660.713690281 0 0 0 0 190302203.53539085 43511132.572288513 0 43511132.572288513 -30194337.504562378 0 0 0 0 61644136.046844482 68470266.850784302 0 68470266.850784302 71142239.8409729 0 0 0 0 91868220.169013977 104183300.58739471 0 104183300.58739471 -15660375.603575706 0 0 0 0 765290.1918480657 130952.46928340942 0 130952.46928340942 -402480.28661955334 0 0 0 0 -96171044.513751984 262377984.68623734 0 262377984.68623734 839428041.04723358 0 0 0 0 72233744.140995026 183935488.59274673 0 183935488.59274673 104774397.25789642 0 0 0 0 230445176.05565381 189432638.15530348 0 189432638.15530348 -642398062.90830994 0 0 0 0 237545678.26513672 315474671.97444916 0 315474671.97444916 -148388059.22306061 0 0 0 0 241974210.37534714 61631983.406269073 0 61631983.406269073 -271105346.43954468 0 0 0 0 133064164.66028214 155238238.80041885 0 155238238.80041885 -188319240.45091248 0 0 0 0 -27705677.279209137 118838887.74487305 0 118838887.74487305 -173854652.13665009 0 0 0 0 -252289074.25425148 264649332.70932388 0 264649332.70932388 -263840585.84132385 0 0 0 0 -196303858.64639282 -42589260.035308838 0 -42589260.035308838 -298975035.49717712 0 0 0 0 63173841.150444031 620907780.66628265 0 620907780.66628265 -76855713.682380676 0 0 0 0 60303026.849525452 278513757.5920105 0 278513757.5920105 293783082.32312298 0 0 0 0 -691830.00329205021 582849.13676303253 0 582849.13676303253 -201226.09202010185 0 0 0 0 -125067133.97399855 -54378338.369278908 0 -54378338.369278908 340938971.77799225 0 0 0 0 -36488734.298149109 -11324925.731723785 0 -11324925.731723785 110778.66979980469 0 0 0 0 39425023.103981018 -4275461.1888694763 0 -4275461.1888694763 -129221557.44517517 0 0 0 0 34460067.052398682 40376228.488426208 0 40376228.488426208 -362576097.09976196 0 0 0 0 32313323.791168213 46492645.518844604 0 46492645.518844604 -228995994.3971405 0 0 0 0 17420097.039398193 154129196.21841431 0 154129196.21841431 -246365738.7495575 0 0 0 0 -42437717.724281311 147238831.23962593 0 147238831.23962593 -204469384.86927795 0 0 0 0 85342001.206101894 167593912.7861979 0 167593912.7861979 144144493.6427002 0 0 0 0 90051017.73286438 120397896.24632645 0 120397896.24632645 13248312.278549194 0 0 0 0 94542635.828269005 243654984.60013437 0 243654984.60013437 204374451.74608612 0 0 0 0 88840613.419574738 214363293.0694046 0 214363293.0694046 163342928.0348053 0 0 0 0 145452905.86771011 228650025.06155014 0 228650025.06155014 19735898.752090454 0 0 0 0 116632334.0743103 301080104.74022675 0 301080104.74022675 139263886.32372284 0 0 0 0 3163553.9641647339 105900396.37612152 0 105900396.37612152 74587256.868345261 0 0 0 0 -109439.90553665161 123876820.83667755 0 123876820.83667755 -10763369.104476929 0 0 0 0 -108725374.66099167 55294392.838813782 0 55294392.838813782 12865247.633514404 0 0 0 0 82888749.198876381 163139860.64235973 0 163139860.64235973 -194472757.11496735 0 0 0 0 -88040483.561927795 93889274.65511322 0 93889274.65511322 23523497.481407166 0 0 0 0 -95547122.026069641 70897947.732505798 0 70897947.732505798 -44739803.514987946 0 0 0 0 2053524.5103197694 524235.1848184038 0 524235.1848184038 -1168513.7329925299 0 0 0 0 262917.44709434826 1164355.1147279516 0 1164355.1147279516 -1018378.8033112139 0 0 0 0 -119132034.90150452 42371288.149692535 0 42371288.149692535 -5839838.4220619202 0 0 0 0 -109624384.79725647 56039818.644989014 0 56039818.644989014 13742804.92628479 0 0 0 0 -354277735.47943878 32243270.820270538 0 32243270.820270538 24597325.473395348 0 0 0 0 -5530.1264204690233 513631.34455268644 0 513631.34455268644 -279655.82613196969 0 0 0 0 -35378495.007343292 -47018272.225247383 0 -47018272.225247383 -51695886.821113586 0 0 0 0 -19148297.649887085 -122921226.44809914 0 -122921226.44809914 78537853.971208572 0 0 0 0 12192558.460430145 -79739502.747196198 0 -79739502.747196198 -159941978.04489517 0 0 0 0 -68755995.832504272 35310320.040435791 0 35310320.040435791 6564514.2996139526 0 0 0 0 -135619680.56494904 161045967.98132324 0 161045967.98132324 -107045683.83938599 0 0 0 0 713026.42826318741 35815286.374854088 0 35815286.374854088 74784485.741165161 0 0 0 0 2786637.8100509644 36431368.26618576 0 36431368.26618576 -83652266.083854675 0 0 0 0 48350065.490297318 57053489.280109406 0 57053489.280109406 -53457363.644813538 0 0 0 0 -106740206.34436417 15266934.236587524 0 15266934.236587524 88720865.06363678 0 0 0 0 41343391.303142548 73805308.357261658 0 73805308.357261658 104121590.16483116 0 0 0 0 38541657.758449554 79530597.314441681 0 79530597.314441681 93398056.757743835 0 0 0 0 36772057.902914047 -21339553.922682762 0 -21339553.922682762 13674291.910736084 0 0 0 0 323870.42386051081 -183984.99040083401 0 -183984.99040083401 -404722.87733894214 0 0 0 0 26526783.539962769 45575575.606735229 0 45575575.606735229 22963229.95148468 0 0 0 0 41439011.117195129 49376311.308361053 0 49376311.308361053 76538622.408508301 0 0 0 0 66201322.479431152 39168616.511707306 0 39168616.511707306 76189890.704345703 0 0 0 0 66953626.762142658 -31271281.552400112 0 -31271281.552400112 -6178247.3859863281 0 0 0 0 83079133.600666046 73245064.587287903 0 73245064.587287903 3693375.6472396851 0 0 0 0 36957640.735427856 23813304.651885986 0 23813304.651885986 -53949488.298324585 0 0 0 0 36804418.344078064 -17030023.428642273 0 -17030023.428642273 -20561383.831946373 0 0 0 0 8062085.6588134766 -12658306.370769501 0 -12658306.370769501 11203389.406173706 0 0 0 0 5786009.3439483643 -6171039.8385505676 0 -6171039.8385505676 -5618825.1175570488 0 0 0 0 942071.30703994818 -558050.00295251235 0 -558050.00295251235 -1303683.4685350694 0 0 0 0 6159646.1762428284 -4345215.2757415771 0 -4345215.2757415771 700427.84767532349 0 0 0 0 12878997.761615753 -7837015.0651779175 0 -7837015.0651779175 -20113980.004890442 0 0 0 0 -450839.14487266541 -5557826.0119161606 0 -5557826.0119161606 -20135371.18699646 0 0 0 0 64882178.77381897 49128584.306838989 0 49128584.306838989 -48224514.264053345 0 0 0 0 1579723.5371437073 3037420.4345054626 0 3037420.4345054626 -24002458.405174255 0 0 0 0 53883384.709278107 106498534.96010017 0 106498534.96010017 32183827.730014801 0 0 0 0 56274820.21207428 75773686.290500641 0 75773686.290500641 -131679155.0982666 0 0 0 0 34502884.848655701 35363753.231538773 0 35363753.231538773 -9964271.604095459 0 0 0 0 26350138.30437088 47141465.479118347 0 47141465.479118347 30619286.440616608 0 0 0 0 50413656.513565063 72691753.148088455 0 72691753.148088455 1583032.8184127808 0 0 0 0 60324847.136817932 66934942.756813049 0 66934942.756813049 -7921440.7552719116 0 0 0 0 27112715.893112183 45545885.813541412 0 45545885.813541412 6052038.0755081177 0 0 0 0 44880341.26997757 36533623.133678436 0 36533623.133678436 7762962.0141067505 0 0 0 0 13596730.104202271 -7827153.8056182861 0 -7827153.8056182861 -4354203.9373588562 0 0 0 0 75761163.479377747 34692802.356866837 0 34692802.356866837 1125844.7415618896 0 0 0 0 -13269812.579174042 16186590.344509125 0 16186590.344509125 55701468.519767761 0 0 0 0 -2875180.3527300339 1331723.6782560758 0 1331723.6782560758 688874.97002331587 0 0 0 0 -98197419.658462524 110092334.29377747 0 110092334.29377747 -186776569.86212921 0 0 0 0 -106770.88684993796 246056.80284674093 0 246056.80284674093 -284488.8467990905 0 0 0 0 9598146.1530075073 -45184377.710266113 0 -45184377.710266113 -273771347.04628372 0 0 0 0 -2793513.4528884888 165925705.02544022 0 165925705.02544022 26788322.074195862 0 0 0 0 35308388.297866821 15546669.913295746 0 15546669.913295746 -301985345.25645447 0 0 0 0 9053647.6080684662 18023466.675447464 0 18023466.675447464 -200560336.60152817 0 0 0 0 9822672.1587848663 71700648.817445755 0 71700648.817445755 164805517.6831131 0 0 0 0 -2262715.7189785428 774953.89289537631 0 774953.89289537631 294352.86901471228 0 0 0 0 -50351972.831674576 -6519990.1754283905 0 -6519990.1754283905 -140237865.34623337 0 0 0 0 40465029.17432785 24167404.251342773 0 24167404.251342773 -291849960.8058033 0 0 0 0 -8365016.9048581123 49064103.708744526 0 49064103.708744526 -25871488.509307861 0 0 0 0 26786291.695549011 48738301.179340363 0 48738301.179340363 -129022224.97573471 0 0 0 0 -101568.23691000789 345282.81919880584 0 345282.81919880584 -215215.72593529895 0 0 0 0 -24625650.627560616 -15119794.305537701 0 -15119794.305537701 24105131.49533844 0 0 0 0 -33821384.827186584 2249411.1414794922 0 2249411.1414794922 -999798.00855636597 0 0 0 0 -90453208.266059875 -25218193.976760864 0 -25218193.976760864 2439784.4944610596 0 0 0 0 -1666.2298065647483 32375.508406996727 0 32375.508406996727 -21669.733309675008 0 0 0 0 100739976.21347809 61097199.339839935 0 61097199.339839935 8016532.9839630127 0 0 0 0 96383849.642456055 91274813.386100769 0 91274813.386100769 56393046.380905151 0 0 0 0 117769649.4262085 77194374.635042191 0 77194374.635042191 48807591.238185883 0 0 0 0 -251117.09499271773 613366.99700075574 0 613366.99700075574 -641401.2510891594 0 0 0 0 48674965.717386246 19698217.662567139 0 19698217.662567139 49547098.86341095 0 0 0 0 10739806.284076691 64119691.510314941 0 64119691.510314941 18359042.234588623 0 0 0 0 -11556514.188453674 69199446.550712585 0 69199446.550712585 86429155.362728119 0 0 0 0 15302821.134311676 -80965267.909690857 0 -80965267.909690857 -129468278.70473099 0 0 0 0 -165611338.80040216 -59454425.5214715 0 -59454425.5214715 -165271411.06572723 0 0 0 0 29920012.000967026 84446038.9792099 0 84446038.9792099 -174455963.1979599 0 0 0 0 -61990757.486034393 166843981.09044266 0 166843981.09044266 -160943898.68188477 0 0 0 0 -161860999.80470657 62855357.28584671 0 62855357.28584671 49537682.462310791 0 0 0 0 -106969659.27022648 -57596511.029381752 0 -57596511.029381752 287683295.62064362 0 0 0 0 -593855.04327738285 -137836.24076069891 0 -137836.24076069891 29454.56868166104 0 0 0 0 -225150020.2373085 189968911.33169937 0 189968911.33169937 -163689080.60282898 0 0 0 0 81840335.718582153 69280872.120132446 0 69280872.120132446 -577900513.93113708 0 0 0 0 -95391891.162971497 -28735917.882068634 0 -28735917.882068634 -217750095.31672668 0 0 0 0 -1562969.355519101 207850.36177331954 0 207850.36177331954 118874.78111426998 0 0 0 0 -189950968.87618065 95394055.854759216 0 95394055.854759216 352028256.64305878 0 0 0 0 66829644.660255432 31097243.960571289 0 31097243.960571289 -385511497.6351831 0 0 0 0 -225495.64948342927 55491.448104716837 0 55491.448104716837 -180150.45863592811 0 0 0 0 -53174106.688668251 -37287765.705752373 0 -37287765.705752373 73016065.507148743 0 0 0 0 -54509862.766918182 100844870.11687469 0 100844870.11687469 -93077562.782470703 0 0 0 0 -33891481.407791138 61539201.053955078 0 61539201.053955078 -37259656.657600403 0 0 0 0 -77186379.874334335 85189500.226634979 0 85189500.226634979 -62723023.820610046 0 0 0 0 92104483.644008636 81017636.793338776 0 81017636.793338776 -186311563.14415169 0 0 0 0 -139029498.64406967 -103404624.76440048 0 -103404624.76440048 104095317.95133972 0 0 0 0 -76411.860067199916 -66910.723148137331 0 -66910.723148137331 -128153.47206188738 0 0 0 0 -64738141.347360611 172352017.08574867 0 172352017.08574867 -264438676.61901093 0 0 0 0 -198698890.78562546 100765930.36271667 0 100765930.36271667 1722202.7339515686 0 0 0 0 -13631328.6888237 2699418.7146873474 0 2699418.7146873474 -31636338.580999374 0 0 0 0 -10604076.780061722 -50297179.045669556 0 -50297179.045669556 -135831691.34494781 0 0 0 0 -13701570.436124802 -36455281.181573868 0 -36455281.181573868 58895754.297065735 0 0 0 0 -27410926.241260529 25306399.852672577 0 25306399.852672577 56983225.396812439 0 0 0 0 -41392641.51331234 28468409.921023846 0 28468409.921023846 69122935.718528748 0 0 0 0 -93184097.885583878 5526743.3198699951 0 5526743.3198699951 59039349.421607971 0 0 0 0 -225222.78304756433 -167314.69489981979 0 -167314.69489981979 68261.6124852309 0 0 0 0 25820416.009693146 20459640.827354431 0 20459640.827354431 -12759202.169423103 0 0 0 0 -12463270.067672729 -25963138.630092621 0 -25963138.630092621 2412864.7961196899 0 0 0 0 18725235.792650223 67117447.610876083 0 67117447.610876083 -84377742.083724976 0 0 0 0 -157492.24598390236 -83418.764425547794 0 -83418.764425547794 35385.285245019011 0 0 0 0 -52359504.266452789 125504965.83852196 0 125504965.83852196 -112749292.01909637 0 0 0 0 -185875495.69941711 126014945.02130127 0 126014945.02130127 -37291855.046318099 0 0 0 0 -187701584.8026123 190141051.04488373 0 190141051.04488373 -76030700.756011963 0 0 0 0 -108683938.40876389 58844515.867115021 0 58844515.867115021 91912812.977561951 0 0 0 0 -134857613.37168884 -24388897.280414581 0 -24388897.280414581 -51290110.211418152 0 0 0 0 -104610133.07511902 11279464.998001099 0 11279464.998001099 5646763.1176948547 0 0 0 0 -36493402.864601135 38712704.349567413 0 38712704.349567413 -24511437.694313049 0 0 0 0 -9613577.9372901917 41255819.820991993 0 41255819.820991993 9555133.1273727417 0 0 0 0 -13208827.206291199 8861930.5719108582 0 8861930.5719108582 40482998.432670593 0 0 0 0 13964255.401086807 -17643359.257683754 0 -17643359.257683754 -10867131.769836426 0 0 0 0 35524039.407037735 7354218.2363643646 0 7354218.2363643646 -16840969.266555786 0 0 0 0 -1075058.3726921082 14780575.655338287 0 14780575.655338287 1661471.0772171021 0 0 0 0 8030516.4722385406 9725759.8323993683 0 9725759.8323993683 3627808.3680877686 0 0 0 0 9060061.0093040466 984395.19418716431 0 984395.19418716431 39006770.473228455 0 0 0 0 5296148.4103736877 10550055.936306 0 10550055.936306 16082502.797927856 0 0 0 0 18563304.889743805 4790303.1588935852 0 4790303.1588935852 1474267.783454895 0 0 0 0 -3992307.3403110504 234256.84043598175 0 234256.84043598175 1160415.4634399414 0 0 0 0 66768562.089666367 35577933.659797668 0 35577933.659797668 -53351966.860977173 0 0 0 0 53826930.527317047 41206909.917430878 0 41206909.917430878 -25648862.091892242 0 0 0 0 47441090.22712326 4756101.0869750977 0 4756101.0869750977 -28905857.023960114 0 0 0 0 20915082.993366241 18137999.2304039 0 18137999.2304039 -27088424.441207886 0 0 0 0 23875804.590626717 41872273.802451134 0 41872273.802451134 -6125901.0262832642 0 0 0 0 62239081.817947388 10968220.824562073 0 10968220.824562073 18575462.656820297 0 0 0 0 55809830.257263184 37234687.614097595 0 37234687.614097595 45965659.629636765 0 0 0 0 54555322.957328796 74287759.752632141 0 74287759.752632141 114537675.06695938 0 0 0 0 56928595.842147827 22623259.586380005 0 22623259.586380005 1449388.7101249695 0 0 0 0 118508214.58005905 54781602.87417984 0 54781602.87417984 11816072.939315796 0 0 0 0 -533262.82782232761 422316.64117196202 0 422316.64117196202 35824.168771605939 0 0 0 0 26736776.190956116 25577545.579116821 0 25577545.579116821 -8333308.1846828461 0 0 0 0 54640136.338198662 77812680.66395092 0 77812680.66395092 61171683.233459473 0 0 0 0 53291990.158859253 55092607.376625061 0 55092607.376625061 73409171.984455109 0 0 0 0 78836015.721725464 33422889.950111389 0 33422889.950111389 -27233509.30859375 0 0 0 0 3301797.3033065796 -15932844.69719696 0 -15932844.69719696 -14112349.886867523 0 0 0 0 -213691210.72647095 86751417.84324646 0 86751417.84324646 -26411206.678009033 0 0 0 0 -113746065.80870819 -41043973.103019714 0 -41043973.103019714 30828412.578323364 0 0 0 0 -213280.81319974922 168307.32619220763 0 168307.32619220763 -7012.3908156715333 0 0 0 0 62677016.409049988 67977907.132019043 0 67977907.132019043 -130063374.56066895 0 0 0 0 -42822129.92011261 181033017.77783966 0 181033017.77783966 -143477424.85920334 0 0 0 0 10837983.719684601 85350550.924953461 0 85350550.924953461 -60281795.857032776 0 0 0 0 -233733429.44810104 95624805.492620468 0 95624805.492620468 -9327742.3684387207 0 0 0 0 54529338.440925598 32787828.928672791 0 32787828.928672791 -26121386.543735504 0 0 0 0 62170990.683254004 12136878.790970206 0 12136878.790970206 -12572726.223648071 0 0 0 0 68352784.54044342 68660823.568412781 0 68660823.568412781 -111952634.48542786 0 0 0 0 29818857.004422188 84482480.116890907 0 84482480.116890907 -62901620.712982178 0 0 0 0 20051761.347913742 55261390.227855682 0 55261390.227855682 -44847610.01537323 0 0 0 0 -50200921.282539368 92359995.2474823 0 92359995.2474823 -12666935.471763611 0 0 0 0 -40477855.811988831 76903815.781337738 0 76903815.781337738 -11260454.966813564 0 0 0 0 -12983789.381591797 60473516.789108276 0 60473516.789108276 -1059767.0057229996 0 0 0 0 -14878586.636676788 52389432.236240387 0 52389432.236240387 -12451971.582000732 0 0 0 0 16255079.320209503 47369849.762687683 0 47369849.762687683 -31487280.059700012 0 0 0 0 18450041.571089745 27626039.753397703 0 27626039.753397703 -12046819.3070755 0 0 0 0 6495206.1427268982 14518970.089868546 0 14518970.089868546 -26416929.908035278 0 0 0 0 -427894.41895294189 38747666.564620972 0 38747666.564620972 -12838683.29523468 0 0 0 0 3772799.2854042053 28699393.155578613 0 28699393.155578613 -949101.95600128174 0 0 0 0 2442819.8627223969 27323080.008308411 0 27323080.008308411 7909297.9663467407 0 0 0 0 -13722310.174547672 29372995.622040272 0 29372995.622040272 23178530.934814453 0 0 0 0 -6660807.2619934082 2865105.7966156006 0 2865105.7966156006 -23735193.630569458 0 0 0 0 -1009658.5956115723 20513960.290138245 0 20513960.290138245 4548838.1475830078 0 0 0 0 660167.06097984314 -1468408.4966373444 0 -1468408.4966373444 -45508018.580524445 0 0 0 0 -20105799.183013916 16952498.580856323 0 16952498.580856323 -29581382.986339569 0 0 0 0 3640702.1434783936 27094011.026252747 0 27094011.026252747 -88849554.374649048 0 0 0 0 -81326.266108738258 5235.8296936489642 0 5235.8296936489642 -63302.141950534657 0 0 0 0 24487838.163928509 36436677.480131626 0 36436677.480131626 -77545421.054191589 0 0 0 0 7567.8694233093411 -18999.748046357185 0 -18999.748046357185 -42897.50305810757 0 0 0 0 45802067.218399048 52443250.667163849 0 52443250.667163849 -83601894.86882019 0 0 0 0 -18586.260089874268 21027519.93239975 0 21027519.93239975 -73443753.653137207 0 0 0 0 -24236920.824222565 40966689.597827911 0 40966689.597827911 -53903613.14598465 0 0 0 0 -25881807.680854797 34361986.343505859 0 34361986.343505859 -58498352.09185791 0 0 0 0 -10892542.794269562 -14546933.82900238 0 -14546933.82900238 -35960345.59223938 0 0 0 0 225223662.48405457 23121614.068481445 0 23121614.068481445 -101187159.56915283 0 0 0 0 -437765.38707449287 64593.769840156659 0 64593.769840156659 1149.0507318582386 0 0 0 0 95167061.550216675 -27733592.075996399 0 -27733592.075996399 -62933296.439790726 0 0 0 0 -8004590.9728339911 94287164.380449772 0 94287164.380449772 18865827.533836365 0 0 0 0 164724538.816576 73485157.788196564 0 73485157.788196564 -12765148.953666687 0 0 0 0 -613864.18722632574 376575.51054891013 0 376575.51054891013 430428.86047205329 0 0 0 0 6614801.6917877197 38862337.882102966 0 38862337.882102966 26273525.863136292 0 0 0 0 28613455.753093719 34689006.81584549 0 34689006.81584549 10464901.190364838 0 0 0 0 -2497747.4553011851 2225781.7851259653 0 2225781.7851259653 1724176.4334110208 0 0 0 0 81990220.437648773 55584860.166835785 0 55584860.166835785 6113185.7963447571 0 0 0 0 29511762.108514786 47869041.12358582 0 47869041.12358582 40697369.233032227 0 0 0 0 -63532572.906667709 394770.71720695496 0 394770.71720695496 107682121.7416687 0 0 0 0 -53903824.152713776 7882922.8934059143 0 7882922.8934059143 -69706884.89263916 0 0 0 0 76717581.364556313 75112098.691205025 0 75112098.691205025 44604378.63735199 0 0 0 0 -622150.24801254272 -27020197.004055023 0 -27020197.004055023 -3073387.8960762024 0 0 0 0 -103061146.10057068 23458974.963871002 0 23458974.963871002 -26678126.398311615 0 0 0 0 -132000371.47683334 -56438486.96849823 0 -56438486.96849823 65311657.657554626 0 0 0 0 -40374843.237481475 65340647.957783818 0 65340647.957783818 65534812.887853622 0 0 0 0 -23395457.75093174 20044123.973390102 0 20044123.973390102 150017973.0753355 0 0 0 0 122062802.99161053 320175341.32966471 0 320175341.32966471 207982352.36876112 0 0 0 0 47937635.661177874 245127047.47451043 0 245127047.47451043 188749403.58248138 0 0 0 0 -10966516.690969124 16480841.36427987 0 16480841.36427987 -17718716.686322086 0 0 0 0 241253984.75080276 66935584.62284565 0 66935584.62284565 -152752009.22866821 0 0 0 0 -226659107.36006165 118635971.53944397 0 118635971.53944397 247725884.08106995 0 0 0 0 32040878.165931031 158979793.44648451 0 158979793.44648451 189928785.70872021 0 0 0 0 227245425.64476013 244684512.54865265 0 244684512.54865265 16740999.694198608 0 0 0 0 78426039.180702209 99138268.456871033 0 99138268.456871033 74204535.931116104 0 0 0 0 -10783984.527206037 16716454.544967154 0 16716454.544967154 -17506307.852984548 0 0 0 0 121536982.50511932 30503509.872314453 0 30503509.872314453 -127287373.61431885 0 0 0 0 31720320.781799316 34625403.249469757 0 34625403.249469757 -43968257.850646973 0 0 0 0 27555932.321428299 64019948.594770432 0 64019948.594770432 -235055749.31169128 0 0 0 0 -13856678.522659302 -58382891.157920837 0 -58382891.157920837 -55286540.941680908 0 0 0 0 4529984.5466308594 -18747288.184776306 0 -18747288.184776306 -81043163.867717743 0 0 0 0 -20015448.581804276 -44934422.165761948 0 -44934422.165761948 -71281388.568206787 0 0 0 0 80661801.502731323 19962810.028816223 0 19962810.028816223 -74382359.873785019 0 0 0 0 73828264.630355835 3588098.4152011871 0 3588098.4152011871 -22242082.203163147 0 0 0 0 -147502970.9315567 -79949597.668861389 0 -79949597.668861389 30378318.191772461 0 0 0 0 -54435614.363494873 592923483.97859955 0 592923483.97859955 -312426761.00246239 0 0 0 0 377301986.62693787 220715885.59080505 0 220715885.59080505 -275678577.28585815 0 0 0 0 309692060.01374817 -1798962.3696289062 0 -1798962.3696289062 -181338687.66468811 0 0 0 0 -659954351.08479309 20108629.930404663 0 20108629.930404663 -176428904.3013916 0 0 0 0 -424263.74460449629 152781.82731288113 0 152781.82731288113 88295.95570512116 0 0 0 0 21990727.294151306 24541475.746582031 0 24541475.746582031 -375208962.3598175 0 0 0 0 -81964161.80027771 -148019589.44166565 0 -148019589.44166565 -272404645.69338989 0 0 0 0 -755975114.12112427 205313066.84735489 0 205313066.84735489 54619002.216156006 0 0 0 0 899969.11146523245 373689.1723129414 0 373689.1723129414 -679258.84354298189 0 0 0 0 -75791196.473716736 -110778575.08149719 0 -110778575.08149719 -98335265.03250885 0 0 0 0 -52117975.373840332 60676435.929382324 0 60676435.929382324 -29328937.195035338 0 0 0 0 7275598.7977981567 125393490.09157562 0 125393490.09157562 -135034422.13409042 0 0 0 0 -294346294.47418213 111365497.34506226 0 111365497.34506226 -30694772.749322653 0 0 0 0 -53061720.915534973 358833852.94878769 0 358833852.94878769 -253969598.21231079 0 0 0 0 119705879.61413574 110247685.32516479 0 110247685.32516479 -145033669.09127045 0 0 0 0 -29587015.912841797 56691336.429206848 0 56691336.429206848 -33742436.924377441 0 0 0 0 -21941353.076152802 60044560.492729187 0 60044560.492729187 -35834642.233673096 0 0 0 0 -83039454.101455688 87333124.245864868 0 87333124.245864868 -38530852.197792053 0 0 0 0 -32402008.98859787 67764038.695863724 0 67764038.695863724 -41051633.97946167 0 0 0 0 -24044968.809108734 11688822.858154297 0 11688822.858154297 -5328913.1782207489 0 0 0 0 -75813286.556789398 43016631.910982132 0 43016631.910982132 -15164148.155174255 0 0 0 0 2842495.3424038161 1185006.1547521669 0 1185006.1547521669 -1877551.1535373405 0 0 0 0 5931182.7867634166 6260344.9610864855 0 6260344.9610864855 -392601.13600535318 0 0 0 0 7494684.8763904572 7280510.7631759644 0 7280510.7631759644 -96394.456390380859 0 0 0 0 14175289.149638176 10818600.751426697 0 10818600.751426697 -2610072.5998001099 0 0 0 0 2986796.4844975471 11374422.751060486 0 11374422.751060486 1923662.3887023926 0 0 0 0 2311197.3005142212 9187147.4448013306 0 9187147.4448013306 -890458.24931335449 0 0 0 0 5962318.3544358294 5744039.2025722954 0 5744039.2025722954 -596728.80940284953 0 0 0 0 2368220.4204101562 10624801.594161987 0 10624801.594161987 -15244384.77132988 0 0 0 0 32385532.296401978 22983022.931190491 0 22983022.931190491 -51266360.844360352 0 0 0 0 7247342.679901123 24311718.664657593 0 24311718.664657593 -21828511.943786621 0 0 0 0 -18716321.120903015 64187670.932861328 0 64187670.932861328 -55478215.187316895 0 0 0 0 -5974633.665802002 54479812.142936707 0 54479812.142936707 -53091167.136009216 0 0 0 0 -17667174.776046753 40153820.073829651 0 40153820.073829651 -11809385.298492432 0 0 0 0 23265496.127590179 -45015444.167850494 0 -45015444.167850494 -63593798.482666969 0 0 0 0 65292897.094472885 -981910.10010910034 0 -981910.10010910034 -31120734.385063171 0 0 0 0 -21418208.950195312 -19192086.144586563 0 -19192086.144586563 -3636337.0069503784 0 0 0 0 1575475.4534991458 -56009.777428240515 0 -56009.777428240515 -1385679.4865421019 0 0 0 0 8182416.3263306804 -998180.90927244537 0 -998180.90927244537 -6338124.2828416079 0 0 0 0 12058793.908733368 -11038762.336967468 0 -11038762.336967468 -12480296.79986763 0 0 0 0 16223752.223583221 -7397753.0313873291 0 -7397753.0313873291 -12565814.297424316 0 0 0 0 20079842.055953979 -6254277.424785614 0 -6254277.424785614 -29339849.265353203 0 0 0 0 17642522.226303101 4757678.8965339661 0 4757678.8965339661 -12622898.180574715 0 0 0 0 18864748.326236725 4921664.9873046875 0 4921664.9873046875 -22984643.509189606 0 0 0 0 9834274.0454972237 -1104555.2829940487 0 -1104555.2829940487 -7877585.1171066836 0 0 0 0 25553051.060425758 11890396.564987183 0 11890396.564987183 -827110.9393157959 0 0 0 0 27796128.536705494 15035568.797939301 0 15035568.797939301 -4108626.3057632446 0 0 0 0 -7498223.2961463928 14732731.25528717 0 14732731.25528717 12152296.54385376 0 0 0 0 59318473.066619873 -41556218.409454346 0 -41556218.409454346 -780125.5498046875 0 0 0 0 65485193.64591217 28766259.915588379 0 28766259.915588379 27786276.256874084 0 0 0 0 653479.50330408569 598931.44112701155 0 598931.44112701155 -363964.01905528456 0 0 0 0 -12558402.457233429 34650689.758155823 0 34650689.758155823 37764521.969406128 0 0 0 0 8427062.4641189575 30897029.937576294 0 30897029.937576294 19740250.006164551 0 0 0 0 5643998.6035490036 45631475.604229927 0 45631475.604229927 30144344.642028809 0 0 0 0 -28821114.241790771 21006289.415740967 0 21006289.415740967 31183339.654747009 0 0 0 0 85202500.046575546 21464324.716415405 0 21464324.716415405 -10906551.516921997 0 0 0 0 247003.67793094181 -21724.941903145984 0 -21724.941903145984 -748703.35213455744 0 0 0 0 46491680.21128273 33705891.190628052 0 33705891.190628052 39041056.458221436 0 0 0 0 841649.23472410068 7496068.8778654197 0 7496068.8778654197 -4199066.8888555728 0 0 0 0 -4061493.91471982 20146623.276970863 0 20146623.276970863 4698154.0607223511 0 0 0 0 13978261.358585835 21786368.790240765 0 21786368.790240765 -14832453.243743896 0 0 0 0 1122987.7396011353 6076594.2095413208 0 6076594.2095413208 -1787408.7642059326 0 0 0 0 394835.04985046387 2719277.8665237427 0 2719277.8665237427 -18580.952262878418 0 0 0 0 3270418.4480001461 3607073.3240168877 0 3607073.3240168877 -97012.589684182778 0 0 0 0 2254642.4036750793 1544399.4556350708 0 1544399.4556350708 -834191.85180664062 0 0 0 0 3486619.643021998 3173034.4425660111 0 3173034.4425660111 324582.19834771752 0 0 0 0 11582720.574020386 2504133.4248275757 0 2504133.4248275757 6631749.0933685303 0 0 0 0 1494625.8813488521 5048241.2939286102 0 5048241.2939286102 913177.12927066535 0 0 0 0 518153.99257101119 355074.24262524769 0 355074.24262524769 236379.61347098649 0 0 0 0 11611474.118415833 15766793.386169434 0 15766793.386169434 -6910138.5623474121 0 0 0 0 -1228380.5569400787 4964327.8793449402 0 4964327.8793449402 -1590756.6064453125 0 0 0 0 37839.888195037842 5882269.8122711182 0 5882269.8122711182 4448694.9929466248 0 0 0 0 -3480675.5158615112 -802440.33140563965 0 -802440.33140563965 -356553.94155883789 0 0 0 0 -2838288.8476104736 14822816.141418457 0 14822816.141418457 11805884.779586792 0 0 0 0 887613.81426620483 4880668.5939483643 0 4880668.5939483643 900387.11595153809 0 0 0 0 14484309.295532227 327922.34094238281 0 327922.34094238281 960222.70335388184 0 0 0 0 147031.81505395938 933504.7099477388 0 933504.7099477388 -538348.30519535951 0 0 0 0 2100009.5144774141 2055413.6430671029 0 2055413.6430671029 -1215850.0259367861 0 0 0 0 -3320180.1890716553 11010862.508056641 0 11010862.508056641 19714447.692596436 0 0 0 0 19698519.942035675 -15228170.884555817 0 -15228170.884555817 12428902.195648193 0 0 0 0 -29931105.754049778 4829388.7099504471 0 4829388.7099504471 23584770.171264648 0 0 0 0 -15214190.293395996 -1653209.1709289551 0 -1653209.1709289551 10545930.377380371 0 0 0 0 -96173774.99829483 66283254.714584351 0 66283254.714584351 -5822087.1604309082 0 0 0 0 5732679.4565582275 -1365483.9877624512 0 -1365483.9877624512 -1469084.2887573242 0 0 0 0 -111942.29320557322 308764.35530288145 0 308764.35530288145 -57510.428028093651 0 0 0 0 5468414.376751313 6959116.5105595961 0 6959116.5105595961 -832953.43952629925 0 0 0 0 861296.40165557154 1632335.9761767555 0 1632335.9761767555 -1291498.4705293374 0 0 0 0 24744.388822555542 1429423.5764465332 0 1429423.5764465332 -143921.30380249023 0 0 0 0 4083154.2745588766 3878998.9520525169 0 3878998.9520525169 -42099.947000395507 0 0 0 0 2833918.0565411113 4608287.6448707953 0 4608287.6448707953 1171732.2761607282 0 0 0 0 1987912.2624454498 3409586.1147956848 0 3409586.1147956848 -776348.06492614746 0 0 0 0 -112342.51152420044 5760312.6674499512 0 5760312.6674499512 3576868.5615234375 0 0 0 0 952851.52843475342 3130609.2718658447 0 3130609.2718658447 -278001.70733642578 0 0 0 0 -96190.874746907502 2114324.8216639869 0 2114324.8216639869 -825657.75300240517 0 0 0 0 1000511.3861684799 3180543.2310562134 0 3180543.2310562134 -1583645.0696640015 0 0 0 0 -710462.45849609375 4031710.6853027344 0 4031710.6853027344 -3720677.825668335 0 0 0 0 -656437.86945343018 1793861.3128509521 0 1793861.3128509521 -1195732.3343505859 0 0 0 0 -13588.331039428711 4721901.9504241943 0 4721901.9504241943 -3667842.1096096039 0 0 0 0 319199.65423285961 3733824.3841898441 0 3733824.3841898441 -1005670.4571380615 0 0 0 0 5115577.212019152 9069233.1300132032 0 9069233.1300132032 886065.19809261151 0 0 0 0 -178092.05971736647 3824645.8359630145 0 3824645.8359630145 2120137.464513842 0 0 0 0 -4740.8976822718978 14564.062387440354 0 14564.062387440354 -22475.310471244156 0 0 0 0 11540670.800922394 69782641.879333496 0 69782641.879333496 11968915.116792679 0 0 0 0 373875.590323993 3548295.2813139628 0 3548295.2813139628 1907239.5387343764 0 0 0 0 -512606.80910491943 2120105.115650177 0 2120105.115650177 -1280318.6529006958 0 0 0 0 88370216.549781799 33486991.71647644 0 33486991.71647644 -166272432.25453186 0 0 0 0 -286475939.98474121 -33132609.572738647 0 -33132609.572738647 -22944912.833847046 0 0 0 0 190893.42151828296 220548.78956103325 0 220548.78956103325 -14027.172053918242 0 0 0 0 6711845.5352783203 10471490.631225586 0 10471490.631225586 -5810291.4222412109 0 0 0 0 4929555.2677045837 2548840.6497211047 0 2548840.6497211047 -560461.27797419205 0 0 0 0 1121046.3438129686 786940.96940130275 0 786940.96940130275 -1424731.0349394307 0 0 0 0 -11699197.573188782 55326697.030124664 0 55326697.030124664 -39289560.702926636 0 0 0 0 -10141978.833457947 91061148.970207214 0 91061148.970207214 -18823333.37487793 0 0 0 0 -7166961.6488647461 73858158.178619385 0 73858158.178619385 -55932506.631698608 0 0 0 0 39578902.217529297 128287572.03335571 0 128287572.03335571 -57090582.655044556 0 0 0 0 -1740673.3642578125 7033731.5997314453 0 7033731.5997314453 -2162790.2603378296 0 0 0 0 -172387.75821447372 -1360675.6921515465 0 -1360675.6921515465 -10722003.780296326 0 0 0 0 3347709.0168304443 6039847.0187072754 0 6039847.0187072754 -6131049.2465209961 0 0 0 0 -240127.41676191054 5588244.8992447611 0 5588244.8992447611 406195.34388253861 0 0 0 0 4950912.7014678512 5211529.8594742157 0 5211529.8594742157 -4190033.2921645492 0 0 0 0 -118292.76750946045 5058075.1111907959 0 5058075.1111907959 -2998375.2183837891 0 0 0 0 -483511.93053627014 7298741.1320476532 0 7298741.1320476532 -2798647.7629089355 0 0 0 0 2127536.6745970882 7725328.7738165054 0 7725328.7738165054 2509391.7392285946 0 0 0 0 -3170782.7581527606 2636401.3059404641 0 2636401.3059404641 1452439.0808574045 0 0 0 0 -320388.18396160752 3729240.2015401414 0 3729240.2015401414 480143.43951561674 0 0 0 0 -12506479.053939819 35551824.511844635 0 35551824.511844635 -80260806.014663696 0 0 0 0 -4580618.8983001709 -6408959.0099945068 0 -6408959.0099945068 -31796565.707420349 0 0 0 0 -8318114.9927768707 4963832.4960250854 0 4963832.4960250854 9397827.2620697021 0 0 0 0 25124648.997512817 -79587681.980422974 0 -79587681.980422974 -115257465.87921143 0 0 0 0 45852350.536109924 -90058663.344596863 0 -90058663.344596863 -249312012.0584259 0 0 0 0 79661072.06678009 35703901.311950684 0 35703901.311950684 -342873636.38129425 0 0 0 0 65220216.89982605 50648539.01235199 0 50648539.01235199 -162098373.24890518 0 0 0 0 1355926.7826004028 111398263.72612762 0 111398263.72612762 -84307990.443367004 0 0 0 0 8068695.8201293945 190703584.09758377 0 190703584.09758377 -200274949.88817215 0 0 0 0 20238980.856231689 56972975.741317749 0 56972975.741317749 -66492741.670700073 0 0 0 0 30249780.791267395 63500772.742183685 0 63500772.742183685 -131504386.81853485 0 0 0 0 -7405454.4703903198 70894239.366874695 0 70894239.366874695 -72789412.263458252 0 0 0 0 -3415655.9758377075 85551590.482826233 0 85551590.482826233 -69476470.147632599 0 0 0 0 -764809.47725296021 95954634.596176147 0 95954634.596176147 -44078216.344017029 0 0 0 0 -10236944.529022217 73517008.495681763 0 73517008.495681763 -44952074.996129751 0 0 0 0 -2456967.6700248718 108858343.17346191 0 108858343.17346191 -31620062.114837646 0 0 0 0 -6777527.7875442505 60126714.896255493 0 60126714.896255493 23806835.137989044 0 0 0 0 -16991295.654141426 113750026.57846594 0 113750026.57846594 -24911400.30909729 0 0 0 0 -13485153.347602844 37147185.050418854 0 37147185.050418854 45734753.663333893 0 0 0 0 -13471730.34960556 27351008.529495239 0 27351008.529495239 9036985.9037246704 0 0 0 0 -13721494.198373795 78792523.462465286 0 78792523.462465286 -20657138.251251221 0 0 0 0 -14752537.665295601 35332940.958264351 0 35332940.958264351 -40706050.534629822 0 0 0 0 -17392337.491039276 44043114.775619507 0 44043114.775619507 -56531287.197761536 0 0 0 0 -11978493.246944427 73395156.655986786 0 73395156.655986786 -40781454.977218628 0 0 0 0 -25020788.327415466 38611019.668491364 0 38611019.668491364 -53202017.202869415 0 0 0 0 -30488633.627500534 52020640.041353226 0 52020640.041353226 -67732941.17276001 0 0 0 0 -7824529.6633377075 37606546.309684753 0 37606546.309684753 -58565876.108604431 0 0 0 0 -8646215.0404968262 68252461.147911072 0 68252461.147911072 -81270721.379600525 0 0 0 0 -38155827.368309021 78099993.716445923 0 78099993.716445923 -74904211.14012146 0 0 0 0 -36606543.605262756 84844967.414223671 0 84844967.414223671 -57841058.481033325 0 0 0 0 -24033184.359321594 58764445.524139404 0 58764445.524139404 -60706745.448730469 0 0 0 0 -54289421.092005372 51815446.139152527 0 51815446.139152527 -91378306.385604858 0 0 0 0 -57309613.257591248 65173960.731086731 0 65173960.731086731 -61756993.029977798 0 0 0 0 -55092595.508033752 84713688.211936951 0 84713688.211936951 -61424126.721862793 0 0 0 0 -15187459.136199951 66341632.132575989 0 66341632.132575989 -61120626.152481079 0 0 0 0 4252300.3194465637 70375171.645915985 0 70375171.645915985 -95460899.657684326 0 0 0 0 20058553.719314575 4536329.9596366882 0 4536329.9596366882 -49017687.321289062 0 0 0 0 19846466.770622253 -9530347.1909866333 0 -9530347.1909866333 -10005820.1778965 0 0 0 0 -142927363.78240204 102554022.01757812 0 102554022.01757812 -106335754.96342468 0 0 0 0 -121245592.11691284 118662177.12503815 0 118662177.12503815 -97456276.13898468 0 0 0 0 966904.63429862726 645187.62416088721 0 645187.62416088721 -663392.6342124939 0 0 0 0 -89632594.068664551 -2246650.5496063232 0 -2246650.5496063232 -108171572.88446045 0 0 0 0 -2348901.0432357788 67811682.655632019 0 67811682.655632019 -89701045.088043213 0 0 0 0 445411.22409057617 72148330.678016663 0 72148330.678016663 -99038338.974990845 0 0 0 0 4239663.1605224609 94102376.919296265 0 94102376.919296265 -57375282.66505146 0 0 0 0 -2613453.6274452209 84492222.532405853 0 84492222.532405853 -69279105.23840332 0 0 0 0 -16086726.882598877 63190961.802871704 0 63190961.802871704 -62700088.375366211 0 0 0 0 -13676562.016899109 60561766.977096558 0 60561766.977096558 -67767912.295295715 0 0 0 0 -30837308.385089874 38430407.080387115 0 38430407.080387115 -94009487.719116211 0 0 0 0 558140.51460266113 301466588.44056702 0 301466588.44056702 142848871.45915222 0 0 0 0 227207800.03752899 153792281.93821716 0 153792281.93821716 -109111945.61636353 0 0 0 0 572729.10635076649 941496.49688490108 0 941496.49688490108 -282821.88421190903 0 0 0 0 238770040.84781647 199410822.80561829 0 199410822.80561829 -37340535.163448334 0 0 0 0 -102716414.37620544 -32637045.095006943 0 -32637045.095006943 61772183.122756958 0 0 0 0 50837006.550937653 38674152.425802231 0 38674152.425802231 -42195249.131111145 0 0 0 0 480346975.99465942 119031251.22488022 0 119031251.22488022 -10620625.1879673 0 0 0 0 453163233.60551834 120377714.55514812 0 120377714.55514812 26008871.40422821 0 0 0 0 71714611.822067261 44748237.368476868 0 44748237.368476868 -27156297.582522392 0 0 0 0 2111878.1669799853 2311553.0437599644 0 2311553.0437599644 -1058688.9018266946 0 0 0 0 -69208169.100337982 -11918121.009631634 0 -11918121.009631634 13821500.211715698 0 0 0 0 353453804.50502014 17624396.101932526 0 17624396.101932526 202749926.63298798 0 0 0 0 4349261.5030028978 4675552.8322610371 0 4675552.8322610371 -2146024.8620242998 0 0 0 0 -111179516.14729309 -41374549.431873322 0 -41374549.431873322 38612618.843833923 0 0 0 0 -69075686.890541077 -55134754.599773407 0 -55134754.599773407 2654818.799911499 0 0 0 0 1027856197.0373688 268860102.89137268 0 268860102.89137268 -125540541.63311768 0 0 0 0 848833534.35187531 845525561.28790665 0 845525561.28790665 350381495.84389687 0 0 0 0 741188184.15027618 481995007.55224609 0 481995007.55224609 86294141.394989014 0 0 0 0 281471052.42385769 542761421.50325871 0 542761421.50325871 256878997.84050369 0 0 0 0 707647780.68680573 663132791.72260094 0 663132791.72260094 673776340.82648849 0 0 0 0 942703.73024752003 1439392684.5123262 0 1439392684.5123262 954227297.19049072 0 0 0 0 715171357.50214195 768394802.05123639 0 768394802.05123639 1211422204.741806 0 0 0 0 1631093363.3376427 1688828763.2428875 0 1688828763.2428875 -1366724.1254043579 0 0 0 0 1810494341.6537476 1267726830.3280258 0 1267726830.3280258 38154410.742975235 0 0 0 0 3197222343.193306 1193764895.9637604 0 1193764895.9637604 6440226.4985733032 0 0 0 0 -29035186.842329025 3832889.9392690659 0 3832889.9392690659 12561394.296112061 0 0 0 0 2776429.950041323 1304664.1348771229 0 1304664.1348771229 1547100.4030610397 0 0 0 0 1730611713.7487564 1142197907.2599335 0 1142197907.2599335 414132712.05541992 0 0 0 0 2361997.6608253764 2606421.5082722567 0 2606421.5082722567 4469430.4954041913 0 0 0 0 -6478117.8741149902 8721929.3406562805 0 8721929.3406562805 12697755.099594116 0 0 0 0 6586040.6854019165 3806677.251701355 0 3806677.251701355 4848181.1610786021 0 0 0 0 1560386439.6626663 1407921451.8088913 0 1407921451.8088913 354866554.87129974 0 0 0 0 1576278117.5363541 1186985864.7670784 0 1186985864.7670784 1140622672.2873688 0 0 0 0 1247099.32615605 1151784.3681014851 0 1151784.3681014851 259860.22907324147 0 0 0 0 1510388280.4542751 -355845400.51914191 0 -355845400.51914191 -172693004.5632782 0 0 0 0 1665992033.0378571 1026043065.3714371 0 1026043065.3714371 331259934.47791672 0 0 0 0 6231880.8173522949 29773709.748596191 0 29773709.748596191 -37107467.88520813 0 0 0 0 7797057.6877064966 7228617.7354975417 0 7228617.7354975417 2426360.0522409193 0 0 0 0 -144191187.37191772 -118313268.87443161 0 -118313268.87443161 -134730662.22662354 0 0 0 0 860138065.08163452 40736850.767822266 0 40736850.767822266 -239457446.31570435 0 0 0 0 9006971.2340755984 5146915.7873561177 0 5146915.7873561177 -1404331.3309160683 0 0 0 0 -124359614.77900696 383782377.64509583 0 383782377.64509583 102047037.302948 0 0 0 0 -232122783.85469055 48252370.744718552 0 48252370.744718552 121175288.09715271 0 0 0 0 -535788790.74432373 -248118056.11386108 0 -248118056.11386108 -165624213.41256714 0 0 0 0 258296.92003881559 374046.6907624267 0 374046.6907624267 411164.64783994108 0 0 0 0 -55583733.183197021 -201494777.38597107 0 -201494777.38597107 6041692.5837287903 0 0 0 0 7437444.6231765747 6579900.8352127075 0 6579900.8352127075 7609357.1959915161 0 0 0 0 3587747.9653598666 2779887.0209212862 0 2779887.0209212862 2063395.3809002563 0 0 0 0 5869079.2034683228 5312461.1173629761 0 5312461.1173629761 9450667.835758552 0 0 0 0 7192385.5790176392 17330863.746704102 0 17330863.746704102 8134713.2099609375 0 0 0 0 4444558.5489387512 11336976.86523819 0 11336976.86523819 -1447427.8768615723 0 0 0 0 6250520.7277526855 6161197.0221862793 0 6161197.0221862793 12973034.226713181 0 0 0 0 1991654.9616546631 6487639.2931900024 0 6487639.2931900024 7631012.9869689941 0 0 0 0 3723127.9360896647 1565404.3503004313 0 1565404.3503004313 62696.422346293926 0 0 0 0 20895812.922355652 24625864.031297684 0 24625864.031297684 5374370.2156219482 0 0 0 0 26020286.785991669 16809512.363304138 0 16809512.363304138 15654.522804260254 0 0 0 0 13620964.632354736 7561584.7108535767 0 7561584.7108535767 7377869.3874959946 0 0 0 0 1336054.7379570007 20794559.208017349 0 20794559.208017349 -14008.437858581543 0 0 0 0 983218.8293762207 27989502.601921082 0 27989502.601921082 541454.97219848633 0 0 0 0 9297845.6984100342 30104511.833808899 0 30104511.833808899 -67374.754234313965 0 0 0 0 -18715856.648834229 5434278.0320053101 0 5434278.0320053101 6860147.1561050415 0 0 0 0 3628116.1312769093 1054912.5565413758 0 1054912.5565413758 -634331.26062662899 0 0 0 0 5144940.2851486206 10445337.689971924 0 10445337.689971924 7911972.0940666199 0 0 0 0 11662523.263343811 24431806.662181854 0 24431806.662181854 -4236489.8200378418 0 0 0 0 7610316.304397583 10301685.02519989 0 10301685.02519989 5925173.4908370972 0 0 0 0 9012711.9890098572 13987439.036178589 0 13987439.036178589 3116408.5723419189 0 0 0 0 6432663.8935241699 7435370.3471946716 0 7435370.3471946716 6977323.282699585 0 0 0 0 8583199.7988739014 9017129.7593765259 0 9017129.7593765259 5383078.7973365784 0 0 0 0 -2749944.3829345703 93606229.026313782 0 93606229.026313782 -53343797.065239504 0 0 0 0 9683614.700044591 6457572.025997147 0 6457572.025997147 -1095673.1462100337 0 0 0 0 91655422.454647064 20138538.6687603 0 20138538.6687603 -9797181.4313354492 0 0 0 0 75559636.275754929 -23000095.555015564 0 -23000095.555015564 54622838.780380249 0 0 0 0 10101113.167018637 6772892.2709634434 0 6772892.2709634434 -1055881.8286965762 0 0 0 0 -565446892.93005371 88997425.118713379 0 88997425.118713379 67305932.303443909 0 0 0 0 57907425.801818848 11053321.883605957 0 11053321.883605957 22114072.341835022 0 0 0 0 12163180.364376068 8953012.8111610413 0 8953012.8111610413 388642.3286819458 0 0 0 0 -102146474.8180941 -136281252.67329222 0 -136281252.67329222 -8844139.4213562012 0 0 0 0 -208980.53169705346 405060.15309412032 0 405060.15309412032 -76893.791866857558 0 0 0 0 16894351.527549744 26755868.445175171 0 26755868.445175171 -10881824.022468567 0 0 0 0 1164465.6780043868 818851.397191111 0 818851.397191111 552008.24472308904 0 0 0 0 -37286621.312606812 57453432.324687958 0 57453432.324687958 -3321105.6574783325 0 0 0 0 63866035.14528656 108763836.52077484 0 108763836.52077484 15088120.667312622 0 0 0 0 -15775300.727874756 -13119578.106750488 0 -13119578.106750488 14858847.648498535 0 0 0 0 -17715852.455383301 -14230491.773906708 0 -14230491.773906708 48207494.528656006 0 0 0 0 -99717314.798368454 -46998706.139096737 0 -46998706.139096737 16780233.91368103 0 0 0 0 -2296509.8357456587 1932234.8529501632 0 1932234.8529501632 1436944.8471168429 0 0 0 0 -105102746.75271606 9563032.3990478516 0 9563032.3990478516 26989105.15511322 0 0 0 0 -41146228.253013611 36065918.905433655 0 36065918.905433655 29309071.432540894 0 0 0 0 47491878.947757721 62504356.57641077 0 62504356.57641077 -27438800.211700439 0 0 0 0 -122032153.9012146 71310610.881969452 0 71310610.881969452 33168949.657180786 0 0 0 0 -477959.97759542428 748538.82927728258 0 748538.82927728258 466282.94029131159 0 0 0 0 615669823.12891388 69533715.528202057 0 69533715.528202057 -144919487.46292496 0 0 0 0 177068605.33091736 -49993228.385723114 0 -49993228.385723114 30658282.606147766 0 0 0 0 97267319.305175781 118695066.12167358 0 118695066.12167358 73528675.368766785 0 0 0 0 70366821.743209839 33993012.236438751 0 33993012.236438751 41643588.055073261 0 0 0 0 -5686343.8545608521 13072104.156749725 0 13072104.156749725 31763226.862565517 0 0 0 0 165151909.56073761 4185483.9061193466 0 4185483.9061193466 -19251829.835838318 0 0 0 0 -1387480.5819966625 2791558.5043494478 0 2791558.5043494478 1123562.0655835383 0 0 0 0 -3916063.7025359869 7993778.6180540733 0 7993778.6180540733 -4939614.7859740742 0 0 0 0 156223635.13115692 70063586.142158508 0 70063586.142158508 -7736114.3881278038 0 0 0 0 104919697.82893753 -23635574.35033226 0 -23635574.35033226 -32840309.157615662 0 0 0 0 -11054498.748138428 31980780.574073792 0 31980780.574073792 16208871.014385223 0 0 0 0 -23929978.474906921 7243303.0387401581 0 7243303.0387401581 -7843067.6059112549 0 0 0 0 -58083058.732269287 28489554.106988907 0 28489554.106988907 20515274.934326172 0 0 0 0 -5270736.992513001 3258431.4065801408 0 3258431.4065801408 10094964.74559598 0 0 0 0 -7297034.5508937836 -25113681.03786087 0 -25113681.03786087 12273927.92930603 0 0 0 0 5472223.9853363037 29723539.029190063 0 29723539.029190063 2633617.2697143555 0 0 0 0 -3128591.5908970218 7768411.6324703023 0 7768411.6324703023 6572422.2359822839 0 0 0 0 54692800.770587921 -29213006.08826828 0 -29213006.08826828 106659421.94281006 0 0 0 0 33357499.708992004 70797132.274341583 0 70797132.274341583 62640968.39541626 0 0 0 0 -35373960.310668945 17677410.857627869 0 17677410.857627869 23537344.807762146 0 0 0 0 153691863.40229034 -73075888.654846191 0 -73075888.654846191 -4238137.5957794189 0 0 0 0 -36070996.278747559 7884775.9430923462 0 7884775.9430923462 87079794.765609741 0 0 0 0 -34822187.860717773 16987821.225517273 0 16987821.225517273 44060248.120414734 0 0 0 0 -39026801.549957275 28230163.302474976 0 28230163.302474976 8097748.3190383911 0 0 0 0 -54170854.940673828 -20883557.001106262 0 -20883557.001106262 -7287128.1963806152 0 0 0 0 61617582.366394043 83567706.107391357 0 83567706.107391357 83034780.140686035 0 0 0 0 16787449.473739624 15246210.088882446 0 15246210.088882446 -30700137.097055435 0 0 0 0 3721163.2902880572 1266355.4114463665 0 1266355.4114463665 234595.17808497697 0 0 0 0 135058378.70807266 84586495.826461792 0 84586495.826461792 150254465.25177002 0 0 0 0 140174547.86364746 74437252.2603302 0 74437252.2603302 29260863.051452637 0 0 0 0 23175907.413085938 19794051.601463318 0 19794051.601463318 -31821371.3618927 0 0 0 0 85159624.89541626 74028026.085464478 0 74028026.085464478 12625559.163864136 0 0 0 0 48888685.94052124 18677164.41960144 0 18677164.41960144 -12534379.304504395 0 0 0 0 132319738.13053894 97120611.47428894 0 97120611.47428894 23772141.070495605 0 0 0 0 169995732.74563599 76513993.960029602 0 76513993.960029602 -14733379.220245361 0 0 0 0 188496122.81228638 84020319.131149292 0 84020319.131149292 -25652903.265916824 0 0 0 0 186106138.47233582 86565986.108589172 0 86565986.108589172 9128042.9147644043 0 0 0 0 164684052.0515976 80588877.601257324 0 80588877.601257324 25181631.462890625 0 0 0 0 207480412.74813843 64493643.938537598 0 64493643.938537598 -83457532.635345459 0 0 0 0 197401022.83866882 138813382.92105103 0 138813382.92105103 -6367954.4762496948 0 0 0 0 179866236.4546051 149210856.67076111 0 149210856.67076111 114371254.66603088 0 0 0 0 194064610.13415527 120964843.37249756 0 120964843.37249756 31541774.319057465 0 0 0 0 193749925.56214905 98066355.766967773 0 98066355.766967773 -7864154.9213409424 0 0 0 0 224442696.95425415 258059204.30645752 0 258059204.30645752 178310404.30972195 0 0 0 0 269149897.18107605 -16074185.989959717 0 -16074185.989959717 -68977813.073970795 0 0 0 0 28538541.512176514 -63206196.609939575 0 -63206196.609939575 -74886732.788101196 0 0 0 0 667890.74021039158 290085.8558007665 0 290085.8558007665 580393.72513990104 0 0 0 0 323843700.66181946 200168147.96852875 0 200168147.96852875 31702664.263542175 0 0 0 0 379994094.26580811 -166712424.25112915 0 -166712424.25112915 -625013.31857299805 0 0 0 0 17457971.757469177 26829914.509395599 0 26829914.509395599 -10817812.443115234 0 0 0 0 27664717.915925741 27051958.047572732 0 27051958.047572732 -21604387.143615723 0 0 0 0 -74150622.666526794 28992143.684020996 0 28992143.684020996 113445626.34493637 0 0 0 0 15884705.019462585 22547433.797241211 0 22547433.797241211 -16142671.472335815 0 0 0 0 -1469561.2188324351 869974.50444695354 0 869974.50444695354 -479106.49673333392 0 0 0 0 -35230977.666652679 -83711808.011703491 0 -83711808.011703491 14716990.719207764 0 0 0 0 -224509449.20723343 -6305518.6452255249 0 -6305518.6452255249 959788.25289154053 0 0 0 0 -158650382.5298233 -87073628.985351562 0 -87073628.985351562 -129636992.89511108 0 0 0 0 -54624766.803905487 -8028108.7484016418 0 -8028108.7484016418 -6942411.8338470459 0 0 0 0 -161395171.01630402 16572442.126157761 0 16572442.126157761 8164839.4611968994 0 0 0 0 -65756827.535583496 -1427676.4838485718 0 -1427676.4838485718 5134643.8813934326 0 0 0 0 -103849188.52401733 -16211300.818992615 0 -16211300.818992615 2831250.5582122803 0 0 0 0 -1359328.4899707674 11111595.518555345 0 11111595.518555345 -1111286.8866160884 0 0 0 0 -5580234.3993212245 2002873.9201019346 0 2002873.9201019346 -693655.01486138254 0 0 0 0 -32557254.48286438 6411818.1623687744 0 6411818.1623687744 -1696465.4838256836 0 0 0 0 -8627941.0727882385 33245977.483112335 0 33245977.483112335 19151881.178153992 0 0 0 0 13647042.088985443 18385897.286249161 0 18385897.286249161 -19927651.797821045 0 0 0 0 17414950.292755127 5049342.3671875 0 5049342.3671875 18465213.694824219 0 0 0 0 910321.82045986503 554454.2703685537 0 554454.2703685537 -479610.39409213141 0 0 0 0 53248921.509552002 13580820.583648682 0 13580820.583648682 -13035890.858947754 0 0 0 0 62752422.443634033 13715013.951934814 0 13715013.951934814 -22513237.601928711 0 0 0 0 -12462415.180358887 -1844407.7616271973 0 -1844407.7616271973 -12077598.801483154 0 0 0 0 73736625.794128418 7156970.5071105957 0 7156970.5071105957 -25114379.105560303 0 0 0 0 60472399.459075928 -42773857.738098145 0 -42773857.738098145 -17668919.986297607 0 0 0 0 69594738.444503784 23596538.128698349 0 23596538.128698349 -5936461.9147338867 0 0 0 0 -30464018.550231934 -41610585.238891602 0 -41610585.238891602 -9473116.898147583 0 0 0 0 -149575.49834864098 5186706.6695210487 0 5186706.6695210487 434969.74754118919 0 0 0 0 -74139308.329223633 -17914630.837585449 0 -17914630.837585449 1686677.8750610352 0 0 0 0 2817491.8673171997 2497028.1067619324 0 2497028.1067619324 -611057.90515136719 0 0 0 0 -118728.05197685584 9186042.6399885193 0 9186042.6399885193 1142201.8693824485 0 0 0 0 -17240163.616027832 -29750848.868125916 0 -29750848.868125916 -21143557.316162109 0 0 0 0 8955997.9091700241 3075059.1513954103 0 3075059.1513954103 -2171199.3909587637 0 0 0 0 -7762478.1945381872 5332758.9395718398 0 5332758.9395718398 5247365.9064618051 0 0 0 0 -2231917.4432299659 5618158.2090117596 0 5618158.2090117596 -1471037.0947524384 0 0 0 0 -19232947.551017761 15249230.543640137 0 15249230.543640137 20255600.855148315 0 0 0 0 -2438411.7911376953 -3958752.8996772766 0 -3958752.8996772766 -14424410.413482666 0 0 0 0 107890968.50863647 -23094069.157806396 0 -23094069.157806396 -9894860.9512329102 0 0 0 0 138681700.59472656 29774815.569656372 0 29774815.569656372 -9612572.3630981445 0 0 0 0 -13345462.969970703 67402.222534179688 0 67402.222534179688 -15404519.765136719 0 0 0 0 -44057906.596969604 1672897.2164459229 0 1672897.2164459229 -7914356.7702674866 0 0 0 0 -2535938.1766235344 5274372.1472119577 0 5274372.1472119577 -464105.00728867948 0 0 0 0 12463480.943756104 16193630.783935547 0 16193630.783935547 17364211.930419922 0 0 0 0 -88369247.923736572 -39402137.212783813 0 -39402137.212783813 -13016567.705879211 0 0 0 0 -54476730.731115341 -22555323.004610062 0 -22555323.004610062 -4747385.1104431152 0 0 0 0 -59815373.778419495 -6973852.5332107544 0 -6973852.5332107544 -5434736.1794204712 0 0 0 0 -20877414.475585938 -37873424.884807587 0 -37873424.884807587 -44663942.337432861 0 0 0 0 -454846.26891255938 14480.298506557941 0 14480.298506557941 283635.28261090443 0 0 0 0 -58077921.778541565 -24813777.694641113 0 -24813777.694641113 -27202624.565490723 0 0 0 0 5968350.3766751289 30420983.919141769 0 30420983.919141769 32698661.141479492 0 0 0 0 6937097.3204421997 21850207.66028595 0 21850207.66028595 6819232.3290863037 0 0 0 0 11060747.571777344 16036114.266693115 0 16036114.266693115 17477876.739616394 0 0 0 0 1100606.0882169176 5114010.9851302467 0 5114010.9851302467 -4466817.7111400738 0 0 0 0 -15340175.989486694 7039430.7984161377 0 7039430.7984161377 19429099.104615211 0 0 0 0 -12628118.046661377 32526394.577438354 0 32526394.577438354 13047451.940307617 0 0 0 0 28347460.552307129 29896315.83568573 0 29896315.83568573 25728980.143562317 0 0 0 0 -3055282.1385046183 2534464.5222705975 0 2534464.5222705975 4217529.6172424406 0 0 0 0 -35092608.938476562 27081529.062767029 0 27081529.062767029 23069112.397613525 0 0 0 0 153415016.06723022 16799028.173576355 0 16799028.173576355 22876972.042236328 0 0 0 0 -42350913.78276062 11661535.935447693 0 11661535.935447693 28680049.817581177 0 0 0 0 -2436458.732508162 2327121.43596027 0 2327121.43596027 2284951.2906931341 0 0 0 0 -15993039.52107048 8307827.128247261 0 8307827.128247261 -37005223.639511108 0 0 0 0 156173338.7771759 45434772.211242676 0 45434772.211242676 146453175.7518158 0 0 0 0 213755387.08757019 -71370579.729919434 0 -71370579.729919434 183046397.52021408 0 0 0 0 219389616.3731842 -14970766.109046936 0 -14970766.109046936 99008125.669464111 0 0 0 0 149143184.54992676 -6997167.2348327637 0 -6997167.2348327637 200899451.66177368 0 0 0 0 199280654.50640106 32410602.03591156 0 32410602.03591156 43724184.461853027 0 0 0 0 182825599.103302 53847796.843139648 0 53847796.843139648 43171593.051681519 0 0 0 0 201856113.71336365 46741949.006317139 0 46741949.006317139 21837827.614562988 0 0 0 0 164591728.71905899 53549504.261714935 0 53549504.261714935 67708022.509857178 0 0 0 0 171127550.2427063 63574647.059005737 0 63574647.059005737 34263602.116439819 0 0 0 0 175679101.45956421 30554002.820220947 0 30554002.820220947 12544739.397857666 0 0 0 0 129840034.77667236 35965374.477783203 0 35965374.477783203 12416970.430777073 0 0 0 0 162019936.37905884 53306979.496734619 0 53306979.496734619 -16053773.524353027 0 0 0 0 186020250.37173462 52881484.677619934 0 52881484.677619934 742868.30087280273 0 0 0 0 170967485.88093567 80587423.086090088 0 80587423.086090088 -4583408.6442871094 0 0 0 0 154193932.06982422 71883131.091934204 0 71883131.091934204 -8046478.5775604248 0 0 0 0 162837965.26272583 66928077.999698639 0 66928077.999698639 -16618922.41104126 0 0 0 0 139056217.97644043 75226321.84437561 0 75226321.84437561 -18042833.203384399 0 0 0 0 167497871.23819733 76326158.224704742 0 76326158.224704742 -23990906.561798096 0 0 0 0 168327966.54560852 77007807.559051514 0 77007807.559051514 -23954946.653717041 0 0 0 0 157044454.57492065 79370267.097869873 0 79370267.097869873 -14438130.898979187 0 0 0 0 154595035.35694504 72001057.9425354 0 72001057.9425354 -23008345.521240234 0 0 0 0 104314189.54104614 52432240.539627075 0 52432240.539627075 -3914637.3778076172 0 0 0 0 123493961.22438049 44922427.256469727 0 44922427.256469727 -17094911.936248779 0 0 0 0 47536843.891643524 -1349448.4780716896 0 -1349448.4780716896 9742430.3388824463 0 0 0 0 -3094389.4673954751 6402001.6834718063 0 6402001.6834718063 7129438.7081464343 0 0 0 0 117676911.67362213 50298311.302085876 0 50298311.302085876 -7509092.2655029297 0 0 0 0 160887143.0838623 34982370.912094116 0 34982370.912094116 -38310804.763092041 0 0 0 0 145968673.28308105 70609696.920028687 0 70609696.920028687 -17734779.947296143 0 0 0 0 161586979.64846802 62626310.536437988 0 62626310.536437988 -24934841.946681499 0 0 0 0 161543545.10932922 71633077.749938965 0 71633077.749938965 -12395797.541381836 0 0 0 0 135516477.98133469 94607282.698822021 0 94607282.698822021 410815.70553588867 0 0 0 0 162147489.10006714 77328464.835144043 0 77328464.835144043 -18158700.91708374 0 0 0 0 3587612.5815468263 3353975.9967746064 0 3353975.9967746064 2242549.4983997941 0 0 0 0 26404352.501937866 27911456.765270233 0 27911456.765270233 10801321.575964451 0 0 0 0 -2816619.2519537713 5659007.8430776522 0 5659007.8430776522 7612882.2720280178 0 0 0 0 217652873.62277222 3322695.9356079102 0 3322695.9356079102 83339628.243286133 0 0 0 0 205905897.19164658 38963422.891223907 0 38963422.891223907 18034548.028503418 0 0 0 0 176044980.12304688 90172530.216049194 0 90172530.216049194 -12254689.889022827 0 0 0 0 19628132.381557465 9740844.8357963562 0 9740844.8357963562 6645486.9949493408 0 0 0 0 -103053107.11569297 413515336.29731381 0 413515336.29731381 -50792121.316192627 0 0 0 0 194241704.69606018 13529647.277328491 0 13529647.277328491 120052281.85122681 0 0 0 0 11193312.88092085 7607107.0859496146 0 7607107.0859496146 -1074237.2626450185 0 0 0 0 12789781.722885132 8964183.6580657959 0 8964183.6580657959 5743638.985514313 0 0 0 0 -28119656.340835571 32998233.028068542 0 32998233.028068542 175878511.45397949 0 0 0 0 -656570.1982107237 755668.88854251197 0 755668.88854251197 705618.67924305797 0 0 0 0 944872667.05717468 -28590262.499809265 0 -28590262.499809265 -798703954.32571411 0 0 0 0 346227594.63240051 -84247559.531982422 0 -84247559.531982422 119207847.35041809 0 0 0 0 283796951.03931427 251320823.50231552 0 251320823.50231552 -188650601.27172852 0 0 0 0 -39318.539716307074 378886.74459060654 0 378886.74459060654 147776.7544964824 0 0 0 0 560595831.67680359 718539449.27175903 0 718539449.27175903 -2082328796.6778116 0 0 0 0 252207071.06491089 -124507015.80214691 0 -124507015.80214691 835360967.4621582 0 0 0 0 3909315.5955783296 3206392.4347780459 0 3206392.4347780459 574869.41366830468 0 0 0 0 36241518.839279175 21271927.941810608 0 21271927.941810608 1618113.9769592285 0 0 0 0 125639305.70852661 279159122.25297546 0 279159122.25297546 143814873.44511032 0 0 0 0 18583325.228248596 150981063.41292572 0 150981063.41292572 282993069.29705811 0 0 0 0 16716839.769701004 29567965.79013443 0 29567965.79013443 7643787.2599105835 0 0 0 0 20233477.70539856 13814756.056308746 0 13814756.056308746 1951597.3313140869 0 0 0 0 3178259.9985770565 3393078.6223287545 0 3393078.6223287545 1212979.3223518357 0 0 0 0 5338770.0464935303 9942541.7668609619 0 9942541.7668609619 14160582.777404785 0 0 0 0 38869835.971115112 19520633.851989746 0 19520633.851989746 -3355000.1967468262 0 0 0 0 -15257942.215345383 12182204.569330215 0 12182204.569330215 25137839.880950928 0 0 0 0 1170728.4104707204 700279.93526824564 0 700279.93526824564 216396.92279025912 0 0 0 0 1505817.1714312211 504570.10124418885 0 504570.10124418885 -92155.757009349763 0 0 0 0 76384184.431875229 35451007.872563362 0 35451007.872563362 -25164497.244750977 0 0 0 0 71408445.388336182 19401529.399490356 0 19401529.399490356 -23781413.922912598 0 0 0 0 53337512.027496338 17252932.140533447 0 17252932.140533447 -21453921.171051025 0 0 0 0 37458622.878387451 38117043.357879639 0 38117043.357879639 162321.27868652344 0 0 0 0 59927028.066305161 39491009.172379494 0 39491009.172379494 -17166774.874389648 0 0 0 0 22175109.847473145 63392543.264480591 0 63392543.264480591 -26889670.258506775 0 0 0 0 18467771.498039246 25058424.786003113 0 25058424.786003113 -5154185.1590080261 0 0 0 0 19472271.542373657 26635382.490371704 0 26635382.490371704 -7003982.8848114014 0 0 0 0 -89145111.415208817 302921385.10499573 0 302921385.10499573 69312445.087905884 0 0 0 0 -86278062.477558136 321746021.07542229 0 321746021.07542229 -252008973.44946289 0 0 0 0 341693078.90209198 118045229.43304443 0 118045229.43304443 -454474.74994298839 0 0 0 0 92578578.678861618 -100872133.7725935 0 -100872133.7725935 -133739942.67922974 0 0 0 0 -277673.25543688145 -601617.33210694045 0 -601617.33210694045 682791.58503647894 0 0 0 0 -68596166.127527237 42242674.974618912 0 42242674.974618912 214230155.84820557 0 0 0 0 369410032.78163147 166160574.39555359 0 166160574.39555359 -133456994.01683807 0 0 0 0 137721779.53183746 -75923316.40681076 0 -75923316.40681076 -63129946.345977783 0 0 0 0 -97735606.849731445 -102421161.75924683 0 -102421161.75924683 131179260.90135002 0 0 0 0 -97217807.376745462 -105584483.79546356 0 -105584483.79546356 -241723043.52296448 0 0 0 0 -98287922.669059753 -37066621.272674561 0 -37066621.272674561 35006836.564224243 0 0 0 0 -46823681.019615173 -36459978.99911499 0 -36459978.99911499 34448748.378343582 0 0 0 0 102747814.65792847 232577477.84033203 0 232577477.84033203 49290353.877166748 0 0 0 0 -5353058.8774108887 81843699.888641357 0 81843699.888641357 91730156.336938858 0 0 0 0 -1231807.0131570096 -471968.22333805636 0 -471968.22333805636 2268592.9456709996 0 0 0 0 25285508.172870636 49901153.518346786 0 49901153.518346786 123146487.68676758 0 0 0 0 -36585530.850609779 -28006031.451391697 0 -28006031.451391697 23222744.208465576 0 0 0 0 747359.06667327881 -15716269.670654297 0 -15716269.670654297 -25161741.183605194 0 0 0 0 -30670463.289276123 -14205044.258964539 0 -14205044.258964539 53966191.984085083 0 0 0 0 -34364663.39528656 -9342536.5044937134 0 -9342536.5044937134 52861917.344055176 0 0 0 0 1164016.3857139107 357721.5869512856 0 357721.5869512856 -666059.62380347401 0 0 0 0 -1789616.4475981966 3768162.698994156 0 3768162.698994156 -2756479.9184673429 0 0 0 0 39147080.809516907 83809636.765708923 0 83809636.765708923 88592646.311264038 0 0 0 0 48957483.972427368 53918705.762832642 0 53918705.762832642 38558523.860900879 0 0 0 0 59506297.951473236 -14515869.887432098 0 -14515869.887432098 3656241.6504898071 0 0 0 0 -18351952.872371674 26380680.729618073 0 26380680.729618073 90469054.998657227 0 0 0 0 -34795216.07081604 58784867.124816895 0 58784867.124816895 137367056.855896 0 0 0 0 7210304.4647064209 32564086.682228088 0 32564086.682228088 135643687.76583862 0 0 0 0 91568254.995147705 14889760.900054932 0 14889760.900054932 116296982.44720459 0 0 0 0 12997177.41204834 80028314.229011536 0 80028314.229011536 81844092.557952881 0 0 0 0 -20601220.996154785 14450683.896965027 0 14450683.896965027 72528983.261367798 0 0 0 0 -421545.14668590575 539017.9900072664 0 539017.9900072664 -7921.0143939852715 0 0 0 0 24341608.281562805 -13214923.966659546 0 -13214923.966659546 -56638936.388843536 0 0 0 0 -126636317.09118271 -385639121.39055634 0 -385639121.39055634 -261877612.88963318 0 0 0 0 -50821616.625183105 43952596.828979492 0 43952596.828979492 -54188941.379127502 0 0 0 0 54811067.664001465 -32360337.795547485 0 -32360337.795547485 -28557690.433654785 0 0 0 0 -82290460.996032715 100033321.02391815 0 100033321.02391815 -91620367.458892822 0 0 0 0 -185763454.38376236 143659985.27484512 0 143659985.27484512 -71669891.761306763 0 0 0 0 -254564323.27405548 44296826.78061676 0 44296826.78061676 18234850.161682129 0 0 0 0 127455618.23809576 208740833.51796389 0 208740833.51796389 11322654.224884033 0 0 0 0 -304488.72542834282 1977193.1683286168 0 1977193.1683286168 -2645827.9040510617 0 0 0 0 154115698.73158264 30075450.703582764 0 30075450.703582764 52818952.242111206 0 0 0 0 15258763.850216866 207763374.14560747 0 207763374.14560747 37259835.961761475 0 0 0 0 -64439163.072401047 6170410.0566253662 0 6170410.0566253662 85235173.124847412 0 0 0 0 108589592.63254547 63160825.652565002 0 63160825.652565002 50632021.273010254 0 0 0 0 -88404836.961547852 112498498.02826691 0 112498498.02826691 44007341.130012512 0 0 0 0 28922878.540789604 124321155.83191395 0 124321155.83191395 -5917170.4392242432 0 0 0 0 -45716330.403961182 -3111052.6699409485 0 -3111052.6699409485 6906769.323059082 0 0 0 0 -62472409.359909058 -26641225.005111694 0 -26641225.005111694 27230868.567687988 0 0 0 0 -191067944.27620697 350013783.87628937 0 350013783.87628937 -310484003.49501801 0 0 0 0 -187591987.13911438 -32762205.641624451 0 -32762205.641624451 5095666.0480041504 0 0 0 0 -546091608.89496613 87438048.596427917 0 87438048.596427917 -28613181.746383667 0 0 0 0 -228868921.760849 210617790.84915924 0 210617790.84915924 -30668308.58140564 0 0 0 0 78276471.2551651 101001797.32351685 0 101001797.32351685 -31614668.305084229 0 0 0 0 196248754.0619812 266927274.83363342 0 266927274.83363342 -513595765.859375 0 0 0 0 54907511.176925659 177917147.30387115 0 177917147.30387115 -270799511.76983643 0 0 0 0 154431189.36931038 20754411.922442436 0 20754411.922442436 -379866988.39048767 0 0 0 0 452296250.73071289 76944866.336906433 0 76944866.336906433 -392235344.72362518 0 0 0 0 -90090464.907752991 2968532.0285453796 0 2968532.0285453796 136675229.59793854 0 0 0 0 -790489.1117096357 1248387.7557966374 0 1248387.7557966374 -167679.66232673032 0 0 0 0 -327833659.98169708 183107120.63150024 0 183107120.63150024 362119.47903041443 0 0 0 0 6512151.2930374146 -9910133.1949310303 0 -9910133.1949310303 -642298.90370941162 0 0 0 0 -939702548.8821106 74951890.427810669 0 74951890.427810669 205997208.26164246 0 0 0 0 20008778.365253448 20682657.1302948 0 20682657.1302948 50326604.943077087 0 0 0 0 -1736138.4295049012 1878306.7015697993 0 1878306.7015697993 -213336.60752429953 0 0 0 0 43472799.646327972 47085426.625267029 0 47085426.625267029 110427.88023376465 0 0 0 0 183724.04695170745 544020.89107683301 0 544020.89107683301 -1203421.7713133097 0 0 0 0 203673627.61335659 -221399968.12051105 0 -221399968.12051105 -426369503.33937073 0 0 0 0 -278110.29132689093 100830.93820675835 0 100830.93820675835 -212372.34126038849 0 0 0 0 -1251996353.8118591 18885434.500518799 0 18885434.500518799 198512796.0418396 0 0 0 0 -682928909.03202057 757513483.6937561 0 757513483.6937561 -788678476.06388855 0 0 0 0 -242024889.10231018 -260187122.5302887 0 -260187122.5302887 -62928169.181060791 0 0 0 0 -584656753.95957756 269241392.76910782 0 269241392.76910782 -22299747.207855225 0 0 0 0 -15010037.08770752 -56329260.985645294 0 -56329260.985645294 -252747635.23297119 0 0 0 0 463327106.68796742 -199413260.80615795 0 -199413260.80615795 -474444860.90565491 0 0 0 0 378720567.55162811 508454980.86196899 0 508454980.86196899 -456483414.99541473 0 0 0 0 -243575832.92348099 552629996.79218292 0 552629996.79218292 -239769422.29586792 0 0 0 0 528270690.83727264 -65086635.453552246 0 -65086635.453552246 -250573065.7930603 0 0 0 0 37236952.850059509 168461744.13803864 0 168461744.13803864 -283070338.58876419 0 0 0 0 75929338.229705811 211973614.05905914 0 211973614.05905914 -251966564.70166016 0 0 0 0 -40589232.477226257 236556506.88665771 0 236556506.88665771 -250670131.76375961 0 0 0 0 -199321209.70663452 77246787.061510086 0 77246787.061510086 -51627956.379562378 0 0 0 0 -26798190.756126404 -5951022.7583694458 0 -5951022.7583694458 -62032737.952786446 0 0 0 0 -248092231.31318855 -3849033.2743377686 0 -3849033.2743377686 291953756.3082428 0 0 0 0 -287643086.55738068 244659530.56826019 0 244659530.56826019 140519734.65803528 0 0 0 0 -128716279.26836395 -323634218.58467865 0 -323634218.58467865 -29896085.477653503 0 0 0 0 -933639.18691908359 682113.50450806133 0 682113.50450806133 196166.28661308438 0 0 0 0 -15392575.489692688 14959637.808784485 0 14959637.808784485 -27582421.65184021 0 0 0 0 94797535.685028076 120251871.00830078 0 120251871.00830078 -588859372.3681488 0 0 0 0 -288724154.82671738 -378837896.32129669 0 -378837896.32129669 237483720.43354797 0 0 0 0 -52996837.451118469 56158682.623012543 0 56158682.623012543 -80822633.362091064 0 0 0 0 -12137687.7289505 42521745.246212006 0 42521745.246212006 23930430.345014572 0 0 0 0 -1843546.2196728438 1708131.9923270196 0 1708131.9923270196 -663068.14731810987 0 0 0 0 -9146741.7454019785 -9801621.9663813114 0 -9801621.9663813114 4254807.6748199463 0 0 0 0 182345180.96656418 209257527.19985199 0 209257527.19985199 151195271.29948425 0 0 0 0 166311446.25357056 136319941.96954346 0 136319941.96954346 140404928.99629974 0 0 0 0 -2019728.3756373622 1821244.1028054841 0 1821244.1028054841 2088214.8736262769 0 0 0 0 -2816298.5713390652 2725588.6567140669 0 2725588.6567140669 -995726.13510920852 0 0 0 0 -7576731.3757019043 2138633.8793106079 0 2138633.8793106079 19251502.186706543 0 0 0 0 99872680.718523026 63374866.267259598 0 63374866.267259598 -28076251.333786011 0 0 0 0 -93251326.109947205 82996657.559791565 0 82996657.559791565 122141194.45059586 0 0 0 0 -140543693.35397339 5229732.8652191162 0 5229732.8652191162 -161680981.66982269 0 0 0 0 -109881123.54450989 -70578164.921112061 0 -70578164.921112061 -47917704.056625366 0 0 0 0 -376766.26681238227 2249331.1045621745 0 2249331.1045621745 -920960.62233173847 0 0 0 0 -133053632.67481232 -111883001.13412476 0 -111883001.13412476 -79161962.876831055 0 0 0 0 -9270979.2377433777 16496412.824428558 0 16496412.824428558 7104398.1153564453 0 0 0 0 10166254.260635376 8037686.0919647217 0 8037686.0919647217 10102861.787261963 0 0 0 0 -205125934.98057365 -56941255.844104767 0 -56941255.844104767 -23508048.269866943 0 0 0 0 -4413541.3989162501 1451933.0105944276 0 1451933.0105944276 3229238.5680830702 0 0 0 0 -109428412.16445923 -77152570.658584595 0 -77152570.658584595 -35273954.843040466 0 0 0 0 -60215831.320022583 -50859976.147521973 0 -50859976.147521973 -88367377.010807037 0 0 0 0 -115514021.04475641 -32177382.566919327 0 -32177382.566919327 14332911.729766846 0 0 0 0 -87122163.87221241 -45400509.943540573 0 -45400509.943540573 5849652.7973632812 0 0 0 0 -28999674.829593658 -26213993.415359497 0 -26213993.415359497 15817744.492950439 0 0 0 0 -99407126.728294373 29788229.712730408 0 29788229.712730408 2160421.8206672668 0 0 0 0 -121381488.01237488 -59447843.347328186 0 -59447843.347328186 -29407220.126285553 0 0 0 0 -5202643.1887893677 26419109.933189392 0 26419109.933189392 203517629.06351471 0 0 0 0 -3898336.8850610349 1903995.0111535266 0 1903995.0111535266 1257174.084921889 0 0 0 0 -37285233.55575943 -17663537.372528076 0 -17663537.372528076 -7152306.0659065247 0 0 0 0 -52574973.330230713 24106565.310932159 0 24106565.310932159 36825735.004852295 0 0 0 0 -107977417.88686562 -62588107.080753326 0 -62588107.080753326 -5610660.1861038208 0 0 0 0 -75216186.791519165 -52928979.857700348 0 -52928979.857700348 -2917182.1339874268 0 0 0 0 -104309657.52398497 -41923897.506033063 0 -41923897.506033063 5959803.5392913818 0 0 0 0 98555125.983118057 184573166.3241024 0 184573166.3241024 174894214.71047974 0 0 0 0 -139919563.94566727 -33923128.61680603 0 -33923128.61680603 -18325296.468826294 0 0 0 0 -2789889.1352966018 1128653.1785657257 0 1128653.1785657257 1029000.0490613878 0 0 0 0 122154759.57211685 160457132.23753738 0 160457132.23753738 102289411.35202026 0 0 0 0 183028735.39469528 221315025.3481102 0 221315025.3481102 163129378.55143738 0 0 0 0 247778257.10220718 126843495.34170151 0 126843495.34170151 20511883.099811554 0 0 0 0 125467185.26248932 93106949.111030579 0 93106949.111030579 204178866.60263062 0 0 0 0 139487322.01564407 62254206.313716888 0 62254206.313716888 56309619.423698425 0 0 0 0 37060465.798980713 112696572.25072861 0 112696572.25072861 35053032.791000366 0 0 0 0 187364313.64466476 150574594.38526154 0 150574594.38526154 128699332.86248589 0 0 0 0 122067293.52856445 199051988.24227905 0 199051988.24227905 165198497.03164673 0 0 0 0 345777651.65816879 286226892.26152039 0 286226892.26152039 207987503.78625488 0 0 0 0 -629945.52764919261 927468.92225744762 0 927468.92225744762 471163.97256364673 0 0 0 0 73198432.462142944 955002.76877975464 0 955002.76877975464 -102812552.47379494 0 0 0 0 168868053.75076294 68920347.748832703 0 68920347.748832703 -155872874.20590973 0 0 0 0 140977385.67848587 68976064.465759277 0 68976064.465759277 5882229.6707801819 0 0 0 0 88994867.492614746 115910594.96566772 0 115910594.96566772 104901348.69304037 0 0 0 0 171206140.71443653 121216187.05617142 0 121216187.05617142 12424439.865242004 0 0 0 0 69367067.302135468 114002681.83340454 0 114002681.83340454 216192569.63124084 0 0 0 0 153200942.33872223 41125200.767288208 0 41125200.767288208 107725084.45296478 0 0 0 0 102972688.78760529 122738399.79895401 0 122738399.79895401 90891574.113265991 0 0 0 0 100993350.19228363 55738469.883285522 0 55738469.883285522 77004587.968374252 0 0 0 0 122649245.46507645 98016297.186351776 0 98016297.186351776 6955320.1809310913 0 0 0 0 100247881.48013231 124454777.91197231 0 124454777.91197231 24316419.142974854 0 0 0 0 62019900.85112381 30939616.814464569 0 30939616.814464569 -52474374.256267548 0 0 0 0 23088983.341570854 146857485.66961193 0 146857485.66961193 -24139273.670150757 0 0 0 0 126810282.94648743 94173429.792678833 0 94173429.792678833 522318.38829040527 0 0 0 0 130961780.84496689 42883364.575904846 0 42883364.575904846 -74774747.623153687 0 0 0 0 97942798.681762695 28081386.562576294 0 28081386.562576294 -68736577.711690903 0 0 0 0 109813408.56341457 44981427.326198578 0 44981427.326198578 -93413736.16065979 0 0 0 0 50120304.632282257 7905368.2701320648 0 7905368.2701320648 -90923386.103607178 0 0 0 0 845833.6540573138 567427.21210968867 0 567427.21210968867 -153399.6814327389 0 0 0 0 72943403.983029336 31594882.906154543 0 31594882.906154543 377362.4457321167 0 0 0 0 -47027328.063402176 71668478.728673935 0 71668478.728673935 -52292916.088884354 0 0 0 0 38624896.756671906 8620212.0244445801 0 8620212.0244445801 -15782751.367172241 0 0 0 0 2381621.5114479065 9303844.4485626221 0 9303844.4485626221 -15156889.099601746 0 0 0 0 127935769.41954422 -70511081.208660126 0 -70511081.208660126 -23427915.183236122 0 0 0 0 27030931.497451782 -37413957.102333069 0 -37413957.102333069 -16946833.161048889 0 0 0 0 144628184.82528687 6352882.7063751221 0 6352882.7063751221 -94797869.425704956 0 0 0 0 145990632.41596341 13839603.661226749 0 13839603.661226749 -151987438.28310394 0 0 0 0 191674749.58333969 -31986279.404527664 0 -31986279.404527664 -122821420.19915009 0 0 0 0 95031258.152946472 80835350.217060089 0 80835350.217060089 7453971.5879669189 0 0 0 0 94892571.928108215 -76075033.462505341 0 -76075033.462505341 55301655.230161667 0 0 0 0 240659446.01597595 16016969.755846024 0 16016969.755846024 -10662177.469787598 0 0 0 0 146382842.37427139 126689393.53557205 0 126689393.53557205 103572571.70671844 0 0 0 0 485801.39638673887 150079.69752997532 0 150079.69752997532 446685.92400959134 0 0 0 0 49732421.387718201 54397772.781097412 0 54397772.781097412 71381389.409507751 0 0 0 0 65541841.352870941 66537178.982814789 0 66537178.982814789 29693736.593482971 0 0 0 0 61075370.325580597 -11059694.423675537 0 -11059694.423675537 32020821.244029999 0 0 0 0 67711739.329467773 62010410.498657227 0 62010410.498657227 392450.66564941406 0 0 0 0 53623828.206432343 57271876.245773315 0 57271876.245773315 37057860.317230225 0 0 0 0 67605835.037612915 57908311.374298096 0 57908311.374298096 1795404.1248779297 0 0 0 0 -113491.28090274334 85484.696859432384 0 85484.696859432384 144143.9278675206 0 0 0 0 111147102.17915726 9267740.5834369659 0 9267740.5834369659 42552015.569656372 0 0 0 0 41131342.711685181 10588878.891593933 0 10588878.891593933 -57567634.457889557 0 0 0 0 -78876.450297370553 -121394.32087035105 0 -121394.32087035105 42482.782876273617 0 0 0 0 16720833.110958099 -11010688.469394684 0 -11010688.469394684 -21471269.186813354 0 0 0 0 33652996.23793602 7830849.3389587402 0 7830849.3389587402 -1782539.741897583 0 0 0 0 -158083.4258809993 119193.22050349414 0 119193.22050349414 223159.78490727022 0 0 0 0 55532856.306873798 12173680.554829121 0 12173680.554829121 -4805125.8853683472 0 0 0 0 49333224.980262756 -6981670.5907096863 0 -6981670.5907096863 6177753.8398456573 0 0 0 0 67576726.834541321 42501680.36706543 0 42501680.36706543 -5459163.9731903076 0 0 0 0 43893308.532217026 11185564.737438202 0 11185564.737438202 -1036162.1872253418 0 0 0 0 30188951.21088028 1832215.4586791992 0 1832215.4586791992 1374369.0927658081 0 0 0 0 21875576.122573853 9305594.5739459991 0 9305594.5739459991 7295126.5466384888 0 0 0 0 64274202.023899078 25994731.912338257 0 25994731.912338257 50621680.677642822 0 0 0 0 81932761.877880096 44692858.699520111 0 44692858.699520111 12789422.38621521 0 0 0 0 31012928.744338989 68142949.832580566 0 68142949.832580566 45472848.392028809 0 0 0 0 30715923.548019409 42540563.007637024 0 42540563.007637024 18877229.867164612 0 0 0 0 67256890.979598999 36386335.349822998 0 36386335.349822998 13447824.713860512 0 0 0 0 61207096.261314392 42458399.171674728 0 42458399.171674728 34325367.315917969 0 0 0 0 46974420.553272247 24909199.804637909 0 24909199.804637909 15126196.87449646 0 0 0 0 62489113.669212341 39857656.405899048 0 39857656.405899048 18850655.290634155 0 0 0 0 47502687.749275208 36945762.763523102 0 36945762.763523102 36648797.356315613 0 0 0 0 61119203.339382172 44700812.129936218 0 44700812.129936218 14645599.402709961 0 0 0 0 63759212.509979248 49074778.467224121 0 49074778.467224121 21161291.272262573 0 0 0 0 66632393.774971008 47262741.15586853 0 47262741.15586853 16604550.359939575 0 0 0 0 66900035.58366394 39826372.696151733 0 39826372.696151733 15446673.90411377 0 0 0 0 71832425.028182983 14716243.143264771 0 14716243.143264771 -4370944.1646270752 0 0 0 0 83992544.753646851 49143332.748725891 0 49143332.748725891 17997845.25189209 0 0 0 0 80353333.907226562 42479178.436752319 0 42479178.436752319 6560969.5478363037 0 0 0 0 72847379.146102905 53751449.750358582 0 53751449.750358582 22703269.768600464 0 0 0 0 82107228.886741638 65038861.672077179 0 65038861.672077179 54425167.826461792 0 0 0 0 -22829898.550857663 -10712513.766917288 0 -10712513.766917288 24135847.130859375 0 0 0 0 163607324.87621307 39082641.758666992 0 39082641.758666992 10277466.284423828 0 0 0 0 -337997.97195788717 -120327.63599912636 0 -120327.63599912636 39953.531546965241 0 0 0 0 154546478.22380066 59603029.215316772 0 59603029.215316772 18616982.702178955 0 0 0 0 -4850471.9554429222 -855735.75832567271 0 -855735.75832567271 918274.77280180901 0 0 0 0 161924024.39454651 24884621.979827881 0 24884621.979827881 -39357853.454406738 0 0 0 0 -173960.30102764815 -7118.5160522889346 0 -7118.5160522889346 115265.92646756023 0 0 0 0 1493525.297821044 550394.44971241616 0 550394.44971241616 935068.26178602502 0 0 0 0 -175334.51980835199 183935.24719369411 0 183935.24719369411 597223.1446685791 0 0 0 0 55001840.014595032 45419032.180381775 0 45419032.180381775 31214138.413293839 0 0 0 0 43834859.445770264 27195147.075195312 0 27195147.075195312 21013937.605209351 0 0 0 0 7544086.5970487036 3396242.8715277128 0 3396242.8715277128 1285132.4130021036 0 0 0 0 55917576.309379578 39621773.93888855 0 39621773.93888855 30178441.658248901 0 0 0 0 64284610.994758606 40503076.633354187 0 40503076.633354187 16397034.76751709 0 0 0 0 61886491.521858215 54834939.331642151 0 54834939.331642151 12451614.570911407 0 0 0 0 62786144.629003525 46497479.631492615 0 46497479.631492615 17444038.346313477 0 0 0 0 61815320.892059326 51588013.363792419 0 51588013.363792419 28948654.001968384 0 0 0 0 53354605.185501099 46925892.296825409 0 46925892.296825409 30459723.438695908 0 0 0 0 53166207.246906281 49010525.896514893 0 49010525.896514893 40204314.471115112 0 0 0 0 63841217.918361664 62800018.34135437 0 62800018.34135437 30873507.388671875 0 0 0 0 30332134.467798591 9950890.5935935378 0 9950890.5935935378 -2778441.1672515869 0 0 0 0 2886389.2294630436 1532669.2094671018 0 1532669.2094671018 -431099.40436222777 0 0 0 0 2355184.5922323018 863584.06573936716 0 863584.06573936716 610062.95376057178 0 0 0 0 5881489.5374755561 10480234.372604907 0 10480234.372604907 -14979609.935646057 0 0 0 0 4079723.0006855885 11256474.797412001 0 11256474.797412001 3244743.2168592326 0 0 0 0 14271062.265384674 5544539.2553787231 0 5544539.2553787231 -1865574.6588742733 0 0 0 0 19228235.025447845 15098318.814651489 0 15098318.814651489 -2223062.0509500504 0 0 0 0 20075392.090209961 21461856.453037262 0 21461856.453037262 957375.8567276001 0 0 0 0 13491530.90222168 -1732611.910326004 0 -1732611.910326004 13726115.082298279 0 0 0 0 -2676475.0417022705 16225032.721164703 0 16225032.721164703 26489588.715759277 0 0 0 0 106073006.89801025 49260638.680812836 0 49260638.680812836 -22796417.341903687 0 0 0 0 2880546.4448547363 -22802706.797885895 0 -22802706.797885895 -13012508.557525635 0 0 0 0 -54983337.10333252 -4624729.0560073853 0 -4624729.0560073853 18870604.854366302 0 0 0 0 -10955729.157764435 98499366.95453167 0 98499366.95453167 -11605212.189155579 0 0 0 0 -4314388.0763435364 9377367.572763443 0 9377367.572763443 6467349.1549987793 0 0 0 0 6028060.9929962158 11053903.440605164 0 11053903.440605164 -263487.70593261719 0 0 0 0 9005286.2160720825 5329421.0963439941 0 5329421.0963439941 5553841.231842041 0 0 0 0 15524688.239860535 -153846.93807983398 0 -153846.93807983398 204231.04418945312 0 0 0 0 9260721.7686080933 6627444.267578125 0 6627444.267578125 6141124.8174972534 0 0 0 0 546302.87284943182 118193.57637746073 0 118193.57637746073 -34905.281578660011 0 0 0 0 30043626.729919434 13977414.601051331 0 13977414.601051331 5375857.0656690598 0 0 0 0 -147322.66192428954 4704180.4906421416 0 4704180.4906421416 2848031.9383564107 0 0 0 0 1821642.1982670743 6092642.3029185832 0 6092642.3029185832 3072595.2036883719 0 0 0 0 2619591.731174469 1343058.8672065735 0 1343058.8672065735 -505821.56195068359 0 0 0 0 -4361459.7564941309 4758330.5280226786 0 4758330.5280226786 4246045.1673540883 0 0 0 0 -9579856.0840454102 6675517.9059753418 0 6675517.9059753418 -2732105.9868469238 0 0 0 0 -7382292.7388553619 -2691156.4854793549 0 -2691156.4854793549 -5073938.0284118652 0 0 0 0 -627310.9065246582 10212581.409347534 0 10212581.409347534 -1625488.7959365845 0 0 0 0 -19825804.881028175 -11704567.502326965 0 -11704567.502326965 -8918311.5894317627 0 0 0 0 112852.8238067627 36359687.631790161 0 36359687.631790161 65945362.242263794 0 0 0 0 -4158773.6340665817 -6182585.0788669586 0 -6182585.0788669586 8788655.6853942871 0 0 0 0 -8107621.1448459625 11217770.886024475 0 11217770.886024475 27750610.304229736 0 0 0 0 2307769.5247344971 13336561.910118103 0 13336561.910118103 1531470.8633880615 0 0 0 0 -14090181.978034973 3864036.3827362061 0 3864036.3827362061 -1237157.3824310303 0 0 0 0 -4082567.3974503167 7177692.4171043932 0 7177692.4171043932 6429753.104007557 0 0 0 0 2996749.1134147719 2273615.5707854219 0 2273615.5707854219 -773276.65859659575 0 0 0 0 -141433522.82670593 2373902.7333068848 0 2373902.7333068848 6906443.9049739838 0 0 0 0 -125703114.83288574 117351533.33516693 0 117351533.33516693 -44540719.648666382 0 0 0 0 -260490476.07010269 151477739.37835121 0 151477739.37835121 -3078078.9615936279 0 0 0 0 -130470027.1477356 -194511282.03770447 0 -194511282.03770447 85156103.24577713 0 0 0 0 -8706051.9561309814 -145251395.62836456 0 -145251395.62836456 36420378.654640198 0 0 0 0 -312490294.07874298 -87456.586490631104 0 -87456.586490631104 190198810.97782898 0 0 0 0 -25055101.762336731 142071331.9162674 0 142071331.9162674 26238274.552856445 0 0 0 0 19748868.484855652 60838776.333045959 0 60838776.333045959 8562660.6870803833 0 0 0 0 8299400.3302764893 47735449.176452637 0 47735449.176452637 20255582.360931396 0 0 0 0 25055311.711685181 44436803.380281448 0 44436803.380281448 9493438.1179046631 0 0 0 0 -4346407.3683700562 -5552135.9396820068 0 -5552135.9396820068 -31194635.194915771 0 0 0 0 25468530.295753479 51271703.556434631 0 51271703.556434631 -71663928.595161438 0 0 0 0 298168986.96030426 285256396.74024963 0 285256396.74024963 138506450.32055664 0 0 0 0 27648654.688640594 119914888.03870487 0 119914888.03870487 70189652.788002014 0 0 0 0 167414965.15364075 171052951.92520142 0 171052951.92520142 26707154.483169556 0 0 0 0 145588837.47261047 -57557118.671401978 0 -57557118.671401978 -34924565.306828499 0 0 0 0 93319293.632663727 -294768517.99979019 0 -294768517.99979019 190368106.28407288 0 0 0 0 531454467.1438446 -39205529.858722687 0 -39205529.858722687 -36503625.80931282 0 0 0 0 1113765062.4652214 -138926853.96849632 0 -138926853.96849632 -257910425.95465469 0 0 0 0 149074382.24990845 273582514.73523712 0 273582514.73523712 530325008.41690063 0 0 0 0 50745754.526802063 16856199.170040131 0 16856199.170040131 -130148017.37593079 0 0 0 0 -286779722.98783875 174820593.05284882 0 174820593.05284882 261340214.64599609 0 0 0 0 64580.634516216815 741541.45275071822 0 741541.45275071822 628033.35518307984 0 0 0 0 1677450.6908874512 176701603.423769 0 176701603.423769 147565281.58735657 0 0 0 0 -12966700.598144531 195574213.1452713 0 195574213.1452713 176661705.72965622 0 0 0 0 -206520425.15077209 226662572.57805634 0 226662572.57805634 331561272.23062134 0 0 0 0 279975913.4590683 177659359.82258987 0 177659359.82258987 73417796.890268326 0 0 0 0 -517042101.4940033 -4014040.8844146729 0 -4014040.8844146729 399452794.3767395 0 0 0 0 1018142.0651366995 1240721.7553165648 0 1240721.7553165648 -362128.11354902387 0 0 0 0 -357500660.67602539 125818636.98496246 0 125818636.98496246 180395702.61236572 0 0 0 0 401667054.81878662 177201572.25600815 0 177201572.25600815 -458257860.23999786 0 0 0 0 288596514.40838623 -225282690.5175705 0 -225282690.5175705 147106192.75724792 0 0 0 0 60375295.961769104 117760673.39835358 0 117760673.39835358 -27245867.006156921 0 0 0 0 52589805.253707886 -74482119.186288834 0 -74482119.186288834 -54771415.19695282 0 0 0 0 3383884.7542316965 3470677.0072898846 0 3470677.0072898846 -1295466.1145950966 0 0 0 0 -147231982.24505615 40686817.435058594 0 40686817.435058594 56691891.895072937 0 0 0 0 252192267.25967407 -9685853.3892250061 0 -9685853.3892250061 -38021515.805160522 0 0 0 0 555305208.28258896 -120710817.56562042 0 -120710817.56562042 -68232540.849884033 0 0 0 0 -233118.30000580102 2301383.4050946459 0 2301383.4050946459 2995578.1842487901 0 0 0 0 12371790.458831787 -365716830.16873169 0 -365716830.16873169 -1137758335.8555756 0 0 0 0 209219438.60317993 -52205500.591186523 0 -52205500.591186523 82228705.349411011 0 0 0 0 238173448.89193726 32760462.902076721 0 32760462.902076721 22252238.126274109 0 0 0 0 207824610.17274475 -7256146.2280883789 0 -7256146.2280883789 -30354858.381195068 0 0 0 0 215870137.4148407 27179887.642250061 0 27179887.642250061 -35496786.830708504 0 0 0 0 229782082.06546497 -29227366.230343342 0 -29227366.230343342 -36351084.337524414 0 0 0 0 88625688.054214478 -17415795.608009338 0 -17415795.608009338 307058.88591003418 0 0 0 0 234048848.77270508 -6353057.707326889 0 -6353057.707326889 -36216254.99029541 0 0 0 0 202052831.9430542 -51857724.761192322 0 -51857724.761192322 -12712571.581291199 0 0 0 0 -1487113.0121957734 2051705.7689039037 0 2051705.7689039037 81928.034876186401 0 0 0 0 -23204202.050880432 -6728962.9999904633 0 -6728962.9999904633 -13567163.157119751 0 0 0 0 68332369.267355919 61290070.956206799 0 61290070.956206799 -21514761.710739136 0 0 0 0 57587987.611869812 -2348076.7449493408 0 -2348076.7449493408 -29893753.541221619 0 0 0 0 132246801.51699829 68865755.656036377 0 68865755.656036377 -12748357.852853775 0 0 0 0 3939127.0784615837 11486670.53430962 0 11486670.53430962 2529562.1379616782 0 0 0 0 477954.90158081055 17477838.941825867 0 17477838.941825867 9403541.9790802002 0 0 0 0 17165937.86554718 16982538.753513336 0 16982538.753513336 8701391.1842689514 0 0 0 0 17454415.141143799 11571578.17621994 0 11571578.17621994 9489255.0085678101 0 0 0 0 21649002.638648987 3861439.2875671387 0 3861439.2875671387 8478258.0354790688 0 0 0 0 78420226.679861069 -87282798.807937622 0 -87282798.807937622 91525375.222564697 0 0 0 0 -19472672.265617371 25789801.79731369 0 25789801.79731369 12183719.703895569 0 0 0 0 2376140.5695182681 10645066.969449237 0 10645066.969449237 543320.37813846022 0 0 0 0 -341445213.61994171 403432654.76207733 0 403432654.76207733 -410867149.33529663 0 0 0 0 -310377261.96522141 -58979560.466560364 0 -58979560.466560364 308329557.35807037 0 0 0 0 18916045.158285141 91015171.72492218 0 91015171.72492218 101805002.71103668 0 0 0 0 16630204.564651489 117222312.2628479 0 117222312.2628479 -82210845.949104309 0 0 0 0 42874029.01776123 224084911.30389404 0 224084911.30389404 -27373758.803163528 0 0 0 0 -225462024.70404053 261951042.61336231 0 261951042.61336231 -14747885.317764282 0 0 0 0 133210058.78993988 176291987.78704071 0 176291987.78704071 -5245286.8181648254 0 0 0 0 -1171195.3471567221 368105.53985825926 0 368105.53985825926 524507.88274277002 0 0 0 0 -174218346.68643188 -254114631.66519928 0 -254114631.66519928 -143585852.04049683 0 0 0 0 -155504479.07060242 -204071462.50221252 0 -204071462.50221252 -61867089.515716553 0 0 0 0 35247.254784584045 1396593.2109975815 0 1396593.2109975815 -191170173.35697937 0 0 0 0 -266024237.41829681 -243438808.96827698 0 -243438808.96827698 14665917.883666992 0 0 0 0 150516.05020724214 10558058.584387876 0 10558058.584387876 -663511.84244094416 0 0 0 0 -221491773.74632263 -83005539.319961548 0 -83005539.319961548 100811665.86930943 0 0 0 0 -33682420.800245762 18316577.073783398 0 18316577.073783398 47455852.132843018 0 0 0 0 23613559.111434937 22598551.600761414 0 22598551.600761414 -10584988.386061907 0 0 0 0 26742648.316162109 35086855.603256226 0 35086855.603256226 5348902.6750030518 0 0 0 0 258087827.44507599 117218380.75953674 0 117218380.75953674 32638831.000610352 0 0 0 0 343320741.20245361 30258929.723937988 0 30258929.723937988 -98936598.859695435 0 0 0 0 352280659.22049713 60371043.99634552 0 60371043.99634552 -114285399.4972229 0 0 0 0 10864822.740814209 77339977.211868286 0 77339977.211868286 96311078.598503113 0 0 0 0 335318972.63024139 -97699163.376308441 0 -97699163.376308441 -37611443.25494957 0 0 0 0 -5270463.7408905029 25376119.006309509 0 25376119.006309509 63905072.219268799 0 0 0 0 274358.10277387686 836561.04290366173 0 836561.04290366173 -609874.00144901872 0 0 0 0 4146388.4728546143 -16212771.444335938 0 -16212771.444335938 -12417049.545402527 0 0 0 0 27654384.692085266 39614376.004634857 0 39614376.004634857 11515145.90737915 0 0 0 0 -54031889.379646301 4189878.4332542419 0 4189878.4332542419 6462072.6459846497 0 0 0 0 307692973.75981903 122188584.8629725 0 122188584.8629725 -25029799.508117676 0 0 0 0 -3628537.5817952957 11264619.782061331 0 11264619.782061331 6662780.1958550662 0 0 0 0 -133549081.05269623 -5314306.6857757568 0 -5314306.6857757568 124169544.26345825 0 0 0 0 81215454.290969849 -123499208.35688782 0 -123499208.35688782 138249111.02653122 0 0 0 0 238134596.46839905 173641959.56761932 0 173641959.56761932 -155081431.64072418 0 0 0 0 -7164338.6240898445 561910.34183336049 0 561910.34183336049 10569775.588958375 0 0 0 0 -24356950.905197144 19450307.649124146 0 19450307.649124146 -6664452.1740689278 0 0 0 0 -40118543.511352539 19501442.029215813 0 19501442.029215813 16497378.323677063 0 0 0 0 -26541760.19606781 7241907.4993953705 0 7241907.4993953705 14231048.472195625 0 0 0 0 26936142.476852417 29962071.925052643 0 29962071.925052643 1138852.3602600098 0 0 0 0 28973651.336534023 56949704.42349267 0 56949704.42349267 -1448357.4975471497 0 0 0 0 -2054655.209394969 5214314.895417843 0 5214314.895417843 -5498563.3145774752 0 0 0 0 71069987.07660675 37854852.158784866 0 37854852.158784866 -21985198.932315826 0 0 0 0 7767203.1048641205 56515974.328193665 0 56515974.328193665 854669.50874328613 0 0 0 0 -48287414.137527466 43222016.389211655 0 43222016.389211655 7912783.1593742371 0 0 0 0 -9509117.085357666 25986239.85218811 0 25986239.85218811 1042082.1875903606 0 0 0 0 -71080408.452026367 45032424.717418671 0 45032424.717418671 -11120726.123821259 0 0 0 0 -50287163.362556458 26955360.315490723 0 26955360.315490723 -1741855.1063575745 0 0 0 0 -21877754.372823715 90999672.479816437 0 90999672.479816437 -36930221.849754333 0 0 0 0 90805796.295967102 84048041.951316833 0 84048041.951316833 -44359542.160324097 0 0 0 0 -172229573.15120697 -17474828.241769791 0 -17474828.241769791 -30798420.564048767 0 0 0 0 -80214090.945142746 164318072.52112103 0 164318072.52112103 9765385.7065734863 0 0 0 0 84938232.332313538 76474268.551856995 0 76474268.551856995 -26783333.745819092 0 0 0 0 -22103410.214630127 41011474.882575989 0 41011474.882575989 149946143.70722961 0 0 0 0 5531155.2453689575 41182004.245806694 0 41182004.245806694 -3456362.4856033325 0 0 0 0 -105959992.51293182 12738873.875507355 0 12738873.875507355 14444861.262231827 0 0 0 0 -1119086.5137451272 4267570.0878253244 0 4267570.0878253244 -274110.00119842216 0 0 0 0 -2940635.5752669796 6812479.0843034908 0 6812479.0843034908 12115012.643499434 0 0 0 0 39932731.61240387 84913192.311595917 0 84913192.311595917 12930408.447376251 0 0 0 0 283309651.67782593 -12170953.684072495 0 -12170953.684072495 -41466124.629753113 0 0 0 0 -1148155.7112334631 4323657.6708610188 0 4323657.6708610188 7237464.8097990081 0 0 0 0 -14315724.315795898 -44001211.374732971 0 -44001211.374732971 61655032.049331665 0 0 0 0 -26753627.55191803 -28130426.581264496 0 -28130426.581264496 190351921.24053955 0 0 0 0 -97396565.518463135 114122862.55028534 0 114122862.55028534 433381339.77725983 0 0 0 0 -162125823.07336426 620622636.15757751 0 620622636.15757751 96833219.968631744 0 0 0 0 188574934.69023132 324827649.78582382 0 324827649.78582382 -409749620.28394318 0 0 0 0 -103162392.92731285 164636495.57671642 0 164636495.57671642 -1575006.4720306396 0 0 0 0 74614748.482557297 28364235.574804306 0 28364235.574804306 -135292196.73925018 0 0 0 0 414079.32005700096 210653.28351216763 0 210653.28351216763 -977497.40008056536 0 0 0 0 202286878.66181946 185993216.89045334 0 185993216.89045334 -178360305.59487319 0 0 0 0 34162492.075119019 173274248.10020447 0 173274248.10020447 -179129627.21910858 0 0 0 0 335802938.29450226 35526300.645778656 0 35526300.645778656 -304216835.47361755 0 0 0 0 -51007301.592178345 -63414906.776222229 0 -63414906.776222229 -174920015.5544014 0 0 0 0 -187708608.55484772 -86839721.089408875 0 -86839721.089408875 89129899.233863831 0 0 0 0 -29333010.118610382 -4580956.1544685364 0 -4580956.1544685364 -15925970.101730347 0 0 0 0 -1238837.9905034825 1315910.2945600897 0 1315910.2945600897 -202960.90820223931 0 0 0 0 -128982796.04872131 -236574585.66911316 0 -236574585.66911316 -257825423.12159729 0 0 0 0 -511586524.04252625 -212134992.89008331 0 -212134992.89008331 228475473.11222839 0 0 0 0 -285437438.00439453 -267616937.52528763 0 -267616937.52528763 -137260302.56161499 0 0 0 0 -213586427.89842224 -13728372.700256348 0 -13728372.700256348 61362527.744003296 0 0 0 0 -151152089.7008667 77253004.729084015 0 77253004.729084015 155925534.73749924 0 0 0 0 -155391725.09254074 -36373173.824505568 0 -36373173.824505568 44299664.655395508 0 0 0 0 -86379886.85868454 64871641.215391159 0 64871641.215391159 110724215.69285583 0 0 0 0 -100345273.13636684 -22612327.369927168 0 -22612327.369927168 31583921.737281799 0 0 0 0 -97165757.911514282 24558244.289131165 0 24558244.289131165 105341953.98138428 0 0 0 0 -58085610.905822754 42584129.709688187 0 42584129.709688187 54024179.075279236 0 0 0 0 -39081398.496147156 25797825.936992645 0 25797825.936992645 60982536.227739334 0 0 0 0 -58269504.704795837 83952866.778923035 0 83952866.778923035 76539636.607406616 0 0 0 0 -44648111.029067993 58557251.073757172 0 58557251.073757172 72684494.135871887 0 0 0 0 11872603.569498062 159319874.6396265 0 159319874.6396265 149236695.43261719 0 0 0 0 -5279489.2828979492 7888234.9407196045 0 7888234.9407196045 10470538.620199203 0 0 0 0 -17926746.412631512 -1601470.1423949003 0 -1601470.1423949003 5562204.9309844971 0 0 0 0 -43514819.754707336 6837504.3630580902 0 6837504.3630580902 23717771.912002563 0 0 0 0 -17752630.297897339 932589.35634231567 0 932589.35634231567 15494665.201553345 0 0 0 0 -12521293.490409851 -9377916.5298423767 0 -9377916.5298423767 -8876899.7981948853 0 0 0 0 -36608978.600654602 -11663382.948489189 0 -11663382.948489189 9679961.5381088257 0 0 0 0 -42790265.056663513 -26655903.936203003 0 -26655903.936203003 -17673978.742607117 0 0 0 0 -3663045.7142601013 374444.22815895081 0 374444.22815895081 545853.31058502197 0 0 0 0 123541102.39740372 -69642214.767234802 0 -69642214.767234802 25960163.515686035 0 0 0 0 -3596003.8814387582 2839216.4821685515 0 2839216.4821685515 296188.42517872807 0 0 0 0 -28397328.568069458 -8502096.1965293884 0 -8502096.1965293884 -7335188.45936203 0 0 0 0 23115200.587188721 105266899.37384033 0 105266899.37384033 -58378134.00176239 0 0 0 0 -510208560.89349365 -59806584.847969055 0 -59806584.847969055 332925831.17636871 0 0 0 0 -396175771.00283051 -12055526.128225327 0 -12055526.128225327 82309989.444381714 0 0 0 0 -254662829.11792755 198290522.0491848 0 198290522.0491848 -30061975.383766174 0 0 0 0 -41258211.475708008 28925484.980077744 0 28925484.980077744 53366461.098350525 0 0 0 0 -12040137.097019196 33307452.478477478 0 33307452.478477478 -45497107.842056274 0 0 0 0 236173747.82702637 358008912.73605728 0 358008912.73605728 202106841.40664673 0 0 0 0 444960.20163765177 266425.64995680749 0 266425.64995680749 -40606.690324885771 0 0 0 0 33326224.383880615 -4337891.3491744995 0 -4337891.3491744995 -59199598.334060669 0 0 0 0 110662268.88711548 953918220.45730591 0 953918220.45730591 259549010.74052048 0 0 0 0 337589191.23667145 -79987337.131763458 0 -79987337.131763458 -274168838.99353027 0 0 0 0 -13210139.707565308 19632190.720611572 0 19632190.720611572 38076049.503067017 0 0 0 0 741452.85629716516 -61814.02704384923 0 -61814.02704384923 843495.2120513469 0 0 0 0 18162087.148872375 -57083472.568632126 0 -57083472.568632126 -21022729.956306458 0 0 0 0 32147793.015686035 29803988.222160339 0 29803988.222160339 22145250.574890137 0 0 0 0 -28685923.260513306 -2143751.4545631409 0 -2143751.4545631409 111278937.09128761 0 0 0 0 -29358970.295871735 5390882.0534687042 0 5390882.0534687042 73658394.178466797 0 0 0 0 19827069.623718262 -2892339.4933395386 0 -2892339.4933395386 73741795.118232727 0 0 0 0 -4910176.4840762988 4415605.5394330993 0 4415605.5394330993 1409781.0117787486 0 0 0 0 -6962013.4429473877 3418761.5493850708 0 3418761.5493850708 3588703.1347827911 0 0 0 0 -320116.92255820427 796821.15235431865 0 796821.15235431865 188455.89699021727 0 0 0 0 616724.70826721191 17776378.305664062 0 17776378.305664062 19931625.111244202 0 0 0 0 -2160197.7987806313 5052384.4151125122 0 5052384.4151125122 4036527.5791754536 0 0 0 0 4386729.4280395508 3655557.9388599396 0 3655557.9388599396 1291227.9984588623 0 0 0 0 9331216.7906188965 8259770.39320755 0 8259770.39320755 5168370.8414282799 0 0 0 0 -8592602.8622283936 4246544.0979690552 0 4246544.0979690552 2796897.8025474548 0 0 0 0 -11451096.176203728 2675197.5708861351 0 2675197.5708861351 4951719.0789031982 0 0 0 0 -1576343.1485900879 7983956.521938324 0 7983956.521938324 -862189.43927764893 0 0 0 0 -4814364.9875869751 4879369.0046577454 0 4879369.0046577454 -836640.25077819824 0 0 0 0 -4311017.080947876 6595577.5434837341 0 6595577.5434837341 3538920.1195678711 0 0 0 0 767096.79046547413 338866.64385317266 0 338866.64385317266 -791970.22722957283 0 0 0 0 13346069.514350891 3801107.5145721436 0 3801107.5145721436 -2024596.6203384399 0 0 0 0 -6861268.5273742676 9026499.6331176758 0 9026499.6331176758 4685925.7124099731 0 0 0 0 9231317.2631072998 3118742.1568489075 0 3118742.1568489075 -1533850.7083053589 0 0 0 0 773258.09266884625 3600305.4013876058 0 3600305.4013876058 54691.169868061319 0 0 0 0 -12789261.890411377 10077596.057556152 0 10077596.057556152 18608777.36315918 0 0 0 0 140873.33093261719 -54974.529113769531 0 -54974.529113769531 -2513506.471698761 0 0 0 0 -24767939.061798096 10688193.358612061 0 10688193.358612061 31050344.044128418 0 0 0 0 -28458820.981872559 -2585668.7805023193 0 -2585668.7805023193 14231240.999515533 0 0 0 0 -2693064.3962097168 7622186.8308639526 0 7622186.8308639526 16918880.426773071 0 0 0 0 -376469.69445551559 751221.3504792694 0 751221.3504792694 2836920.3188095354 0 0 0 0 -1334480.1885070801 5347735.2638397217 0 5347735.2638397217 -5189252.8973026276 0 0 0 0 5923309.5305900574 -4291975.0535907745 0 -4291975.0535907745 2183694.6106643677 0 0 0 0 -1719.9679718017578 6935712.8730831146 0 6935712.8730831146 -4881709.0263442993 0 0 0 0 -6686820.3521575928 8610314.1258621216 0 8610314.1258621216 -3258962.8237304688 0 0 0 0 -1746966.6269378662 7042503.9436683655 0 7042503.9436683655 -6038421.6962890625 0 0 0 0 1499539.6205275692 669190.38657179289 0 669190.38657179289 -1556366.8200504426 0 0 0 0 -1573950.8720245361 3617793.8117346764 0 3617793.8117346764 -9495861.1063232422 0 0 0 0 -1237960.9697611965 29731.934477526695 0 29731.934477526695 5071736.0540848523 0 0 0 0 -1740.2861175537109 1662725.504901886 0 1662725.504901886 1418502.2994766235 0 0 0 0 324978.2381477356 20082278.057653427 0 20082278.057653427 774824100.34381485 0 0 0 0 1479720.42076689 159138.62425510585 0 159138.62425510585 -566354.51500529796 0 0 0 0 -519083965.4227829 -187242910.29590607 0 -187242910.29590607 786496608.35964227 0 0 0 0 984181.82955165207 -1678090.0112963282 0 -1678090.0112963282 3017172.3518966623 0 0 0 0 -9404761.3430633545 -13696776.684467316 0 -13696776.684467316 944322.78801965714 0 0 0 0 -37155545.731719971 1036770.7763137817 0 1036770.7763137817 28778022.224874496 0 0 0 0 -33536726.588684082 -8369821.1348953247 0 -8369821.1348953247 19123713.165534973 0 0 0 0 96061.149793624878 214710289.94441605 0 214710289.94441605 -124918808.22074223 0 0 0 0 -97302648.708852768 144089298.65227795 0 144089298.65227795 127595053.0715313 0 0 0 0 -521033.59112234041 1004768.334033113 0 1004768.334033113 -1134500.4783085436 0 0 0 0 -161973570.35240936 -215176460.46011734 0 -215176460.46011734 -108678857.49200249 0 0 0 0 77608646.551673889 65203693.30331707 0 65203693.30331707 39429658.642028809 0 0 0 0 214393363.2442627 60635932.955720901 0 60635932.955720901 -107755966.11279297 0 0 0 0 -1308595.1104287654 3067070.5637076348 0 3067070.5637076348 -3605150.8624895513 0 0 0 0 47182876.217521667 -14884873.206789017 0 -14884873.206789017 -101014143.47979116 0 0 0 0 85198046.387802124 210504101.82261992 0 210504101.82261992 158446107.4477005 0 0 0 0 193792367.47429097 29099094.457521915 0 29099094.457521915 -256794525.25978851 0 0 0 0 197353070.71420288 214509133.62779236 0 214509133.62779236 65767696.230031967 0 0 0 0 -45577138.197967529 74637884.517692566 0 74637884.517692566 174223910.75299931 0 0 0 0 54050513.411483765 26777615.853992462 0 26777615.853992462 -84918996.434524536 0 0 0 0 71051123.37851429 165054206.33357525 0 165054206.33357525 47550060.676715851 0 0 0 0 247008995.21597862 240602741.34458137 0 240602741.34458137 -16457056.915424347 0 0 0 0 157897898.49351883 145190870.14926147 0 145190870.14926147 28442886.602157593 0 0 0 0 120116850.54556274 9577054.2268190384 0 9577054.2268190384 -80787206.196624756 0 0 0 0 634970.69896049611 1259891.2864225879 0 1259891.2864225879 548770.14353016019 0 0 0 0 -267286149.76669312 41477744.949920654 0 41477744.949920654 72438101.523696899 0 0 0 0 -214886537.75549316 256504402.69596291 0 256504402.69596291 -242206105.64287949 0 0 0 0 54501063.599151611 -75157732.87304306 0 -75157732.87304306 -24936606.256912231 0 0 0 0 -127110624.72979736 -72847280.183387756 0 -72847280.183387756 99999505.946338654 0 0 0 0 18827038.536262512 52211209.807453156 0 52211209.807453156 8468200.510017395 0 0 0 0 -15735685.366088867 -72951.138656616211 0 -72951.138656616211 -59504893.766248703 0 0 0 0 -58677031.540100098 70217736.28881073 0 70217736.28881073 -76297485.344825745 0 0 0 0 -98570286.920806885 80615273.914354324 0 80615273.914354324 -51887210.604141235 0 0 0 0 -67532519.105697632 115925347.02622414 0 115925347.02622414 -92540188.156784058 0 0 0 0 -143652425.18988037 156030701.62829018 0 156030701.62829018 -83367913.013313293 0 0 0 0 -157708224.51913452 116484379.34935379 0 116484379.34935379 -86015874.959602356 0 0 0 0 -188200093.07600403 153214656.57517624 0 153214656.57517624 -65941853.294017792 0 0 0 0 -280251.67633056641 161350916.60910606 0 161350916.60910606 -458570642.85374832 0 0 0 0 -130288527.15805054 240125318.31877327 0 240125318.31877327 -174367909.7662549 0 0 0 0 -14580996.693618774 316922962.77262974 0 316922962.77262974 -977614473.08152771 0 0 0 0 -113351434.3223877 228860335.29894543 0 228860335.29894543 -277769234.56580353 0 0 0 0 -83188376.51499939 361303010.77937698 0 361303010.77937698 -1008868391.9489175 0 0 0 0 -679389621.6375351 576738552.95177078 0 576738552.95177078 -547929707.12842941 0 0 0 0 -169099383.63052368 530156797.51774025 0 530156797.51774025 -1009134176.4395332 0 0 0 0 -514395032.89149475 382150146.29714012 0 382150146.29714012 52811761.499756336 0 0 0 0 -77415495.378387451 -40060122.139600754 0 -40060122.139600754 62084592.514396667 0 0 0 0 -705097277.6231842 -866930375.20039749 0 -866930375.20039749 -997864704.55094719 0 0 0 0 560651.0952517949 1250940.3641444147 0 1250940.3641444147 -2177751.544900436 0 0 0 0 -421656450.74597931 -676466117.18791986 0 -676466117.18791986 -524401818.13030243 0 0 0 0 -136435433.50808716 -346347168.90198326 0 -346347168.90198326 -381189490.41827106 0 0 0 0 -347996058.21961975 -170846948.00242996 0 -170846948.00242996 59244024.050546646 0 0 0 0 -476521862.51295471 -434340397.97700083 0 -434340397.97700083 -219067653.5826149 0 0 0 0 96319301.699798584 -689110524.59246254 0 -689110524.59246254 -1328526541.3248196 0 0 0 0 -19929191.487121582 -468365700.18179893 0 -468365700.18179893 -630846852.6897049 0 0 0 0 -162511229.68737793 -379905649.73670769 0 -379905649.73670769 -370104886.1566925 0 0 0 0 306182541.17112732 -245393648.55762196 0 -245393648.55762196 -844214110.52545643 0 0 0 0 312755774.4052124 -323187116.36145592 0 -323187116.36145592 -825925667.74934864 0 0 0 0 136513783.58288574 -147536931.904603 0 -147536931.904603 -362719969.45253944 0 0 0 0 -1038491.3751525879 -168723630.19684505 0 -168723630.19684505 -248344290.05350304 0 0 0 0 44742337.277709961 -277633242.94181061 0 -277633242.94181061 -547052534.41026211 0 0 0 0 -24677855.15599823 -148491121.77890635 0 -148491121.77890635 -265155923.7563324 0 0 0 0 12809547.688201904 -40634247.446673393 0 -40634247.446673393 -125774033.45428467 0 0 0 0 47117640.130981445 -4982815.8004732132 0 -4982815.8004732132 -150314003.83463287 0 0 0 0 29592386.234313965 -113382841.88082314 0 -113382841.88082314 -369361096.41071844 0 0 0 0 79743491.381130219 20447224.012438774 0 20447224.012438774 -17078205.873893738 0 0 0 0 50789022.145889282 -24828303.799438477 0 -24828303.799438477 63057063.062473178 0 0 0 0 1976965.3257982852 4000188.5542353578 0 4000188.5542353578 -5717521.0634549558 0 0 0 0 214015262.37915039 2367353.2326617241 0 2367353.2326617241 -155700220.79235077 0 0 0 0 1780525.9582672119 84690592.162279129 0 84690592.162279129 -68366610.111512661 0 0 0 0 102829497.62371063 81226159.086719036 0 81226159.086719036 3777447.932955265 0 0 0 0 3564627.252662072 8545323.5565048903 0 8545323.5565048903 -7778081.4140053093 0 0 0 0 21940937.924942017 -2114147.1195907593 0 -2114147.1195907593 14419483.990913391 0 0 0 0 36445001.845703125 -40187321.542719841 0 -40187321.542719841 20142107.106607437 0 0 0 0 23968045.978897095 70299623.456544876 0 70299623.456544876 44608588.439528704 0 0 0 0 34494328.023258209 -4394628.0836110115 0 -4394628.0836110115 -150267154.96120071 0 0 0 0 52305087.546226501 -48274333.116666317 0 -48274333.116666317 -131496522.52235794 0 0 0 0 52902153.311813354 65493007.2685709 0 65493007.2685709 -45851431.248102665 0 0 0 0 8058340.4472588226 11123202.613104226 0 11123202.613104226 -2043720.6324653027 0 0 0 0 10538777.290618896 14358080.340072632 0 14358080.340072632 21526038.121887207 0 0 0 0 2823073.6354484558 50497527.667384148 0 50497527.667384148 89583748.531041145 0 0 0 0 35573707.168075562 9451050.3987646103 0 9451050.3987646103 -3381953.6749572754 0 0 0 0 6179498.2516357079 1859229.3415308148 0 1859229.3415308148 1448284.273683615 0 0 0 0 1471070.2967022918 4603637.4898259193 0 4603637.4898259193 3616593.513055142 0 0 0 0 26150255.988037109 45384639.287136078 0 45384639.287136078 19027843.792404175 0 0 0 0 4519646.5618182905 8649012.332636252 0 8649012.332636252 49623.66177993454 0 0 0 0 -82582.192520141602 3827441.9339675903 0 3827441.9339675903 4598002.2272644043 0 0 0 0 1534479.8450233461 7418608.9117248952 0 7418608.9117248952 3474271.6917475779 0 0 0 0 4829137.5127496645 5774390.4258244699 0 5774390.4258244699 150747.44510590567 0 0 0 0 1435864.1904907227 3493098.4535713196 0 3493098.4535713196 1824081.3606948853 0 0 0 0 4809496.3686090559 6152628.6007307619 0 6152628.6007307619 1413702.6232206384 0 0 0 0 1654843.3683929443 2714191.8603925705 0 2714191.8603925705 1495261.4794998169 0 0 0 0 -5007228.5208435059 7069482.8156852722 0 7069482.8156852722 10795305.141431212 0 0 0 0 -80541.330256938934 2363294.1746998783 0 2363294.1746998783 5495537.6585394954 0 0 0 0 6717927.3026885986 8531015.2538604736 0 8531015.2538604736 2822731.8201401234 0 0 0 0 4816997.5924339294 5166517.5704944134 0 5166517.5704944134 8979553.6538467407 0 0 0 0 2142870.54752771 3210504.8776592091 0 3210504.8776592091 1562914.802080337 0 0 0 0 1032443.1901873387 1330731.4791665096 0 1330731.4791665096 1835513.685620402 0 0 0 0 25509584.015380859 -14475613.276941299 0 -14475613.276941299 37134042.615262985 0 0 0 0 6181816.4067382812 14414629.49628067 0 14414629.49628067 9569666.0438747406 0 0 0 0 10530367.71320343 6037875.4111204147 0 6037875.4111204147 1516680.8840866089 0 0 0 0 23608845.123939514 -4577280.9568309784 0 -4577280.9568309784 -25404648.829963684 0 0 0 0 -955631.11014556885 -29477482.95593071 0 -29477482.95593071 28886549.71484375 0 0 0 0 -95049.178184509277 35933060.974596024 0 35933060.974596024 -21611136.543457031 0 0 0 0 -51130069.087463379 119657330.35647774 0 119657330.35647774 -144981107.74438524 0 0 0 0 -51994101.015197754 19330174.991765976 0 19330174.991765976 21881484.789497375 0 0 0 0 72727.814437169582 370599.28634161502 0 370599.28634161502 819525.91964241024 0 0 0 0 -34137159.897262573 99169531.083694458 0 99169531.083694458 -79285098.486735106 0 0 0 0 -20846.434509120882 527003.71016736422 0 527003.71016736422 4714122.5106278062 0 0 0 0 -19228149.499923706 20562866.940887451 0 20562866.940887451 -9957246.8967399597 0 0 0 0 -1702849.3553314209 2710414.3331756592 0 2710414.3331756592 5077539.6497459412 0 0 0 0 -3224100.2098236084 6458499.805727005 0 6458499.805727005 24765893.423950076 0 0 0 0 1969.5515594482422 10084253.626815796 0 10084253.626815796 12460353.531967163 0 0 0 0 -7787132.7191162109 5311321.2779579163 0 5311321.2779579163 11086361.217262268 0 0 0 0 -2939354.4964561462 5559045.8264636993 0 5559045.8264636993 10461361.184661865 0 0 0 0 -3644979.0739746094 7876073.5018806458 0 7876073.5018806458 11981475.706720352 0 0 0 0 -3981401.076956749 5570815.2756814957 0 5570815.2756814957 6566028.3163223267 0 0 0 0 -86129.265380859375 9086588.6552734375 0 9086588.6552734375 7447488.9637870789 0 0 0 0 -2144607.8471870422 8512742.1455392838 0 8512742.1455392838 6654230.720489502 0 0 0 0 -1929606.0888442993 8101589.774058342 0 8101589.774058342 7256701.4563522339 0 0 0 0 1587.2821884155273 10072235.305675507 0 10072235.305675507 7486327.2611713409 0 0 0 0 -48520.53532409668 8169366.9709072113 0 8169366.9709072113 9977798.9235572815 0 0 0 0 553049.83899688721 9982487.153219223 0 9982487.153219223 6641282.0767021179 0 0 0 0 -965126.74775695801 7672470.1288766861 0 7672470.1288766861 5602600.6299057007 0 0 0 0 706074.22926330566 9447242.4762039185 0 9447242.4762039185 6629533.5453100204 0 0 0 0 844483.36061859131 13584249.465373993 0 13584249.465373993 5770246.5793156624 0 0 0 0 6351672.5010681152 8505448.9699249268 0 8505448.9699249268 5284608.1601028442 0 0 0 0 -3719.0699687156512 10479935.788780261 0 10479935.788780261 6327270.7261772156 0 0 0 0 -1137651.0862197876 8410852.1632347107 0 8410852.1632347107 3313877.3995575905 0 0 0 0 -8123120.630821228 2758398.4606761932 0 2758398.4606761932 7137726.3536453247 0 0 0 0 6919746.9478111267 15158835.938617706 0 15158835.938617706 7688235.1730728149 0 0 0 0 -1614843.3368100231 5284561.8548133727 0 5284561.8548133727 6106793.8998442665 0 0 0 0 -20829870.158805847 639686.94474601746 0 639686.94474601746 9908418.1094360352 0 0 0 0 3176630.4811935425 5547908.4645080566 0 5547908.4645080566 5282570.4947717786 0 0 0 0 -4302681.1790618896 -132529.78205108643 0 -132529.78205108643 -878033.81700897217 0 0 0 0 1030662.4135437012 19641634.407752991 0 19641634.407752991 9933093.8993530273 0 0 0 0 9989888.6094150543 12503322.984000683 0 12503322.984000683 15592934.548423767 0 0 0 0 27695346.147583008 42479886.996768951 0 42479886.996768951 43044454.376144409 0 0 0 0 -42796941.415706635 -14458539.597841263 0 -14458539.597841263 25624824.849647522 0 0 0 0 -3202029.0990524292 8036716.1547908783 0 8036716.1547908783 7604780.7674255371 0 0 0 0 -1273154.6901543248 5694549.9126023874 0 5694549.9126023874 8182376.8290156443 0 0 0 0 51796564.202558517 -27007561.495171547 0 -27007561.495171547 -4852464.0670623779 0 0 0 0 8376811.7164230347 8269954.2064151764 0 8269954.2064151764 15018175.604258776 0 0 0 0 632939.77271316946 3776701.4545741528 0 3776701.4545741528 1236016.9899022914 0 0 0 0 -14522028.941871643 53267252.661338806 0 53267252.661338806 40678662.779922485 0 0 0 0 38655583.401832581 18168913.570884705 0 18168913.570884705 -6232859.7221302986 0 0 0 0 -1143478.0699272859 7091833.5796088371 0 7091833.5796088371 10334583.247143907 0 0 0 0 1539620.8903571106 2917636.2431860976 0 2917636.2431860976 5332369.3317833878 0 0 0 0 7893759.8564343452 11060216.616230249 0 11060216.616230249 33233056.848808289 0 0 0 0 11974067.298477173 30658174.059196472 0 30658174.059196472 54407243.240436554 0 0 0 0 612985.14390113577 936251.25877352431 0 936251.25877352431 1509781.4507370908 0 0 0 0 2773788.2572479248 10363980.063110352 0 10363980.063110352 26629636.778487206 0 0 0 0 14181166.034317017 20431761.99684906 0 20431761.99684906 28107025.165454865 0 0 0 0 10222699.926773071 8724167.8412075043 0 8724167.8412075043 27264785.667297363 0 0 0 0 5591180.66065979 15601295.52243042 0 15601295.52243042 21508693.828006744 0 0 0 0 3401736.6931686401 35724170.597934723 0 35724170.597934723 45727001.736125946 0 0 0 0 16120716.255840302 39968289.576267719 0 39968289.576267719 50565554.98576355 0 0 0 0 7675246.4925971031 28794996.237619877 0 28794996.237619877 49866037.866836548 0 0 0 0 18205120.511276245 17492893.10918808 0 17492893.10918808 21781510.095252991 0 0 0 0 -416902.28128051758 17547438.089187622 0 17547438.089187622 21965964.260817528 0 0 0 0 20841756.394751072 39787216.082607985 0 39787216.082607985 24419023.702072144 0 0 0 0 -5086526.4421463013 35748840.117450714 0 35748840.117450714 23858773.209801674 0 0 0 0 -12634340.319421768 27155805.540745735 0 27155805.540745735 36685586.040306091 0 0 0 0 -10567508.920852661 32568606.823280334 0 32568606.823280334 24510035.098304749 0 0 0 0 -16988635.572774887 14149963.562862396 0 14149963.562862396 16689041.327148438 0 0 0 0 8484644.679145813 25662478.530004501 0 25662478.530004501 19927372.240859985 0 0 0 0 16586414.86668396 70913052.125648499 0 70913052.125648499 25140771.951785088 0 0 0 0 -19130776.427772522 76972816.728385925 0 76972816.728385925 24182659.988471985 0 0 0 0 29149976.611938477 125676921.36732483 0 125676921.36732483 73113058.69554615 0 0 0 0 -11162226.267715454 61964209.206012726 0 61964209.206012726 47688148.024986267 0 0 0 0 -10501264.395650297 53125672.793700054 0 53125672.793700054 31627321.238136292 0 0 0 0 10965809.712875366 41644145.356266022 0 41644145.356266022 18312495.479328632 0 0 0 0 -957543.48731231689 54650630.577768326 0 54650630.577768326 16344249.275093079 0 0 0 0 18621683.154815674 37768012.817504883 0 37768012.817504883 -8538672.7796020508 0 0 0 0 40452699.37902832 61915488.564088821 0 61915488.564088821 -23513831.391677856 0 0 0 0 13607757.518951416 36472259.384784698 0 36472259.384784698 -7044417.4590835571 0 0 0 0 13240591.570709229 33715137.148330688 0 33715137.148330688 -3512101.4924697876 0 0 0 0 7978971.9456710815 17311879.738765717 0 17311879.738765717 -6593179.9183959961 0 0 0 0 3350901.2518539429 34360916.411241531 0 34360916.411241531 11559335.709121704 0 0 0 0 5905667.6311950684 11223787.846069336 0 11223787.846069336 9446394.8057785034 0 0 0 0 7643671.0562667847 22739437.500999451 0 22739437.500999451 21253269.002433777 0 0 0 0 8686148.0141057968 21188444.504974842 0 21188444.504974842 159611.88816833496 0 0 0 0 7487106.8454818726 9736639.5674819946 0 9736639.5674819946 1839949.7056732178 0 0 0 0 70885698.033233643 -67960445.682909012 0 -67960445.682909012 21000988.098049164 0 0 0 0 -99885366.405776978 -146280575.56354332 0 -146280575.56354332 -99786822.636891365 0 0 0 0 -7918634.3238372803 -36137950.294296741 0 -36137950.294296741 17996516.409873962 0 0 0 0 -223345276.23092651 33114347.463787079 0 33114347.463787079 47177205.088004112 0 0 0 0 69589837.112342834 -49033028.574835777 0 -49033028.574835777 40572494.698702812 0 0 0 0 -63949378.011084557 69002660.784453928 0 69002660.784453928 -135254038.51383972 0 0 0 0 -121578466.07850647 -10571006.717754364 0 -10571006.717754364 336377091.3646822 0 0 0 0 7813249.379196763 11005859.798302293 0 11005859.798302293 75456.832171482383 0 0 0 0 9532397.3245658875 12396859.227897644 0 12396859.227897644 5297889.83411026 0 0 0 0 7725863.4461425804 11045401.066949667 0 11045401.066949667 -730239.08375034481 0 0 0 0 -9091760.9056854248 180510165.20220661 0 180510165.20220661 45837148.381813049 0 0 0 0 14243015.683952332 11211303.324504852 0 11211303.324504852 9299620.4060592651 0 0 0 0 -82000859.92098999 27300536.839254379 0 27300536.839254379 288382122.35944867 0 0 0 0 67458229.966461182 90333462.442220688 0 90333462.442220688 -15724062.276074409 0 0 0 0 -15972794.169998169 64397762.248517036 0 64397762.248517036 -15317391.516178295 0 0 0 0 68739603.290328979 135228516.09319162 0 135228516.09319162 -263488296.29004478 0 0 0 0 -55522243.452575684 74224328.932112694 0 74224328.932112694 6551326.3695077896 0 0 0 0 6226647.7151031494 145468567.16910839 0 145468567.16910839 -237140244.95165062 0 0 0 0 -127456954.2780304 189683723.05955458 0 189683723.05955458 -235035830.4431982 0 0 0 0 101751058.95018673 192663437.92036033 0 192663437.92036033 -629153294.73660088 0 0 0 0 95750398.327586174 143411774.42673552 0 143411774.42673552 -528163370.7189579 0 0 0 0 -61975522.766937256 304154711.53550529 0 304154711.53550529 -601946024.37971497 0 0 0 0 88139552.225524902 33517494.736711502 0 33517494.736711502 -302251396.01545405 0 0 0 0 95388140.332229614 8493265.0266385078 0 8493265.0266385078 -450948488.31044006 0 0 0 0 257112802.03889465 72904046.080800056 0 72904046.080800056 -633719722.37024832 0 0 0 0 147841034.74884415 -154301516.93438315 0 -154301516.93438315 -576329615.82504654 0 0 0 0 430239367.22127533 -203754408.02517033 0 -203754408.02517033 -1026124455.1193199 0 0 0 0 307061133.00804138 -79442308.998898506 0 -79442308.998898506 -688547515.85942078 0 0 0 0 292897153.6652832 -18946392.603480339 0 -18946392.603480339 -925227975.52213097 0 0 0 0 524967593.14256287 -86056147.764079094 0 -86056147.764079094 -917325759.73327947 0 0 0 0 296667977.02352905 90378913.117699623 0 90378913.117699623 -965145970.75514698 0 0 0 0 193286149.91056824 238931051.17801952 0 238931051.17801952 -1037057823.7154617 0 0 0 0 421450118.14613342 86081041.860453606 0 86081041.860453606 -1099121255.2028332 0 0 0 0 291455324.30402565 159249276.41013974 0 159249276.41013974 -1498562437.1553001 0 0 0 0 -926458700.88315582 260489650.80576372 0 260489650.80576372 -171545437.87938881 0 0 0 0 166148200.870224 423698040.70529461 0 423698040.70529461 -1903304216.4128351 0 0 0 0 -443904959.95802307 879571409.50538683 0 879571409.50538683 -1403913106.9506168 0 0 0 0 -308964434.46925354 581868002.28050709 0 581868002.28050709 -792526198.59362984 0 0 0 0 -114420467.35817719 -155992532.4792397 0 -155992532.4792397 -64071906.424447536 0 0 0 0 -125327480.46925354 1265136642.6933403 0 1265136642.6933403 507348640.51367998 0 0 0 0 -136036117.5459137 -71446398.354737759 0 -71446398.354737759 -276317727.80570698 0 0 0 0 -93753590.509613037 9400390.6183795929 0 9400390.6183795929 -133358450.31462383 0 0 0 0 -480948108.81932068 34540477.384447098 0 34540477.384447098 -116539815.41683626 0 0 0 0 -210353193.03098297 345044179.97706366 0 345044179.97706366 -485989807.74853802 0 0 0 0 -49503831.540561676 257838576.09090877 0 257838576.09090877 -586716401.32806206 0 0 0 0 104107554.13330078 46692485.246892452 0 46692485.246892452 -5203656.4200563431 0 0 0 0 56892658.384063721 18595153.035785675 0 18595153.035785675 -12402242.666028976 0 0 0 0 39867068.610176086 -106612739.16152954 0 -106612739.16152954 -175826716.24717808 0 0 0 0 191122338.28382874 872811.05542945862 0 872811.05542945862 -106351522.95851398 0 0 0 0 136392731.51740646 199835867.59326363 0 199835867.59326363 196715683.50856018 0 0 0 0 -1954449.3064656928 2223338.0361646139 0 2223338.0361646139 -2954.6183955284068 0 0 0 0 332981953.80859375 105496556.67598963 0 105496556.67598963 -188112795.96544296 0 0 0 0 43326300.554092407 41701398.518534184 0 41701398.518534184 -2329345.1777215004 0 0 0 0 -2493468.0650264472 3821443.6204248029 0 3821443.6204248029 368068.80363352649 0 0 0 0 44974396.333555222 35908042.883850455 0 35908042.883850455 18028005.639610291 0 0 0 0 -257471240.00028992 53376770.336972743 0 53376770.336972743 -27726969.284360722 0 0 0 0 173892714.97341919 187961778.12759173 0 187961778.12759173 174008003.33418703 0 0 0 0 182073331.35103607 185970341.53266993 0 185970341.53266993 156496173.15966979 0 0 0 0 294766805.20037842 197476872.10020027 0 197476872.10020027 106239428.94996455 0 0 0 0 211085.61625432037 1138091.7736779898 0 1138091.7736779898 293814.55581034691 0 0 0 0 127991584.69300842 -102580454.43052292 0 -102580454.43052292 -344570456.79446721 0 0 0 0 103996.91625803709 -137157.8931647744 0 -137157.8931647744 -416021.05491493532 0 0 0 0 68412554.465036392 -72415442.67779094 0 -72415442.67779094 -125665370.8362999 0 0 0 0 -226599880.87779999 99718100.383335829 0 99718100.383335829 158631859.23092651 0 0 0 0 6439707.1128053991 5705472.1315123085 0 5705472.1315123085 -2670880.8295272826 0 0 0 0 354025983.89205933 863140205.37330747 0 863140205.37330747 915145044.16417694 0 0 0 0 213252131.51373291 463197444.02011967 0 463197444.02011967 642443598.93072414 0 0 0 0 17779276.291702271 23604524.824680328 0 23604524.824680328 12864467.432826042 0 0 0 0 8680333.5271911621 16928983.134606361 0 16928983.134606361 14323391.952054977 0 0 0 0 25715115.441413879 10237713.450946331 0 10237713.450946331 -5113818.8895359039 0 0 0 0 48652904.255966187 28755455.645300865 0 28755455.645300865 4975577.0733671188 0 0 0 0 11148626.043244537 12798202.966269098 0 12798202.966269098 -4335186.4336492214 0 0 0 0 48638296.922393799 11185195.591694832 0 11185195.591694832 -6315233.3398563862 0 0 0 0 22024050.227981567 15602398.151141167 0 15602398.151141167 14976396.951030731 0 0 0 0 -288015963.43779755 -158934929.66933799 0 -158934929.66933799 -79840566.174519539 0 0 0 0 325917279.09148026 204989413.80361295 0 204989413.80361295 -28505734.425039291 0 0 0 0 832097630.39389038 540957645.27957726 0 540957645.27957726 -23810702.81444931 0 0 0 0 257623749.77789307 -19865939.673322678 0 -19865939.673322678 -204211280.6771965 0 0 0 0 80690463.884811401 -500354157.44102001 0 -500354157.44102001 -351557765.24757099 0 0 0 0 1126439976.243103 -103450646.69900227 0 -103450646.69900227 -901439449.54256344 0 0 0 0 2656866.9321746826 11945437.820086002 0 11945437.820086002 -81542885.827594757 0 0 0 0 209183624.04704285 -49883693.014375448 0 -49883693.014375448 -282311668.97158575 0 0 0 0 186710107.97442245 -1294233.6440215111 0 -1294233.6440215111 -166487752.94864845 0 0 0 0 5000851.5934192725 436235.37035448104 0 436235.37035448104 -6059487.9444044465 0 0 0 0 26118314.55406189 8728031.9357851744 0 8728031.9357851744 -299410138.92344189 0 0 0 0 -13638899.292972565 25489522.869939208 0 25489522.869939208 -56453803.874410152 0 0 0 0 13497591.414686333 11632908.523495406 0 11632908.523495406 -4644899.6212927885 0 0 0 0 7903518.4753331505 12571298.925232526 0 12571298.925232526 6064540.9061644096 0 0 0 0 4797012.8630599976 12815053.759334564 0 12815053.759334564 -11391876.935917377 0 0 0 0 8997305.4428597242 15118432.020902334 0 15118432.020902334 1444446.4745283672 0 0 0 0 -2559529.1088867188 16842723.879116058 0 16842723.879116058 -6010241.7585779428 0 0 0 0 36757918.719200134 160912.19762897491 0 160912.19762897491 31077406.883609772 0 0 0 0 22192926.815386448 16201292.276783995 0 16201292.276783995 -10787373.841216555 0 0 0 0 64780860.697807312 -311267.38150835037 0 -311267.38150835037 2087034.0581035614 0 0 0 0 49719272.912841797 14523848.728403091 0 14523848.728403091 -12455752.672806241 0 0 0 0 56577477.798690796 -105968050.34759235 0 -105968050.34759235 -87102378.69533658 0 0 0 0 61002585.220802784 -35057572.33829844 0 -35057572.33829844 15841380.221985817 0 0 0 0 8346300.2436049134 11732838.734162388 0 11732838.734162388 688936.83615726396 0 0 0 0 3970917.5091247559 13211624.751743317 0 13211624.751743317 788143.75642716885 0 0 0 0 -4848361.635559082 -72139573.038910389 0 -72139573.038910389 154928527.07632706 0 0 0 0 3030882.9371566772 9723748.8640022278 0 9723748.8640022278 -4246650.79296875 0 0 0 0 6647528.2192230225 20506013.755516052 0 20506013.755516052 -10908623.850009918 0 0 0 0 750448.84074401855 23064858.286521912 0 23064858.286521912 -14218347.906814575 0 0 0 0 5727643.6551055908 18560732.950302124 0 18560732.950302124 -15473853.819709778 0 0 0 0 -3248303.3918533325 18840543.460083008 0 18840543.460083008 -12947028.023181915 0 0 0 0 5845179.8600616455 14722342.138290405 0 14722342.138290405 -26248051.514102936 0 0 0 0 -2159596.054649353 24813054.59910965 0 24813054.59910965 -18823850.068912506 0 0 0 0 617304.69993194565 199750.47419675067 0 199750.47419675067 15504.717576771975 0 0 0 0 8588428.2263679504 42962774.101341248 0 42962774.101341248 -6901537.5539398193 0 0 0 0 7117662.9974148404 9617855.6195302494 0 9617855.6195302494 708982.96838033199 0 0 0 0 -6844830.223739624 12828593.567100525 0 12828593.567100525 -15063567.813034058 0 0 0 0 -22722875.860366821 16963885.557411194 0 16963885.557411194 330991.91722106934 0 0 0 0 12850529.931716919 28506307.525184631 0 28506307.525184631 -30474961.389595032 0 0 0 0 10480241.651390076 29510366.764873505 0 29510366.764873505 -9915329.0319595337 0 0 0 0 26555428.424697876 32801534.857917786 0 32801534.857917786 -12741374.071853638 0 0 0 0 -19876247.697463989 7721188.9797515869 0 7721188.9797515869 -53231018.44393158 0 0 0 0 21063056.799175262 9961120.240427494 0 9961120.240427494 -1020077.0831604004 0 0 0 0 -2286084.9529894367 218816.43198044505 0 218816.43198044505 1814748.2575047426 0 0 0 0 24177248.886604309 -7716686.8062515259 0 -7716686.8062515259 13595627.848432541 0 0 0 0 -2863561.2635325324 7052645.4966186658 0 7052645.4966186658 4921081.1509544514 0 0 0 0 -31104354.177617073 -57264220.869267464 0 -57264220.869267464 -65267566.792510986 0 0 0 0 44543447.675186157 -39001634.661018372 0 -39001634.661018372 -103207737.28028107 0 0 0 0 -11268018.098197937 29837059.207373619 0 29837059.207373619 -61883926.555915833 0 0 0 0 67945122.57566452 93783132.028799057 0 93783132.028799057 -33044753.872680664 0 0 0 0 42523217.392967224 64458123.399925232 0 64458123.399925232 -20548234.45274353 0 0 0 0 88608524.928192139 35652626.315891266 0 35652626.315891266 -73994798.015169144 0 0 0 0 16693850.025009155 23214803.23301506 0 23214803.23301506 25586851.128520966 0 0 0 0 -15884983.394546509 29075269.841789246 0 29075269.841789246 69578287.970245361 0 0 0 0 -29340772.254463196 73784543.965141296 0 73784543.965141296 48252713.405136108 0 0 0 0 2161267.4262145744 1041062.1798843443 0 1041062.1798843443 43068.54181522876 0 0 0 0 -24249249.040628433 54892444.971549988 0 54892444.971549988 114402069.72846985 0 0 0 0 -4042543.8659213427 6843531.0224471297 0 6843531.0224471297 5887742.3369309083 0 0 0 0 -16904239.108330727 20646826.677567482 0 20646826.677567482 99964841.062667847 0 0 0 0 52465570.572021484 -57885875.8984375 0 -57885875.8984375 247941050.51617432 0 0 0 0 -8963313.3252029419 4451407.9876480103 0 4451407.9876480103 51248677.958892822 0 0 0 0 170294308.29790306 45136063.27753067 0 45136063.27753067 -117852141.86208725 0 0 0 0 23349381.3951931 -21800017.822644711 0 -21800017.822644711 39506188.342834473 0 0 0 0 9301299.2830543518 10373868.620365143 0 10373868.620365143 21877861.27734375 0 0 0 0 10089172.743337631 3373560.3767681122 0 3373560.3767681122 -7482884.5901947021 0 0 0 0 16086469.993597984 17608251.830994606 0 17608251.830994606 -3882299.104637146 0 0 0 0 13203372.190364838 22183725.229587555 0 22183725.229587555 -3556574.2404193878 0 0 0 0 9060824.9168128967 20015546.885261536 0 20015546.885261536 -1806457.2859802246 0 0 0 0 7807533.4151000604 4995351.2468639836 0 4995351.2468639836 -301061.74109531567 0 0 0 0 54812936.88051796 12164825.313364029 0 12164825.313364029 -19526374.242179871 0 0 0 0 6196920.1481442451 28446487.868035793 0 28446487.868035793 42274776.337799072 0 0 0 0 -10703807.053314209 22297359.443466187 0 22297359.443466187 -14178811.222564697 0 0 0 0 9538270.9848644026 9122400.027208019 0 9122400.027208019 -2394461.5901937671 0 0 0 0 -7919782.3469696045 25036161.544551849 0 25036161.544551849 -13035994.440177917 0 0 0 0 8566318.6471862793 24218820.391423225 0 24218820.391423225 -22838850.60333252 0 0 0 0 475331.80681667104 790033.58016993664 0 790033.58016993664 -476573.93963047955 0 0 0 0 6724874.3529663086 32781068.82352066 0 32781068.82352066 27178613.310874939 0 0 0 0 12780221.283615112 18303081.207248688 0 18303081.207248688 -3215729.587600708 0 0 0 0 5039145.7872144654 5863771.2700939905 0 5863771.2700939905 5031136.8033266682 0 0 0 0 23588318.67881012 8418672.829334259 0 8418672.829334259 -19428470.09901619 0 0 0 0 17137429.297431946 20600343.275838852 0 20600343.275838852 3464452.1217880249 0 0 0 0 -1673643.77967453 49937309.383800507 0 49937309.383800507 75267234.175415039 0 0 0 0 34768749.928913116 2425875.2223873138 0 2425875.2223873138 -1748778.8965034485 0 0 0 0 2170021.4863308314 2056673.6014816761 0 2056673.6014816761 2905453.0608784873 0 0 0 0 -1300255.5471458435 1504963.9549541473 0 1504963.9549541473 11255823.557434082 0 0 0 0 24602809.446643829 -3607663.8371925354 0 -3607663.8371925354 5613734.3170051575 0 0 0 0 19673857.163143158 -3256519.5117073059 0 -3256519.5117073059 5979855.0800628662 0 0 0 0 -87603.287958881818 62337.10847642459 0 62337.10847642459 126235.27561378106 0 0 0 0 49858003.921760559 26463489.618988037 0 26463489.618988037 15549640.9097085 0 0 0 0 52768840.159015656 38254442.472175598 0 38254442.472175598 18172348.200681686 0 0 0 0 34314938.516822815 15190893.620361328 0 15190893.620361328 -3006180.0351409912 0 0 0 0 80863662.252815247 21218430.80639267 0 21218430.80639267 -3431657.5745162964 0 0 0 0 20723094.225708008 13196977.365356445 0 13196977.365356445 5534462.9122447968 0 0 0 0 21259781.745344639 2443491.0230298042 0 2443491.0230298042 3579756.0890579224 0 0 0 0 40138441.789325714 9209675.0346679688 0 9209675.0346679688 -1576991.7701320648 0 0 0 0 39284803.42083931 -2757716.8086662292 0 -2757716.8086662292 -7618973.8803405762 0 0 0 0 32645018.477115631 2108433.9988098145 0 2108433.9988098145 3574984.1726984978 0 0 0 0 10410562.959373474 51805474.175983429 0 51805474.175983429 10406314.462520599 0 0 0 0 133814817.74122238 -1944502.3145065308 0 -1944502.3145065308 -13741029.563138962 0 0 0 0 119749014.87095022 87446352.770870686 0 87446352.770870686 21851030.301742554 0 0 0 0 142419673.58298779 -93210189.54386282 0 -93210189.54386282 -73762474.96194458 0 0 0 0 176549812.24763489 60677337.358345032 0 60677337.358345032 41162544.229919434 0 0 0 0 625827.37750127725 525701.547047548 0 525701.547047548 926529.65269835852 0 0 0 0 37733861.402820587 -31230134.934785843 0 -31230134.934785843 -12694736.926017761 0 0 0 0 47104570.735977173 137160030.04374695 0 137160030.04374695 203553609.38743973 0 0 0 0 -121350.77458953857 34936738.142837524 0 34936738.142837524 141562790.91884232 0 0 0 0 48487099.43976593 70059168.721870422 0 70059168.721870422 -178372.25175476074 0 0 0 0 -12289199.899055481 12906496.28666687 0 12906496.28666687 -24814228.354557037 0 0 0 0 -17280277.017905235 -127373893.51607418 0 -127373893.51607418 -2878780.5476226807 0 0 0 0 2279731.8346890658 3582672.9730591606 0 3582672.9730591606 6577391.5611434523 0 0 0 0 -63162729.994621277 -514585.15121841431 0 -514585.15121841431 10910273.85395813 0 0 0 0 2188189.5927002952 3987321.3754778951 0 3987321.3754778951 4758837.549086757 0 0 0 0 11286484.777503967 -38015187.08152771 0 -38015187.08152771 -1036684.8971405029 0 0 0 0 13869909.69927871 12735381.878816959 0 12735381.878816959 -6255436.2216792395 0 0 0 0 16714257.888978958 31058962.981007397 0 31058962.981007397 -4096703.7953355312 0 0 0 0 11311480.659851074 8931070.3098831177 0 8931070.3098831177 18366900.164009094 0 0 0 0 -12592168.83568573 19953094.198646545 0 19953094.198646545 -188284361.87442017 0 0 0 0 5227507.8741014376 9452965.7559408825 0 9452965.7559408825 17238263.930755783 0 0 0 0 28195795.157051086 33099692.13290906 0 33099692.13290906 -64035277.582107544 0 0 0 0 6637463.1399307251 33370337.245021582 0 33370337.245021582 20902843.476546288 0 0 0 0 8781773.8216018677 31364404.11637798 0 31364404.11637798 -2965615.9642136097 0 0 0 0 7615538.5629425049 32326526.619076729 0 32326526.619076729 33089293.718371511 0 0 0 0 4171625.7876586914 51049960.364682674 0 51049960.364682674 -8464746.7505760193 0 0 0 0 6852484.5158119202 39192308.682843089 0 39192308.682843089 -6373408.1007881165 0 0 0 0 -1961344.6527175903 52669861.122957706 0 52669861.122957706 30976610.615145683 0 0 0 0 17168494.735473633 70004675.316411972 0 70004675.316411972 -15620984.127939939 0 0 0 0 15652690.661622724 18319167.072356828 0 18319167.072356828 6465583.0970144374 0 0 0 0 19835090.252861023 43551911.945839167 0 43551911.945839167 -80574997.348430634 0 0 0 0 15226985.252830505 36394259.18944025 0 36394259.18944025 -31917998.073723793 0 0 0 0 49785227.965782166 49738613.741456985 0 49738613.741456985 -77108038.823261261 0 0 0 0 -5347159.6214294434 52731380.941302776 0 52731380.941302776 -8624562.9675848484 0 0 0 0 -6213364.5028533936 42131778.395111084 0 42131778.395111084 -7031993.9905223846 0 0 0 0 301064.76765067503 750165.92573500425 0 750165.92573500425 1582866.753379039 0 0 0 0 35893916.806182861 78291814.998140335 0 78291814.998140335 -71133643.534400463 0 0 0 0 5120212.0003471375 89363334.773420453 0 89363334.773420453 6102128.7980680466 0 0 0 0 16982281.518748403 16943323.514663555 0 16943323.514663555 3685986.7651432985 0 0 0 0 29079828.724212646 -9216807.367333889 0 -9216807.367333889 -135947697.99101144 0 0 0 0 76424270.540893555 32911919.586892128 0 32911919.586892128 -176235741.16244006 0 0 0 0 25480148.011890411 29625591.380968094 0 29625591.380968094 -21175482.799209595 0 0 0 0 -35681101.730354309 93354172.570314646 0 93354172.570314646 279327497.50118828 0 0 0 0 44259673.997817993 193187006.79940414 0 193187006.79940414 26328668.541642189 0 0 0 0 102592308.41802979 169864052.53031635 0 169864052.53031635 30318405.278226495 0 0 0 0 93069374.380126953 114394696.0384264 0 114394696.0384264 221871880.15145588 0 0 0 0 8247964.3863677979 50176927.023543358 0 50176927.023543358 38909168.550604343 0 0 0 0 25486677.247802734 51383800.422106743 0 51383800.422106743 38717097.333310127 0 0 0 0 4946575.8782488331 2234195.0394975976 0 2234195.0394975976 -793483.51002745389 0 0 0 0 -8745297.490486145 50956335.932313919 0 50956335.932313919 96751159.847063065 0 0 0 0 -23194049.550041199 1219211.726287365 0 1219211.726287365 127488783.13642406 0 0 0 0 101107918.39479065 -123383660.52457905 0 -123383660.52457905 245707041.01470423 0 0 0 0 1691412.6403761506 705008.05221306346 0 705008.05221306346 -196103.8294466259 0 0 0 0 233572825.49763489 45940060.357026815 0 45940060.357026815 -166476600.43555236 0 0 0 0 -84467183.291931152 113802805.24585056 0 113802805.24585056 725771285.91565323 0 0 0 0 92943291.88067627 -22838456.429603539 0 -22838456.429603539 -34370996.268459029 0 0 0 0 -30285538.805007935 1629481.924454987 0 1629481.924454987 28312018.9495157 0 0 0 0 -18302414.029705048 30990521.341300368 0 30990521.341300368 -94952033.966331482 0 0 0 0 3532447.652130127 -5810496.0918422043 0 -5810496.0918422043 -57721038.071069568 0 0 0 0 8004651.5235235095 4035561.0483818008 0 4035561.0483818008 -1879824.1395552827 0 0 0 0 28933423.070243835 19827906.132822633 0 19827906.132822633 -128434251.48949528 0 0 0 0 1984236.8996810913 15711093.184158802 0 15711093.184158802 38698721.246825695 0 0 0 0 -4034294.7884521484 43492666.394515038 0 43492666.394515038 37352514.896050453 0 0 0 0 6229609.9335021973 14178440.15625906 0 14178440.15625906 38801859.83960247 0 0 0 0 4854651.9145965576 -6064990.5906248093 0 -6064990.5906248093 92382559.22998333 0 0 0 0 26866527.318008423 18551481.786725283 0 18551481.786725283 -45022723.761504769 0 0 0 0 62046191.509155273 17728588.483764172 0 17728588.483764172 -52767301.167750835 0 0 0 0 25046326.56350708 13900611.446705043 0 13900611.446705043 -37552097.031226814 0 0 0 0 61598870.01524353 65172401.267744541 0 65172401.267744541 7044403.1159443855 0 0 0 0 30791006.14621067 61624317.188104689 0 61624317.188104689 -11715981.776193619 0 0 0 0 -4451450.4795227051 15632839.316023171 0 15632839.316023171 -77813438.240155339 0 0 0 0 52756669.735237122 19258984.984296113 0 19258984.984296113 -77610264.578199565 0 0 0 0 -14721986.99810791 -33232893.180733502 0 -33232893.180733502 -127682707.81226802 0 0 0 0 -12693145.602508545 -22143589.953722239 0 -22143589.953722239 -69429230.906131387 0 0 0 0 -48278992.806365967 -26090082.38795054 0 -26090082.38795054 -14196419.447380006 0 0 0 0 7902478.9629821777 -63543705.366739869 0 -63543705.366739869 -170208656.66477942 0 0 0 0 -27996881.734207153 73728291.86385107 0 73728291.86385107 -331687557.84858131 0 0 0 0 -34495039.326128483 -2971991.6362286732 0 -2971991.6362286732 -104586412.6540451 0 0 0 0 -135510846.47111511 104268050.61428022 0 104268050.61428022 -58011015.309891701 0 0 0 0 -200225101.14141846 163904016.83508968 0 163904016.83508968 -187763418.5469265 0 0 0 0 30792310.941100121 -5229075.0975725949 0 -5229075.0975725949 -116675537.61627722 0 0 0 0 -10474728.257125854 37594730.84243679 0 37594730.84243679 -191937576.17854118 0 0 0 0 -9720263.8015899658 22333372.175445795 0 22333372.175445795 -49859134.751385689 0 0 0 0 45752235.888122559 55951887.336898327 0 55951887.336898327 -94661942.607690811 0 0 0 0 -75430915.878662109 113524568.45751572 0 113524568.45751572 80922663.794460297 0 0 0 0 -88193464.093032837 168054267.57719493 0 168054267.57719493 -146651570.35513878 0 0 0 0 17980013.532699585 255823972.31184196 0 255823972.31184196 -25833728.880973816 0 0 0 0 -376676265.74308014 448353573.27847242 0 448353573.27847242 -95437483.882270813 0 0 0 0 -422368074.46850586 389697142.64113712 0 389697142.64113712 -134722108.97799921 0 0 0 0 -132974212.28800964 153385465.82170105 0 153385465.82170105 -235452886.3338356 0 0 0 0 -274401166.26637268 163307772.77438259 0 163307772.77438259 156362315.98601818 0 0 0 0 856759.6734726727 109374.00581766106 0 109374.00581766106 -3939676.3931970247 0 0 0 0 -471047227.66613007 583694587.53233743 0 583694587.53233743 -192396470.07305717 0 0 0 0 52143805.320762634 -111713057.11735272 0 -111713057.11735272 -819996273.4906683 0 0 0 0 -648067666.08653259 450864892.47642994 0 450864892.47642994 56728457.502332211 0 0 0 0 -79406522.414230347 294952358.00225353 0 294952358.00225353 -851036069.563483 0 0 0 0 -288582914.52183533 -117766506.77916431 0 -117766506.77916431 684510099.01784515 0 0 0 0 -583976.79413574934 318783.26275769831 0 318783.26275769831 -266390.34629288106 0 0 0 0 -101181345.96429443 510884739.66637039 0 510884739.66637039 -2160764698.7971325 0 0 0 0 -60457007.925132751 193176225.49055314 0 193176225.49055314 333671109.61126804 0 0 0 0 -357789.35696581751 987059.64136695489 0 987059.64136695489 -861908.98940575297 0 0 0 0 -2786102.9202879742 867159.31021027826 0 867159.31021027826 46915.787672383711 0 0 0 0 -943962.38537597656 612353.05086708069 0 612353.05086708069 2505117.3608522415 0 0 0 0 67477448.121612549 25775846.932790279 0 25775846.932790279 89908835.588706017 0 0 0 0 35320766.048204422 84943060.296254933 0 84943060.296254933 42037112.259005547 0 0 0 0 44816991.659332275 97114128.435434341 0 97114128.435434341 116590289.45617008 0 0 0 0 -4639485.1672937907 2987984.8347312193 0 2987984.8347312193 -1331692.3840460081 0 0 0 0 59432858.958585739 83756361.134109616 0 83756361.134109616 48539582.168985367 0 0 0 0 48468888.081848145 41236235.87225771 0 41236235.87225771 43806459.94770956 0 0 0 0 77192883.64402771 100449896.731846 0 100449896.731846 93850701.727619171 0 0 0 0 -2023328.9588088989 2587172.9928622246 0 2587172.9928622246 1728897.8376207352 0 0 0 0 -1901823.9846897125 2188654.9263861179 0 2188654.9263861179 1086499.9390249252 0 0 0 0 -249515.0843724981 1491750.051934971 0 1491750.051934971 -868555.96776642138 0 0 0 0 -57619280.592508316 188360171.36429727 0 188360171.36429727 -611212705.37605858 0 0 0 0 -18996550.060386658 144709391.64295673 0 144709391.64295673 -562577695.8009491 0 0 0 0 -73582823.17228508 149921016.26897955 0 149921016.26897955 -560853899.94554901 0 0 0 0 -207952271.46890259 76798466.266787529 0 76798466.266787529 -594896119.04955101 0 0 0 0 -80677853.59287262 271370169.72854137 0 271370169.72854137 -802789838.63419724 0 0 0 0 -68230236.407226562 203074275.36834526 0 203074275.36834526 -442261440.77077389 0 0 0 0 108675889.12137604 253270278.76543283 0 253270278.76543283 -564857477.86709023 0 0 0 0 113229461.81525421 186711479.09658337 0 186711479.09658337 -461635907.46778536 0 0 0 0 -293015230.16952515 282693060.26733923 0 282693060.26733923 -188090554.43268013 0 0 0 0 -293459392.5681839 288534586.12290573 0 288534586.12290573 -76084622.338493347 0 0 0 0 11552453.885276794 168807430.59060928 0 168807430.59060928 -37444938.198194504 0 0 0 0 -519504964.12119293 51942442.005419254 0 51942442.005419254 -17882374.365611076 0 0 0 0 -551230353.17627287 325819834.37119973 0 325819834.37119973 31610082.847332001 0 0 0 0 -645826257.75393677 527227875.92334747 0 527227875.92334747 -319749270.70857143 0 0 0 0 -459080889.74690247 366453020.81828785 0 366453020.81828785 -234133936.99524236 0 0 0 0 -647552628.5659852 -13556824.30339415 0 -13556824.30339415 -792609116.52173519 0 0 0 0 281419.89287828654 36383.98714434728 0 36383.98714434728 -1691218.6355955489 0 0 0 0 -1184192490.5214233 1148660007.3723094 0 1148660007.3723094 -712972790.50746632 0 0 0 0 -74270897.598236084 -184457613.20117545 0 -184457613.20117545 -122594774.97489643 0 0 0 0 -621917201.65322876 505057938.54213905 0 505057938.54213905 30244585.826231003 0 0 0 0 -87487208.787910461 341573546.74641895 0 341573546.74641895 -560452576.80545044 0 0 0 0 -522274967.4522934 910902079.32072735 0 910902079.32072735 -372333818.38759613 0 0 0 0 -1536734660.8936157 970711634.90023077 0 970711634.90023077 -363582655.28556299 0 0 0 0 -748465417.14585876 627814779.02735901 0 627814779.02735901 -650963742.26752996 0 0 0 0 1766845844.8948059 72455323.506754518 0 72455323.506754518 -782829386.93523204 0 0 0 0 167059.71212225262 1402456.0062748827 0 1402456.0062748827 -1943357.7604726627 0 0 0 0 371700.02981333015 3283418.6351448856 0 3283418.6351448856 -3788889.2806711597 0 0 0 0 88639937.536552429 143366720.26059532 0 143366720.26059532 -562737757.07255936 0 0 0 0 -966761386.33898163 427784231.76005864 0 427784231.76005864 122411232.33108997 0 0 0 0 -507786790.36016178 19622186.504559427 0 19622186.504559427 151332929.66838932 0 0 0 0 -36943523.213821411 787937559.2250843 0 787937559.2250843 57960869.177508026 0 0 0 0 1432100672.0105138 219561478.06043649 0 219561478.06043649 -639863669.16677392 0 0 0 0 -42319189.611366272 812383334.77080345 0 812383334.77080345 17744094.681355476 0 0 0 0 172794.61154515069 4030893.2006114349 0 4030893.2006114349 -2200578.2679296182 0 0 0 0 197400259.96549225 36101908.496883392 0 36101908.496883392 3753195.7257270813 0 0 0 0 157504708.45417023 -11340295.782500744 0 -11340295.782500744 -107402889.92468834 0 0 0 0 54939387.330322266 -89658287.880123138 0 -89658287.880123138 -87445291.138484001 0 0 0 0 -218745678.42625427 -99792235.731783867 0 -99792235.731783867 -1791380.652504921 0 0 0 0 1029557.6069818884 1092319.7805235342 0 1092319.7805235342 -727644.44452014938 0 0 0 0 -1112972756.1614456 681548507.1260407 0 681548507.1260407 -412673796.01686382 0 0 0 0 -51975787.186248779 700965804.4863615 0 700965804.4863615 1349182472.3259604 0 0 0 0 -207394691.0413208 1001873578.0276146 0 1001873578.0276146 13258516.573161542 0 0 0 0 136576892.53713226 1046820994.0047138 0 1046820994.0047138 14385631.716034506 0 0 0 0 -910348822.01282501 -342172091.54180431 0 -342172091.54180431 -863492983.6034323 0 0 0 0 99808378.343067169 1374089677.5914116 0 1374089677.5914116 -1473977136.5152168 0 0 0 0 185203488.17658234 193857774.80859816 0 193857774.80859816 -686153772.36713374 0 0 0 0 186295895.34596252 272769434.87769079 0 272769434.87769079 164984662.91413796 0 0 0 0 666834846.30656433 -387823543.13404775 0 -387823543.13404775 -161179692.11110419 0 0 0 0 -680954488.60752869 146290646.4936465 0 146290646.4936465 -137145297.825315 0 0 0 0 -33720466.18019104 38772885.374301851 0 38772885.374301851 -240558785.31315041 0 0 0 0 -162936090.97277451 155538886.48288786 0 155538886.48288786 -254567303.47699165 0 0 0 0 -319520259.08877563 200116096.64555836 0 200116096.64555836 -239419767.69762385 0 0 0 0 -31496652.282779694 277594763.97834522 0 277594763.97834522 -369418426.10313606 0 0 0 0 -6308850.8126831055 262831400.35448456 0 262831400.35448456 -371214331.11992037 0 0 0 0 418125013.45061874 331087331.38931465 0 331087331.38931465 -528934696.05200481 0 0 0 0 204390405.96887207 398010683.17813718 0 398010683.17813718 -541270203.33766377 0 0 0 0 191282673.61543274 106787311.42885411 0 106787311.42885411 -361148151.8546865 0 0 0 0 92818764.875377655 161973132.64724451 0 161973132.64724451 -346017628.07090092 0 0 0 0 263492915.36627197 616557713.08786833 0 616557713.08786833 -979159543.92963004 0 0 0 0 -806564211.74565125 1253587092.1989694 0 1253587092.1989694 -856419735.70587659 0 0 0 0 -576320371.02003479 759810335.71193254 0 759810335.71193254 -596034812.40737343 0 0 0 0 -58116287.401161194 -137132379.60909814 0 -137132379.60909814 -551669928.82698929 0 0 0 0 -437073028.97035599 581142283.8028326 0 581142283.8028326 -361581993.07744312 0 0 0 0 890061.20498829335 218212.00651616231 0 218212.00651616231 -3491151.8330908511 0 0 0 0 -253101037.49636841 542467901.24404621 0 542467901.24404621 -259901888.94373572 0 0 0 0 -3328800.9090042114 260096739.37343258 0 260096739.37343258 25082738.090994954 0 0 0 0 353653.84400147945 156098.08109230548 0 156098.08109230548 -1269856.3303491459 0 0 0 0 -978646654.28546715 1103023951.2516742 0 1103023951.2516742 -507252043.23618633 0 0 0 0 710937127.35988617 -198266701.61402264 0 -198266701.61402264 -248115858.68103194 0 0 0 0 -182946044.85562801 254086959.82751065 0 254086959.82751065 -532416085.79809141 0 0 0 0 -530182438.63395691 259323105.19173646 0 259323105.19173646 -385336674.71414745 0 0 0 0 142122767.47706604 101889652.18107092 0 101889652.18107092 -533685585.78316879 0 0 0 0 -35629217.944293976 58641446.257835731 0 58641446.257835731 -127032285.47340965 0 0 0 0 120478467.13964844 -106851876.52003144 0 -106851876.52003144 -213579151.54262951 0 0 0 0 89026663.739271164 184862450.66041607 0 184862450.66041607 293904683.81746161 0 0 0 0 61489086.122055054 -18554530.906036377 0 -18554530.906036377 -65702561.555996895 0 0 0 0 105948087.24794137 804953068.69122291 0 804953068.69122291 -843829313.70704627 0 0 0 0 49381249.134436607 -62147912.368844688 0 -62147912.368844688 -198296491.12091362 0 0 0 0 116659280.14044189 185199357.88363051 0 185199357.88363051 -711707964.64769053 0 0 0 0 363212658.77011871 335519446.31438792 0 335519446.31438792 -659301166.20769489 0 0 0 0 82221378.541275024 206844382.90139985 0 206844382.90139985 -658689837.42994523 0 0 0 0 -67936618.888137817 150315902.66377115 0 150315902.66377115 -681677515.33067179 0 0 0 0 -98077907.504840851 26821391.19241184 0 26821391.19241184 -1065419674.8495665 0 0 0 0 -176040215.79689026 318386627.71617651 0 318386627.71617651 -418070046.64759636 0 0 0 0 93457060.75302124 336715086.52795315 0 336715086.52795315 -818212126.40333891 0 0 0 0 -155026843.45852661 384569192.43508369 0 384569192.43508369 -426809146.71661019 0 0 0 0 106662635.84500504 450274769.06164026 0 450274769.06164026 -408157463.42184925 0 0 0 0 150571879.28445816 190986125.18886828 0 190986125.18886828 -451002550.35420871 0 0 0 0 371932294.63803864 -186392261.68856835 0 -186392261.68856835 9036550.0835849047 0 0 0 0 -518211835.54170227 337937984.15748143 0 337937984.15748143 -166851127.80879915 0 0 0 0 -234878684.23522949 170712660.87042892 0 170712660.87042892 -256683397.88752979 0 0 0 0 -330560779.44296265 626480873.95702577 0 626480873.95702577 -945232003.58169031 0 0 0 0 111827104.61984253 360117550.77556443 0 360117550.77556443 -2261530556.3771439 0 0 0 0 -581228978.80982208 1032845537.0606674 0 1032845537.0606674 -985149438.79954576 0 0 0 0 -767246.65884765238 731469.66364703467 0 731469.66364703467 -74834.605101600231 0 0 0 0 -479796319.0364418 509088103.27650827 0 509088103.27650827 611811074.88626075 0 0 0 0 -483279.27402044833 1127670.3119286317 0 1127670.3119286317 -1471557.4087181422 0 0 0 0 -60055553.039251328 1442671879.1366706 0 1442671879.1366706 -472889601.36107135 0 0 0 0 295106612.21956253 -393528361.78212643 0 -393528361.78212643 -954264895.19813728 0 0 0 0 284912247.29579163 -312347544.29711914 0 -312347544.29711914 -1586672718.0035205 0 0 0 0 282694132.68572998 -59411277.542123795 0 -59411277.542123795 -105763667.26886883 0 0 0 0 544269732.56581116 -23363483.130086422 0 -23363483.130086422 -1012065619.2047081 0 0 0 0 -890164.18482859433 2259338.2232357226 0 2259338.2232357226 -2938588.880819181 0 0 0 0 731806929.60979462 713725328.13179922 0 713725328.13179922 -90064019.702097341 0 0 0 0 671619502.8242588 408783031.72316402 0 408783031.72316402 -159311391.98627424 0 0 0 0 153921417.58103943 229315140.02561474 0 229315140.02561474 -125238050.30536523 0 0 0 0 321628816.10840225 -12918605.031766862 0 -12918605.031766862 -629238222.41376925 0 0 0 0 272244998.06607819 516002081.87636244 0 516002081.87636244 -1137451011.1959338 0 0 0 0 -86123405.49471283 276235222.48217058 0 276235222.48217058 -582819201.24882722 0 0 0 0 259576627.44573593 -21567368.636259168 0 -21567368.636259168 -374887693.40063667 0 0 0 0 -250455489.4119339 131664322.05594528 0 131664322.05594528 -110868579.30437136 0 0 0 0 -318809690.40235138 209421617.02624846 0 209421617.02624846 -244511461.93414021 0 0 0 0 -213249692.71536255 188782090.14231348 0 188782090.14231348 -243113533.19256914 0 0 0 0 -75660005.094379425 222038738.04899412 0 222038738.04899412 -339367126.67206478 0 0 0 0 -216183274.80710602 337888529.22378194 0 337888529.22378194 -428199052.18075657 0 0 0 0 -381119247.52222443 537591413.26422596 0 537591413.26422596 -526052877.23421001 0 0 0 0 -289451521.2950058 416060115.14672983 0 416060115.14672983 -367999360.53401995 0 0 0 0 -103261171.02288437 606564339.10231435 0 606564339.10231435 -765087668.22083759 0 0 0 0 97856913.174930573 533123711.29028738 0 533123711.29028738 -814160623.28967786 0 0 0 0 -1100386916.3643923 798593231.34442163 0 798593231.34442163 -458534315.96375012 0 0 0 0 -229760288.92323685 971925378.32940137 0 971925378.32940137 -1374023630.7966158 0 0 0 0 133711754.35636902 -137216234.62136054 0 -137216234.62136054 -1430080519.8342338 0 0 0 0 -35463029.603820801 144091673.5110445 0 144091673.5110445 -150227154.91637945 0 0 0 0 3723109.4996365383 2461180.6124667572 0 2461180.6124667572 -2869014.5459432742 0 0 0 0 -456229.17414540797 1912147.4367444105 0 1912147.4367444105 -1717667.9913126177 0 0 0 0 -51204303.207542419 258332328.71248949 0 258332328.71248949 142705536.21015012 0 0 0 0 2190811.3128096014 1382213.8110180744 0 1382213.8110180744 -1421658.0774600219 0 0 0 0 137144482.72216415 117827762.7561506 0 117827762.7561506 -597295098.96717 0 0 0 0 123572042.28684235 641092015.81847847 0 641092015.81847847 -787600640.28712559 0 0 0 0 84061585.654472351 587551603.87027037 0 587551603.87027037 -548019540.95676374 0 0 0 0 258419400.1612854 362150324.5165391 0 362150324.5165391 -607636023.49851561 0 0 0 0 201920181.90042877 666853167.01507306 0 666853167.01507306 -787410387.26686096 0 0 0 0 131104126.35540771 891625712.93351781 0 891625712.93351781 -1500709241.7226439 0 0 0 0 -364902217.30269623 321884269.59170365 0 321884269.59170365 -598603178.39124513 0 0 0 0 -301779117.18772125 934790164.35497749 0 934790164.35497749 -782504231.8590827 0 0 0 0 65921596.810821533 627995247.37594581 0 627995247.37594581 -390770943.58379745 0 0 0 0 -15487513.085624695 478081589.41856658 0 478081589.41856658 -330486921.19109392 0 0 0 0 67710494.85792923 97943003.315200508 0 97943003.315200508 138475113.07472038 0 0 0 0 -54194762.690299988 622318267.03046417 0 622318267.03046417 -157053867.05560112 0 0 0 0 28241879.329825401 223679390.91409728 0 223679390.91409728 29046029.019266129 0 0 0 0 85966453.443084717 505080217.95366549 0 505080217.95366549 309703749.52263165 0 0 0 0 158800998.12350464 44829926.707810163 0 44829926.707810163 585776491.18288517 0 0 0 0 -115611375.34318542 302996969.31261611 0 302996969.31261611 681093222.63543463 0 0 0 0 1090056.8674535379 678113.27908178349 0 678113.27908178349 -544188.47039472021 0 0 0 0 299232248.48498535 148550584.96695185 0 148550584.96695185 555875569.06721449 0 0 0 0 307343519.04656982 575104071.38915467 0 575104071.38915467 747690738.75459433 0 0 0 0 -146529965.38528442 270187569.84409738 0 270187569.84409738 1490153681.6775358 0 0 0 0 310447.88158095628 87495.211240436998 0 87495.211240436998 -79974.80067006126 0 0 0 0 280048828.86212158 65352891.78984867 0 65352891.78984867 -330708601.22583622 0 0 0 0 37726039.18797493 116418581.08589639 0 116418581.08589639 525166976.83414173 0 0 0 0 269502158.0957489 391064693.29652452 0 391064693.29652452 -46169914.555153131 0 0 0 0 -97258.303115844727 341115382.92752528 0 341115382.92752528 432111746.82645535 0 0 0 0 -34943539.254127502 125801194.10052228 0 125801194.10052228 -189734904.10599136 0 0 0 0 342549.8138885498 486721124.01474547 0 486721124.01474547 -602299782.24379349 0 0 0 0 -64962629.073417664 250571446.47520399 0 250571446.47520399 -853684978.41658688 0 0 0 0 -357501.03313446045 458543613.97236252 0 458543613.97236252 -981623686.91688013 0 0 0 0 -101979280.18882751 379928860.8064971 0 379928860.8064971 -1031200263.6660385 0 0 0 0 48045776.340276718 461160102.30905759 0 461160102.30905759 -1138144573.4495244 0 0 0 0 -316288177.50764966 768044219.32417631 0 768044219.32417631 -875301558.08563328 0 0 0 0 -312063684.57283783 869813272.06867146 0 869813272.06867146 626049275.12477303 0 0 0 0 356668533.68271637 9183239.5429670811 0 9183239.5429670811 -1880885979.1588855 0 0 0 0 -483711.36820067838 1111712.3456646446 0 1111712.3456646446 -1431416.882278729 0 0 0 0 -301791857.81495667 683594475.64154243 0 683594475.64154243 -1093708275.51929 0 0 0 0 -921152851.11817169 461672291.18139744 0 461672291.18139744 -336719651.66985416 0 0 0 0 748529088.10474885 148902716.84928003 0 148902716.84928003 -835079756.77423859 0 0 0 0 67118858.776016235 146886028.08722472 0 146886028.08722472 -1201195833.9359741 0 0 0 0 226416926.28892517 -164266463.53536987 0 -164266463.53536987 -602271509.56796122 0 0 0 0 106166635.32329178 81621076.997504234 0 81621076.997504234 -2425609747.0706215 0 0 0 0 -10436494.760643005 560157985.89857912 0 560157985.89857912 -2010491039.5157719 0 0 0 0 -679791879.26698303 -258262531.52887297 0 -258262531.52887297 -1544907854.1431561 0 0 0 0 234799.05784606934 192391956.53556204 0 192391956.53556204 -1511308370.2629852 0 0 0 0 -42639218.460601807 502589257.73269939 0 502589257.73269939 -1143301479.0313673 0 0 0 0 -314884769.02390671 215110815.62903976 0 215110815.62903976 -1059497393.6978998 0 0 0 0 10340357.529769897 18384937.659763336 0 18384937.659763336 53629155.24889636 0 0 0 0 11024611.013908386 13211163.533853531 0 13211163.533853531 45240867.526527405 0 0 0 0 -10282038.341445923 14931999.947002411 0 14931999.947002411 45201924.021217763 0 0 0 0 29723953.883361816 9675658.6922779083 0 9675658.6922779083 35273351.460365295 0 0 0 0 30718360.374530792 13838568.69578743 0 13838568.69578743 52691755.725059509 0 0 0 0 40562174.620323181 1668563.0613384247 0 1668563.0613384247 47711514.20923233 0 0 0 0 26508057.44985199 7460915.4798469543 0 7460915.4798469543 49935059.72423172 0 0 0 0 23597792.814086914 5492694.5419464111 0 5492694.5419464111 51664945.666656494 0 0 0 0 10540076.755815566 1032134.4213327318 0 1032134.4213327318 50141323.573852539 0 0 0 0 34842135.793533325 6657805.505859375 0 6657805.505859375 49390208.678134918 0 0 0 0 71751738.768115044 11933753.031990051 0 11933753.031990051 -55882334.269313812 0 0 0 0 20383003.764914334 17243178.974708021 0 17243178.974708021 -6371239.5342804771 0 0 0 0 23456178.72492981 7368303.9732055664 0 7368303.9732055664 50082027.74016571 0 0 0 0 50716728.066286087 13391490.268848419 0 13391490.268848419 -34057598.848155975 0 0 0 0 76050416.089788675 -24188166.957054138 0 -24188166.957054138 -21173936.072242737 0 0 0 0 103236075.15904617 51648.63493347168 0 51648.63493347168 -51475006.126993179 0 0 0 0 135253649.60697579 15631373.218410492 0 15631373.218410492 -53277734.327524662 0 0 0 0 123991849.26705313 28776620.816436768 0 28776620.816436768 -19969945.777793884 0 0 0 0 130802352.02141857 33236865.48260498 0 33236865.48260498 -31142178.111373901 0 0 0 0 -28476408.105105042 24476263.582448244 0 24476263.582448244 -5130776.0537910461 0 0 0 0 85967669.848709106 89675173.904380798 0 89675173.904380798 16354052.105163574 0 0 0 0 43597116.404075623 7545666.0395965576 0 7545666.0395965576 -35976811.874168396 0 0 0 0 -19777079.418209076 56682302.788238525 0 56682302.788238525 8105245.507101059 0 0 0 0 27433071.632537842 21212343.39302063 0 21212343.39302063 53698264.959890723 0 0 0 0 18496172.117538452 6701629.3876152039 0 6701629.3876152039 51535281.737377167 0 0 0 0 17380663.418764979 17662418.375960834 0 17662418.375960834 -9430371.3907704148 0 0 0 0 -2756951.9416313171 24707476.221086502 0 24707476.221086502 77216543.958461761 0 0 0 0 -3556612.1109071011 18172886.643663544 0 18172886.643663544 -222571.45006242767 0 0 0 0 21336589.528811455 52229994.138530731 0 52229994.138530731 -16376084.441685677 0 0 0 0 4165846.1886863708 25314957.999349594 0 25314957.999349594 -5326244.6940155029 0 0 0 0 4007440.2814462576 16492182.015017275 0 16492182.015017275 -7567656.3559125932 0 0 0 0 4971969.2649896517 12395212.928027144 0 12395212.928027144 2090373.9314856706 0 0 0 0 -87676.884745597839 85203874.906087995 0 85203874.906087995 100963416.28044891 0 0 0 0 -6327084.7321090698 8231374.4456806183 0 8231374.4456806183 52214523.61620903 0 0 0 0 -8966234.6072921753 17258760.460262299 0 17258760.460262299 72560859.073822021 0 0 0 0 5657474.3547973633 19832726.51356411 0 19832726.51356411 29405716.681200027 0 0 0 0 -45519186.658050537 3925555.8367214203 0 3925555.8367214203 26229358.651250839 0 0 0 0 -125182824.1548748 93270139.87760067 0 93270139.87760067 32129027.909416199 0 0 0 0 49696564.226287842 45017676.432264328 0 45017676.432264328 35333775.622268677 0 0 0 0 55113051.609695435 87121368.592698097 0 87121368.592698097 -156317051.55217934 0 0 0 0 -4561957.5492630005 51368288.676538467 0 51368288.676538467 -130580812.0009203 0 0 0 0 -69586780.782748222 -54992829.281787395 0 -54992829.281787395 -82686357.309188843 0 0 0 0 -11027326.526374817 36825735.178527832 0 36825735.178527832 -31923662.870851517 0 0 0 0 22506770.303710938 12622643.894254684 0 12622643.894254684 -64610737.462528229 0 0 0 0 10782510.114933014 -8896150.5013189316 0 -8896150.5013189316 19982349.637378693 0 0 0 0 41650547.729354858 9679699.7951030731 0 9679699.7951030731 -3289316.7986316681 0 0 0 0 15042178.804262161 9314802.7230839729 0 9314802.7230839729 43858.153728485107 0 0 0 0 42220110.065853119 5925832.0474586487 0 5925832.0474586487 -21618263.056419373 0 0 0 0 44015925.716339111 13068763.149263382 0 13068763.149263382 6662512.8852624893 0 0 0 0 118197685.02075958 93966338.131109238 0 93966338.131109238 48338586.24685812 0 0 0 0 26168101.64925766 13520451.451677322 0 13520451.451677322 31244202.448017836 0 0 0 0 46822179.509651184 3423176.6290121078 0 3423176.6290121078 10521059.668827057 0 0 0 0 8077508.1850436507 4304928.0352528775 0 4304928.0352528775 1867179.0699126795 0 0 0 0 47006610.299102783 923573.51756668091 0 923573.51756668091 2269375.8965978622 0 0 0 0 36831684.987689972 3599726.9081859589 0 3599726.9081859589 13291640.971225739 0 0 0 0 14225667.279076289 18175321.795543842 0 18175321.795543842 9624467.1560896765 0 0 0 0 -56126617.327648163 199290708.20552254 0 199290708.20552254 119790298.22824764 0 0 0 0 86790970.245491028 -33082016.631721497 0 -33082016.631721497 -65867117.001094818 0 0 0 0 128917240.2681942 -57637555.605937481 0 -57637555.605937481 -86859773.807817459 0 0 0 0 6089905.4298734739 1716312.5380408652 0 1716312.5380408652 -3565012.7824079972 0 0 0 0 -33313751.988937378 25535228.640224814 0 25535228.640224814 -10246981.011306286 0 0 0 0 -50898668.420822144 41550543.919081211 0 41550543.919081211 50810.248612642288 0 0 0 0 -70518964.621501923 4150218.5694158077 0 4150218.5694158077 9978985.6165103912 0 0 0 0 -7382446.1871528625 26414590.801371574 0 26414590.801371574 -14258134.12521553 0 0 0 0 4747764.0271034241 -24636709.333788395 0 -24636709.333788395 -3220380.0059390068 0 0 0 0 10599180.621807098 56300965.336538315 0 56300965.336538315 15769633.370383263 0 0 0 0 15437019.172315132 19734731.064351566 0 19734731.064351566 8725323.1782587953 0 0 0 0 19945700.588088989 43665618.671863556 0 43665618.671863556 5157782.6117095947 0 0 0 0 -8919981.1227674484 41889383.475172758 0 41889383.475172758 21554871.506993294 0 0 0 0 148403332.71414185 -119367207.14703178 0 -119367207.14703178 119948411.25479126 0 0 0 0 225851.68353930116 12667656.424434928 0 12667656.424434928 3206095.5238284431 0 0 0 0 -10853382.066741943 54432808.167316437 0 54432808.167316437 38514587.482234001 0 0 0 0 35531694.250867844 22537151.950140953 0 22537151.950140953 2802115.1678333282 0 0 0 0 47859433.445449829 6141533.8396120071 0 6141533.8396120071 -625181.58038806915 0 0 0 0 421522927.42584229 -74777274.502977371 0 -74777274.502977371 -137384402.33252096 0 0 0 0 350815086.99086761 390937962.92406988 0 390937962.92406988 -532940817.70724726 0 0 0 0 36315567.289167404 10276176.778815269 0 10276176.778815269 6836981.3093223572 0 0 0 0 32765121.32837677 19884054.52132225 0 19884054.52132225 25815752.198980331 0 0 0 0 44708668.00254631 8615464.9536447525 0 8615464.9536447525 47596527.06136322 0 0 0 0 1625485.7386086341 2363316.151699564 0 2363316.151699564 2547992.7968509942 0 0 0 0 42141874.078641891 -3337302.0037126541 0 -3337302.0037126541 31620439.084342957 0 0 0 0 63861081.470687866 7322026.5608825684 0 7322026.5608825684 13790861.543010235 0 0 0 0 17869908.301409591 7328398.3768214826 0 7328398.3768214826 -5226416.1812648103 0 0 0 0 25761570.036224365 20371835.309112549 0 20371835.309112549 19244773.044279099 0 0 0 0 52123978.316520691 16095175.137268066 0 16095175.137268066 -11246518.35471344 0 0 0 0 14330741.647150068 12910314.403879751 0 12910314.403879751 -216123.66071845265 0 0 0 0 6887413.0742273331 8762545.3644500971 0 8762545.3644500971 -4969570.7046699524 0 0 0 0 12561474.291308401 13827664.904076319 0 13827664.904076319 -2378418.4170392361 0 0 0 0 7559344.827457428 2218240.1839253902 0 2218240.1839253902 -4292691.9449027628 0 0 0 0 6609703.477016449 6314959.0479809046 0 6314959.0479809046 -8353839.8163062539 0 0 0 0 8377716.6414146423 9466813.949088335 0 9466813.949088335 -8476202.6654678583 0 0 0 0 9494153.4579925537 7157985.7278021276 0 7157985.7278021276 -12367413.804973841 0 0 0 0 5263623.3085052669 3300042.2951017916 0 3300042.2951017916 -3525401.3068398028 0 0 0 0 14873330.951315971 24920504.123500921 0 24920504.123500921 4315559.1333479993 0 0 0 0 8147467.3785839081 10385295.587138176 0 10385295.587138176 -5672021.3304456472 0 0 0 0 -40905201.648532867 -7965575.0988368988 0 -7965575.0988368988 -34397103.711936951 0 0 0 0 15308788.610490004 6400294.4742456712 0 6400294.4742456712 -11261149.27616564 0 0 0 0 14974567.03790329 4475905.1613015011 0 4475905.1613015011 -7168838.5195921231 0 0 0 0 31153440.267349243 12973932.250436783 0 12973932.250436783 -3781790.3334655762 0 0 0 0 5293761.5884666443 3259473.0593295097 0 3259473.0593295097 -5234491.8668937683 0 0 0 0 15970545.218856413 11656201.745488133 0 11656201.745488133 -3038861.6101885019 0 0 0 0 8463180.7976741791 26019191.11863327 0 26019191.11863327 -37289233.01115036 0 0 0 0 -216839.7060713172 17904861.742208958 0 17904861.742208958 -9089641.5473632812 0 0 0 0 23898585.806146622 31650144.493350983 0 31650144.493350983 -49650150.950069427 0 0 0 0 -133316.97346353531 17731657.355218887 0 17731657.355218887 -18555471.674922943 0 0 0 0 9903510.8755485304 4404357.8647655603 0 4404357.8647655603 -8772286.1234930214 0 0 0 0 16969313.183558464 -14359106.082145691 0 -14359106.082145691 -51904777.84139502 0 0 0 0 23734414.65690507 23074442.084244251 0 23074442.084244251 -13699392.698474884 0 0 0 0 15798706.799222251 7730378.3983356291 0 7730378.3983356291 -5924508.6040112432 0 0 0 0 5898181.2657672018 11053671.887948848 0 11053671.887948848 -1993189.3296712162 0 0 0 0 68013858.357056618 -26542079.807092667 0 -26542079.807092667 -34199390.975803375 0 0 0 0 2841923.3664150834 1726141.3871441856 0 1726141.3871441856 -2558524.5642219875 0 0 0 0 42680551.876033783 -13806679.499440193 0 -13806679.499440193 -28572636.5362854 0 0 0 0 17633099.899746895 16098565.560408592 0 16098565.560408592 -37351376.341394424 0 0 0 0 -7658025.2949781418 -5581900.9961776733 0 -5581900.9961776733 13856542.989652634 0 0 0 0 67854898.084648132 -38002375.641607285 0 -38002375.641607285 -12443484.858188629 0 0 0 0 67952490.004527092 11587086.937531471 0 11587086.937531471 -11956744.474744797 0 0 0 0 112347452.26239491 90350459.32774353 0 90350459.32774353 -29520699.333450317 0 0 0 0 24976966.289266638 161536924.82182407 0 161536924.82182407 1887433.2561035156 0 0 0 0 -63420130.755605012 42849392.111210585 0 42849392.111210585 -32291365.471336365 0 0 0 0 41039802.505801678 6221302.6234083176 0 6221302.6234083176 -58161296.668437958 0 0 0 0 94929221.161782265 1042058.6831130981 0 1042058.6831130981 -57691287.934085846 0 0 0 0 -40899536.04957962 60063831.388635635 0 60063831.388635635 62486274.303412437 0 0 0 0 22665586.730495453 195880367.29546928 0 195880367.29546928 5173001.9138240814 0 0 0 0 48583453.830383301 183962923.26851463 0 183962923.26851463 -232376660.81201363 0 0 0 0 -24006599.439220428 115645212.61477089 0 115645212.61477089 -14633671.106425285 0 0 0 0 39309288.704292297 44120631.488441467 0 44120631.488441467 -13178169.785307884 0 0 0 0 75630999.170852661 21956384.375011444 0 21956384.375011444 -2746999.4281992912 0 0 0 0 63684194.292682648 62995820.399087906 0 62995820.399087906 -65860551.258671284 0 0 0 0 172547914.57378578 8893635.374786377 0 8893635.374786377 -39359709.121908188 0 0 0 0 16082331.091079712 34577573.738433838 0 34577573.738433838 48047750.476318598 0 0 0 0 25637997.757432938 59829784.995165825 0 59829784.995165825 45325313.265335083 0 0 0 0 2690713.7284078342 7627996.0029029045 0 7627996.0029029045 455681.58411519974 0 0 0 0 -34057824.460342407 94192794.338476181 0 94192794.338476181 101230756.78312302 0 0 0 0 -38645447.787784576 24311369.108795166 0 24311369.108795166 157155210.11529064 0 0 0 0 -38698353.504282475 53005823.380264878 0 53005823.380264878 75202903.624763489 0 0 0 0 -256251689.13975525 195653789.68608284 0 195653789.68608284 -170691442.32644558 0 0 0 0 -6723167.8112126505 990741.5226045372 0 990741.5226045372 1855567.7156142062 0 0 0 0 -144150121.23544216 187844698.81220198 0 187844698.81220198 -176275642.50512695 0 0 0 0 18694188.41177845 -66555751.945988655 0 -66555751.945988655 -389616035.2322464 0 0 0 0 -3208653.237449646 -1580447.2157373428 0 -1580447.2157373428 -7035952.536775589 0 0 0 0 88083988.543052197 59348524.196340561 0 59348524.196340561 -225427353.94001389 0 0 0 0 -272730.86007753434 415191.91093847528 0 415191.91093847528 247874.77426905464 0 0 0 0 -785235.94029260194 629182.13700775616 0 629182.13700775616 -1255829.1411317447 0 0 0 0 -63958615.1577034 35810342.528800964 0 35810342.528800964 191836397.70424259 0 0 0 0 -152105206.65114021 234311618.52555656 0 234311618.52555656 -88045185.443008423 0 0 0 0 -155336193.1268177 20020416.02909565 0 20020416.02909565 72234167.413846254 0 0 0 0 -171107742.77023089 -88468938.059420824 0 -88468938.059420824 -121887551.71055984 0 0 0 0 -89714862.448225021 123800990.43783283 0 123800990.43783283 -351362494.76285172 0 0 0 0 246964169.00512725 162561070.20661068 0 162561070.20661068 -3067823.9411430359 0 0 0 0 120350361.92590237 40083357.327171326 0 40083357.327171326 77401655.717819214 0 0 0 0 138458444.91116142 -22098586.504852295 0 -22098586.504852295 272463938.48425555 0 0 0 0 223913842.56378508 -43503724.119647026 0 -43503724.119647026 62470701.541320801 0 0 0 0 215349466.62292576 -16491553.814766884 0 -16491553.814766884 -16668333.464752197 0 0 0 0 8100184.6231632233 -33985174.457554817 0 -33985174.457554817 37074733.5703125 0 0 0 0 82210349.989629745 -18194613.947753906 0 -18194613.947753906 -6284991.9368591309 0 0 0 0 -361460.61153549515 473300.18119469751 0 473300.18119469751 -239117.1375635392 0 0 0 0 173519691.39855099 -19293088.146500587 0 -19293088.146500587 -161760044.4278183 0 0 0 0 236005305.57972383 336181807.1386342 0 336181807.1386342 -54633568.573228836 0 0 0 0 55416938.532524109 367523050.84697151 0 367523050.84697151 229909906.7509079 0 0 0 0 -9841565.4779957607 15887187.264486186 0 15887187.264486186 -17251464.646109648 0 0 0 0 38428759.299705505 126148637.54003906 0 126148637.54003906 67181259.856239319 0 0 0 0 6672474.8012013435 -31263529.843783379 0 -31263529.843783379 -19303731.650733948 0 0 0 0 -137560374.55389023 -26891940.411817551 0 -26891940.411817551 91428805.95892334 0 0 0 0 42237579.864967346 24816068.482877731 0 24816068.482877731 8359255.294960022 0 0 0 0 31905009.714434624 46813637.591322899 0 46813637.591322899 9720150.5308609009 0 0 0 0 24062277.297834396 35742944.762840271 0 35742944.762840271 862566.96926879883 0 0 0 0 12072274.828048706 35625139.544528961 0 35625139.544528961 9179595.3133544922 0 0 0 0 -7393168.0156552214 15055546.9887677 0 15055546.9887677 -16055366.748352658 0 0 0 0 22148760.535770416 34463223.830314636 0 34463223.830314636 3782208.6140232086 0 0 0 0 -41375386.957714081 60745010.77831459 0 60745010.77831459 53479216.326396942 0 0 0 0 177365214.06667489 181273765.05064392 0 181273765.05064392 55143997.928573608 0 0 0 0 -7046839.0502574919 8833554.6166089252 0 8833554.6166089252 4978889.5263259485 0 0 0 0 -60858230.42666059 142203254.88161147 0 142203254.88161147 9188007.1869277954 0 0 0 0 243370931.57429308 21520857.51725769 0 21520857.51725769 -9308047.6542377472 0 0 0 0 1986212.4859073879 788862.80183016416 0 788862.80183016416 -1589252.6126937382 0 0 0 0 -7547663.8578858804 6140469.0299368519 0 6140469.0299368519 2864557.8695669118 0 0 0 0 187201952.71752739 50884924.083240509 0 50884924.083240509 9739634.2054634094 0 0 0 0 243479856.40949607 123831638.66283607 0 123831638.66283607 95357006.806022644 0 0 0 0 9605613.3515701294 28727935.089912415 0 28727935.089912415 -2428545.9206466675 0 0 0 0 -4976703.8279174631 16895487.068953395 0 16895487.068953395 -7271967.1139202053 0 0 0 0 -25829831.045161247 51521451.68333149 0 51521451.68333149 32705810.255382538 0 0 0 0 -129766258.17018461 -3362531.3498659134 0 -3362531.3498659134 55110238.160190582 0 0 0 0 196549836.38563538 75460887.908010483 0 75460887.908010483 -39471398.593250275 0 0 0 0 -2126230.1585442219 1335931.1942918401 0 1335931.1942918401 634596.94386637956 0 0 0 0 181985567.15458083 29283604.482871056 0 29283604.482871056 -49880384.716506958 0 0 0 0 23823782.25808382 -6331228.2106018066 0 -6331228.2106018066 -11724128.765274048 0 0 0 0 174139497.76270223 -28480225.691476822 0 -28480225.691476822 -42320477.135574341 0 0 0 0 151443097.42289925 50751972.049921036 0 50751972.049921036 24700757.385868073 0 0 0 0 3142399.2807807922 27230388.785057068 0 27230388.785057068 -63421.46422958374 0 0 0 0 2373543.931476593 28785083.713195801 0 28785083.713195801 -423777.79809856415 0 0 0 0 11385516.37537384 35062155.275279999 0 35062155.275279999 3871643.5696105957 0 0 0 0 1078070.1446003914 36672742.013784885 0 36672742.013784885 8373033.612411499 0 0 0 0 1302810.4912033081 35091696.426380157 0 35091696.426380157 6969508.7793693542 0 0 0 0 11517686.566859484 40160375.081050158 0 40160375.081050158 8981563.81590271 0 0 0 0 -1338317.5913696289 34354561.577926636 0 34354561.577926636 16680403.264041901 0 0 0 0 -458834.52756500244 35108769.810352325 0 35108769.810352325 6387137.9205818176 0 0 0 0 -1667240.729224205 33598935.786898613 0 33598935.786898613 6383306.4320144653 0 0 0 0 -10119272.464372635 37407565.954193115 0 37407565.954193115 12302832.778701782 0 0 0 0 -3844660.83203125 39341165.103378296 0 39341165.103378296 7422073.4127120972 0 0 0 0 -8810140.1808853149 31114710.992618561 0 31114710.992618561 26633489.754981995 0 0 0 0 -24400920.109912872 51125987.151027679 0 51125987.151027679 10432146.334842682 0 0 0 0 780692.31248855591 41779302.851214409 0 41779302.851214409 -5947795.0702590942 0 0 0 0 44712.734923435375 179997.81498630531 0 179997.81498630531 320229.55628106371 0 0 0 0 -23029608.241939545 31070733.091819763 0 31070733.091819763 47751591.048126221 0 0 0 0 -8363575.677570343 63385359.734539032 0 63385359.734539032 674469.83003616333 0 0 0 0 13106895.32519722 29660961.020853043 0 29660961.020853043 39335432.826515198 0 0 0 0 4828222.0386619568 12207278.226987839 0 12207278.226987839 31957749.284778595 0 0 0 0 -8476929.5181789398 26949237.65908432 0 26949237.65908432 19443937.527412415 0 0 0 0 5833857.1339111328 14721934.064804077 0 14721934.064804077 12084961.563930511 0 0 0 0 -3282921.7139816284 26505153.166988373 0 26505153.166988373 7639784.1040153503 0 0 0 0 -5235474.8475151062 34918530.86441803 0 34918530.86441803 13136439.962387085 0 0 0 0 -64591.802438735962 30343463.385858536 0 30343463.385858536 12188498.430644989 0 0 0 0 -2067854.0839653015 22323281.899971008 0 22323281.899971008 21284625.158477783 0 0 0 0 -85553059.347770691 -20190103.14276886 0 -20190103.14276886 43359221.411714554 0 0 0 0 6011491.4876933098 22895196.990272045 0 22895196.990272045 10898027.848144531 0 0 0 0 19226448.890331268 21588381.099155426 0 21588381.099155426 20207782.4432621 0 0 0 0 3305626.0508804321 27170345.387428284 0 27170345.387428284 36945395.78075552 0 0 0 0 6041196.1872062683 29357706.157526016 0 29357706.157526016 15984975.87677002 0 0 0 0 9644198.4000473022 13757407.557638168 0 13757407.557638168 32962450.598648071 0 0 0 0 7336628.4167747498 972750.44802093506 0 972750.44802093506 8949581.513458252 0 0 0 0 7918275.5115432739 24700111.345756531 0 24700111.345756531 30491883.303081512 0 0 0 0 402002.4642948769 420338.89809508808 0 420338.89809508808 553563.40764139593 0 0 0 0 251741.2914148327 589970.9611293748 0 589970.9611293748 1019672.4807196371 0 0 0 0 15781583.523658752 14542506.830951691 0 14542506.830951691 22433128.123317719 0 0 0 0 4154255.9765357971 16000878.945964813 0 16000878.945964813 22500095.283500671 0 0 0 0 19098412.349220276 14400585.074253082 0 14400585.074253082 24212531.149963379 0 0 0 0 3471776.7150535583 19291299.791782379 0 19291299.791782379 22725093.660053253 0 0 0 0 12128629.054272175 30567116.319457054 0 30567116.319457054 43509659.772094727 0 0 0 0 664543.21366945095 1175714.6466813311 0 1175714.6466813311 2044270.0423358772 0 0 0 0 1434618.7697955202 1519367.865739489 0 1519367.865739489 1844793.8043162972 0 0 0 0 6231778.2940518856 3846360.5819783211 0 3846360.5819783211 23107907.842773438 0 0 0 0 1349450.4277159423 2145214.9371782355 0 2145214.9371782355 3808909.8427229896 0 0 0 0 11831116.759854317 31173160.217115402 0 31173160.217115402 36829519.959159851 0 0 0 0 3493096.9050827026 7106041.7818031311 0 7106041.7818031311 31257380.112651825 0 0 0 0 11031372.50353241 29498624.899795532 0 29498624.899795532 22916325.209220886 0 0 0 0 14022179.954223633 15234239.715164185 0 15234239.715164185 28353014.265525818 0 0 0 0 -42391613.261322021 83314924.064014435 0 83314924.064014435 115579857.15387344 0 0 0 0 10175378.355400085 25472761.098243952 0 25472761.098243952 13445907.674355984 0 0 0 0 14588497.642692566 22200140.81747818 0 22200140.81747818 22117243.934864044 0 0 0 0 7001797.8342437744 21605161.415519953 0 21605161.415519953 14127944.031760454 0 0 0 0 20116420.089393616 16602791.524356842 0 16602791.524356842 1440983.5208435059 0 0 0 0 11890181.244218316 14595255.003351841 0 14595255.003351841 -3614437.387220772 0 0 0 0 5859355.0457687378 19150366.36508131 0 19150366.36508131 11047672.138783455 0 0 0 0 9643984.5487833023 12600344.81865038 0 12600344.81865038 16905741.352830172 0 0 0 0 16584044.391571045 12715715.186115265 0 12715715.186115265 -173007.8285484314 0 0 0 0 9928008.1977326795 15074915.663554877 0 15074915.663554877 -2601574.9618679341 0 0 0 0 8256778.8919296265 18221664.93680048 0 18221664.93680048 10711909.282619953 0 0 0 0 8196865.812335968 17018774.356401443 0 17018774.356401443 3986914.8337535858 0 0 0 0 2083567.3119812012 13398358.057068825 0 13398358.057068825 9441880.7320904732 0 0 0 0 8043975.7920045853 13310488.563967228 0 13310488.563967228 -8632920.5855894089 0 0 0 0 1616655.4558753967 12165540.857903481 0 12165540.857903481 1189880.1515221596 0 0 0 0 4112561.6249389648 18715132.317036629 0 18715132.317036629 -3644671.8192491531 0 0 0 0 5965876.4584999084 14614725.261441231 0 14614725.261441231 -12107679.262936592 0 0 0 0 11177815.479675293 18833595.203129292 0 18833595.203129292 7644499.2598237991 0 0 0 0 1421751.2057876587 14934010.935450554 0 14934010.935450554 6778848.7393305302 0 0 0 0 5651607.4053955078 16978735.664640427 0 16978735.664640427 2004314.098236084 0 0 0 0 6099611.061044693 19662524.134826541 0 19662524.134826541 3117670.7031974792 0 0 0 0 1193347.627456665 13447707.356656075 0 13447707.356656075 79433.935842514038 0 0 0 0 2484684.1349945068 17046151.692316055 0 17046151.692316055 2869952.0980262756 0 0 0 0 5994547.7739257812 18772081.538068771 0 18772081.538068771 2270483.6220407486 0 0 0 0 10549466.840511091 6739205.3466084227 0 6739205.3466084227 -3708325.2833823175 0 0 0 0 3307943.7795181274 19361464.940020561 0 19361464.940020561 12471795.06462276 0 0 0 0 3375131.8262939453 15255077.888923168 0 15255077.888923168 5582957.4904289246 0 0 0 0 7852312.0196609497 15054112.152285099 0 15054112.152285099 13143745.139051557 0 0 0 0 7272638.602645874 12898002.734680176 0 12898002.734680176 12741742.871272922 0 0 0 0 6264446.2076759338 13812446.31375134 0 13812446.31375134 19182983.811511278 0 0 0 0 1391080.8176994324 21147282.665298462 0 21147282.665298462 7069411.4341478348 0 0 0 0 6407236.099193573 12193319.537252903 0 12193319.537252903 15729251.588965178 0 0 0 0 5995060.7369052358 15520500.996235983 0 15520500.996235983 -4267965.8675338216 0 0 0 0 2639728.121799469 20613337.008350372 0 20613337.008350372 3470874.3125 0 0 0 0 8286156.1666164398 16459132.328952789 0 16459132.328952789 6546312.1625862122 0 0 0 0 7963101.5783573892 15242497.618903304 0 15242497.618903304 -2797372.691652026 0 0 0 0 7681483.0149536133 10482218.404820919 0 10482218.404820919 15976555.938375928 0 0 0 0 7738513.4794006348 14719756.644832134 0 14719756.644832134 8924093.7381563187 0 0 0 0 8382339.6782150269 11202792.36382556 0 11202792.36382556 11016188.342371464 0 0 0 0 4929872.9418258667 11336411.080018997 0 11336411.080018997 7479534.3869249821 0 0 0 0 6821258.4322662354 10410570.881017685 0 10410570.881017685 -3402594.0230083466 0 0 0 0 8766052.6348838806 14560120.438095093 0 14560120.438095093 3191.7625498771667 0 0 0 0 5480993.0321742184 9410936.8195709325 0 9410936.8195709325 -8391181.4420086443 0 0 0 0 100576794.42714691 82971394.466030121 0 82971394.466030121 17790873.622621536 0 0 0 0 8723574.2497901917 15388655.721060753 0 15388655.721060753 5218882.515639782 0 0 0 0 7993207.5123338699 13132631.00919795 0 13132631.00919795 3688531.7145957947 0 0 0 0 78266144.325241089 170165553.2993679 0 170165553.2993679 55889741.865451813 0 0 0 0 5795028.60883894 10151202.521205608 0 10151202.521205608 -5392432.8601408284 0 0 0 0 110708600.47478867 40788179.30413723 0 40788179.30413723 -70980076.97095871 0 0 0 0 64111147.327827454 38023570.416391373 0 38023570.416391373 30188026.162217617 0 0 0 0 36796394.523300171 24142576.362845421 0 24142576.362845421 -5080556.564743042 0 0 0 0 53641566.133079529 6630762.0974283218 0 6630762.0974283218 -28743715.283306122 0 0 0 0 24599880.96762085 13506370.162469864 0 13506370.162469864 -28011131.241149902 0 0 0 0 31727353.110374451 -1075325.7237863541 0 -1075325.7237863541 2699348.1341123581 0 0 0 0 682260.71460242942 260410.12492205761 0 260410.12492205761 -1394591.5173445232 0 0 0 0 55873712.958312988 16855897.780366898 0 16855897.780366898 -19371308.140314102 0 0 0 0 57761221.14874649 5924464.1623141766 0 5924464.1623141766 18078233.258964539 0 0 0 0 99548356.676338196 58031793.333061218 0 58031793.333061218 -5843038.4274792671 0 0 0 0 93004265.084632874 7984624.2122573853 0 7984624.2122573853 -10302088.688770294 0 0 0 0 62945544.84141922 20431306.59246254 0 20431306.59246254 -42906150.693906784 0 0 0 0 81493353.440728664 27728325.138802469 0 27728325.138802469 -77637714.639278412 0 0 0 0 81378913.437797546 26585571.802968979 0 26585571.802968979 -14703961.491336823 0 0 0 0 5033857.9122848511 13388085.949440956 0 13388085.949440956 -4491930.4420776367 0 0 0 0 -261927.04471629485 771455.72459137812 0 771455.72459137812 -1473415.9582939949 0 0 0 0 5337823.3520474192 9843278.7043270934 0 9843278.7043270934 -9017009.7883616742 0 0 0 0 61690686.031467438 4680702.2869062424 0 4680702.2869062424 -17468694.648815155 0 0 0 0 7012156.8509597778 15917246.034266949 0 15917246.034266949 -9940107.1544446945 0 0 0 0 22714642.995761871 19816922.708010674 0 19816922.708010674 -37181696.357543945 0 0 0 0 2665472.1150458269 3804131.6485628979 0 3804131.6485628979 -4930902.4181947075 0 0 0 0 2225646.6337882876 7764109.1927902065 0 7764109.1927902065 -2950726.3361183149 0 0 0 0 -2237114.0773544312 3829908.4190063477 0 3829908.4190063477 -15924501.387290955 0 0 0 0 13360116.575995922 -6692920.4835339785 0 -6692920.4835339785 -9015477.4120254517 0 0 0 0 58746326.053730011 68284677.120516777 0 68284677.120516777 42719119.019031525 0 0 0 0 132291101.56384277 -27197444.697422028 0 -27197444.697422028 -73051134.628000736 0 0 0 0 -80480107.306121826 -38178375.961154938 0 -38178375.961154938 -95212.218614578247 0 0 0 0 663891.36327596009 1022405.8898160332 0 1022405.8898160332 -1321306.9396422892 0 0 0 0 16894037.248023987 28829138.019824982 0 28829138.019824982 10792515.564393997 0 0 0 0 76255894.650512695 46889952.352867126 0 46889952.352867126 -9861702.3530845642 0 0 0 0 69642804.111339569 41853010.054316521 0 41853010.054316521 -13494808.365242004 0 0 0 0 44648277.466012955 -10360494.922986031 0 -10360494.922986031 -16201302.036205292 0 0 0 0 82605568.708847046 38289269.36702919 0 38289269.36702919 -15152796.843048096 0 0 0 0 -7472611.6785888672 6275353.3657073975 0 6275353.3657073975 -6699522.915019989 0 0 0 0 -2195030.895029895 2726182.0871497113 0 2726182.0871497113 -1288690.404423425 0 0 0 0 -10932108.77472496 14179752.377150059 0 14179752.377150059 -12706740.429550171 0 0 0 0 -13934414.918739319 5899588.8456630707 0 5899588.8456630707 215841.09944820404 0 0 0 0 -14170625.878341675 156037731.26696777 0 156037731.26696777 -42490632.198543549 0 0 0 0 18253293.504997253 33652544.854190826 0 33652544.854190826 -49834759.93129921 0 0 0 0 -769168.55211227387 1408805.5544841979 0 1408805.5544841979 -358524.40544478153 0 0 0 0 -96596324.31489563 -29280891.884670258 0 -29280891.884670258 138445572.04173279 0 0 0 0 82837959.027999163 70156537.80227685 0 70156537.80227685 19779287.519908905 0 0 0 0 135192366.24536896 76746325.904388428 0 76746325.904388428 12850865.086452484 0 0 0 0 -84237280.250282288 -31022731.259178162 0 -31022731.259178162 38196638.425758362 0 0 0 0 110607161.97848511 10043614.49679184 0 10043614.49679184 -12688792.51804924 0 0 0 0 -907408.74494934827 868969.91657519527 0 868969.91657519527 -142641.76318747643 0 0 0 0 -126045913.8762207 75116381.483879089 0 75116381.483879089 111533975.15446091 0 0 0 0 107806146.53826904 224770730.72394943 0 224770730.72394943 159983236.59370041 0 0 0 0 227883050.55810547 -66941584.703491211 0 -66941584.703491211 120376190.50474238 0 0 0 0 72032436.886314392 101378185.70101929 0 101378185.70101929 131538787.31374359 0 0 0 0 1032776.9297658596 737145.2610653257 0 737145.2610653257 -1951465.492616985 0 0 0 0 -21855675.708389282 41228396.436473846 0 41228396.436473846 108942857.4475441 0 0 0 0 -21545210.052230835 -3964346.3692569733 0 -3964346.3692569733 42910180.031841278 0 0 0 0 8235498.1239833832 2074845.4559762478 0 2074845.4559762478 -2659357.9456787109 0 0 0 0 54188896.386259079 43884761.485393524 0 43884761.485393524 17679526.83732605 0 0 0 0 2108504.2185745239 -3952716.1356639862 0 -3952716.1356639862 4522672.5520553589 0 0 0 0 5751367.922958374 -4427760.4217681885 0 -4427760.4217681885 76859.102973937988 0 0 0 0 4390677.9123916626 -2381988.8400297165 0 -2381988.8400297165 -2938341.0528717041 0 0 0 0 6480900.7381515503 5696743.125497818 0 5696743.125497818 6298023.0673127174 0 0 0 0 31975288.7552948 30518470.260232925 0 30518470.260232925 2752885.7990112305 0 0 0 0 55010654.413497925 47534817.552597046 0 47534817.552597046 -16761344.552688599 0 0 0 0 71983338.988567352 52741038.38298893 0 52741038.38298893 -9833477.2502670288 0 0 0 0 56042897.95199585 43892727.27495575 0 43892727.27495575 -5408543.0242478848 0 0 0 0 52020772.367660522 40088878.647951126 0 40088878.647951126 -7917697.1335830688 0 0 0 0 55469357.563934326 31804634.219882965 0 31804634.219882965 -27320066.969650269 0 0 0 0 -10438277.820037842 38941573.620267868 0 38941573.620267868 12033396.628713131 0 0 0 0 26764904.681167603 36591692.101951838 0 36591692.101951838 7822740.5985257626 0 0 0 0 14208101.580410004 70214849.860941529 0 70214849.860941529 38916053.76625824 0 0 0 0 35142597.967956543 39045805.824361861 0 39045805.824361861 -58309817.767093658 0 0 0 0 -9361093.9978065491 43472754.88444373 0 43472754.88444373 -56904486.259493828 0 0 0 0 24464749.035720825 40714813.513879895 0 40714813.513879895 -126872773.35432982 0 0 0 0 26250993.072753906 16343743.259764433 0 16343743.259764433 -34010348.597245023 0 0 0 0 -11039914.08537674 116165095.80328047 0 116165095.80328047 -62354231.178017855 0 0 0 0 -43339610.301010132 31355330.652422786 0 31355330.652422786 -33737005.729294777 0 0 0 0 -4651242.5750427246 59147839.351416349 0 59147839.351416349 24696113.033782005 0 0 0 0 31457899.129692078 46728048.391244888 0 46728048.391244888 26040475.468313217 0 0 0 0 -1942580.069988139 1295793.0443921536 0 1295793.0443921536 -510424.03161134338 0 0 0 0 -35102689.580535889 25173540.73261404 0 25173540.73261404 -8287131.4257235527 0 0 0 0 -6554887.9192352295 -6448361.7929530144 0 -6448361.7929530144 374834.74834918976 0 0 0 0 -65875098.6469841 39919383.239205092 0 39919383.239205092 2713211.5181570053 0 0 0 0 -50824015.431594849 496731.43880701065 0 496731.43880701065 21982402.414737463 0 0 0 0 508793.26037232205 9075806.0491627827 0 9075806.0491627827 1978486.338833302 0 0 0 0 -3361281.6527481079 10055852.332781792 0 10055852.332781792 -11031982.882471085 0 0 0 0 9130854.151827842 4761222.3328839503 0 4761222.3328839503 -6475323.8904498182 0 0 0 0 57812442.478847504 109334309.93099129 0 109334309.93099129 -70402863.927206039 0 0 0 0 2661594.9097473919 7870782.7428449169 0 7870782.7428449169 -2203644.868842707 0 0 0 0 115812.01866149902 5851151.8172450066 0 5851151.8172450066 -6217098.3762273788 0 0 0 0 2118.9275512695312 6071818.2311792374 0 6071818.2311792374 -4978894.1721119881 0 0 0 0 5273058.6279898956 7833344.429201331 0 7833344.429201331 -4402553.2150148395 0 0 0 0 81274.645797729492 6606730.1181073189 0 6606730.1181073189 -5810438.1061692238 0 0 0 0 53075.825653076172 6532659.3876132965 0 6532659.3876132965 -5249025.2808184624 0 0 0 0 434614.48080062121 5664278.6532925256 0 5664278.6532925256 -2752703.4035694478 0 0 0 0 -6312917.8410339355 12715499.361028194 0 12715499.361028194 -9144090.3149852753 0 0 0 0 2156455.7310180664 5762903.9666290283 0 5762903.9666290283 214191.01085281372 0 0 0 0 -2762755.5507066958 4435249.3950791806 0 4435249.3950791806 -1163027.5429301155 0 0 0 0 30886894.23210144 -13253224.839454651 0 -13253224.839454651 -222136275.981143 0 0 0 0 -53214767.762649536 265334706.00920868 0 265334706.00920868 233823653.42224121 0 0 0 0 327561942.88398743 -210811455.87748814 0 -210811455.87748814 -119491214.38396835 0 0 0 0 -197221210.67022705 -114335086.29675102 0 -114335086.29675102 247612769.58566284 0 0 0 0 -241976388.8379364 6176411.6869411469 0 6176411.6869411469 63188657.517482758 0 0 0 0 -32377.05387878418 2399344.6962938309 0 2399344.6962938309 -710050.26253700256 0 0 0 0 -1258294.9000557959 3857831.1165183727 0 3857831.1165183727 -2678182.8357755076 0 0 0 0 -64242514.231079102 -15666885.888252258 0 -15666885.888252258 -82030983.460098267 0 0 0 0 222841.86905288696 2929228.4402854443 0 2929228.4402854443 -1075995.4160146713 0 0 0 0 -5584072.1499691233 3228314.2464334071 0 3228314.2464334071 -601812.43758206535 0 0 0 0 227705.02526855469 3243177.4594306946 0 3243177.4594306946 -334173.97559356689 0 0 0 0 -1398815.4455412626 7397909.2403718103 0 7397909.2403718103 -3096708.3036986128 0 0 0 0 1084033.0939892642 6486654.1561405621 0 6486654.1561405621 -2741812.5520134587 0 0 0 0 -7891567.9282805175 4740722.4020024613 0 4740722.4020024613 -225297.7916725073 0 0 0 0 876771.17327880859 5540560.617193222 0 5540560.617193222 445517.44276618958 0 0 0 0 2021722.7897186279 5638064.9654598236 0 5638064.9654598236 427631.89161300659 0 0 0 0 -9373562.9104631245 8251517.2938378341 0 8251517.2938378341 -1891793.3937433707 0 0 0 0 4773749.2702636719 3320886.8188734055 0 3320886.8188734055 -43053.17045879364 0 0 0 0 -1505522.2529903054 4332832.2860057214 0 4332832.2860057214 -2073328.1055382213 0 0 0 0 -6274226.8745530248 5523670.7893908843 0 5523670.7893908843 -1162916.9144281026 0 0 0 0 -1403364.0625724792 4101402.7612998486 0 4101402.7612998486 -1019858.2420825958 0 0 0 0 2451474.7036209106 37766694.230554581 0 37766694.230554581 24464239.234616756 0 0 0 0 -1458730.9189147949 3412492.4615755081 0 3412492.4615755081 241401.34725666046 0 0 0 0 513560.95127846673 2377641.572668815 0 2377641.572668815 -1125524.7558594323 0 0 0 0 -2001580.9413318634 2885162.7111153603 0 2885162.7111153603 -74140.450213432312 0 0 0 0 -576591.42087490857 1529212.6495865071 0 1529212.6495865071 -212581.9383596137 0 0 0 0 -7318287.1785583496 38179186.337193489 0 38179186.337193489 63305554.057518959 0 0 0 0 -6126142.8027038574 60369835.506690502 0 60369835.506690502 160731957.9215374 0 0 0 0 36592362.197433472 308896346.26598072 0 308896346.26598072 -543454401.77652121 0 0 0 0 40715954.287994385 355133999.69257832 0 355133999.69257832 -422766970.78309441 0 0 0 0 -336605.83268737793 202024650.41464496 0 202024650.41464496 -391129433.78289032 0 0 0 0 -88829674.331939697 189378151.56677818 0 189378151.56677818 -382252892.26485252 0 0 0 0 -343608.77309755981 2480266.4046850735 0 2480266.4046850735 -905386.87818398513 0 0 0 0 -69759283.480743408 258106392.91652966 0 258106392.91652966 -436337037.8132019 0 0 0 0 -93245277.869674683 239243696.17222023 0 239243696.17222023 -234414896.17618465 0 0 0 0 163009282.30180359 108741444.72822762 0 108741444.72822762 -323651504.16220856 0 0 0 0 369641.54471414164 66985.886363072321 0 66985.886363072321 -286944.99484298006 0 0 0 0 -25564850.836349487 183292318.70514584 0 183292318.70514584 -195056108.12371826 0 0 0 0 -372632132.35215759 326112785.13818073 0 326112785.13818073 -222437089.85248566 0 0 0 0 -85838083.905311584 461271805.14682674 0 461271805.14682674 -366416028.28075409 0 0 0 0 -389862462.06123352 610000458.75725269 0 610000458.75725269 -407393671.24746752 0 0 0 0 -139147055.35907936 62999401.371039867 0 62999401.371039867 -234219255.59968853 0 0 0 0 -44699984.914821625 123854476.52915287 0 123854476.52915287 -196295344.46895599 0 0 0 0 -106976868.5462532 -2783201.4889712334 0 -2783201.4889712334 25639042.106695175 0 0 0 0 1851869.1935269572 2854118.310646249 0 2854118.310646249 -2268369.0427680314 0 0 0 0 -214113275.60326385 111752355.20534658 0 111752355.20534658 -26988366.74133873 0 0 0 0 426338303.95661926 335733458.24461937 0 335733458.24461937 -318949906.51672745 0 0 0 0 8209176.5691795349 11553279.897454262 0 11553279.897454262 -3793348.1813151836 0 0 0 0 -85678.176789309829 3739798.0377646158 0 3739798.0377646158 -893181.7349012401 0 0 0 0 4281286.1248550415 15596308.348462105 0 15596308.348462105 6614217.6026573181 0 0 0 0 1501278.8995097689 3363827.4695787318 0 3363827.4695787318 -3570417.7487425832 0 0 0 0 1259493.9863281026 3006534.0191829819 0 3006534.0191829819 -2752929.5881854501 0 0 0 0 63368799.730270386 -3555742.6371970177 0 -3555742.6371970177 -26644215.810800552 0 0 0 0 -438855648.43013 509458295.30248022 0 509458295.30248022 -270094621.82203674 0 0 0 0 -510862755.33573151 466236305.36961937 0 466236305.36961937 -286347188.05056477 0 0 0 0 -478846759.22286224 275594001.17568398 0 275594001.17568398 157720746.71736145 0 0 0 0 -507493572.85351562 104843037.86235046 0 104843037.86235046 -203492112.69246864 0 0 0 0 -415866798.35434723 532818268.10294771 0 532818268.10294771 -462156830.89160538 0 0 0 0 122337403.48371887 614859240.82155418 0 614859240.82155418 -634327603.70361519 0 0 0 0 -241225.63384764455 657062.72166113928 0 657062.72166113928 -777033.81429713499 0 0 0 0 686876577.06111145 381890145.67645884 0 381890145.67645884 -550301395.38558102 0 0 0 0 -629792085.70241165 580431275.56208229 0 580431275.56208229 -63344278.82733345 0 0 0 0 4528236.9597549438 272399476.70891857 0 272399476.70891857 282195940.9836688 0 0 0 0 418323592.95679474 -38263176.094259739 0 -38263176.094259739 -106726013.56622314 0 0 0 0 347337457.73294067 245031900.49384594 0 245031900.49384594 -530332830.01800776 0 0 0 0 100094165.23447037 255313560.13144636 0 255313560.13144636 -355466957.25658035 0 0 0 0 -37438102.451698303 68581702.745624542 0 68581702.745624542 -67824393.800089836 0 0 0 0 -52265861.259262085 11800260.080682755 0 11800260.080682755 -3014003.0832099915 0 0 0 0 395642.30614942312 578419.44034814648 0 578419.44034814648 -571264.66223977134 0 0 0 0 1708524.2357401513 342876.35718916915 0 342876.35718916915 -157078.94289177004 0 0 0 0 1684870.9803161621 855364.75859451294 0 855364.75859451294 -2765913.6888122559 0 0 0 0 1281762.0233459473 887301.89440727234 0 887301.89440727234 -1897586.899433136 0 0 0 0 1762559.470539093 515060.64820551872 0 515060.64820551872 -2110157.5650863647 0 0 0 0 1591989.5901603699 156087.60618972778 0 156087.60618972778 -696748.74196243286 0 0 0 0 2217133.0800901353 -208770.52223807387 0 -208770.52223807387 -675363.4884749921 0 0 0 0 1898316.2289199829 -86615.315771102905 0 -86615.315771102905 -1621845.6845397949 0 0 0 0 844834.09832763672 251263.20227813721 0 251263.20227813721 -1191395.415599823 0 0 0 0 2178040.7382619977 116618.77877554856 0 116618.77877554856 -799565.20168572105 0 0 0 0 894698.67156982422 194092.02458190918 0 194092.02458190918 -2217468.7477111816 0 0 0 0 194264.26917648315 1244468.3908729553 0 1244468.3908729553 -2672158.3773498535 0 0 0 0 2247926.6349182129 -86149.279136657715 0 -86149.279136657715 -3164244.912197113 0 0 0 0 46702.137272853404 -7039.3428106699139 0 -7039.3428106699139 -19131.342526234686 0 0 0 0 139326170.99565125 7748042.8030891418 0 7748042.8030891418 -55649128.488594055 0 0 0 0 818310.42629241943 1717903.8441505432 0 1717903.8441505432 -3534209.6654243469 0 0 0 0 920451.18725585938 1610597.6756849289 0 1610597.6756849289 -3534215.7852935791 0 0 0 0 2142130.6158424132 -44490.901697337627 0 -44490.901697337627 -309046.90228888299 0 0 0 0 961189.57034387067 2178664.7048074733 0 2178664.7048074733 -1054763.1245714205 0 0 0 0 73153864.111152649 72103541.427370071 0 72103541.427370071 -2394236.7430877686 0 0 0 0 31218328.817749023 57385030.080635071 0 57385030.080635071 111490528.74110413 0 0 0 0 -82703324.101848602 54850034.523652554 0 54850034.523652554 -25829144.158988953 0 0 0 0 -173052420.94680786 245319591.82399368 0 245319591.82399368 -334574577.52211761 0 0 0 0 -2147.8782713077962 133989.41525741294 0 133989.41525741294 -53330.600365709979 0 0 0 0 64764252.838287354 99649732.450614929 0 99649732.450614929 91703966.998447418 0 0 0 0 -87323028.94764328 -102232682.73610878 0 -102232682.73610878 -328481299.09292984 0 0 0 0 183829871.98712158 55167772.486251831 0 55167772.486251831 -238798911.5904541 0 0 0 0 -135413314.38521576 25186487.773983002 0 25186487.773983002 301139053.49352551 0 0 0 0 -30095153.102050781 77589206.468902588 0 77589206.468902588 -179854128.07107544 0 0 0 0 121377.45665442944 1031116.4227873236 0 1031116.4227873236 -343957.43850824214 0 0 0 0 803725.63105109707 825830.57769485749 0 825830.57769485749 -11664.81850531837 0 0 0 0 -38832116.768493652 -33984090.495635986 0 -33984090.495635986 132292910.17807007 0 0 0 0 -247730804.13209534 -438877832.62281942 0 -438877832.62281942 56680804.659042358 0 0 0 0 271886678.14149475 45419550.337526321 0 45419550.337526321 -52933108.590187073 0 0 0 0 26739294.782226562 52595419.706096649 0 52595419.706096649 44205509.845527649 0 0 0 0 51114833.461166382 16654019.335074425 0 16654019.335074425 -12688045.532772064 0 0 0 0 100190171.88262939 42809384.490537643 0 42809384.490537643 -35929363.649593353 0 0 0 0 33945928.332702637 -7132319.4723434448 0 -7132319.4723434448 -39707945.033609867 0 0 0 0 45863680.811691284 23852080.499448776 0 23852080.499448776 -51466943.934143066 0 0 0 0 50719585.498512268 9068463.7392902374 0 9068463.7392902374 -39253849.631984234 0 0 0 0 -13717679.096542358 75010137.416549683 0 75010137.416549683 -81831979.372913361 0 0 0 0 17694853.125968933 14015287.349433899 0 14015287.349433899 -43648247.011508942 0 0 0 0 3851335.1039047241 51321401.21350956 0 51321401.21350956 -61481368.727294922 0 0 0 0 35166250.619873047 14454082.314136505 0 14454082.314136505 -58953829.882328033 0 0 0 0 28074040.904327393 22512603.099897385 0 22512603.099897385 -37273307.54132843 0 0 0 0 32467315.434692383 -27279432.971442223 0 -27279432.971442223 -45033273.464931488 0 0 0 0 34633107.768287659 -897906.03041315079 0 -897906.03041315079 23601437.133390427 0 0 0 0 62353114.208789825 33899719.977781296 0 33899719.977781296 92058409.199489594 0 0 0 0 6845373.0751075745 50615854.281115055 0 50615854.281115055 87113092.215238571 0 0 0 0 15971213.876168251 56536023.87456128 0 56536023.87456128 -140909438.47524261 0 0 0 0 -77225080.540924072 -62320471.26427269 0 -62320471.26427269 -42177047.098093033 0 0 0 0 13277675.540769577 85679645.633677959 0 85679645.633677959 33431493.3788414 0 0 0 0 -25745080.190289497 119027701.32979035 0 119027701.32979035 3774922.6250534058 0 0 0 0 58655328.895378113 -22209289.272147179 0 -22209289.272147179 -193294389.97070122 0 0 0 0 133721578.99437714 269629308.31099606 0 269629308.31099606 250905852.74937773 0 0 0 0 174200770.86277771 186219740.8064785 0 186219740.8064785 146352002.44358158 0 0 0 0 59348758.328542709 153450850.49373019 0 153450850.49373019 262038114.51631927 0 0 0 0 72227503.261764526 44556476.728500366 0 44556476.728500366 57885173.497444153 0 0 0 0 6756798.6289825439 432349.77306747437 0 432349.77306747437 -5641365.5544023514 0 0 0 0 6091082.5509338379 4788065.1677970886 0 4788065.1677970886 -4136476.2357254028 0 0 0 0 1243184.0480575562 -1948362.0502471924 0 -1948362.0502471924 -3695314.3877668381 0 0 0 0 209706680.19216919 86751734.896371841 0 86751734.896371841 225888630.5928154 0 0 0 0 1519143.7880122624 681569.25408669468 0 681569.25408669468 -1398344.5375405578 0 0 0 0 284896464.17770386 226264642.45281982 0 226264642.45281982 177171264.21504974 0 0 0 0 141188266.89394379 170998962.37733459 0 170998962.37733459 221722279.16485596 0 0 0 0 249156500.20915222 260377605.86023331 0 260377605.86023331 295701010.34649658 0 0 0 0 83253.228703249246 49029.921449081972 0 49029.921449081972 -63877.065332720987 0 0 0 0 342720547.84020233 11406182.843997955 0 11406182.843997955 258981779.18486023 0 0 0 0 -54832807.513000488 81963450.652622223 0 81963450.652622223 35728250.190940857 0 0 0 0 169395890.26855469 339506293.10769653 0 339506293.10769653 75112269.591682434 0 0 0 0 139664005.28542328 43539827.690519333 0 43539827.690519333 40159618.54296875 0 0 0 0 232560775.41439056 242557324.89517498 0 242557324.89517498 112566686.29243088 0 0 0 0 12216436.90007019 21385308.893535614 0 21385308.893535614 46155056.071640015 0 0 0 0 18905463.725578308 23271605.64465332 0 23271605.64465332 45272391.94379425 0 0 0 0 12130263.091705322 25064958.401878357 0 25064958.401878357 47139557.315364838 0 0 0 0 16396851.499603271 22817287.433130264 0 22817287.433130264 46507968.312351227 0 0 0 0 9943173.5465393066 7644307.6775474548 0 7644307.6775474548 121874.62286567688 0 0 0 0 3110003.478509903 5436328.6804509163 0 5436328.6804509163 2376680.5281524658 0 0 0 0 2809389.0555877686 1779493.7358436584 0 1779493.7358436584 1356748.1014175415 0 0 0 0 4616605.3271026611 1659543.3405342102 0 1659543.3405342102 -3676432.5627632141 0 0 0 0 -13839108.937698364 15418685.907299042 0 15418685.907299042 -9642386.5793352127 0 0 0 0 3986668.3225326538 907931.64986801147 0 907931.64986801147 -1309890.5872421265 0 0 0 0 1559821.2752236985 1523612.1717709471 0 1523612.1717709471 -1131249.2376710176 0 0 0 0 3140869.1204299927 3427609.5522203445 0 3427609.5522203445 -1664142.1131782532 0 0 0 0 199190.80869330093 61975.484520190395 0 61975.484520190395 -78141.340768410824 0 0 0 0 -1318368.6403374299 1273008.1328614829 0 1273008.1328614829 -363838.94106389955 0 0 0 0 4655000.113576889 4644120.5685360432 0 4644120.5685360432 362703.37112808228 0 0 0 0 11771795.510185242 24820777.907194138 0 24820777.907194138 43040936.534797668 0 0 0 0 2233349.6315166801 1723317.2509037014 0 1723317.2509037014 -1245676.9747314695 0 0 0 0 50398948.696212769 -532181.04057312012 0 -532181.04057312012 -100900851.13721848 0 0 0 0 46237175.226112366 56352781.399101257 0 56352781.399101257 -50047272.674751282 0 0 0 0 74472749.823577881 67550565.773990631 0 67550565.773990631 -69025851.309768677 0 0 0 0 67041024.626876831 63889980.187332153 0 63889980.187332153 -166968028.53813171 0 0 0 0 62390601.8309021 -14215227.555870056 0 -14215227.555870056 -88146740.429679871 0 0 0 0 39635159.735385895 104008822.92115784 0 104008822.92115784 69119705.444648743 0 0 0 0 83649320.98588562 103553066.27828217 0 103553066.27828217 14088384.114746094 0 0 0 0 77139823.049591064 85169333.597953796 0 85169333.597953796 56922406.6927948 0 0 0 0 -27426590.872825623 31030605.91912365 0 31030605.91912365 36407579.865558624 0 0 0 0 142860905.83131409 165723370.0321846 0 165723370.0321846 137170701.96592712 0 0 0 0 129868063.79102325 170229462.47436905 0 170229462.47436905 136112709.03944016 0 0 0 0 74111495.654319763 132081681.847229 0 132081681.847229 110882767.45359802 0 0 0 0 105792301.40402603 121402302.69638729 0 121402302.69638729 114448662.7334671 0 0 0 0 72016099.364929199 99147032.192321777 0 99147032.192321777 217502053.20017242 0 0 0 0 74296132.205513 150398901.88685417 0 150398901.88685417 124232675.72029114 0 0 0 0 188595933.44057465 246128729.46482658 0 246128729.46482658 154117742.68519592 0 0 0 0 38925874.855594635 254345666.75974751 0 254345666.75974751 324798957.42787933 0 0 0 0 78063886.222320557 118623855.9025383 0 118623855.9025383 53783721.990234375 0 0 0 0 33967379.939651489 150974848.7300148 0 150974848.7300148 178558910.39386749 0 0 0 0 41717380.871032715 229320116.67273712 0 229320116.67273712 194484767.56505108 0 0 0 0 111234220.73544312 243998126.4594574 0 243998126.4594574 93844331.330479145 0 0 0 0 50363966.593864441 125464728.38915539 0 125464728.38915539 79359420.4739151 0 0 0 0 42741066.202659607 162679674.46620178 0 162679674.46620178 28074010.936109543 0 0 0 0 315017.16358457506 -282897.52934714779 0 -282897.52934714779 -2827.858052123338 0 0 0 0 -45519316.677398682 89245808.790500641 0 89245808.790500641 -23315055.041259766 0 0 0 0 1382216.6084852219 198579.35335350037 0 198579.35335350037 -1095400.1634979248 0 0 0 0 2705659.1124989688 906239.97730756737 0 906239.97730756737 -1319635.4019854944 0 0 0 0 127487.00277675316 -184824.49505321309 0 -184824.49505321309 -77746.780896586366 0 0 0 0 -58009647.912528992 -919749.7700881958 0 -919749.7700881958 -1918548.1439552307 0 0 0 0 53194717.128219604 76768756.532247543 0 76768756.532247543 -124860546.39933395 0 0 0 0 169016800.11544037 156483230.64710045 0 156483230.64710045 108550850.19478989 0 0 0 0 237671587.59681702 104866748.73431396 0 104866748.73431396 42948665.894908786 0 0 0 0 152015192.49530029 121070284.77833939 0 121070284.77833939 64732488.540802002 0 0 0 0 235492020.28912544 184475238.5979619 0 184475238.5979619 103831920.90730286 0 0 0 0 155701468.25292397 76678362.291553974 0 76678362.291553974 43514804.413669586 0 0 0 0 1592815.95704934 239320.47583395988 0 239320.47583395988 -874631.93626385555 0 0 0 0 -463591.48400878906 749552.34645080566 0 749552.34645080566 763690.10187149048 0 0 0 0 977431.73292160034 -1073901.0353937149 0 -1073901.0353937149 -3434274.9698486328 0 0 0 0 -1415246.2061157227 -649713.72483062744 0 -649713.72483062744 936438.82303667068 0 0 0 0 2282625.8600485483 -556327.36866836064 0 -556327.36866836064 -540071.47386496514 0 0 0 0 1919767.2689743042 109044.98996925354 0 109044.98996925354 -1428766.6010360718 0 0 0 0 2064203.075378418 434503.88544178009 0 434503.88544178009 -2068888.217376709 0 0 0 0 44417.934875488281 -1360177.1417255402 0 -1360177.1417255402 1267942.2058181763 0 0 0 0 8744220.106139183 -78502.154968500137 0 -78502.154968500137 -7336113.0293884277 0 0 0 0 776426.44331655372 -329213.98404532298 0 -329213.98404532298 45903.680058771744 0 0 0 0 232429.28788682353 -141650.19834476709 0 -141650.19834476709 25084.219390483573 0 0 0 0 -1933658.9849090576 10887415.573192596 0 10887415.573192596 -15263134.981201172 0 0 0 0 -12923043.454956055 15451886.564910889 0 15451886.564910889 -6116482.7620315552 0 0 0 0 -11382795.53818512 6892471.825712204 0 6892471.825712204 -554825.84727668762 0 0 0 0 1966911.2960739136 26117677.865470886 0 26117677.865470886 -23239330.940551758 0 0 0 0 -8723047.4029407501 21598281.09575367 0 21598281.09575367 -22792129.185874939 0 0 0 0 -3904427.3737564087 10890199.118249893 0 10890199.118249893 -14766874.324411392 0 0 0 0 -7739250.9651947021 18713920.699035645 0 18713920.699035645 -28886370.171422958 0 0 0 0 1978338.9657997414 868134.41885897797 0 868134.41885897797 -766802.54214273859 0 0 0 0 -1527007.2805175781 1059475.7285652161 0 1059475.7285652161 -10596511.42549324 0 0 0 0 -5899606.1138076782 5950059.2849979401 0 5950059.2849979401 -5944496.2554225922 0 0 0 0 533527.59036254883 -2300714.0923728943 0 -2300714.0923728943 -3754092.3594427109 0 0 0 0 -3000566.3788833618 -2642627.2225036621 0 -2642627.2225036621 -330416.54921150208 0 0 0 0 1330200.0903672688 665658.52308692597 0 665658.52308692597 -479018.32904705452 0 0 0 0 2091422.4460220337 5197868.773771286 0 5197868.773771286 -7832048.1807899475 0 0 0 0 8109297.5551300049 -6324411.3064537048 0 -6324411.3064537048 -10285805.663363457 0 0 0 0 3571012.0453491211 -1143208.2041339874 0 -1143208.2041339874 2976935.6909294128 0 0 0 0 -1124919.8780670166 25701107.398479462 0 25701107.398479462 -83758661.235927582 0 0 0 0 746451.15950430185 288461.34834816307 0 288461.34834816307 -496491.80268548522 0 0 0 0 14031383.980163574 -24523591.496463776 0 -24523591.496463776 9974485.678565979 0 0 0 0 -8603442.2761955261 45310546.693719864 0 45310546.693719864 -61820965.881546974 0 0 0 0 6187578.6059608459 24830894.59522438 0 24830894.59522438 -93876840.201030731 0 0 0 0 -69784209.209938049 2609086.9629917145 0 2609086.9629917145 -83468274.052688599 0 0 0 0 -20918987.582603455 36678429.559225082 0 36678429.559225082 -55638652.22939682 0 0 0 0 914448.59580230713 22182225.13433075 0 22182225.13433075 -80227346.403553009 0 0 0 0 3538901.1708583832 9394648.0525794029 0 9394648.0525794029 -44661901.794193268 0 0 0 0 -1934398.240562439 38562682.700080872 0 38562682.700080872 -61854708.786344528 0 0 0 0 -13816148.280193329 49841096.761488914 0 49841096.761488914 -24072163.667469025 0 0 0 0 -7618898.7642288208 51223902.489637375 0 51223902.489637375 -41647070.186870575 0 0 0 0 -30124553.632011414 54546864.796620369 0 54546864.796620369 -23719088.789409637 0 0 0 0 3521762.9543075562 65431006.011000633 0 65431006.011000633 -35970948.486186981 0 0 0 0 5866764.012845993 38025205.161758423 0 38025205.161758423 -23777411.577468872 0 0 0 0 12150287.716869354 43793569.759525299 0 43793569.759525299 -19683173.897861481 0 0 0 0 -5734541.4934768677 63536296.853328228 0 63536296.853328228 -49918902.398345947 0 0 0 0 -51774391.103099823 89276629.364967346 0 89276629.364967346 -65612942.881595612 0 0 0 0 5442059.4408988953 -41809286.978344917 0 -41809286.978344917 -90104281.114183903 0 0 0 0 -90380825.850475311 13263789.525389671 0 13263789.525389671 10436984.024650574 0 0 0 0 -96425927.460193634 53077655.944815278 0 53077655.944815278 -3771659.0081977844 0 0 0 0 292515.78341943771 16455.044467143714 0 16455.044467143714 -574638.8411902599 0 0 0 0 6806860.4387817383 -27649131.139419556 0 -27649131.139419556 7366876.0622813702 0 0 0 0 -32611957.306152344 4976105.6870088577 0 4976105.6870088577 -15664493.200828552 0 0 0 0 -23694031.051513672 25399204.248606682 0 25399204.248606682 -13167150.822338104 0 0 0 0 -20829443.468719482 25510320.268608093 0 25510320.268608093 -16670447.987222672 0 0 0 0 -20966337.777656555 41811132.914999008 0 41811132.914999008 -33028881.27898407 0 0 0 0 60054925.194473267 45504544.13300705 0 45504544.13300705 -16874628.529625893 0 0 0 0 48411891.1115942 72339515.049460649 0 72339515.049460649 25854317.803592682 0 0 0 0 124232651.05435944 57462282.452910423 0 57462282.452910423 -31709191.761249542 0 0 0 0 -31333690.036560059 25339746.649440765 0 25339746.649440765 5088450.1982069016 0 0 0 0 -27886659.475822449 49291123.994571686 0 49291123.994571686 -25111790.786108017 0 0 0 0 55498777.281654358 42804632.182853699 0 42804632.182853699 -23566814.502220154 0 0 0 0 -125849160.7000351 78346091.428548813 0 78346091.428548813 8655870.5322685242 0 0 0 0 -88120894.779901505 -19312076.655121326 0 -19312076.655121326 -230377.10865020752 0 0 0 0 160217540.42960548 78103119.890638351 0 78103119.890638351 -39479439.924964905 0 0 0 0 66618491.995424271 17525763.745049477 0 17525763.745049477 -36456015.917102814 0 0 0 0 132906022.51631927 34822142.766901016 0 34822142.766901016 11911706.20635128 0 0 0 0 4267905.7554931678 1554135.0518083461 0 1554135.0518083461 607580.99364457093 0 0 0 0 101744687.11853027 64539629.375478745 0 64539629.375478745 -3083364.1162719727 0 0 0 0 80879432.626298904 16969709.268975258 0 16969709.268975258 -14970401.805652618 0 0 0 0 33279762.726219177 5877567.5802173615 0 5877567.5802173615 11847510.03715992 0 0 0 0 1336507.9892524006 377586.22843607329 0 377586.22843607329 105298.28653120808 0 0 0 0 15493446.953167915 30811893.453534126 0 30811893.453534126 -82200231.066894531 0 0 0 0 28616635.367935181 61234971.264058113 0 61234971.264058113 -19757824.720011711 0 0 0 0 155824194.69856644 16416274.422992706 0 16416274.422992706 -61621310.380659103 0 0 0 0 165657857.65526295 141056672.36307645 0 141056672.36307645 69191343.923984528 0 0 0 0 192741226.68540573 85282429.308252335 0 85282429.308252335 -142654390.64845276 0 0 0 0 141124800.88450623 9694663.868429184 0 9694663.868429184 -215432489.80848694 0 0 0 0 70111150.277282715 -50089828.531253815 0 -50089828.531253815 -228701918.10134506 0 0 0 0 -24252288.31312561 19190139.464672089 0 19190139.464672089 -82937289.980392456 0 0 0 0 59281959.451797485 228906606.50063705 0 228906606.50063705 438403624.81284523 0 0 0 0 524064.24319109693 324706.08744691452 0 324706.08744691452 -183709.01454361901 0 0 0 0 131100279.1028595 204407719.48583603 0 204407719.48583603 415262657.40022278 0 0 0 0 99620678.56584549 152016413.3505373 0 152016413.3505373 195254678.13199615 0 0 0 0 81288069.368652344 153648927.89254379 0 153648927.89254379 426511704.00887585 0 0 0 0 186376569.67519379 77632124.536706924 0 77632124.536706924 230067185.46450424 0 0 0 0 240944670.85125923 164992845.03673077 0 164992845.03673077 114059427.78334808 0 0 0 0 87967717.753391266 -15133315.613984108 0 -15133315.613984108 81288228.963905334 0 0 0 0 108298567.28188324 269184584.61153412 0 269184584.61153412 364948871.60434723 0 0 0 0 31982395.220912933 45690775.796208382 0 45690775.796208382 27289969.650966644 0 0 0 0 -42571747.213798523 -2986760.9083747864 0 -2986760.9083747864 77499408.96408844 0 0 0 0 20176839.85836792 44913219.702974319 0 44913219.702974319 159420295.59568214 0 0 0 0 22593324.903168678 39874874.251481056 0 39874874.251481056 52195466.285900116 0 0 0 0 -34117415.301544189 23899547.983283997 0 23899547.983283997 63802636.634063721 0 0 0 0 -38771228.4568367 34787406.373326302 0 34787406.373326302 40398629.956623077 0 0 0 0 -47375171.881538391 20652749.128980637 0 20652749.128980637 20323338.623100281 0 0 0 0 -57214991.770355225 3352939.0350875854 0 3352939.0350875854 53959361.313815117 0 0 0 0 -59794530.315425873 4991887.5289573669 0 4991887.5289573669 20062124.208190918 0 0 0 0 -33482545.282688141 -2658567.1923103333 0 -2658567.1923103333 21478730.521913528 0 0 0 0 -67339256.546703339 -50742648.259725571 0 -50742648.259725571 -14641625.408848763 0 0 0 0 -34149685.481506348 -15693006.488962173 0 -15693006.488962173 -139590189.57720947 0 0 0 0 35598062.210063934 60142149.840963364 0 60142149.840963364 -153688787.95148468 0 0 0 0 -79389896.807304382 9769677.9055433273 0 9769677.9055433273 19675381.645187855 0 0 0 0 -21493.916405398399 448065.1726570488 0 448065.1726570488 -134408.46856657369 0 0 0 0 -3280445.5843811035 14882879.089008331 0 14882879.089008331 37903580.064623833 0 0 0 0 -38249942.353841782 39558646.94757843 0 39558646.94757843 39068714.444202423 0 0 0 0 -28384534.049255371 89796569.498472214 0 89796569.498472214 -27151121.4049263 0 0 0 0 3614604.2707443237 51774823.759628296 0 51774823.759628296 -47476403.015195847 0 0 0 0 5846572.484375 28763541.817562103 0 28763541.817562103 -25673225.586471558 0 0 0 0 19194913.040649414 41512176.586685181 0 41512176.586685181 -153615645.43503189 0 0 0 0 71468465.870498657 73219991.393661499 0 73219991.393661499 -47633983.566543579 0 0 0 0 7329834.7188415527 125148931.94133949 0 125148931.94133949 63043719.156433105 0 0 0 0 123350307.860672 174806364.53670311 0 174806364.53670311 119187568.20996857 0 0 0 0 130257312.22702599 105703695.57989788 0 105703695.57989788 61484042.537948608 0 0 0 0 54696251.503471375 89990025.722717285 0 89990025.722717285 202353688.24804854 0 0 0 0 86440467.078033447 94781906.624536514 0 94781906.624536514 -61070820.421180725 0 0 0 0 45854150.832565308 -17876803.120597839 0 -17876803.120597839 -65776109.42004776 0 0 0 0 117436268.61156464 110878578.09301758 0 110878578.09301758 7233296.8919029236 0 0 0 0 7366179.1858901978 -2706082.5531730652 0 -2706082.5531730652 68783297.99379158 0 0 0 0 20048178.469764709 -91741339.384851456 0 -91741339.384851456 -290282860.82013512 0 0 0 0 28774247.371366739 53645371.325987101 0 53645371.325987101 -136161475.40356445 0 0 0 0 -148187.91046001017 1404730.1164464066 0 1404730.1164464066 -367305.36412523407 0 0 0 0 1520210.2693023682 6253026.9504547119 0 6253026.9504547119 -267304105.031443 0 0 0 0 59873469.028694153 -25653727.880271912 0 -25653727.880271912 -268327735.69940186 0 0 0 0 15192332.655548096 13671321.254875183 0 13671321.254875183 12280353.570819855 0 0 0 0 -97177620.828887939 42636528.161552429 0 42636528.161552429 -110591254.14260101 0 0 0 0 -15405501.506561279 -12042973.468025208 0 -12042973.468025208 -100437200.43847656 0 0 0 0 31445.434766247869 59234.141335790977 0 59234.141335790977 -15533.414298378862 0 0 0 0 -75838047.322891235 -128842228.18715668 0 -128842228.18715668 -293480607.58808899 0 0 0 0 -9286646.0414581299 38477605.364635468 0 38477605.364635468 -87430409.755737305 0 0 0 0 4156827.9771728516 94776847.00138855 0 94776847.00138855 -261266857.15127087 0 0 0 0 34917749.026199341 5107152.220123291 0 5107152.220123291 -103856833.89816093 0 0 0 0 -27595132.819091797 135102048.65162659 0 135102048.65162659 -85627947.425849915 0 0 0 0 11957160.256625175 25132923.420129776 0 25132923.420129776 26508881.42477417 0 0 0 0 5430860.8741226196 21179622.396066666 0 21179622.396066666 45818481.548961639 0 0 0 0 7564896.5817642212 22738861.539634705 0 22738861.539634705 44706194.35764122 0 0 0 0 1224488.663520813 24714793.765724182 0 24714793.765724182 62391567.151699066 0 0 0 0 6684620.9659042358 10747486.459367752 0 10747486.459367752 23672522.22800827 0 0 0 0 -1789893.3432884216 18147041.691782951 0 18147041.691782951 43509849.533840179 0 0 0 0 9644480.3208961487 18733115.885250092 0 18733115.885250092 42324926.608390808 0 0 0 0 18491191.921390533 38755355.398757935 0 38755355.398757935 42412988.490753174 0 0 0 0 12606070.047584534 36791423.150606155 0 36791423.150606155 57836833.589214325 0 0 0 0 9431163.3806724548 30644369.723890305 0 30644369.723890305 45935324.254508972 0 0 0 0 13145880.639274597 26796169.771755219 0 26796169.771755219 48963619.88298893 0 0 0 0 7890185.8757858276 25509143.073926926 0 25509143.073926926 50066656.217201233 0 0 0 0 -14896794.026313782 52267899.746368408 0 52267899.746368408 95814621.365186214 0 0 0 0 -12276870.556465149 35539844.802066803 0 35539844.802066803 105827785.91554832 0 0 0 0 -11588228.296798706 21667586.224308014 0 21667586.224308014 89058450.43755722 0 0 0 0 13675600.901130676 37338367.740205765 0 37338367.740205765 27836186.04397583 0 0 0 0 5110900.9891052246 64670505.85433197 0 64670505.85433197 175667.55891418457 0 0 0 0 -21972753.697486877 50020315.449052811 0 50020315.449052811 51909156.564086914 0 0 0 0 -11054332.076696396 29222386.471029282 0 29222386.471029282 26806211.984764099 0 0 0 0 19762304.343353271 12287084.109573364 0 12287084.109573364 41948600.7915833 0 0 0 0 -1026246.755821228 19324526.10045433 0 19324526.10045433 89646826.847625732 0 0 0 0 -6920777.7358322144 60330525.473062515 0 60330525.473062515 77739106.936149597 0 0 0 0 -2008103.7902422398 892601.22064438928 0 892601.22064438928 1288259.2012917902 0 0 0 0 64080240.110314131 75505447.538613439 0 75505447.538613439 29366451.027503967 0 0 0 0 35405280.935020447 65069308.915790558 0 65069308.915790558 77269079.785442352 0 0 0 0 -4957090.2633351535 9504844.2583486587 0 9504844.2583486587 -6496872.0740776453 0 0 0 0 -19391282.329532623 -4361886.0620746613 0 -4361886.0620746613 37904781.036220551 0 0 0 0 -5426407.7313232422 113096778.93885803 0 113096778.93885803 109214703.04176331 0 0 0 0 55736911.105103493 130262510.43279457 0 130262510.43279457 111201519.30677032 0 0 0 0 -6270941.8245092221 10810743.127199022 0 10810743.127199022 -5711090.109554654 0 0 0 0 17772321.715641022 82747395.484619141 0 82747395.484619141 153102034.92089081 0 0 0 0 62348588.879485846 91046744.229573965 0 91046744.229573965 38465979.421516418 0 0 0 0 -11799226.44418335 39655582.151973724 0 39655582.151973724 125388845.51700592 0 0 0 0 -5765738.3684043884 121069111.11177444 0 121069111.11177444 25715828.597766876 0 0 0 0 68896375.092923403 101948850.0363524 0 101948850.0363524 8492263.8153915405 0 0 0 0 56063750.375619888 43509476.741991043 0 43509476.741991043 39752866.603363037 0 0 0 0 75597844.631484985 72306181.772010803 0 72306181.772010803 25969067.119775772 0 0 0 0 76519131.716468811 63085889.138721466 0 63085889.138721466 41299354.74533844 0 0 0 0 96236292.537920475 100425066.52308035 0 100425066.52308035 72031252.186706543 0 0 0 0 108191781.20927668 56388201.988090515 0 56388201.988090515 15789120.353393555 0 0 0 0 64119908.319717407 45830986.94889164 0 45830986.94889164 44091523.559047699 0 0 0 0 47820304.635559082 62557140.708433151 0 62557140.708433151 158319329.38360977 0 0 0 0 15615696.46383667 25931246.429620743 0 25931246.429620743 46245515.26725769 0 0 0 0 17562418.658721924 28069153.14544487 0 28069153.14544487 46692286.038393021 0 0 0 0 43674940.312427521 -43435802.281072617 0 -43435802.281072617 62640618.975898743 0 0 0 0 -3447245.4539534505 4936583.328985176 0 4936583.328985176 -6115002.6277191266 0 0 0 0 17526112.366638184 29839106.005992889 0 29839106.005992889 39129103.799653053 0 0 0 0 1714005.4353490956 2552374.8951743478 0 2552374.8951743478 -3234741.5337960552 0 0 0 0 142743613.62191772 125872435.53287888 0 125872435.53287888 76479641.492992401 0 0 0 0 -194202819.56357574 1221633.5630340576 0 1221633.5630340576 215628709.3920269 0 0 0 0 -661108342.73939514 59800419.640493393 0 59800419.640493393 209128313.25859642 0 0 0 0 130635052.57000732 39507538.760837555 0 39507538.760837555 170068989.58029175 0 0 0 0 -299120482.27587891 247445232.14553833 0 247445232.14553833 122762538.54378128 0 0 0 0 -954543903.40571594 -511886988.82655573 0 -511886988.82655573 403247183.17198181 0 0 0 0 316604791.9485054 54783505.277968407 0 54783505.277968407 -105671921.4875412 0 0 0 0 282329024.59233093 119582808.40654373 0 119582808.40654373 -184578056.74698234 0 0 0 0 -265650131.4094162 434870481.07324219 0 434870481.07324219 -148024746.9461441 0 0 0 0 -1814175.5752167199 3150914.5433612959 0 3150914.5433612959 -5869858.4735824633 0 0 0 0 -291738500.96607971 426517327.66645241 0 426517327.66645241 -812739014.81137848 0 0 0 0 135649946.25805092 120247511.65862083 0 120247511.65862083 109022622.05851746 0 0 0 0 152176368.69923782 130752004.38747406 0 130752004.38747406 95502044.951702118 0 0 0 0 185260005.57407761 198649851.51555443 0 198649851.51555443 179107178.61658478 0 0 0 0 130835385.59646034 268700891.227355 0 268700891.227355 271584410.34765625 0 0 0 0 274669930.62229538 299634567.37995911 0 299634567.37995911 236668401.57328033 0 0 0 0 370249484.04078674 256669044.99483299 0 256669044.99483299 123865570.59806824 0 0 0 0 317335698.19741058 226600578.53961182 0 226600578.53961182 135895306.7142067 0 0 0 0 -999384123.42444611 -308804101.05305862 0 -308804101.05305862 21710725.003250122 0 0 0 0 -175592.88583129272 483378.91686780099 0 483378.91686780099 -1354196.1404698435 0 0 0 0 -973533.08997844812 1799288.2972230804 0 1799288.2972230804 -3963669.379124837 0 0 0 0 374332104.98613048 296958141.18269193 0 296958141.18269193 204617914.80576324 0 0 0 0 -5990911.3096354008 183000242.54145837 0 183000242.54145837 381174407.83418274 0 0 0 0 10310267.462190628 140367012.5743084 0 140367012.5743084 248959445.00264931 0 0 0 0 72380990.105651855 155168441.80314255 0 155168441.80314255 211990176.39490509 0 0 0 0 62314451.296800613 130269672.03945351 0 130269672.03945351 161189017.26023865 0 0 0 0 144356859.34445095 206239932.52299595 0 206239932.52299595 216056750.89431 0 0 0 0 -22977655.50056076 236818310.5326786 0 236818310.5326786 322555342.01818657 0 0 0 0 43319771.145492077 209042822.54844379 0 209042822.54844379 333573246.0292511 0 0 0 0 45751960.122123718 207582991.03606987 0 207582991.03606987 229444004.63921356 0 0 0 0 -5795583.3633127213 200470807.5016222 0 200470807.5016222 397661708.52326584 0 0 0 0 -92340334.455482483 298317671.56425571 0 298317671.56425571 358037397.08981323 0 0 0 0 -108859638.07250404 333534146.07947421 0 333534146.07947421 129645025.45246696 0 0 0 0 -25714176.657958984 261620886.0555439 0 261620886.0555439 189517368.28600883 0 0 0 0 -48337137.385599136 303852065.50910664 0 303852065.50910664 290405739.85291624 0 0 0 0 85111262.440720558 390325296.71778059 0 390325296.71778059 143730683.65816116 0 0 0 0 45352521.341014862 299972409.63977051 0 299972409.63977051 288856131.21509171 0 0 0 0 99798567.025817871 251608417.26448631 0 251608417.26448631 280060271.73050308 0 0 0 0 161740962.2250576 329443549.07661152 0 329443549.07661152 283633519.19926453 0 0 0 0 288940506.09096527 272811709.26182938 0 272811709.26182938 230110210.63958073 0 0 0 0 275676278.47059631 298160934.76842308 0 298160934.76842308 235738231.63018036 0 0 0 0 310094698.8327713 319254558.71282959 0 319254558.71282959 273086399.28225708 0 0 0 0 375154326.87675476 235619522.24926376 0 235619522.24926376 283604276.14906311 0 0 0 0 493099438.51218414 180660870.06108093 0 180660870.06108093 268087382.19297504 0 0 0 0 458482010.49240875 282259195.57873154 0 282259195.57873154 232902942.34238815 0 0 0 0 276069708.39390564 328341153.25507164 0 328341153.25507164 265016948.25927353 0 0 0 0 793117687.75092697 303491463.35381699 0 303491463.35381699 109086181.02675629 0 0 0 0 782269522.1668961 596534333.68363833 0 596534333.68363833 52122394.621509552 0 0 0 0 474116112.94628143 429570314.97246552 0 429570314.97246552 113803876.40099716 0 0 0 0 484588657.02499199 345971613.10875368 0 345971613.10875368 159251565.3342514 0 0 0 0 287148897.06007004 380698540.8463192 0 380698540.8463192 165120769.24234009 0 0 0 0 447237726.74338531 447118689.20207596 0 447118689.20207596 145534173.17385101 0 0 0 0 430337555.10544586 462102077.40091324 0 462102077.40091324 115108211.35068893 0 0 0 0 250573246.332901 433535828.95991325 0 433535828.95991325 119987407.8559773 0 0 0 0 479033391.4380604 677499922.6224916 0 677499922.6224916 128264825.87711334 0 0 0 0 175800129.16483498 317505638.6502738 0 317505638.6502738 54318886.622076035 0 0 0 0 128804632.45156097 316819196.97148895 0 316819196.97148895 245947656.16301537 0 0 0 0 308826876.48877335 359585682.07066154 0 359585682.07066154 130255621.8791008 0 0 0 0 144492012.00726318 342298480.88667488 0 342298480.88667488 146971171.83783245 0 0 0 0 192265509.54751205 328980454.24796629 0 328980454.24796629 17506182.591143608 0 0 0 0 22823076.366884232 260751155.95367241 0 260751155.95367241 82297961.601442337 0 0 0 0 152620326.55231094 322373157.35914898 0 322373157.35914898 107669764.0480904 0 0 0 0 153441267.94603634 334858593.13132191 0 334858593.13132191 296818582.57533264 0 0 0 0 305287590.21257973 545417442.82469082 0 545417442.82469082 230428531.93030548 0 0 0 0 279651590.63766861 419781838.02403069 0 419781838.02403069 100749882.79415131 0 0 0 0 98089550.537403107 180545086.40988493 0 180545086.40988493 -253664008.96237946 0 0 0 0 72320587.936290741 175651685.03797245 0 175651685.03797245 124781731.67937374 0 0 0 0 -9517341.9360027313 345808964.1772747 0 345808964.1772747 -420535318.25506067 0 0 0 0 -40814167.025024414 -41833551.450677872 0 -41833551.450677872 -242397141.52569127 0 0 0 0 -417897577.07165766 259822112.65655565 0 259822112.65655565 112768949.93979263 0 0 0 0 -4625835.9674568176 285060884.73138332 0 285060884.73138332 63316805.118196487 0 0 0 0 13479271.063508987 126837029.98582816 0 126837029.98582816 37920270.588867188 0 0 0 0 -613652.18970108032 230355937.69513083 0 230355937.69513083 60077517.634132385 0 0 0 0 -37654228.136497498 220396017.23635864 0 220396017.23635864 95900189.674332142 0 0 0 0 -41909735.319290161 204103799.30758762 0 204103799.30758762 102342241.47309256 0 0 0 0 -41634071.517066956 174072957.75898647 0 174072957.75898647 79295149.727753162 0 0 0 0 29135152.492340088 181806694.40032959 0 181806694.40032959 78340993.134765625 0 0 0 0 27075386.72478652 130971144.32166767 0 130971144.32166767 66999076.202529907 0 0 0 0 7746870.4234008789 192863938.66262436 0 192863938.66262436 73198566.546794891 0 0 0 0 102891281.46057129 190762715.25349617 0 190762715.25349617 50112052.941948891 0 0 0 0 23592458.139778137 230349579.73312378 0 230349579.73312378 59317653.567626953 0 0 0 0 79779098.595851898 144780648.98938751 0 144780648.98938751 72213301.880874634 0 0 0 0 147655061.35295105 189534089.98445129 0 189534089.98445129 115042740.75136185 0 0 0 0 183299696.85348511 117029069.83929443 0 117029069.83929443 87454916.243322372 0 0 0 0 164454056.53941345 149051526.71681213 0 149051526.71681213 59619828.30373764 0 0 0 0 159793160.71803284 180933401.69180107 0 180933401.69180107 45872405.923126221 0 0 0 0 -146541535.20193183 64622615.113521755 0 64622615.113521755 31456800.426929474 0 0 0 0 52607761.090179443 227129351.10886765 0 227129351.10886765 40531298.500623703 0 0 0 0 -593686271.12751007 72749094.762886047 0 72749094.762886047 223660088.73256111 0 0 0 0 -136005405.41768646 291970460.3042345 0 291970460.3042345 88577449.777136803 0 0 0 0 5631156.2519378662 201750980.47329855 0 201750980.47329855 67491295.581531525 0 0 0 0 744913716.91835785 244534696.19886589 0 244534696.19886589 199190589.73000813 0 0 0 0 545688.21367252059 61644.530395300128 0 61644.530395300128 -1805182.9721767576 0 0 0 0 360174426.90365601 173096430.90544033 0 173096430.90544033 323291572.82892036 0 0 0 0 205578017.89278412 156524663.53970051 0 156524663.53970051 295370970.3767314 0 0 0 0 291239149.44881439 310011613.21120644 0 310011613.21120644 207788762.80595779 0 0 0 0 715872454.72196198 394109683.0353384 0 394109683.0353384 135044985.8979702 0 0 0 0 525719843.75940514 -29033088.064107895 0 -29033088.064107895 -100336404.04572296 0 0 0 0 -32255711.747329712 463848553.03730774 0 463848553.03730774 219578670.09478188 0 0 0 0 353095.47332834452 949031.91621286888 0 949031.91621286888 -3988845.6907775179 0 0 0 0 140463401.77877426 210640087.63923585 0 210640087.63923585 84940221.077894211 0 0 0 0 138395745.96318054 190881639.14973927 0 190881639.14973927 33737320.512144089 0 0 0 0 49771330.02671814 160252881.03036976 0 160252881.03036976 102153676.58126831 0 0 0 0 165657779.40259933 112956093.65747547 0 112956093.65747547 159088112.34562302 0 0 0 0 118785492.07374191 206828743.98794413 0 206828743.98794413 43256007.142963409 0 0 0 0 -1894050671.8648491 287253450.64069748 0 287253450.64069748 764580777.08608246 0 0 0 0 -1044151274.6992874 -927635233.45876503 0 -927635233.45876503 -287846210.2671814 0 0 0 0 116608800.89263153 673736461.66294861 0 673736461.66294861 144508775.85027695 0 0 0 0 -391088715.09397888 -82176132.551612854 0 -82176132.551612854 -390041646.82875443 0 0 0 0 -162731.31211168598 435893.69716819003 0 435893.69716819003 -1463208.4267505538 0 0 0 0 397470502.33212376 228854974.29816699 0 228854974.29816699 9857256.0131092072 0 0 0 0 -303172.40965069644 1338094.4952337751 0 1338094.4952337751 -3581705.5794698121 0 0 0 0 344298515.92382812 88228404.615578651 0 88228404.615578651 17699684.22559166 0 0 0 0 101472109.15359497 187971961.16970253 0 187971961.16970253 7803772.4560699463 0 0 0 0 161228657.01594543 114693951.6998291 0 114693951.6998291 72228570.419407845 0 0 0 0 234788443.53326416 186740145.0815239 0 186740145.0815239 -3161955.9590568542 0 0 0 0 204121333.52200317 115723037.14020538 0 115723037.14020538 9647703.0670824051 0 0 0 0 188782708.33960724 146592859.9023037 0 146592859.9023037 -50368645.541225433 0 0 0 0 111772000.30738831 110133998.44166565 0 110133998.44166565 -13022522.73825264 0 0 0 0 42429076.101959229 152739291.94066048 0 152739291.94066048 -22255333.53619957 0 0 0 0 103306017.66323853 141994102.00977135 0 141994102.00977135 -91034481.782196045 0 0 0 0 -76969423.463684082 187161519.29750061 0 187161519.29750061 -12353307.175952435 0 0 0 0 42422104.327438354 166628700.82478142 0 166628700.82478142 -157355577.47977829 0 0 0 0 -31708144.755187988 222719776.30469322 0 222719776.30469322 -23637898.346599579 0 0 0 0 97584796.783847809 170359164.32479191 0 170359164.32479191 -48581596.826843262 0 0 0 0 20493641.583749771 214371477.63862371 0 214371477.63862371 43864943.120100021 0 0 0 0 -6440128.068447113 173621500.02995682 0 173621500.02995682 68531302.543514252 0 0 0 0 -166304776.28432465 178782171.61997032 0 178782171.61997032 68874373.210025787 0 0 0 0 697806.6291809082 153669498.28866959 0 153669498.28866959 72613752.380228043 0 0 0 0 -34324758.431465149 190482658.95164299 0 190482658.95164299 -55376225.048465729 0 0 0 0 -72100889.987701416 156147640.32022858 0 156147640.32022858 -45143089.749454498 0 0 0 0 -132295641.28427124 229567401.87418747 0 229567401.87418747 -132083617.43543243 0 0 0 0 -110520248.82939148 157750975.54686999 0 157750975.54686999 -307045903.55774689 0 0 0 0 -174935960.6687851 147197002.17957687 0 147197002.17957687 -312637143.92028427 0 0 0 0 -381972625.10652161 4463536.7517414093 0 4463536.7517414093 -268190278.02747726 0 0 0 0 -33671849.447784424 37257711.148601532 0 37257711.148601532 -365846941.65686703 0 0 0 0 -23247782.612792969 67229567.801469803 0 67229567.801469803 -289179399.65028381 0 0 0 0 34047593.053070068 73284654.0867939 0 73284654.0867939 -127716679.50864983 0 0 0 0 8216783.6181106567 129308930.11071634 0 129308930.11071634 -235595350.97886276 0 0 0 0 118947518.75580597 96170238.966526031 0 96170238.966526031 -129654747.9046669 0 0 0 0 39009690.051559448 94085146.926118851 0 94085146.926118851 -77222916.944732666 0 0 0 0 47418398.203655243 -623315.93105697632 0 -623315.93105697632 -96073118.152622223 0 0 0 0 49351518.841567993 16752948.975626945 0 16752948.975626945 -167465371.08803177 0 0 0 0 -9683498.9076385498 -28660429.76820755 0 -28660429.76820755 -192511682.16640091 0 0 0 0 -53983550.874572754 -74893585.750274658 0 -74893585.750274658 -94127164.456393242 0 0 0 0 16387784.449249268 -38381720.056898117 0 -38381720.056898117 -76905860.8326931 0 0 0 0 2551154.3741187267 1451813.6260300293 0 1451813.6260300293 -1064505.8219308602 0 0 0 0 -57400933.281417847 -102492564.44927406 0 -102492564.44927406 -250782815.72823715 0 0 0 0 19190529.737670898 32267057.35823822 0 32267057.35823822 29648112.471971512 0 0 0 0 -117727883.65309143 30178251.637479782 0 30178251.637479782 -6925530.102519989 0 0 0 0 -249507.14309751615 1734115.6432028385 0 1734115.6432028385 -676403.61430735281 0 0 0 0 448453.98190228827 104295.68172482774 0 104295.68172482774 -658483.62922224309 0 0 0 0 313793079.9045639 32236077.378959656 0 32236077.378959656 -24383099.024688721 0 0 0 0 323907777.79559135 61085403.018167019 0 61085403.018167019 -102007395.39261627 0 0 0 0 274777759.74638367 57211659.022518158 0 57211659.022518158 86839062.528078079 0 0 0 0 251096676.19342041 168030076.51351547 0 168030076.51351547 126504430.48000717 0 0 0 0 322273199.72982788 60820035.083557129 0 60820035.083557129 -64323351.253986359 0 0 0 0 267306584.1717453 101089485.23960209 0 101089485.23960209 -41914592.054698944 0 0 0 0 119748399.24014282 52329128.382678986 0 52329128.382678986 -38219642.163573265 0 0 0 0 208275463.55423355 111747718.72400379 0 111747718.72400379 -62034810.47877121 0 0 0 0 276873237.59389877 157958472.18692303 0 157958472.18692303 -21682152.151153564 0 0 0 0 224597758.85714722 76593384.530144691 0 76593384.530144691 13673386.653587341 0 0 0 0 124968794.7830658 70071524.138654709 0 70071524.138654709 -30573575.274580479 0 0 0 0 121322277.97497559 57753003.908096313 0 57753003.908096313 -65008097.648914337 0 0 0 0 -1133609.4784927368 -37123704.567575455 0 -37123704.567575455 -46215908.673121929 0 0 0 0 73080157.435142517 94891889.383426666 0 94891889.383426666 15769267.644155502 0 0 0 0 266647731.90624237 136405675.75671005 0 136405675.75671005 -48176460.99445343 0 0 0 0 274681297.87872314 218312569.41039753 0 218312569.41039753 87993797.546100616 0 0 0 0 312175411.09814453 77617604.535684586 0 77617604.535684586 -81152554.168758392 0 0 0 0 330955870.1626358 95487011.836681366 0 95487011.836681366 -110471925.07171631 0 0 0 0 458389743.6353302 68353096.223482132 0 68353096.223482132 -192522744.35841751 0 0 0 0 451852746.05796814 159204611.84480476 0 159204611.84480476 -108817031.18198442 0 0 0 0 321219296.52361298 35472139.609972 0 35472139.609972 -117120540.66077042 0 0 0 0 356347890.5409317 69433636.581525803 0 69433636.581525803 -104050929.42699432 0 0 0 0 882866.25883379206 586584.10018055933 0 586584.10018055933 -376148.93260173732 0 0 0 0 341003.67702241987 677843.26901613967 0 677843.26901613967 -818066.86166198924 0 0 0 0 667161615.8117218 -33482054.551029205 0 -33482054.551029205 -160312925.37028503 0 0 0 0 -626368093.65071106 161085886.32552719 0 161085886.32552719 -138349805.73994541 0 0 0 0 -29972288.87298584 32494355.469238281 0 32494355.469238281 42712060.812545776 0 0 0 0 -94981470.454032898 90032273.632520676 0 90032273.632520676 34962168.18473053 0 0 0 0 134570878.21337891 39106929.999141693 0 39106929.999141693 -56361973.207691193 0 0 0 0 31460341.651947021 172987141.21323395 0 172987141.21323395 -221254041.19500351 0 0 0 0 -33969960.942840576 95238664.491033554 0 95238664.491033554 37491104.919307709 0 0 0 0 49250032.563087463 85116842.666423798 0 85116842.666423798 37544112.359378815 0 0 0 0 -1331536.3388029411 1556054.9553203173 0 1556054.9553203173 -1039332.1517222207 0 0 0 0 -7540634.6365432739 20665556.548480988 0 20665556.548480988 45554325.062588692 0 0 0 0 6257726.5880279541 69267464.946815491 0 69267464.946815491 38945888.129658699 0 0 0 0 16639256.248695374 25437395.062431335 0 25437395.062431335 46482371.181440353 0 0 0 0 8988621.4703826904 5868285.2120847702 0 5868285.2120847702 -2008791.9112148285 0 0 0 0 15048162.79510498 4467130.3533725739 0 4467130.3533725739 -7662935.8546085358 0 0 0 0 11180070.143760681 12261904.991846085 0 12261904.991846085 1343269.879732132 0 0 0 0 -1151017.891089743 1785428.5806496954 0 1785428.5806496954 -1712949.7218470871 0 0 0 0 107515201.96079636 -15093752.133430481 0 -15093752.133430481 -195143.86701154709 0 0 0 0 7105910.5669708252 2070634.3105802536 0 2070634.3105802536 -830208.59983444214 0 0 0 0 3967372.8626556396 3847479.1509284973 0 3847479.1509284973 2958548.3512134552 0 0 0 0 3757773.4878540039 5187309.343126297 0 5187309.343126297 -612985.64501190186 0 0 0 0 1752991.663520813 -6305321.1917103529 0 -6305321.1917103529 -9992394.2360248566 0 0 0 0 864912.855230093 571425.84872991592 0 571425.84872991592 -1090024.3579762671 0 0 0 0 -8005958.1033935547 -12717966.444527626 0 -12717966.444527626 -15414927.481105804 0 0 0 0 37066395.436065674 15253147.759822845 0 15253147.759822845 -34151322.693851471 0 0 0 0 113844699.46755219 204831571.56554508 0 204831571.56554508 140890043.86206245 0 0 0 0 -6994065.5214400291 -15660764.479775906 0 -15660764.479775906 -116078805.28262711 0 0 0 0 329234.78265405074 227642.48652854376 0 227642.48652854376 -455305.58065750822 0 0 0 0 43046318.915550232 86168406.10446167 0 86168406.10446167 161524562.4214344 0 0 0 0 59894793.140968323 23944226.318384171 0 23944226.318384171 25338284.654583216 0 0 0 0 135071621.7461853 50987792.165672302 0 50987792.165672302 23436318.939050674 0 0 0 0 775620.05076934025 2452081.7188657932 0 2452081.7188657932 -1806623.5225455686 0 0 0 0 79471077.024448395 126279388.51836586 0 126279388.51836586 -25365239.39548111 0 0 0 0 131666207.94608307 51878750.512001038 0 51878750.512001038 32569994.476507187 0 0 0 0 407146993.68170929 22915578.397699356 0 22915578.397699356 -136979493.1253109 0 0 0 0 90896.775240745395 1272901.2828342635 0 1272901.2828342635 -1485456.1115068495 0 0 0 0 -1447431770.4190788 617322590.25689507 0 617322590.25689507 78412488.969594955 0 0 0 0 -1232543564.2625809 180708609.89824486 0 180708609.89824486 -104941849.05130577 0 0 0 0 -443261.77038235124 -60845.936762446538 0 -60845.936762446538 -1765309.8566789832 0 0 0 0 -1324053351.5428925 248250856.87382603 0 248250856.87382603 98170867.275460243 0 0 0 0 471131755.51596832 -284272719.30019283 0 -284272719.30019283 -54668291.978128433 0 0 0 0 725717639.17616272 -214301357.25496864 0 -214301357.25496864 -156444832.64303398 0 0 0 0 245107406.88137054 37200316.650608063 0 37200316.650608063 -74857513.669284821 0 0 0 0 183086278.50013733 -44238807.506597519 0 -44238807.506597519 -166187605.54113197 0 0 0 0 126316968.98039246 150954176.46445608 0 150954176.46445608 -267823657.40533066 0 0 0 0 -157720320.22233582 297763876.09546089 0 297763876.09546089 -187818943.9340477 0 0 0 0 7348956.6756744385 136414401.41113281 0 136414401.41113281 -159342975.81576824 0 0 0 0 10417499.3881073 202226355.04842377 0 202226355.04842377 -339918317.8205986 0 0 0 0 -438501289.76959229 71411183.716644287 0 71411183.716644287 -269275566.85058975 0 0 0 0 -201425047.08326721 284307887.62136269 0 284307887.62136269 -252831427.8413887 0 0 0 0 -146587244.80328369 169639286.17284966 0 169639286.17284966 -352784055.66370964 0 0 0 0 -135516608.25434875 274365035.96662903 0 274365035.96662903 -260548382.12787437 0 0 0 0 -129637.68510456011 650593.02501174668 0 650593.02501174668 -254277.43718236801 0 0 0 0 -33050430.080242157 245604141.63031054 0 245604141.63031054 -480986557.97127342 0 0 0 0 -51142025.677658081 54749040.699354172 0 54749040.699354172 121963134.93261337 0 0 0 0 -58256615.181587219 320097255.32086658 0 320097255.32086658 -407252323.16649055 0 0 0 0 -15185518.078186035 203876878.89422035 0 203876878.89422035 -383903611.55404282 0 0 0 0 -112906994.48616791 187718686.10050964 0 187718686.10050964 -129859056.84892678 0 0 0 0 131014088.51368153 206391032.37857163 0 206391032.37857163 -398574477.41335678 0 0 0 0 -100033973.00285339 97956249.343122482 0 97956249.343122482 -76402351.89683342 0 0 0 0 308024445.53217697 326729474.49255419 0 326729474.49255419 114312373.80137634 0 0 0 0 -529330.8327901233 1273897.7646678444 0 1273897.7646678444 -1245795.2105611218 0 0 0 0 475232719.48828506 510374686.82451248 0 510374686.82451248 68291795.628143311 0 0 0 0 168871296.34896088 111159176.91938996 0 111159176.91938996 -56519514.005653381 0 0 0 0 102641849.0486908 126658237.14944649 0 126658237.14944649 183013476.06003404 0 0 0 0 -250194974.33735657 127605222.2690773 0 127605222.2690773 193244913.47027588 0 0 0 0 -240175156.55214691 429036429.82621288 0 429036429.82621288 -306151736.42353821 0 0 0 0 -830969663.65870667 310553577.27383995 0 310553577.27383995 103436846.51210594 0 0 0 0 -1056977066.7882729 709178338.89031839 0 709178338.89031839 -188346959.02569389 0 0 0 0 -919309288.72224426 135490262.01526833 0 135490262.01526833 -84250940.084406614 0 0 0 0 -762357006.34902191 454850120.49541354 0 454850120.49541354 301094355.52403641 0 0 0 0 -502130602.25876617 42490880.888456106 0 42490880.888456106 49411815.319675446 0 0 0 0 -746465262.34062958 512121587.17957973 0 512121587.17957973 -143316878.43804741 0 0 0 0 -1418008.0078951227 249609.56264220923 0 249609.56264220923 1077596.3442364912 0 0 0 0 28450948.892158508 53321008.196797371 0 53321008.196797371 -136140728.72489738 0 0 0 0 3220643.0493240356 18340989.762788773 0 18340989.762788773 32312503.543690681 0 0 0 0 47884657.544293642 144874549.81678507 0 144874549.81678507 201773612.58243942 0 0 0 0 -460999.20800349116 -60136.99543376267 0 -60136.99543376267 336296.28227451723 0 0 0 0 -224861202.23920441 107858409.61722755 0 107858409.61722755 -89679484.262928963 0 0 0 0 78042768.217887878 230136248.81051064 0 230136248.81051064 148548980.73749638 0 0 0 0 -13838340.516665459 97759406.699732184 0 97759406.699732184 351506541.43188477 0 0 0 0 17699981.234466553 1426354.6650586128 0 1426354.6650586128 45588354.271842003 0 0 0 0 -2167096.3718590699 1838047.3733133823 0 1838047.3733133823 1269702.4360131701 0 0 0 0 -308330961.16265869 352056514.6574688 0 352056514.6574688 -386991066.36611176 0 0 0 0 280318039.54656219 224553478.9495554 0 224553478.9495554 238767363.75080872 0 0 0 0 452242624.46465302 265102190.01036358 0 265102190.01036358 186912786.6536808 0 0 0 0 -540048683.12723541 487407189.62568998 0 487407189.62568998 -54306010.702068329 0 0 0 0 -563011598.73890495 439396698.15563226 0 439396698.15563226 -137195115.04335976 0 0 0 0 -395576324.47621918 499137152.14681625 0 499137152.14681625 -462367535.60679245 0 0 0 0 -133052349.84417725 242509387.26387882 0 242509387.26387882 -213796399.68724823 0 0 0 0 -217443441.4512825 95603930.656841278 0 95603930.656841278 -35713177.200494766 0 0 0 0 -3137292.9241008684 2496462.9480375461 0 2496462.9480375461 2032524.1540415948 0 0 0 0 -115051550.99232483 108181211.61347771 0 108181211.61347771 -139695029.69939613 0 0 0 0 -2541801.3514394434 1440033.7333465088 0 1440033.7333465088 3767578.5636084098 0 0 0 0 42540052.326214671 45830280.537844151 0 45830280.537844151 44322052.04210186 0 0 0 0 -171681814.86863708 221443220.01343822 0 221443220.01343822 -228334585.99789643 0 0 0 0 -5456402.6923943721 418674.41925778519 0 418674.41925778519 1871757.4483850407 0 0 0 0 -338157293.75046539 80753976.659776211 0 80753976.659776211 1906822.8529510498 0 0 0 0 -5195113.4483718872 148269442.37001848 0 148269442.37001848 -133656499.24592781 0 0 0 0 -382784507.3562088 -83409997.76474762 0 -83409997.76474762 18165461.797795296 0 0 0 0 80804533.361818433 -37341305.509537622 0 -37341305.509537622 -45860244.435214043 0 0 0 0 -390476573.17969131 57535679.599655628 0 57535679.599655628 84605118.689893723 0 0 0 0 -1513864.2903401395 1231862.6615877766 0 1231862.6615877766 2344036.0504173478 0 0 0 0 -500988995.37289453 224708731.14591837 0 224708731.14591837 -80563943.441743851 0 0 0 0 -524582259.78009796 413720111.7772603 0 413720111.7772603 -120040154.9767189 0 0 0 0 -439317871.81469727 139803070.96825123 0 139803070.96825123 13310833.561981201 0 0 0 0 -773009579.4891243 222431221.99081612 0 222431221.99081612 -41340583.063726425 0 0 0 0 -776274662.5069313 427970535.9024725 0 427970535.9024725 -63943731.568517685 0 0 0 0 -617262480.45625305 371888000.37043428 0 371888000.37043428 -59542633.076938629 0 0 0 0 720573891.96683502 -3298560.5018854141 0 -3298560.5018854141 109151820.63043618 0 0 0 0 421642723.188797 25592146.826917648 0 25592146.826917648 136209479.9276104 0 0 0 0 -49900595.113594055 53895664.19302845 0 53895664.19302845 40610785.587652206 0 0 0 0 85709915.511131287 61664135.648896217 0 61664135.648896217 37429933.212430477 0 0 0 0 105033195.20411682 -8260950.0907382965 0 -8260950.0907382965 -195632151.27158022 0 0 0 0 -222828907.23426628 129910544.45298624 0 129910544.45298624 7597092.3156490326 0 0 0 0 462512.93110073917 -59859.090706203133 0 -59859.090706203133 -937316.18957521021 0 0 0 0 133742077.77916718 -126420269.3211236 0 -126420269.3211236 61741171.379608154 0 0 0 0 233758532.43354797 -38563976.157835007 0 -38563976.157835007 -230546751.4557066 0 0 0 0 250511432.7011528 35501491.157442093 0 35501491.157442093 61812304.489879608 0 0 0 0 127400862.17578125 -126552411.59745026 0 -126552411.59745026 150344871.68571091 0 0 0 0 438236133.17778778 -151047866.78156471 0 -151047866.78156471 -98990364.858765841 0 0 0 0 485222145.32688141 -42040895.580938339 0 -42040895.580938339 146310876.53366089 0 0 0 0 493647093.02220058 -325608317.22073317 0 -325608317.22073317 162386782.65557861 0 0 0 0 -373008510.30688477 -429275150.79985237 0 -429275150.79985237 -40709626.479544163 0 0 0 0 -1426573150.1200867 1025041808.1146574 0 1025041808.1146574 -673657654.54189777 0 0 0 0 -2077901.7250311486 128725.20688217599 0 128725.20688217599 573036.83491390245 0 0 0 0 -2338916602.2476654 10639815.135074615 0 10639815.135074615 310968756.60518265 0 0 0 0 -383828700.49931335 -73182513.281106949 0 -73182513.281106949 -74064564.602565289 0 0 0 0 -1607938825.0892181 8157807.1380367279 0 8157807.1380367279 47593827.836537361 0 0 0 0 800780418.1798172 -250947602.28366375 0 -250947602.28366375 65107323.659848213 0 0 0 0 -1068539045.3468819 596763003.80269146 0 596763003.80269146 -328010143.32089901 0 0 0 0 -1377349461.4529648 1102912733.4713879 0 1102912733.4713879 -933248726.39966965 0 0 0 0 -299806.12679878436 -290034.7587932311 0 -290034.7587932311 -1010876.2716172822 0 0 0 0 -776476841.18083382 403168917.45945573 0 403168917.45945573 -571367493.59819412 0 0 0 0 -49888291.833328247 -521587237.24259758 0 -521587237.24259758 346830521.05632633 0 0 0 0 -926074271.17503548 -3697242.1439658403 0 -3697242.1439658403 135959547.11599731 0 0 0 0 -784466222.38139629 250293023.78831655 0 250293023.78831655 127829401.23771858 0 0 0 0 -392029783.94376373 38495681.617964268 0 38495681.617964268 128577512.16385627 0 0 0 0 -793706272.59240723 201722293.48927736 0 201722293.48927736 371037829.47840762 0 0 0 0 133426737.40569538 172894268.60108522 0 172894268.60108522 25548171.432775497 0 0 0 0 96142.115818215534 264410.75958091021 0 264410.75958091021 -980526.76277170703 0 0 0 0 132729015.69290924 57954434.355268478 0 57954434.355268478 69416835.440084457 0 0 0 0 128606923.33855438 61594521.592563629 0 61594521.592563629 72095132.952627182 0 0 0 0 133323775.68644714 71080409.682764053 0 71080409.682764053 56220952.343193054 0 0 0 0 125093496.29393005 54063632.068943977 0 54063632.068943977 74360623.617843628 0 0 0 0 115688172.46455383 59861659.850437164 0 59861659.850437164 74743314.742010117 0 0 0 0 549726.08734865859 234539.40070456639 0 234539.40070456639 -1879842.6044077082 0 0 0 0 105235188.92176819 62451677.119035721 0 62451677.119035721 76761554.411946774 0 0 0 0 99719921.218151093 87022157.500567436 0 87022157.500567436 53478371.93429184 0 0 0 0 468650289.39137268 583799760.5300045 0 583799760.5300045 -740193579.92904663 0 0 0 0 82890299.149963379 106058795.28651619 0 106058795.28651619 68406469.943588734 0 0 0 0 -37593895.286685944 114295717.49772644 0 114295717.49772644 67848961.99448967 0 0 0 0 67814600.059173584 93436391.128615379 0 93436391.128615379 69365985.385734558 0 0 0 0 120435661.69125366 76085215.184167862 0 76085215.184167862 74117573.599977493 0 0 0 0 118508783.5269928 121526257.51037025 0 121526257.51037025 63525753.548921585 0 0 0 0 92917067.019981384 99522978.315681458 0 99522978.315681458 72780775.088523865 0 0 0 0 149490180.29959106 98421650.66157341 0 98421650.66157341 70392500.933501244 0 0 0 0 116738113.29626179 74740376.823231399 0 74740376.823231399 74173604.862785339 0 0 0 0 142138739.45404053 88767410.861299515 0 88767410.861299515 88965702.326107025 0 0 0 0 125050110.25761414 67405802.620389938 0 67405802.620389938 80536835.915596008 0 0 0 0 134105369.97502518 94634393.82511425 0 94634393.82511425 86608581.787090302 0 0 0 0 194544171.628479 110673510.040205 0 110673510.040205 90723622.672413826 0 0 0 0 233308344.25260162 134364821.45636654 0 134364821.45636654 144894568.10351181 0 0 0 0 170619547.0875473 96885639.922803879 0 96885639.922803879 219547005.91384888 0 0 0 0 188590704.1519928 110057686.49797821 0 110057686.49797821 124970072.16629934 0 0 0 0 143973837.41139984 74619186.409532547 0 74619186.409532547 122718079.95336914 0 0 0 0 176443178.17314911 78817648.622218132 0 78817648.622218132 254801475.30698013 0 0 0 0 105275569.989151 116754455.17364883 0 116754455.17364883 234822684.17159081 0 0 0 0 265177371.63308716 144977176.40330315 0 144977176.40330315 219352199.49447766 0 0 0 0 220691570.54788971 115860867.60150528 0 115860867.60150528 392183563.25425911 0 0 0 0 75207049.871879578 216603623.84102345 0 216603623.84102345 350589716.93519545 0 0 0 0 65798202.769035339 166223675.00004435 0 166223675.00004435 237326250.29289389 0 0 0 0 -371994633.27718735 174754869.29320943 0 174754869.29320943 491428226.7334528 0 0 0 0 -72658847.461624146 173205484.13885498 0 173205484.13885498 251059045.00926971 0 0 0 0 87214735.189847946 171404892.88985848 0 171404892.88985848 73860036.150629044 0 0 0 0 -167773840.21780396 441959178.86705589 0 441959178.86705589 -87778516.265940666 0 0 0 0 -311130160.33053207 57878292.268568039 0 57878292.268568039 27897440.146272898 0 0 0 0 -680281281.61135483 241125955.95161343 0 241125955.95161343 462792838.96052647 0 0 0 0 -364164966.93991089 150273215.35385704 0 150273215.35385704 484938941.50729084 0 0 0 0 -330342251.32962799 111380873.96693945 0 111380873.96693945 439278788.48595619 0 0 0 0 -498773747.00031281 171255875.76077271 0 171255875.76077271 507300125.70923996 0 0 0 0 -523219069.62321472 135206880.93398499 0 135206880.93398499 456352947.03352356 0 0 0 0 -441659153.97584534 167193812.95961189 0 167193812.95961189 371084360.4583559 0 0 0 0 -472178852.40241241 137647046.05848122 0 137647046.05848122 440197162.74625337 0 0 0 0 -15879815.095071793 53413025.169374704 0 53413025.169374704 149565248.17861938 0 0 0 0 30792785.048797607 128011296.34921265 0 128011296.34921265 197108156.25224161 0 0 0 0 524699757.73683167 382940365.81896591 0 382940365.81896591 321007437.25717592 0 0 0 0 701850952.03058624 93835257.347311974 0 93835257.347311974 382782289.45989418 0 0 0 0 -25687003.445007324 139282381.74264097 0 139282381.74264097 592560760.04991436 0 0 0 0 -87913281.50377655 240668358.11785221 0 240668358.11785221 466732153.38542938 0 0 0 0 -907215303.07889557 400660827.47776985 0 400660827.47776985 -7987577.6749353409 0 0 0 0 -738989246.20522022 454140756.51007867 0 454140756.51007867 -83367358.926528931 0 0 0 0 -733728633.382061 424203384.46279573 0 424203384.46279573 -119646788.44915199 0 0 0 0 -884698214.95719147 314046036.54679203 0 314046036.54679203 -67184059.993153572 0 0 0 0 -365702.12218199822 177365.95567699336 0 177365.95567699336 624832.26899097767 0 0 0 0 -1025816103.3671951 353912013.23478127 0 353912013.23478127 -39721150.472523689 0 0 0 0 -925609.69637354184 745617.15026074275 0 745617.15026074275 1537706.8699301602 0 0 0 0 130338639.90979004 26597738.489449501 0 26597738.489449501 -9281383.9899897575 0 0 0 0 409977052.58127213 390210586.5768137 0 390210586.5768137 275126802.62934256 0 0 0 0 -296497902.45546722 110402216.20863426 0 110402216.20863426 164563977.17592239 0 0 0 0 -655708911.54261875 409929207.95216322 0 409929207.95216322 624757062.70102406 0 0 0 0 -669187863.8259964 267041787.9158802 0 267041787.9158802 388835338.15000439 0 0 0 0 -682061503.81512451 652758460.06087732 0 652758460.06087732 355417919.1128664 0 0 0 0 -1667871000.0123935 290543038.48128867 0 290543038.48128867 313113136.75298023 0 0 0 0 -1033544874.1051254 590948119.64955616 0 590948119.64955616 454641333.79628849 0 0 0 0 -957369029.33868027 535752013.05650973 0 535752013.05650973 305706532.84726906 0 0 0 0 -959457193.57118988 564677728.90511608 0 564677728.90511608 401045774.44933414 0 0 0 0 -782328676.01258087 546798686.6086998 0 546798686.6086998 357986459.42492771 0 0 0 0 -1025030645.8810756 430106773.15817821 0 430106773.15817821 306849963.9108181 0 0 0 0 -717075090.61058807 534148570.72765207 0 534148570.72765207 84426409.111385345 0 0 0 0 -19698009.012123108 13728292.564969182 0 13728292.564969182 -18740828.835967064 0 0 0 0 -1381077.5990098771 1451361.8440918252 0 1451361.8440918252 -1059082.3097694051 0 0 0 0 -29749001.36551857 42753461.467833042 0 42753461.467833042 -20073988.504262924 0 0 0 0 -968807798.78569794 110088115.98147297 0 110088115.98147297 14522764.708465576 0 0 0 0 -876311510.39289093 411405961.51724434 0 411405961.51724434 179915594.46671295 0 0 0 0 -927022454.85872269 532902902.83116865 0 532902902.83116865 166168820.56216812 0 0 0 0 -818998349.55586624 556878834.35252047 0 556878834.35252047 -195630919.79899502 0 0 0 0 -888457686.5044632 606593660.48208714 0 606593660.48208714 162919690.02265269 0 0 0 0 -717057791.3915596 600505181.51404905 0 600505181.51404905 -177539026.52673602 0 0 0 0 -872674982.00167942 576293431.75895095 0 576293431.75895095 -20661141.322249413 0 0 0 0 -1059670079.452919 736127993.22849131 0 736127993.22849131 -51328493.298624277 0 0 0 0 -872762709.95030212 691625406.04288721 0 691625406.04288721 181420933.66909504 0 0 0 0 -874374334.95661163 486284622.92085743 0 486284622.92085743 309066068.83346391 0 0 0 0 -872797031.19422734 402380604.00189453 0 402380604.00189453 166077480.52048969 0 0 0 0 -1277369553.4560623 620410646.19608212 0 620410646.19608212 92122621.290132284 0 0 0 0 -1012974978.9603558 581324561.1760416 0 581324561.1760416 -108248565.29808998 0 0 0 0 -2452196124.6923866 931961956.04154301 0 931961956.04154301 -193479325.03614616 0 0 0 0 -4853075.5533683226 799904.20410680259 0 799904.20410680259 1345406.3855490652 0 0 0 0 -612094709.00202179 1063538690.4503675 0 1063538690.4503675 -1498325600.6688695 0 0 0 0 -767909652.14476776 727977652.89526367 0 727977652.89526367 -497076209.04155254 0 0 0 0 -5990536.2915666103 1542852.8435947038 0 1542852.8435947038 2853626.9015480541 0 0 0 0 -4574425.4802017212 1659874.0851535797 0 1659874.0851535797 231982.77994918823 0 0 0 0 -5771770.37327726 4274725.9498701915 0 4274725.9498701915 1882285.5982261114 0 0 0 0 -9243158.5596809387 6003917.7833490372 0 6003917.7833490372 8082855.2949790955 0 0 0 0 -282723230.85351562 223054424.55528021 0 223054424.55528021 -406173970.19426835 0 0 0 0 -6083476.3986282349 6282942.7276258469 0 6282942.7276258469 6487335.7329292297 0 0 0 0 -7434989.3214187622 4590612.2068514824 0 4590612.2068514824 4941482.3148765564 0 0 0 0 -8816768.4274864197 8457022.3267068863 0 8457022.3267068863 2914978.1177310944 0 0 0 0 -6712527.9448998459 2560434.8488291856 0 2560434.8488291856 5171676.1823667139 0 0 0 0 573023018.79727173 66325128.168615818 0 66325128.168615818 -150476672.3135047 0 0 0 0 453235636.16235352 68132577.81007719 0 68132577.81007719 24550247.490696907 0 0 0 0 118804112.01957703 -49776541.795922279 0 -49776541.795922279 -14398851.55712986 0 0 0 0 -3337587.0925102234 97536738.829627156 0 97536738.829627156 149057271.33895111 0 0 0 0 -875276409.28720522 91036011.546088547 0 91036011.546088547 361405998.40315342 0 0 0 0 -657511479.40383911 181716579.2007885 0 181716579.2007885 198985342.21405602 0 0 0 0 -1376384555.0998535 -1652038.768073082 0 -1652038.768073082 159179442.10667467 0 0 0 0 -660339863.57666016 -17277869.121253014 0 -17277869.121253014 55646240.559408337 0 0 0 0 -405506785.08533478 -175582803.06302452 0 -175582803.06302452 47330356.188041687 0 0 0 0 -671133197.23824692 -73082907.608774662 0 -73082907.608774662 -148372838.32491207 0 0 0 0 -1417540466.2566223 -2685424.7640705109 0 -2685424.7640705109 -109966435.63637114 0 0 0 0 -1920734572.5399723 -599285564.05518293 0 -599285564.05518293 -797226066.82764053 0 0 0 0 -1037795678.1740265 429700974.2349968 0 429700974.2349968 -2187561044.4759617 0 0 0 0 -419332624.57484818 -22041902.119400084 0 -22041902.119400084 -72762603.995689392 0 0 0 0 -1027837281.5236206 269349881.2553072 0 269349881.2553072 -241194050.77964973 0 0 0 0 -419148386.95663071 -57979552.691295147 0 -57979552.691295147 -993106633.8746109 0 0 0 0 207958057.06634521 150003999.48357773 0 150003999.48357773 -485549808.61909294 0 0 0 0 323665423.66130829 -137804369.20699549 0 -137804369.20699549 222350086.34664536 0 0 0 0 187263104.22543716 -120273545.51183701 0 -120273545.51183701 -435015727.00340843 0 0 0 0 208728863.72704411 120131860.56178313 0 120131860.56178313 101698701.19285774 0 0 0 0 1774127.9577081874 6105923.2050469536 0 6105923.2050469536 -6321345.8041246934 0 0 0 0 751582738.56544495 238584197.4984026 0 238584197.4984026 -215740976.87537861 0 0 0 0 908971727.05454254 564753333.53393364 0 564753333.53393364 298160693.7571907 0 0 0 0 12677940.324356079 10002949.511622429 0 10002949.511622429 -11188258.664829254 0 0 0 0 11072777.590439796 9513692.6678905487 0 9513692.6678905487 -9661916.9878959656 0 0 0 0 12166558.711082458 4597106.9544143677 0 4597106.9544143677 -19462839.852054596 0 0 0 0 11959067.471393585 7703490.6191062927 0 7703490.6191062927 -13531452.440220833 0 0 0 0 14189586.185462952 7666367.4458217621 0 7666367.4458217621 -12431280.947360992 0 0 0 0 16997212.897960663 8654213.9965724945 0 8654213.9965724945 -15119304.305908203 0 0 0 0 13283413.530269623 13383071.848426819 0 13383071.848426819 -4718993.4654464722 0 0 0 0 27258918.62670517 36460048.986260414 0 36460048.986260414 -9025856.226524353 0 0 0 0 1228926.9776878357 13371553.045518875 0 13371553.045518875 -2333779.618560791 0 0 0 0 1070397.8339554127 6106518.5265743714 0 6106518.5265743714 -7287195.7029826967 0 0 0 0 -8008104.9462661743 4735590.0441951752 0 4735590.0441951752 3082539.5557060242 0 0 0 0 -348557.48242404591 1197084.6784737259 0 1197084.6784737259 -930417.73077457771 0 0 0 0 51445236.072179794 616638.47812128067 0 616638.47812128067 -12015064.816802979 0 0 0 0 28341015.747173309 44900096.289589882 0 44900096.289589882 -30109122.036190033 0 0 0 0 892846.67441501189 7413777.9454435082 0 7413777.9454435082 -7086171.4200060582 0 0 0 0 -18720689.812339783 -7839708.489030838 0 -7839708.489030838 9302418.7640519142 0 0 0 0 -5263962.264010679 12142328.422046715 0 12142328.422046715 5876630.2514460832 0 0 0 0 -7898776.3402862549 33382794.082742691 0 33382794.082742691 -52165900.118480206 0 0 0 0 -36225393.388591766 21284860.496395111 0 21284860.496395111 10770224.79284668 0 0 0 0 -28978272.751480103 4353152.787815094 0 4353152.787815094 11474922.469402313 0 0 0 0 -32522305.607866287 24212579.965759277 0 24212579.965759277 -1150025.1856880188 0 0 0 0 -12120461.899810791 23116596.019189835 0 23116596.019189835 1896872.9138374329 0 0 0 0 -36399210.94461441 20006268.46295166 0 20006268.46295166 13339985.762138367 0 0 0 0 -40937296.887371063 9517988.4580841064 0 9517988.4580841064 4204965.3280673027 0 0 0 0 1092444.4978980161 691906.16355903819 0 691906.16355903819 278981.32172963582 0 0 0 0 13032870.984762192 20934740.307555199 0 20934740.307555199 2812982.9200973511 0 0 0 0 -9616332.9455176536 17912259.132207111 0 17912259.132207111 -917280.64712529629 0 0 0 0 32327689.415378571 -19648706.896878242 0 -19648706.896878242 6381092.2858657837 0 0 0 0 -74605750.548143387 210125738.04470062 0 210125738.04470062 148415400.65328026 0 0 0 0 -63101516.60521698 89942115.270822525 0 89942115.270822525 910775.47366881371 0 0 0 0 137585140.47572565 175210530.95541382 0 175210530.95541382 -22566882.338775635 0 0 0 0 -6583237.3378234822 21187072.039369479 0 21187072.039369479 -10686557.910083588 0 0 0 0 -99333675.558279991 47643859.109382629 0 47643859.109382629 189306918.84754944 0 0 0 0 134617153.41671884 83403092.249557495 0 83403092.249557495 -69474746.606948853 0 0 0 0 15597757.437314987 7071887.432349205 0 7071887.432349205 -15508072.74993515 0 0 0 0 26928240.767288208 2981180.0401592255 0 2981180.0401592255 -29771464.990159988 0 0 0 0 -25634.28811567463 4870010.8230765406 0 4870010.8230765406 -4189747.6488992255 0 0 0 0 10775314.514883768 6592135.3659204077 0 6592135.3659204077 -13900499.122682344 0 0 0 0 6629859.8134098053 7953581.6148252487 0 7953581.6148252487 -12557102.460712433 0 0 0 0 11602500.519470215 2472259.6389980316 0 2472259.6389980316 -18535472.197458267 0 0 0 0 6531754.4780742275 9081558.3341131695 0 9081558.3341131695 -21834719.488764368 0 0 0 0 122370294.10671806 98850387.32598877 0 98850387.32598877 -214385249.90329742 0 0 0 0 -89888544.404184461 142862895.94467878 0 142862895.94467878 -73919055.841430664 0 0 0 0 -93441922.147471681 222383708.10885477 0 222383708.10885477 -139345674.65701294 0 0 0 0 182779512.71306729 1404667.2719421387 0 1404667.2719421387 -38193086.235023499 0 0 0 0 178401846.64773464 -92134835.273651123 0 -92134835.273651123 21951613.857391357 0 0 0 0 153513235.25379324 -40481682.322303772 0 -40481682.322303772 -81042849.980911255 0 0 0 0 308651815.69508362 -242120503.70608521 0 -242120503.70608521 -193865552.37095165 0 0 0 0 142624001.80190992 98838451.298141479 0 98838451.298141479 -274308202.49649048 0 0 0 0 355577834.7051096 -140953258.22363281 0 -140953258.22363281 -325605936.74838257 0 0 0 0 9904903.3971652985 358450592.4436264 0 358450592.4436264 -540335770.65783691 0 0 0 0 4485350.63829422 308037451.60116577 0 308037451.60116577 -487697000.59692383 0 0 0 0 544881316.54173279 -117483111.20077515 0 -117483111.20077515 -846667122.03308105 0 0 0 0 262243599.2367363 -145880541.28813171 0 -145880541.28813171 -189837007.64712524 0 0 0 0 -519187710.44673538 501382288.41370392 0 501382288.41370392 -385932850.38012695 0 0 0 0 12799353.523193359 -96760362.184074402 0 -96760362.184074402 -461055384.22885513 0 0 0 0 -548158510.77013242 107217481.58762264 0 107217481.58762264 -3128844.7522583008 0 0 0 0 -1682822.9189817645 4215510.0115742423 0 4215510.0115742423 1030775.7742884755 0 0 0 0 46862663.785861969 -1308631669.2694397 0 -1308631669.2694397 -656639013.66358948 0 0 0 0 345494477.5036602 268949737.99267578 0 268949737.99267578 -1432007113.8833008 0 0 0 0 -109756862.38654709 638064503.3458252 0 638064503.3458252 -1012932652.0267029 0 0 0 0 -322427634.29062653 211576921.40626526 0 211576921.40626526 -92823485.781005859 0 0 0 0 23971051.965928078 -30047360.321525574 0 -30047360.321525574 -95806047.896072388 0 0 0 0 164597307.37430191 358461679.56071472 0 358461679.56071472 -786266141.69664001 0 0 0 0 94215824.471721649 253281279.52345276 0 253281279.52345276 -60812728.065093994 0 0 0 0 -5625569.5085430145 78597005.977386475 0 78597005.977386475 -59059427.614753723 0 0 0 0 38947903.511707306 119072969.08137131 0 119072969.08137131 -40070925.789108276 0 0 0 0 50777663.591493607 143823531.80426788 0 143823531.80426788 -277403998.38010406 0 0 0 0 -3928470.3983726501 34461044.061855316 0 34461044.061855316 -7098453.7501869202 0 0 0 0 -2944623.3658691645 21450783.587804794 0 21450783.587804794 -15763932.414970398 0 0 0 0 22115734.542308807 40914762.814002991 0 40914762.814002991 -6594488.5125579834 0 0 0 0 -5516603.1575665474 36138084.766196728 0 36138084.766196728 -36085.980560302734 0 0 0 0 -4626420.5265862485 12574252.33328755 0 12574252.33328755 3165158.4873362705 0 0 0 0 10706928.840902328 28935020.985958099 0 28935020.985958099 24397054.575191498 0 0 0 0 -1021561.3474951452 536089.46347915381 0 536089.46347915381 3413981.1204714887 0 0 0 0 -109460918.20491982 87523503.06098938 0 87523503.06098938 43189363.055297852 0 0 0 0 -179911916.67605019 -21996660.259620667 0 -21996660.259620667 50859678.671661377 0 0 0 0 -314739068.99393463 93848738.073974609 0 93848738.073974609 59938843.254089355 0 0 0 0 -293156920.64565516 -45255459.02150631 0 -45255459.02150631 54808886.583740234 0 0 0 0 32374126.01076889 59199977.302558899 0 59199977.302558899 -20908001.26109314 0 0 0 0 -37564305.108373284 32340108.397533894 0 32340108.397533894 -1799681.9281158447 0 0 0 0 30662685.370893002 36301585.422989368 0 36301585.422989368 -9762269.3837356567 0 0 0 0 12977327.035795782 29160806.910927154 0 29160806.910927154 1881829.9249629267 0 0 0 0 -31222188.589654446 87585091.82545948 0 87585091.82545948 -23932421.159820557 0 0 0 0 5441700.5967455152 27931756.91423934 0 27931756.91423934 2604448.9110835791 0 0 0 0 44574352.63331604 57282939.929368973 0 57282939.929368973 8028773.1065826416 0 0 0 0 26399055.669181824 27664526.803508759 0 27664526.803508759 -13337570.362852097 0 0 0 0 58585349.383476257 37091289.152936935 0 37091289.152936935 7653514.9393920898 0 0 0 0 20312448.758998871 44252914.498855591 0 44252914.498855591 9145152.3566589355 0 0 0 0 31580504.707084656 63364404.714881897 0 63364404.714881897 20069723.3123703 0 0 0 0 -10886819.417889118 60436093.599622726 0 60436093.599622726 2006682.6952972412 0 0 0 0 -12158324.949653625 49111529.866195679 0 49111529.866195679 18298175.888053894 0 0 0 0 -5167246.8628044128 37382673.380353928 0 37382673.380353928 5705773.7054977417 0 0 0 0 -108157482.8535614 -44185760.706379414 0 -44185760.706379414 110814617.64429545 0 0 0 0 -3912117.7600301374 869642.36812920542 0 869642.36812920542 6321875.0049012154 0 0 0 0 -16999608.853517398 23298846.181919832 0 23298846.181919832 -4316236.3954309579 0 0 0 0 -6301876.3350906372 34452742.046928406 0 34452742.046928406 24269332.45847702 0 0 0 0 63029259.010944366 90829291.990589142 0 90829291.990589142 57190685.228164673 0 0 0 0 3334356.2693367004 52707511.614764214 0 52707511.614764214 33706952.965118408 0 0 0 0 11771885.776741233 14515768.684027625 0 14515768.684027625 -20404549.04463879 0 0 0 0 9904398.9186706543 25872685.296158791 0 25872685.296158791 -1478818.4250907898 0 0 0 0 15593081.988056183 53033076.385044098 0 53033076.385044098 56941857.019177079 0 0 0 0 12878815.427658081 21377097.222024918 0 21377097.222024918 -845209.15236663818 0 0 0 0 81145812.4757967 24819993.089029312 0 24819993.089029312 56665218.535812378 0 0 0 0 -1240264.2802597228 17195681.332444824 0 17195681.332444824 -11694336.628949059 0 0 0 0 -4409082.5668869019 25097938.744621277 0 25097938.744621277 7116291.2811126709 0 0 0 0 -2356555.9316247292 10330857.004447589 0 10330857.004447589 3113688.9544585608 0 0 0 0 25367969.340644836 22977606.894798279 0 22977606.894798279 23741737.96987915 0 0 0 0 -11694711.056732178 9633862.0817899704 0 9633862.0817899704 29649247.522792816 0 0 0 0 -10543357.554751163 12014997.97433662 0 12014997.97433662 16935024.753882859 0 0 0 0 -5084993.449344635 9030668.1809844971 0 9030668.1809844971 7828545.5751190186 0 0 0 0 -13996096.649151877 21600554.772569727 0 21600554.772569727 -3444924.4323560968 0 0 0 0 -8453286.9878796693 21087254.550278127 0 21087254.550278127 -7481507.628120577 0 0 0 0 -4550520.0556011163 5999183.0105759017 0 5999183.0105759017 6974240.6632077452 0 0 0 0 -11577978.789382935 25080506.378313065 0 25080506.378313065 79168418.039375305 0 0 0 0 17728469.850814819 41484093.906357765 0 41484093.906357765 75317011.879043579 0 0 0 0 485925.0540765794 529454.98135212995 0 529454.98135212995 -1157275.7828500075 0 0 0 0 -2959773.48229599 57058771.270619869 0 57058771.270619869 59740924.508292198 0 0 0 0 66341282.394580841 53768302.265490532 0 53768302.265490532 -12785243.104948044 0 0 0 0 -10154255.607513428 8314594.290763855 0 8314594.290763855 11116606.687805176 0 0 0 0 -12310673.345711567 6825796.5848678593 0 6825796.5848678593 22925615.208754987 0 0 0 0 -11123895.49735928 9471784.6191617753 0 9471784.6191617753 8876103.166207619 0 0 0 0 -3403053.0013646679 10659956.962014565 0 10659956.962014565 -1139019.5738896476 0 0 0 0 -30699156.790309906 20081455.635603905 0 20081455.635603905 53618076.095954895 0 0 0 0 -25939417.594749451 4334799.7468299866 0 4334799.7468299866 24844495.043562889 0 0 0 0 -6315617.8656938076 6496439.8210904896 0 6496439.8210904896 -46972787.915651321 0 0 0 0 1548760.122751236 79121349.216770172 0 79121349.216770172 12254263.931358337 0 0 0 0 67952660.752624512 60817508.262042999 0 60817508.262042999 4856132.417134285 0 0 0 0 -17700920.148303986 1565714.4927174002 0 1565714.4927174002 -27623338.13626954 0 0 0 0 11537148.605791092 2035453.3126561642 0 2035453.3126561642 -46186461.062225342 0 0 0 0 -47213286.942928314 -43866971.386784077 0 -43866971.386784077 189715625.58557415 0 0 0 0 51413276.914447784 76850516.455680847 0 76850516.455680847 -45265732.836772919 0 0 0 0 -27835909.561840057 -67605458.710224628 0 -67605458.710224628 19317633.999186516 0 0 0 0 68481340.620033026 84829321.45711413 0 84829321.45711413 -10493501.534196854 0 0 0 0 597286.6900210036 4735083.8562658876 0 4735083.8562658876 -4473833.7320898036 0 0 0 0 20850174.799591064 -17590436.697218418 0 -17590436.697218418 -72319691.418003559 0 0 0 0 -31544278.617202759 -69702738.805880249 0 -69702738.805880249 -34554561.899935573 0 0 0 0 18602390.396034241 -39593671.288220644 0 -39593671.288220644 21186141.047073364 0 0 0 0 65546031.090444565 10506574.284010813 0 10506574.284010813 -13455415.375241399 0 0 0 0 17671480.393913269 -23655919.198966384 0 -23655919.198966384 -21351367.908447444 0 0 0 0 -103286668.81054115 5171477.7718884945 0 5171477.7718884945 183186527.45914936 0 0 0 0 -20397838.015018389 19706661.462173387 0 19706661.462173387 -7140575.6330764052 0 0 0 0 49277145.426307201 199293058.97137153 0 199293058.97137153 134473066.65386534 0 0 0 0 -33334480.717212677 54851151.229228258 0 54851151.229228258 34053101.287847519 0 0 0 0 -77678371.647655487 -23322561.494428635 0 -23322561.494428635 -2612567.6795501709 0 0 0 0 -782193.30514590628 1189168.3882043809 0 1189168.3882043809 1509874.0695535764 0 0 0 0 136303492.03315449 223151638.49522901 0 223151638.49522901 -241885168.55802917 0 0 0 0 -138653950.22818565 -67295910.796649933 0 -67295910.796649933 92180706.633219719 0 0 0 0 -129736361.95409393 -40143250.357468605 0 -40143250.357468605 147028061.20806837 0 0 0 0 -73426083.69310236 15044572.482580781 0 15044572.482580781 109048903.69186783 0 0 0 0 -141580844.3732214 70753715.167210579 0 70753715.167210579 89057648.397493362 0 0 0 0 -176525209.44675922 -32275413.355051637 0 -32275413.355051637 176892397.69568253 0 0 0 0 -226561314.1906929 2581143.1025009155 0 2581143.1025009155 42657792.008176804 0 0 0 0 -140283601.94558525 8676435.9601693153 0 8676435.9601693153 -137831452.07928753 0 0 0 0 1496179.9350095605 1717698.1035167961 0 1717698.1035167961 -3852055.2894047005 0 0 0 0 -192466271.17323875 81339127.443656921 0 81339127.443656921 50813244.91105938 0 0 0 0 -117704471.36249542 -237205340.81800938 0 -237205340.81800938 251249956.8597784 0 0 0 0 -33984276.403864622 9872675.6775807142 0 9872675.6775807142 11489174.526130676 0 0 0 0 964842.23279639333 250168.2529802029 0 250168.2529802029 -1782645.413402467 0 0 0 0 -501516324.30844116 -88730256.035684109 0 -88730256.035684109 -81286217.723787308 0 0 0 0 56240085.601333618 -4527539.4908561707 0 -4527539.4908561707 100187891.99898645 0 0 0 0 28671562.119346619 41868747.791637421 0 41868747.791637421 26198918.486542702 0 0 0 0 -79938944.005332947 -55572084.379239082 0 -55572084.379239082 31601197.322947502 0 0 0 0 -58641189.572189331 23569655.412831783 0 23569655.412831783 10994185.527309418 0 0 0 0 11160301.045324326 -25293866.771809936 0 -25293866.771809936 31074888.367359161 0 0 0 0 5371744.5226516724 47861422.085285187 0 47861422.085285187 75584900.522663593 0 0 0 0 -241436.08480834961 -10008345.163639069 0 -10008345.163639069 -17855751.834272861 0 0 0 0 144247169.00094604 160470601.94274473 0 160470601.94274473 34259298.978896141 0 0 0 0 143781649.11252958 233441739.17289704 0 233441739.17289704 199759962.61178589 0 0 0 0 24730224.422073364 29718337.557756901 0 29718337.557756901 88188223.141059875 0 0 0 0 103281163.68305206 97067579.132435799 0 97067579.132435799 99049855.877749279 0 0 0 0 106682825.65875244 59018853.432064533 0 59018853.432064533 196213629.81410599 0 0 0 0 333640725.29771423 273496202.71929407 0 273496202.71929407 205586044.69407654 0 0 0 0 162034552.95353699 145407928.29060364 0 145407928.29060364 321952959.03275394 0 0 0 0 207047662.65442276 124188469.98603153 0 124188469.98603153 158284387.13415718 0 0 0 0 108225713.80273438 34206328.77303791 0 34206328.77303791 161851542.3604044 0 0 0 0 101809822.56588745 135369096.41513157 0 135369096.41513157 243430321.63878441 0 0 0 0 250553767.65280151 182023144.08889437 0 182023144.08889437 210284558.18864918 0 0 0 0 171878335.08314133 103205746.04690051 0 103205746.04690051 116978745.56378078 0 0 0 0 134693366.36412048 34954177.45711422 0 34954177.45711422 69133470.872234583 0 0 0 0 108352144.16038704 66660170.54028821 0 66660170.54028821 72764940.624777794 0 0 0 0 -81719892.938446045 54200663.985476494 0 54200663.985476494 306001639.94470763 0 0 0 0 48017943.226303101 12708251.66476059 0 12708251.66476059 52593584.531651497 0 0 0 0 69353857.184844971 70469818.023245811 0 70469818.023245811 175547290.59258175 0 0 0 0 96678816.018577576 125229874.71304917 0 125229874.71304917 193581058.03207922 0 0 0 0 114951297.01063538 281375063.51239204 0 281375063.51239204 393024927.49421787 0 0 0 0 -38612967.68409729 113118211.27885342 0 113118211.27885342 341855956.10443687 0 0 0 0 -332793770.71195984 140722680.22083282 0 140722680.22083282 563715583.67908764 0 0 0 0 -14442559.614124298 154725450.10044861 0 154725450.10044861 355130962.92674828 0 0 0 0 -52822697.65586853 431878778.16420364 0 431878778.16420364 799146530.74871063 0 0 0 0 -183006545.06945801 684919762.91301727 0 684919762.91301727 577369090.83560753 0 0 0 0 147875087.06597519 655982975.21199703 0 655982975.21199703 548254417.91826439 0 0 0 0 863833171.32040405 739046125.03771138 0 739046125.03771138 312341217.99655724 0 0 0 0 482344877.48065186 357583043.90045357 0 357583043.90045357 289130212.9087534 0 0 0 0 102735977.01325989 266320278.3800745 0 266320278.3800745 374577426.33267975 0 0 0 0 291216294.56700325 345290298.12696886 0 345290298.12696886 412328674.55240631 0 0 0 0 -354337594.14523697 535364132.92608833 0 535364132.92608833 227575064.47574806 0 0 0 0 458796312.03629303 601478350.41713572 0 601478350.41713572 -114114836.29941559 0 0 0 0 123282631.76885223 227421325.28941011 0 227421325.28941011 436276666.2902298 0 0 0 0 297177714.53268433 328531668.83147049 0 328531668.83147049 486879763.51334476 0 0 0 0 943801416.1517334 -61707920.876028061 0 -61707920.876028061 71777985.717714787 0 0 0 0 -176949572.72018433 912081760.13881779 0 912081760.13881779 1250701292.9511795 0 0 0 0 225609779.85614014 187052731.14178658 0 187052731.14178658 224404341.819767 0 0 0 0 154884490.24308777 118636577.69221687 0 118636577.69221687 144025430.42034149 0 0 0 0 48029744.550575256 226103082.7115345 0 226103082.7115345 125329029.30027008 0 0 0 0 179772401.63296509 115138164.50258827 0 115138164.50258827 156127990.73937225 0 0 0 0 224253191.85900879 250649733.832304 0 250649733.832304 96715881.81911087 0 0 0 0 298049420.54098511 297689677.9259491 0 297689677.9259491 454528269.65922356 0 0 0 0 251838178.11590576 259791776.09208298 0 259791776.09208298 390408909.52610779 0 0 0 0 198898532.80681229 115210103.91921759 0 115210103.91921759 196278891.33296585 0 0 0 0 257014795.01452637 173521848.47338486 0 173521848.47338486 511034339.29039955 0 0 0 0 218167362.51288605 108737377.65275931 0 108737377.65275931 355942322.46380234 0 0 0 0 226998886.00597763 218252357.37966251 0 218252357.37966251 340234729.25137329 0 0 0 0 194896451.11756134 109075378.57094288 0 109075378.57094288 252133386.66113472 0 0 0 0 460719725.89132309 498598154.44248343 0 498598154.44248343 328581041.28371811 0 0 0 0 229035893.37558746 193218858.14838409 0 193218858.14838409 372414621.00572491 0 0 0 0 488424205.19259644 421821470.57339859 0 421821470.57339859 462285198.86990929 0 0 0 0 199214680.74330139 324910623.13110065 0 324910623.13110065 826572350.98168564 0 0 0 0 600083515.20366669 675733753.00854588 0 675733753.00854588 553719624.79998446 0 0 0 0 -606369.90344157256 -1120.6509432680905 0 -1120.6509432680905 1587579.4803209151 0 0 0 0 664623307.75532532 942820117.9868269 0 942820117.9868269 954768458.41764736 0 0 0 0 -530816350.1593895 -149153698.4893415 0 -149153698.4893415 497017255.64538813 0 0 0 0 -372993790.50846863 193369619.67036724 0 193369619.67036724 1167859474.3804145 0 0 0 0 259913535.49215698 127149438.20942974 0 127149438.20942974 1292734458.7621288 0 0 0 0 -137095416.63097382 -83607238.767678022 0 -83607238.767678022 -33168297.049141884 0 0 0 0 -2974919.2458638428 1595438.2954917178 0 1595438.2954917178 5321885.5241490658 0 0 0 0 -54045629.679870605 121457431.2706306 0 121457431.2706306 -50317470.05880785 0 0 0 0 -183738666.73647308 57284100.131046414 0 57284100.131046414 -4157982.2458696365 0 0 0 0 36494823.13899231 161448659.06151199 0 161448659.06151199 527696838.65994596 0 0 0 0 543316369.18753529 464989231.19890308 0 464989231.19890308 303821085.30797863 0 0 0 0 -1014104.9086631909 1294641.3424292766 0 1294641.3424292766 645150.36424699146 0 0 0 0 639704768.41117382 -25670045.409063935 0 -25670045.409063935 -15506874.631943703 0 0 0 0 342761217.3759613 -52890933.875608206 0 -52890933.875608206 27467131.667307854 0 0 0 0 -50012636.464689255 63359220.835308313 0 63359220.835308313 -20484913.375129223 0 0 0 0 -6935760.781315174 8774653.8764355965 0 8774653.8764355965 7101380.440937656 0 0 0 0 5670293.8135948181 29294188.818506002 0 29294188.818506002 -41182101.365618944 0 0 0 0 -27436774.597002029 93422572.818635076 0 93422572.818635076 -26100271.802742481 0 0 0 0 22254637.110496521 30732906.493814468 0 30732906.493814468 -51996734.961534917 0 0 0 0 3393086.0358161926 13593172.862540245 0 13593172.862540245 -47502720.897551537 0 0 0 0 63574962.187973022 9064720.7265113294 0 9064720.7265113294 -47946381.39003557 0 0 0 0 39502780.710561752 50507708.814216584 0 50507708.814216584 -29233759.279904127 0 0 0 0 71320822.09299469 -16696794.239109337 0 -16696794.239109337 38118017.010310188 0 0 0 0 92899270.921156883 66984234.55169186 0 66984234.55169186 50927675.339139462 0 0 0 0 79831804.273231506 15793542.992416978 0 15793542.992416978 -12327625.84036684 0 0 0 0 43320388.625831604 105115695.84385562 0 105115695.84385562 36416239.204009414 0 0 0 0 -15461263.870454788 45461268.083106995 0 45461268.083106995 -21172403.502705097 0 0 0 0 -115842964.42850876 794705916.389382 0 794705916.389382 54058130.402023315 0 0 0 0 11260717.207717896 664628544.84581947 0 664628544.84581947 -298399479.81230354 0 0 0 0 -1355414.2234039307 954063431.75718164 0 954063431.75718164 -485921205.26668739 0 0 0 0 -71139140.505111694 612152548.09575176 0 612152548.09575176 -147639164.21426487 0 0 0 0 135737282.46328354 861327320.43065357 0 861327320.43065357 17519017.68239975 0 0 0 0 -207408964.48706818 804117692.56402588 0 804117692.56402588 560840483.392519 0 0 0 0 874658.21170043945 832273914.59103441 0 832273914.59103441 850863354.51206589 0 0 0 0 -249816732.41139221 610371548.2699852 0 610371548.2699852 80558260.849104166 0 0 0 0 -122312040.57657242 504304072.19920206 0 504304072.19920206 114144293.94140244 0 0 0 0 101803883.85417938 525430825.20129108 0 525430825.20129108 -97608872.949476242 0 0 0 0 -117812843.55049133 484348179.0868969 0 484348179.0868969 -78320237.162139893 0 0 0 0 114943611.87700176 410956193.40898055 0 410956193.40898055 -190386122.37511063 0 0 0 0 256778968.04556274 424884106.50190639 0 424884106.50190639 -259181570.82540417 0 0 0 0 19277854.484634399 605938890.40968132 0 605938890.40968132 -169489313.75379753 0 0 0 0 162201347.49005127 56609290.860099792 0 56609290.860099792 -738459263.58249474 0 0 0 0 150027495.24850464 624849245.9478507 0 624849245.9478507 -625502339.97727966 0 0 0 0 200165059.59884644 237835274.04241562 0 237835274.04241562 -206727913.18032515 0 0 0 0 461931411.15756607 608723255.92339802 0 608723255.92339802 -251731602.53622055 0 0 0 0 188427344.1623764 643169829.93358517 0 643169829.93358517 543043139.12542152 0 0 0 0 117770532.82723236 148049624.54558229 0 148049624.54558229 -169926161.71638298 0 0 0 0 338082626.72490692 306296114.10307503 0 306296114.10307503 -220323786.4357872 0 0 0 0 82722149.347732544 -9333977.4194068909 0 -9333977.4194068909 -403372761.76615 0 0 0 0 245485485.444664 238959766.32175016 0 238959766.32175016 -389477442.70675468 0 0 0 0 96240159.373970032 27009057.356178284 0 27009057.356178284 -474249887.58744431 0 0 0 0 90758437.243392944 16293508.905126572 0 16293508.905126572 -485038932.92554188 0 0 0 0 64208962.14050293 675795321.07186604 0 675795321.07186604 -303639560.77654839 0 0 0 0 174826158.70005417 696785985.44779277 0 696785985.44779277 -1352212978.6902313 0 0 0 0 -31988.650025503903 8362620.0550360475 0 8362620.0550360475 -3103146.9414577484 0 0 0 0 -94306880.171852112 -478453925.21737003 0 -478453925.21737003 -1769376443.5822225 0 0 0 0 -728034.73629653081 882464.08925716765 0 882464.08925716765 -182784.47461529635 0 0 0 0 14603728.509223938 26304929.927233219 0 26304929.927233219 15338930.750338078 0 0 0 0 -71472893.605392456 -200015737.62406445 0 -200015737.62406445 -422156920.51852608 0 0 0 0 -1865609.0144891441 2442024.4144119807 0 2442024.4144119807 -1048041.2967188293 0 0 0 0 15435375.076602459 -14055093.649260204 0 -14055093.649260204 -13451625.686850548 0 0 0 0 -11374278.426879883 5648614.5081553459 0 5648614.5081553459 6506875.1952843666 0 0 0 0 181780.32912445068 18410772.64313364 0 18410772.64313364 31329655.257549047 0 0 0 0 43258936.957725525 77086253.032160759 0 77086253.032160759 107280995.90112019 0 0 0 0 64792586.370544434 -14136020.179939032 0 -14136020.179939032 1440305.8096446991 0 0 0 0 -23231737.318145752 -18460444.618069649 0 -18460444.618069649 40353950.615370989 0 0 0 0 177958156.2892704 58335562.291392535 0 58335562.291392535 -41994204.145495653 0 0 0 0 539370.52803968638 410126.79362570308 0 410126.79362570308 -608454.46281775692 0 0 0 0 12700535.488647461 -93196323.012904048 0 -93196323.012904048 -21037347.668715023 0 0 0 0 731928235.43450928 630420488.34202218 0 630420488.34202218 74345180.944901705 0 0 0 0 210135894.36333466 235655761.64702749 0 235655761.64702749 123303391.14367887 0 0 0 0 91434.983367919922 167719397.85770822 0 167719397.85770822 664398434.59087718 0 0 0 0 62577009.156234741 257215014.51565382 0 257215014.51565382 222522336.21412599 0 0 0 0 3019098.3966217041 48415311.431978226 0 48415311.431978226 -126313251.42909355 0 0 0 0 -1354701.2832489014 -3324514.624586463 0 -3324514.624586463 -27502785.496460438 0 0 0 0 -93605374.351051331 47901282.920374662 0 47901282.920374662 24097626.473041177 0 0 0 0 2389015.6990203857 -123811158.88736624 0 -123811158.88736624 -88866989.666311204 0 0 0 0 -25967613.286903381 -25004106.703442216 0 -25004106.703442216 66443774.17540133 0 0 0 0 -40001680.02130127 24074392.969362974 0 24074392.969362974 -601335.91274213791 0 0 0 0 766140.5878537558 1547900.5578637067 0 1547900.5578637067 -1113880.861546465 0 0 0 0 -11372903.989091873 44553917.836216636 0 44553917.836216636 34632827.639887333 0 0 0 0 -8254371.6923294067 -723112.08167356253 0 -723112.08167356253 5176283.298214674 0 0 0 0 -1060516.554814294 57585.127866141498 0 57585.127866141498 1260738.2685770672 0 0 0 0 -2390739.0321493149 2639584.8731042147 0 2639584.8731042147 -67041844.464561462 0 0 0 0 -2276258.1564283781 3149174.7124709859 0 3149174.7124709859 1699340.9489488946 0 0 0 0 -5004954.1050415039 55764129.48598671 0 55764129.48598671 -132357915.78094578 0 0 0 0 -18157331.085998535 -12641263.121727943 0 -12641263.121727943 4620501.1857339144 0 0 0 0 -3138343.5830318928 -10750741.956060201 0 -10750741.956060201 -128279848.75782967 0 0 0 0 -3192126.0686395727 4188764.897391066 0 4188764.897391066 -1084193.9574765163 0 0 0 0 19738666.031784058 -35143893.70747757 0 -35143893.70747757 -131234094.21929729 0 0 0 0 88609636.965042114 63364295.007171154 0 63364295.007171154 -135506192.0051918 0 0 0 0 56411755.175590515 -3204874.2557153702 0 -3204874.2557153702 -251039843.34947968 0 0 0 0 182226550.96244049 111464201.19936848 0 111464201.19936848 -266645987.52077103 0 0 0 0 121939788.93582153 156611764.21629143 0 156611764.21629143 -155028693.34697509 0 0 0 0 64728354.189849854 91210936.685199738 0 91210936.685199738 -166571836.50862408 0 0 0 0 -142475622.99961853 164030152.30508804 0 164030152.30508804 -29660866.734354019 0 0 0 0 -171495203.91464996 128214659.33006287 0 128214659.33006287 -70307941.700408936 0 0 0 0 -908812.29069462419 393991.75757433102 0 393991.75757433102 809196.70797656104 0 0 0 0 82987447.96836853 169242884.43574905 0 169242884.43574905 -99085773.872602463 0 0 0 0 1079593036.1386719 204257985.15635204 0 204257985.15635204 92036.354063034058 0 0 0 0 455324362.73866272 11728052.737186432 0 11728052.737186432 317040001.23107815 0 0 0 0 107610739.43664551 554084067.57583618 0 554084067.57583618 370358650.45724058 0 0 0 0 1328.6342861056328 776173.32599915378 0 776173.32599915378 -136505.43784566037 0 0 0 0 -3253114.7954483032 -17545014.142590523 0 -17545014.142590523 270750433.29608917 0 0 0 0 571076276.01613617 453060157.90611172 0 453060157.90611172 437318425.96083641 0 0 0 0 562167289.11097717 204867130.33619308 0 204867130.33619308 21077203.456144333 0 0 0 0 -1973177.7652997971 9039535.4547416121 0 9039535.4547416121 3145155.4833087921 0 0 0 0 -2188720.8108768687 5501672.5147466082 0 5501672.5147466082 -3360433.8961114399 0 0 0 0 -5198360.2658538818 75960492.565479279 0 75960492.565479279 -60345824.226313591 0 0 0 0 -2917238.2993818671 2750561.4940480925 0 2750561.4940480925 1950240.455074029 0 0 0 0 -2352291.8349132538 7038406.3166175038 0 7038406.3166175038 874737.84407782555 0 0 0 0 -5405719.8005371094 4689468.8781900406 0 4689468.8781900406 1901766.6122184396 0 0 0 0 -7254054.0838317871 6287175.2942894399 0 6287175.2942894399 8876238.3376722932 0 0 0 0 -6914206.3270530701 4148634.0469555259 0 4148634.0469555259 5631182.8495969772 0 0 0 0 4539846.3899803162 17261676.031233907 0 17261676.031233907 -1463956.2526115775 0 0 0 0 -8023166.1114196777 7895190.2293189168 0 7895190.2293189168 5534298.4174571782 0 0 0 0 -4199632.5438079834 7172987.9942053556 0 7172987.9942053556 4960124.3199453354 0 0 0 0 -834841.8522567749 7674365.6378247887 0 7674365.6378247887 -1000383.1897463799 0 0 0 0 -9231016.5484733582 27094624.59671957 0 27094624.59671957 -886509.46107763052 0 0 0 0 4259888.6386566162 13454729.586515218 0 13454729.586515218 -42982292.644971259 0 0 0 0 475183461.03435135 451524353.48275805 0 451524353.48275805 378745927.18898296 0 0 0 0 364068553.75015259 523043122.82635069 0 523043122.82635069 354553931.93243694 0 0 0 0 -2439097.2443973273 5361972.3034441471 0 5361972.3034441471 -2345942.3568020323 0 0 0 0 9359183.5197296143 9905211.8472127616 0 9905211.8472127616 -12653216.634915531 0 0 0 0 -2458044.0117899887 5395647.247631466 0 5395647.247631466 -3054155.4168002242 0 0 0 0 679637427.93358612 516086816.43457222 0 516086816.43457222 160303591.59482193 0 0 0 0 635163199.18122864 377085290.51461756 0 377085290.51461756 32768206.003168106 0 0 0 0 384835900.76030731 396152022.95720196 0 396152022.95720196 -70989110.315198898 0 0 0 0 470603465.0038681 269127334.96307564 0 269127334.96307564 117080202.33690166 0 0 0 0 638432203.56002808 337635448.59402466 0 337635448.59402466 164525459.38939741 0 0 0 0 523829940.6305027 447841979.92879891 0 447841979.92879891 78919251.087207794 0 0 0 0 365993185.88517761 234591426.67825794 0 234591426.67825794 206942878.60333252 0 0 0 0 444599807.05580139 218755614.57420158 0 218755614.57420158 47939228.843524694 0 0 0 0 303198221.10637093 30698911.2104913 0 30698911.2104913 -77691911.396261215 0 0 0 0 249935230.53140259 92296315.941865921 0 92296315.941865921 -148177449.44492978 0 0 0 0 409982800.80932236 38170204.863618851 0 38170204.863618851 -151115552.43535995 0 0 0 0 276666948.17375946 488257979.56537914 0 488257979.56537914 434127372.79196548 0 0 0 0 291489540.45516968 -212861641.44741344 0 -212861641.44741344 -615642183.25547791 0 0 0 0 620422.6668990925 150376.6062126332 0 150376.6062126332 -116315.12639212003 0 0 0 0 47044040.444290161 -7629548.2576828003 0 -7629548.2576828003 -60271780.578603745 0 0 0 0 488889781.56509399 92617683.061333656 0 92617683.061333656 -109779537.8802166 0 0 0 0 938217468.99692535 484344363.02147913 0 484344363.02147913 -50414245.354969025 0 0 0 0 245094889.86747742 305018309.89759064 0 305018309.89759064 -93842058.523439407 0 0 0 0 252641716.06480408 440560599.78364944 0 440560599.78364944 -56351510.409657478 0 0 0 0 88477220.01999855 332409737.0803746 0 332409737.0803746 78388330.907104492 0 0 0 0 289311901.335495 463065344.21178627 0 463065344.21178627 -42577081.197412491 0 0 0 0 184181883.63739014 321053127.11250019 0 321053127.11250019 20181726.275049686 0 0 0 0 321590811.67738724 378224365.23574638 0 378224365.23574638 -207326771.72948647 0 0 0 0 1133121.1643535495 411141.32419604785 0 411141.32419604785 -278725.81371077802 0 0 0 0 250407792.60240173 162884493.89505577 0 162884493.89505577 -447033582.09751511 0 0 0 0 136459344.67230988 210804326.65401745 0 210804326.65401745 -247806666.32385349 0 0 0 0 123271757.11956787 143553401.30338192 0 143553401.30338192 -791114718.22212815 0 0 0 0 511438.69284888357 258832.32282807608 0 258832.32282807608 -146163.02853371063 0 0 0 0 43065963.964762688 289992311.19137228 0 289992311.19137228 -31705507.4445858 0 0 0 0 237116288.79807281 485604265.96213245 0 485604265.96213245 66017726.887867928 0 0 0 0 326838958.41423225 323813866.52539098 0 323813866.52539098 149240813.15043831 0 0 0 0 347018287.61473846 389131146.8456831 0 389131146.8456831 23056505.531767845 0 0 0 0 530598842.86071014 379162654.90974712 0 379162654.90974712 163813137.4413147 0 0 0 0 102402030.62872887 310472070.89114797 0 310472070.89114797 263966018.88900375 0 0 0 0 102708790.44599152 220367937.88984394 0 220367937.88984394 254419393.83316135 0 0 0 0 362880226.52722931 166939357.90721941 0 166939357.90721941 130124938.10260868 0 0 0 0 246337171.57066345 358141961.04144096 0 358141961.04144096 138051172.14420795 0 0 0 0 240520759.10569763 317788975.24363422 0 317788975.24363422 315032245.99152851 0 0 0 0 308069189.61082458 391477322.78416681 0 391477322.78416681 356653855.48299885 0 0 0 0 64305608.718299866 380754222.72054243 0 380754222.72054243 392077313.28337479 0 0 0 0 23402903.973987579 289087778.76374722 0 289087778.76374722 313668112.5547905 0 0 0 0 156456606.20486832 338787316.40097094 0 338787316.40097094 249577368.1961422 0 0 0 0 -74489527.913513184 406500750.4452877 0 406500750.4452877 41790195.585386276 0 0 0 0 101881449.53184128 237346153.16118813 0 237346153.16118813 148068844.04691315 0 0 0 0 -110527831.18074417 659379042.21711111 0 659379042.21711111 -135738675.71512032 0 0 0 0 -156995807.71079826 339085028.75459391 0 339085028.75459391 -3285680.0029087067 0 0 0 0 -136604250.28076172 436992117.98313141 0 436992117.98313141 -112966116.3472805 0 0 0 0 -233774351.71279144 166190098.15489101 0 166190098.15489101 -15264635.235435009 0 0 0 0 134388089.98828125 165465760.56509733 0 165465760.56509733 -39211391.097345352 0 0 0 0 105114990.27759552 201654796.70577335 0 201654796.70577335 150282424.18787861 0 0 0 0 141281481.53395844 -34763272.812265396 0 -34763272.812265396 -228773553.74920654 0 0 0 0 -45149816.964473724 239364872.02543211 0 239364872.02543211 -161289692.44609642 0 0 0 0 9804775.6201314926 297210481.5514034 0 297210481.5514034 -787926665.67471886 0 0 0 0 -467800111.94191742 36758615.622602463 0 36758615.622602463 -218828332.12167072 0 0 0 0 17185195.681564331 363599844.62779808 0 363599844.62779808 -249334708.57279399 0 0 0 0 410293228.97682953 578742892.41025352 0 578742892.41025352 -246609838.39738441 0 0 0 0 232494762.10825539 160124822.29131627 0 160124822.29131627 -114688073.88049793 0 0 0 0 -555770347.59340668 270723543.7580719 0 270723543.7580719 -427845952.16260767 0 0 0 0 -383257703.54600525 976079503.11290073 0 976079503.11290073 -776371778.59252739 0 0 0 0 -105426632.76399231 677193319.79019928 0 677193319.79019928 -457267242.89172173 0 0 0 0 -352015828.65743637 1134487377.7172501 0 1134487377.7172501 -84901524.060762405 0 0 0 0 -120846808.72350121 639001106.0466646 0 639001106.0466646 264078361.83564472 0 0 0 0 8679230.1303367615 1218992269.3631063 0 1218992269.3631063 156651367.23008251 0 0 0 0 1335414.7014129534 2387708.6934171189 0 2387708.6934171189 -491961.48324282328 0 0 0 0 -154637425.9413147 -38231900.042431831 0 -38231900.042431831 81440290.329837322 0 0 0 0 -8262678.4646148682 44533428.251066208 0 44533428.251066208 44536805.679239273 0 0 0 0 -321937.52330650389 161524.99406668544 0 161524.99406668544 119624.77116920939 0 0 0 0 -412132826.70300961 583511338.12440276 0 583511338.12440276 -53432968.668224335 0 0 0 0 -1474065220.8198853 748170694.36488152 0 748170694.36488152 -55031636.133737564 0 0 0 0 -1316883074.3937836 508030547.70529747 0 508030547.70529747 -424018082.8016758 0 0 0 0 -2281172498.4856844 946259655.75412512 0 946259655.75412512 -122937019.98791885 0 0 0 0 366530.65070135379 877439.76265548542 0 877439.76265548542 -1658172.6347500002 0 0 0 0 -769811173.96052551 947805498.80747509 0 947805498.80747509 -1964196232.163002 0 0 0 0 -29106552.215891004 -144233012.86255664 0 -144233012.86255664 -676274225.28528976 0 0 0 0 -44170219.026046753 607037684.09786129 0 607037684.09786129 -1014289990.1155014 0 0 0 0 -665610433.22758865 908235100.12538385 0 908235100.12538385 -509737778.79083633 0 0 0 0 -1132597291.1646118 222825885.85043573 0 222825885.85043573 -361161428.48578644 0 0 0 0 -515291833.23970795 497528760.90220261 0 497528760.90220261 -249758072.54385948 0 0 0 0 -428608602.77040386 355410066.61971128 0 355410066.61971128 -130233318.60895348 0 0 0 0 -374745068.39199543 762248821.6389972 0 762248821.6389972 -231679253.84979439 0 0 0 0 -221047403.77124023 681738424.56500912 0 681738424.56500912 -180009350.20187378 0 0 0 0 -283723284.69464111 758973973.79636574 0 758973973.79636574 -240630840.85724258 0 0 0 0 -344798920.66168976 647233918.76118279 0 647233918.76118279 40299436.546913147 0 0 0 0 -133602776.70499992 544620121.45052052 0 544620121.45052052 -369769497.68348694 0 0 0 0 -65896999.268238068 378795923.71999383 0 378795923.71999383 -71595972.946327209 0 0 0 0 -222494991.61592865 663307724.58595371 0 663307724.58595371 -377824593.58467865 0 0 0 0 -87464856.847953796 401421290.5739975 0 401421290.5739975 -291124493.99444199 0 0 0 0 359627.97638365626 1587994.9722011946 0 1587994.9722011946 108219.25762863737 0 0 0 0 -373499251.52940369 254602692.3238678 0 254602692.3238678 -102504906.73139858 0 0 0 0 -371395176.21263504 264181934.42310166 0 264181934.42310166 -62410874.296304703 0 0 0 0 -330947553.85029602 154321269.99565923 0 154321269.99565923 1053164.9687957764 0 0 0 0 -49472504.319717407 75221157.389601946 0 75221157.389601946 -24719140.961420059 0 0 0 0 -396540948.87765503 305117138.4216876 0 305117138.4216876 155428830.75850439 0 0 0 0 -385110667.81493378 325494941.37247801 0 325494941.37247801 6081578.7335090637 0 0 0 0 111541105.29890823 112362163.80904007 0 112362163.80904007 3603807.352230072 0 0 0 0 -486642779.9414444 454033654.59567547 0 454033654.59567547 139252095.3683691 0 0 0 0 494575819.4538908 445581281.34173501 0 445581281.34173501 427944466.72914886 0 0 0 0 -314749.62855477445 635855.33007373661 0 635855.33007373661 -441704.57073173393 0 0 0 0 -774707494.41757202 282780592.82100677 0 282780592.82100677 852625784.30105209 0 0 0 0 77431.761911280453 599370.62436956353 0 599370.62436956353 128826.1830895911 0 0 0 0 -341276812.09455109 717484214.46524525 0 717484214.46524525 -630184251.58712864 0 0 0 0 -633631736.70773315 492108567.13270569 0 492108567.13270569 1733280880.255538 0 0 0 0 -702295973.42719269 1068072940.3478184 0 1068072940.3478184 -435795869.08433151 0 0 0 0 -471045768.51609802 696229431.70730019 0 696229431.70730019 1403603560.8660297 0 0 0 0 -383915838.79870605 1110757910.6018581 0 1110757910.6018581 -1522716366.423173 0 0 0 0 -952563144.24194336 -145385871.86071968 0 -145385871.86071968 1452195882.0799332 0 0 0 0 395546972.00041199 -42726079.595619202 0 -42726079.595619202 729476637.84518623 0 0 0 0 -857756.30050482601 778306.76431188174 0 778306.76431188174 472467.02932158578 0 0 0 0 -511440201.82367325 515775397.32881117 0 515775397.32881117 -144688752.6204567 0 0 0 0 -660136535.85809326 839089240.23893356 0 839089240.23893356 -526429016.49704361 0 0 0 0 -312469933.41820908 394587788.75396156 0 394587788.75396156 -805177414.41431427 0 0 0 0 -624250873.26364136 579614608.40552616 0 579614608.40552616 -150119867.47950935 0 0 0 0 -584940593.04494667 561820805.3816309 0 561820805.3816309 -269741365.37911415 0 0 0 0 -332054678.01756668 772624337.00851774 0 772624337.00851774 -94527522.478070259 0 0 0 0 -120027623.97097778 632440613.13941002 0 632440613.13941002 -211960011.43624258 0 0 0 0 -178842514.4695282 763559886.48803329 0 763559886.48803329 -273049256.42557526 0 0 0 0 -215912722.88613892 632136850.07139492 0 632136850.07139492 -140390363.16382504 0 0 0 0 233605230.77430725 558455840.08983707 0 558455840.08983707 -51178638.07251358 0 0 0 0 -178033334.91346741 571766335.53048706 0 571766335.53048706 -13021789.333644867 0 0 0 0 -515784564.87333679 519852524.89660645 0 519852524.89660645 59583461.902264118 0 0 0 0 -208336398.13204193 825836131.25815535 0 825836131.25815535 363943600.96378422 0 0 0 0 1155101937.3893814 948405534.07009268 0 948405534.07009268 338983151.52363539 0 0 0 0 -635675.39699005708 577198.77652145736 0 577198.77652145736 295301.18506995495 0 0 0 0 -1177527635.6339645 592627034.06832933 0 592627034.06832933 39364196.467746019 0 0 0 0 -848365577.87981415 338769125.79499221 0 338769125.79499221 -128557835.59584904 0 0 0 0 -784583705.13306427 487603638.95425034 0 487603638.95425034 -53503864.944911957 0 0 0 0 -719451083.63715744 631830929.99758554 0 631830929.99758554 42714848.327383041 0 0 0 0 -573510642.33761597 648203831.55353975 0 648203831.55353975 -59095325.153588295 0 0 0 0 -800700460.66200638 70689436.583573818 0 70689436.583573818 -31270000.340740204 0 0 0 0 -696743820.04223633 482799505.65982199 0 482799505.65982199 -61861140.255173683 0 0 0 0 -721513624.12163925 397711954.10786772 0 397711954.10786772 -169034430.12781715 0 0 0 0 -1847644149.8290768 -250644469.74897575 0 -250644469.74897575 -61351842.405093193 0 0 0 0 217310462.69425583 484788110.48562288 0 484788110.48562288 581147417.7062273 0 0 0 0 787159478.23857117 675379391.10127115 0 675379391.10127115 445125670.09708595 0 0 0 0 -2022101.2635618486 1614066.0866502803 0 1614066.0866502803 1542671.9009406585 0 0 0 0 -758744561.01284981 -298893443.6506331 0 -298893443.6506331 -212579528.23720551 0 0 0 0 -613691301.19618988 -22715508.053460121 0 -22715508.053460121 -67887952.13698402 0 0 0 0 -374936280.04953957 -117805687.91492379 0 -117805687.91492379 -300197835.70184898 0 0 0 0 -455101624.85965347 145768003.15251136 0 145768003.15251136 278264925.4604187 0 0 0 0 -272470720.26191711 273002216.36550426 0 273002216.36550426 80101022.822914124 0 0 0 0 -471398076.66563034 197982158.63438225 0 197982158.63438225 586854679.42695618 0 0 0 0 -498596763.96535873 29920316.932901382 0 29920316.932901382 901545889.10062027 0 0 0 0 -376656498.06484604 -194943227.48865891 0 -194943227.48865891 1088406075.5225067 0 0 0 0 -399789216.81202126 192640674.14844108 0 192640674.14844108 300637160.13154984 0 0 0 0 -493235408.82814026 -6825318.4666109085 0 -6825318.4666109085 481545888.07350922 0 0 0 0 -365014765.20651245 37980147.329362869 0 37980147.329362869 496636215.83210087 0 0 0 0 -446573981.34545898 73337517.833591461 0 73337517.833591461 706962913.4929142 0 0 0 0 -300075124.94180298 176390079.25264454 0 176390079.25264454 570762537.85985947 0 0 0 0 -283043323.94238281 26287552.580871582 0 26287552.580871582 459036131.59361839 0 0 0 0 41267821.391685486 279787175.50592041 0 279787175.50592041 247747117.4668045 0 0 0 0 -514893386.47624207 247790054.18534231 0 247790054.18534231 259318705.26576614 0 0 0 0 -277590216.75878906 205062173.21138239 0 205062173.21138239 -956765.43633079529 0 0 0 0 -360362782.06686401 563992428.62634182 0 563992428.62634182 159304248.32883072 0 0 0 0 -739806062.15119362 403423595.11981249 0 403423595.11981249 91981551.31137085 0 0 0 0 -785958551.00160909 486748120.02889109 0 486748120.02889109 465445051.40746689 0 0 0 0 -154812001.60829163 791632194.31407356 0 791632194.31407356 581041266.99024963 0 0 0 0 231215990.68902588 123299785.10596371 0 123299785.10596371 369438709.32142258 0 0 0 0 71981486.037872314 267947272.71789074 0 267947272.71789074 875440811.0504179 0 0 0 0 -1786617.3601957783 320328.76819266193 0 320328.76819266193 1377377.48657142 0 0 0 0 457823623.28379822 369860180.98006821 0 369860180.98006821 87011118.732196808 0 0 0 0 -572781.59442629665 584301.78584378771 0 584301.78584378771 461755.4314330183 0 0 0 0 -57830534.84954834 429913432.23353004 0 429913432.23353004 1030021632.167695 0 0 0 0 -34359693.421943665 -70416743.280042171 0 -70416743.280042171 799917964.80452347 0 0 0 0 -203745845.88322449 130265245.83899069 0 130265245.83899069 425780169.40924454 0 0 0 0 24520984.631877422 204898493.50906593 0 204898493.50906593 379445265.75628281 0 0 0 0 5350948.0480499268 70079503.210632324 0 70079503.210632324 58297593.096319199 0 0 0 0 -5756029.8563919067 7101169.0255317688 0 7101169.0255317688 810305.9168510437 0 0 0 0 -3072312.2999850772 5696587.9997199066 0 5696587.9997199066 -959602.2837913055 0 0 0 0 42188852.605789185 -16114970.384290695 0 -16114970.384290695 76538265.930991918 0 0 0 0 -6166354.4064299222 1657428.9620635677 0 1657428.9620635677 3974616.6571152243 0 0 0 0 -4823751.6237945557 5093741.2998847961 0 5093741.2998847961 1157415.9340717793 0 0 0 0 -3071725.081199646 7501839.72473526 0 7501839.72473526 4456295.9046936035 0 0 0 0 -1085198.5485687256 -15883016.364814281 0 -15883016.364814281 47602181.355258942 0 0 0 0 -3740289.6931001619 5976038.2145280112 0 5976038.2145280112 -541326.02424630895 0 0 0 0 -2805586.2661743164 6171723.5422763824 0 6171723.5422763824 4284164.472048521 0 0 0 0 -2687000.7475752831 7539596.0982600451 0 7539596.0982600451 7131540.5819473267 0 0 0 0 -6519896.9433670044 6063901.3627166748 0 6063901.3627166748 9678956.9070091248 0 0 0 0 -3213291.6358492281 4534417.6672391426 0 4534417.6672391426 7535778.1155190002 0 0 0 0 -812133770.52721786 18088532.474571228 0 18088532.474571228 -63042172.087219238 0 0 0 0 -722011233.54494095 -102394606.01446533 0 -102394606.01446533 -6047139.4959564209 0 0 0 0 -18307421.429855347 25322870.940759659 0 25322870.940759659 -9618054.8183932304 0 0 0 0 -5445814.04175926 7107333.4405191373 0 7107333.4405191373 1630901.7193164155 0 0 0 0 -2716907.025267601 6986624.2632983923 0 6986624.2632983923 6150617.9100799561 0 0 0 0 27998075.952606201 20731438.656415939 0 20731438.656415939 -14796974.269014835 0 0 0 0 -1458967.1641641762 3132089.1270089876 0 3132089.1270089876 5432923.2702227598 0 0 0 0 -1328272817.7117825 263665446.9265132 0 263665446.9265132 535793869.15453339 0 0 0 0 17484086.774353027 1507546.159485817 0 1507546.159485817 67364841.274166107 0 0 0 0 -67984300.571176529 12910133.800192595 0 12910133.800192595 93691333.551263809 0 0 0 0 -38631620.130393982 -9787806.0141143799 0 -9787806.0141143799 427109367.85542107 0 0 0 0 -253467670.97476196 -36180791.93874836 0 -36180791.93874836 425013298.20525765 0 0 0 0 -187217513.65822601 -193941038.17049789 0 -193941038.17049789 721914545.63650131 0 0 0 0 -215585030.91107941 94506132.035366058 0 94506132.035366058 702065977.2098732 0 0 0 0 -258904.14685164392 1387499.9217532538 0 1387499.9217532538 2015504.9031578777 0 0 0 0 368884292.6823616 -573772912.35871506 0 -573772912.35871506 618054943.24716949 0 0 0 0 150918994.61439514 -256525586.80056572 0 -256525586.80056572 247932839.35621548 0 0 0 0 -188130139.05938721 -176041198.75213432 0 -176041198.75213432 708395146.94140625 0 0 0 0 -193649105.15427268 -427668146.01445246 0 -427668146.01445246 1093194637.1390419 0 0 0 0 -334948421.27883148 1205342912.4832373 0 1205342912.4832373 543175225.71069336 0 0 0 0 -112593276.9139328 957158503.75176334 0 957158503.75176334 270710616.67208481 0 0 0 0 -420677737.34539795 931032818.49597645 0 931032818.49597645 429928218.79806805 0 0 0 0 -4936365.7757228091 4686024.9436321259 0 4686024.9436321259 1200474.5426487233 0 0 0 0 -44695925.818778992 154400394.82205701 0 154400394.82205701 228267471.78430367 0 0 0 0 -432092084.27737427 279034355.30795097 0 279034355.30795097 -454263316.44651222 0 0 0 0 -433314170.34768677 413468366.01793671 0 413468366.01793671 1077974644.0058804 0 0 0 0 -647710838.60297394 191271695.44328499 0 191271695.44328499 399104378.18722153 0 0 0 0 -645301446.804039 -27483803.174182892 0 -27483803.174182892 -58452415.718696594 0 0 0 0 559631117.32997894 -266539660.98256493 0 -266539660.98256493 274546245.81738663 0 0 0 0 1498473666.8018379 902190366.42922544 0 902190366.42922544 82556848.785888672 0 0 0 0 1288492481.2476254 2093483369.6005065 0 2093483369.6005065 64554214.762039185 0 0 0 0 -1131052144.9359207 628916889.58641052 0 628916889.58641052 282227991.52605343 0 0 0 0 -382308929.07821465 2093601854.6120262 0 2093601854.6120262 617374412.69788742 0 0 0 0 -660369184.47986603 123865225.39769554 0 123865225.39769554 -22625675.235298157 0 0 0 0 -716828379.25986481 345944409.38866234 0 345944409.38866234 -577572744.9907093 0 0 0 0 -519590573.05993652 -147084153.65354252 0 -147084153.65354252 -272149318.91693115 0 0 0 0 -2295903.0034474246 547066.98194575915 0 547066.98194575915 576880.1578941613 0 0 0 0 -1943104891.0959549 -702442507.15944386 0 -702442507.15944386 554415221.17410469 0 0 0 0 -1567628556.4902573 -688764308.33823204 0 -688764308.33823204 536231622.05486298 0 0 0 0 91118726.643310547 -145105841.23822021 0 -145105841.23822021 104815820.69484711 0 0 0 0 -2384682930.2907944 -547090988.80150986 0 -547090988.80150986 736991953.51706886 0 0 0 0 1926706490.1142845 -106053542.52003098 0 -106053542.52003098 -912174806.0367136 0 0 0 0 -2211723408.9895325 -449011491.46259689 0 -449011491.46259689 574690148.48233414 0 0 0 0 -547448536.29459381 16109443.371285439 0 16109443.371285439 -23894587.835174561 0 0 0 0 -914278002.6206665 -1207462880.9181786 0 -1207462880.9181786 -1681757281.7693939 0 0 0 0 -4367106.8774457239 5301972.2253527679 0 5301972.2253527679 -2464874.2341010794 0 0 0 0 -195323522.27442169 375004480.33841896 0 375004480.33841896 -716603281.60355949 0 0 0 0 -1161990087.186882 586647685.49532318 0 586647685.49532318 66177588.728416443 0 0 0 0 -454914856.29890442 535510242.02562582 0 535510242.02562582 373801568.14007568 0 0 0 0 -462608996.03914642 257483546.28590178 0 257483546.28590178 221098853.44184494 0 0 0 0 -577055053.22097778 422801948.80692101 0 422801948.80692101 478806361.45977974 0 0 0 0 -549734427.25875854 -140375646.26255989 0 -140375646.26255989 86380958.253250122 0 0 0 0 -310717885.36820221 237713462.17672253 0 237713462.17672253 352480162.71694565 0 0 0 0 -35833799.758693695 178512165.86378622 0 178512165.86378622 283552801.65497589 0 0 0 0 -324174072.77539062 399633537.11039925 0 399633537.11039925 436911361.86195946 0 0 0 0 -291158283.40159988 673785490.75882995 0 673785490.75882995 733971238.83590317 0 0 0 0 -227300358.35430908 531952721.53894424 0 531952721.53894424 561962978.42280197 0 0 0 0 -63047043.404974699 553042040.27952099 0 553042040.27952099 455479391.93563843 0 0 0 0 -74100690.578598022 545460227.72187614 0 545460227.72187614 450603355.14234114 0 0 0 0 85875385.522575378 534529149.3437748 0 534529149.3437748 449110361.27362251 0 0 0 0 85158314.318527222 569913510.8840332 0 569913510.8840332 347712822.8820076 0 0 0 0 53331322.62121582 462938841.53759289 0 462938841.53759289 436945489.50719643 0 0 0 0 13179991.346939087 413500577.3027091 0 413500577.3027091 415174896.46340942 0 0 0 0 -25217923.859024048 389065734.69272041 0 389065734.69272041 431474656.74658775 0 0 0 0 342573378.7092514 336985460.40604401 0 336985460.40604401 272948090.80472279 0 0 0 0 55746018.904476166 188311077.64690018 0 188311077.64690018 197407882.18181419 0 0 0 0 -3517810.237262357 2718606.9749334604 0 2718606.9749334604 2782759.8058992894 0 0 0 0 317615156.99111557 -1272018313.2198663 0 -1272018313.2198663 52047137.16456604 0 0 0 0 388685466.1204834 453897941.19854069 0 453897941.19854069 338206679.61594009 0 0 0 0 100694778.54473114 373457818.41776848 0 373457818.41776848 399470095.99148941 0 0 0 0 101966703.03656769 451386888.03780842 0 451386888.03780842 423082752.02095032 0 0 0 0 307413336.33000946 433185387.20335197 0 433185387.20335197 392465899.17055893 0 0 0 0 158024684.01708221 459629494.78376865 0 459629494.78376865 479677439.9254837 0 0 0 0 321068092.06474304 381730333.01717377 0 381730333.01717377 395147091.51241302 0 0 0 0 155714972.6969223 346574187.14203739 0 346574187.14203739 465815035.7748661 0 0 0 0 160432685.47512436 342371091.66998959 0 342371091.66998959 311475467.02853775 0 0 0 0 182752806.81921768 480024436.00105 0 480024436.00105 347596332.55550575 0 0 0 0 140502176.99597931 436948629.46515369 0 436948629.46515369 386387351.86248684 0 0 0 0 146783336.29677582 427086800.910079 0 427086800.910079 399061522.90093613 0 0 0 0 273910489.57510376 575970911.28654385 0 575970911.28654385 61114570.752590179 0 0 0 0 227355445.31484985 554393980.68672943 0 554393980.68672943 233436098.48699331 0 0 0 0 198779473.75104523 520536212.97933912 0 520536212.97933912 193356197.38636398 0 0 0 0 261737858.57403564 423245711.95188713 0 423245711.95188713 223867497.71086788 0 0 0 0 189495021.78522491 457280259.79337311 0 457280259.79337311 98054146.891010284 0 0 0 0 116304775.64303589 452909224.68976212 0 452909224.68976212 2422233.1690731049 0 0 0 0 217972616.09618378 422401753.63302422 0 422401753.63302422 -114958388.87810755 0 0 0 0 82113685.329864502 296850976.8153367 0 296850976.8153367 -108396824.1680336 0 0 0 0 285357063.10984802 426179972.39529908 0 426179972.39529908 -113089008.12357712 0 0 0 0 255327624.44018555 577662633.14633083 0 577662633.14633083 102208519.55065536 0 0 0 0 75218806.817932129 365375832.85603714 0 365375832.85603714 -22905958.209259033 0 0 0 0 289667278.56735229 525671581.59181786 0 525671581.59181786 -35444663.175559521 0 0 0 0 224997616.05928802 558341143.67595673 0 558341143.67595673 140754185.96439743 0 0 0 0 291382076.74830246 547421798.6295948 0 547421798.6295948 127143405.86407471 0 0 0 0 348628511.7168045 641621288.21219063 0 641621288.21219063 119920728.81923604 0 0 0 0 408070300.32897949 631448226.95402527 0 631448226.95402527 21735662.889450073 0 0 0 0 327478948.28630447 604705623.78214216 0 604705623.78214216 356027648.50273132 0 0 0 0 438546457.86813354 714968010.36047363 0 714968010.36047363 218930214.79848671 0 0 0 0 277130861.35515594 716833189.39651585 0 716833189.39651585 476393206.4263134 0 0 0 0 349420795.79888153 704226489.68959427 0 704226489.68959427 297720887.46736145 0 0 0 0 184533222.95503235 763288316.21226215 0 763288316.21226215 480166602.771698 0 0 0 0 247282328.53408813 673764679.18366194 0 673764679.18366194 303509330.09356117 0 0 0 0 243778635.45614624 647012643.48359108 0 647012643.48359108 219980114.34927273 0 0 0 0 135901812.27644348 648763143.25242662 0 648763143.25242662 384118267.30150986 0 0 0 0 152128437.832901 698360781.43016434 0 698360781.43016434 395392645.76716232 0 0 0 0 -62211175.213314921 700424585.98638856 0 700424585.98638856 553126160.78063583 0 0 0 0 58270355.262983322 788002002.01563954 0 788002002.01563954 709442458.6673584 0 0 0 0 32398475.682502747 682031123.36592293 0 682031123.36592293 524340105.9936285 0 0 0 0 469845164.79982281 502683332.17908621 0 502683332.17908621 796501194.42415619 0 0 0 0 275981605.66788864 757397849.77011681 0 757397849.77011681 739336373.68001556 0 0 0 0 314035070.59898376 744425644.67236328 0 744425644.67236328 474834844.39688873 0 0 0 0 424786494.20146942 799875743.12541389 0 799875743.12541389 634104824.37280846 0 0 0 0 -218134237.33842468 381730663.74538612 0 381730663.74538612 466779340.18331146 0 0 0 0 -148187235.7190094 688264422.35096455 0 688264422.35096455 1146050312.9900227 0 0 0 0 -23008016.056938171 51553835.796041489 0 51553835.796041489 -124723915.14106941 0 0 0 0 155342.06908416748 127559708.1317091 0 127559708.1317091 88911891.91661644 0 0 0 0 -83422493.250808716 -99686134.28036499 0 -99686134.28036499 481825824.17200851 0 0 0 0 -59869677.418319702 -105280308.35757303 0 -105280308.35757303 58766635.014053345 0 0 0 0 -280111.38965596631 -155536.59475922398 0 -155536.59475922398 1656323.5195106342 0 0 0 0 -6064528.8510894775 51456995.308862686 0 51456995.308862686 32943622.219959259 0 0 0 0 -5284907.9400248975 2047700.8523817249 0 2047700.8523817249 1729688.470114097 0 0 0 0 43585460.850837708 10397827.078480721 0 10397827.078480721 -77714121.298006058 0 0 0 0 60993637.067199707 381032232.80024719 0 381032232.80024719 550839214.14945316 0 0 0 0 58875508.910349607 676441477.88356543 0 676441477.88356543 -143454879.88624573 0 0 0 0 348232.32866084576 1846647.6422002614 0 1846647.6422002614 1580736.4620052669 0 0 0 0 234084097.28416443 -107384677.93467712 0 -107384677.93467712 60258228.840291023 0 0 0 0 70829133.023685455 270675004.48832011 0 270675004.48832011 1757759030.180191 0 0 0 0 391567.97498100251 1157503.7138895825 0 1157503.7138895825 -86889.550335527398 0 0 0 0 -7018481.6926168688 3474397.1119869682 0 3474397.1119869682 3540018.6197718387 0 0 0 0 -25522793.215950012 -112319803.84965229 0 -112319803.84965229 687619513.86828232 0 0 0 0 -1999232.0236906931 4988.4555212575942 0 4988.4555212575942 5440686.0950940875 0 0 0 0 -41897507.352661133 20143561.613214493 0 20143561.613214493 11150689.307587624 0 0 0 0 371906349.0052948 1026490705.9162369 0 1026490705.9162369 1386553978.7510128 0 0 0 0 282291288.82020569 834338912.23933029 0 834338912.23933029 981469532.37972927 0 0 0 0 515732267.3032074 1094574582.000659 0 1094574582.000659 1500575532.0263596 0 0 0 0 234743685.73735809 815299243.59396744 0 815299243.59396744 1258199607.2795753 0 0 0 0 442885308.54556179 690257533.76740205 0 690257533.76740205 1003736691.3428268 0 0 0 0 414935716.12464142 921715662.24914932 0 921715662.24914932 1190303970.5264282 0 0 0 0 343508985.12456894 716972304.39733887 0 716972304.39733887 838175861.00644302 0 0 0 0 251438845.60786438 681293316.18725777 0 681293316.18725777 1404665271.5447536 0 0 0 0 330053202.34034729 753987987.23694229 0 753987987.23694229 833972509.5736084 0 0 0 0 456933580.15484619 708134432.33503723 0 708134432.33503723 476661166.99406695 0 0 0 0 500767174.56568146 754130570.59867954 0 754130570.59867954 413686209.90548325 0 0 0 0 673431729.0756073 762722273.61067581 0 762722273.61067581 693959730.80684853 0 0 0 0 344224903.25691223 587855103.48703194 0 587855103.48703194 629575661.50465298 0 0 0 0 603999172.98580551 548917506.65912819 0 548917506.65912819 457879672.11265373 0 0 0 0 335270508.0710907 314436217.52313423 0 314436217.52313423 411082326.11031628 0 0 0 0 887694868.10375977 431634148.06060028 0 431634148.06060028 1122019597.5917325 0 0 0 0 416043174.85567093 637732745.09380627 0 637732745.09380627 1078908995.7498779 0 0 0 0 986156435.67923737 941108509.54096794 0 941108509.54096794 1116117206.8774624 0 0 0 0 144996395.77287292 992944924.55996704 0 992944924.55996704 1752772355.7870851 0 0 0 0 329956966.81134605 662460839.15346813 0 662460839.15346813 1147236037.1141472 0 0 0 0 368363431.28099823 514354330.53097725 0 514354330.53097725 1689682104.6759796 0 0 0 0 202579609.86201477 806894096.22943115 0 806894096.22943115 1055453394.5858707 0 0 0 0 354157918.14095306 983145800.01135635 0 983145800.01135635 1133384802.7522316 0 0 0 0 281557080.24752808 991443675.11420822 0 991443675.11420822 790761467.35450745 0 0 0 0 393892621.05937195 650516960.24503136 0 650516960.24503136 353722852.28385162 0 0 0 0 772161104.69598389 1257142866.3948135 0 1257142866.3948135 924412901.71743393 0 0 0 0 936309760.35016632 595207574.93280411 0 595207574.93280411 131520789.66434479 0 0 0 0 257237789.88796997 608953018.53622055 0 608953018.53622055 528848990.70188522 0 0 0 0 81990289.394836426 1121334557.6837063 0 1121334557.6837063 1366494184.469841 0 0 0 0 6429111.9803924561 997288285.79958344 0 997288285.79958344 1182131426.2633781 0 0 0 0 440001671.19773865 1074931589.8357372 0 1074931589.8357372 942234051.83193588 0 0 0 0 520502172.25172496 1386104765.4182658 0 1386104765.4182658 1424805211.5576019 0 0 0 0 472103386.29031372 826595650.68146324 0 826595650.68146324 1285609670.5658722 0 0 0 0 28701.041038513184 9764743.9718475342 0 9764743.9718475342 12509496.132789612 0 0 0 0 -1249400.8064323552 2376896.0899185166 0 2376896.0899185166 3106272.1997562163 0 0 0 0 1674504838.146286 1413556475.8358173 0 1413556475.8358173 1078133110.4109306 0 0 0 0 -33299.141906738281 9718301.9931545258 0 9718301.9931545258 12553896.964202881 0 0 0 0 581773014.60093689 755954879.67534924 0 755954879.67534924 990328924.34284878 0 0 0 0 579787969.76881409 724326143.56799316 0 724326143.56799316 649026706.99893951 0 0 0 0 -1455646.9809953608 2187816.2159318253 0 2187816.2159318253 3393528.512462562 0 0 0 0 10063305.550727844 2822396.641752243 0 2822396.641752243 -15293633.108470917 0 0 0 0 11884990.279457092 14976244.219221115 0 14976244.219221115 1641278.2429504395 0 0 0 0 1312548.1034978372 -15583518.319864709 0 -15583518.319864709 -13720042.46777465 0 0 0 0 -12214044.858825684 -1018480.6017627716 0 -1018480.6017627716 5090399.1873207092 0 0 0 0 1562064.8644714355 -2205024.1007080078 0 -2205024.1007080078 3993229.8919663429 0 0 0 0 -2662087.4245681763 -1868865.9482498169 0 -1868865.9482498169 368478.87217330933 0 0 0 0 1503971.2325090468 2315200.1959659308 0 2315200.1959659308 339140.30703660101 0 0 0 0 -354312762.27059937 31021635.283844948 0 31021635.283844948 -2308811.5888977051 0 0 0 0 -1089268.4983901978 2211819.6700210571 0 2211819.6700210571 -1585357.2791404724 0 0 0 0 2765527.5697479248 480488.20894241333 0 480488.20894241333 -1676730.8085021973 0 0 0 0 -134376607.83666992 104951134.34850502 0 104951134.34850502 -78906722.484537125 0 0 0 0 -181289.97683328623 2143829.1931522898 0 2143829.1931522898 2450627.1476052403 0 0 0 0 -40707378.922561646 -6749487.5845823288 0 -6749487.5845823288 -1190934.4894919395 0 0 0 0 192298.25800805539 -814467.06041682139 0 -814467.06041682139 1200202.2364914871 0 0 0 0 1250391.3284391463 912321.65795151889 0 912321.65795151889 348812.86554441368 0 0 0 0 -67001893.79850769 34434114.96764183 0 34434114.96764183 -7881120.7109794617 0 0 0 0 -55625299.261123657 254097071.43123627 0 254097071.43123627 -266825013.40615082 0 0 0 0 -76962670.483596802 203525865.543993 0 203525865.543993 -147660590.63058281 0 0 0 0 20748962.151107788 130644808.60866356 0 130644808.60866356 -244638735.93435478 0 0 0 0 2180104.5628519058 1106115.7193105239 0 1106115.7193105239 -232530.13521613204 0 0 0 0 -61990361.044326782 67019617.947547913 0 67019617.947547913 -126254755.41266441 0 0 0 0 1857796.0437698364 1416809.948826313 0 1416809.948826313 1522550.189704895 0 0 0 0 10027867.349727631 2032922.8250789642 0 2032922.8250789642 -1206391.0014820099 0 0 0 0 -1296545.2679543868 1847438.4130071197 0 1847438.4130071197 3080318.2503319662 0 0 0 0 432256490.19294739 373192899.25804138 0 373192899.25804138 401644388.38383865 0 0 0 0 219289750.58399963 298068263.70917511 0 298068263.70917511 460017906.73884583 0 0 0 0 307377650.01852417 401148819.0717411 0 401148819.0717411 482205497.20072937 0 0 0 0 -82497.343676693738 344146.40420343354 0 344146.40420343354 540712.98925593449 0 0 0 0 409125706.98012543 708908583.04568291 0 708908583.04568291 339543454.14468765 0 0 0 0 298087937.05992126 464787993.86831665 0 464787993.86831665 105443799.40320206 0 0 0 0 195590857.66673279 545098271.30060768 0 545098271.30060768 42587213.984615326 0 0 0 0 205282155.70108032 321318378.98065186 0 321318378.98065186 -319734206.29428673 0 0 0 0 222973465.74159241 471755590.7741394 0 471755590.7741394 39103819.348739266 0 0 0 0 97707637.469970703 -42291070.072826385 0 -42291070.072826385 -576910828.04892826 0 0 0 0 -216727.67580360919 425405.01982700452 0 425405.01982700452 208974.43964246102 0 0 0 0 -244397176.33703613 348801964.12751389 0 348801964.12751389 -484262972.78518295 0 0 0 0 215953164.15808964 440772884.39636874 0 440772884.39636874 -585072424.60995483 0 0 0 0 -249455684.11495972 143685010.17586899 0 143685010.17586899 -231075228.43680191 0 0 0 0 -196564803.07232666 419473610.19594193 0 419473610.19594193 -447229851.76889324 0 0 0 0 -388078141.49650574 265737795.51941681 0 265737795.51941681 -215396640.74373627 0 0 0 0 -28247132.929000854 234445275.24225044 0 234445275.24225044 -121995843.52014565 0 0 0 0 -113174503.06622314 273056358.35561943 0 273056358.35561943 -215207493.77179086 0 0 0 0 -224972937.75921631 337585145.36557007 0 337585145.36557007 -116418464.36113739 0 0 0 0 -177757039.59507751 145473750.17873192 0 145473750.17873192 -232077847.01073265 0 0 0 0 -148410814.29865265 320166184.10279179 0 320166184.10279179 -16717209.280826569 0 0 0 0 69386869.324752808 321981461.55891609 0 321981461.55891609 -112919793.08701706 0 0 0 0 93191206.871202469 317122865.48553848 0 317122865.48553848 -109961612.49245071 0 0 0 0 95091752.951370239 329728286.20295715 0 329728286.20295715 -193667832.59973949 0 0 0 0 25390245.474327087 313810434.9852457 0 313810434.9852457 -108722840.58828354 0 0 0 0 -131477860.49552917 336277704.73940563 0 336277704.73940563 -17234849.530845642 0 0 0 0 -26570867.031158447 390601009.29736805 0 390601009.29736805 -23112203.992210388 0 0 0 0 -199615588.64701843 368679201.54862022 0 368679201.54862022 91009658.276929379 0 0 0 0 -241217891.50317383 332182212.06104851 0 332182212.06104851 77597454.56685257 0 0 0 0 -227167050.34362793 282048053.06522751 0 282048053.06522751 76110061.775617719 0 0 0 0 -651819924.24131012 101155060.26705551 0 101155060.26705551 240044064.94431305 0 0 0 0 -85087.916581163183 797451.83413059637 0 797451.83413059637 891702.4279771708 0 0 0 0 -464470797.78605652 330089170.35664368 0 330089170.35664368 519239938.29603577 0 0 0 0 475948147.11869049 479703248.23631096 0 479703248.23631096 388541101.22405243 0 0 0 0 -261068794.720047 120572042.93524742 0 120572042.93524742 -65319806.461704254 0 0 0 0 499304.59761357395 -94715490.329278588 0 -94715490.329278588 -61577544.232223511 0 0 0 0 -109418662.64801025 125489655.74383354 0 125489655.74383354 -65644225.525913239 0 0 0 0 -146425445.73078918 216785366.84382057 0 216785366.84382057 -145826036.55651665 0 0 0 0 -161424843.20111084 263689325.41121674 0 263689325.41121674 -83624310.555790901 0 0 0 0 -156399403.10435486 304140738.78143406 0 304140738.78143406 -48613399.850940704 0 0 0 0 -253733250.93551636 226693496.28388977 0 226693496.28388977 -1255954.5385437012 0 0 0 0 -161103132.77928257 269179255.72574723 0 269179255.72574723 -60319467.300369263 0 0 0 0 -95590733.503097534 71794890.80418396 0 71794890.80418396 -52457352.265670776 0 0 0 0 -60783458.078720093 153781766.58726883 0 153781766.58726883 -250798152.21982986 0 0 0 0 140733.35719299316 100526273.24618149 0 100526273.24618149 -221560832.3313446 0 0 0 0 -4126267.2531356812 84484777.503959656 0 84484777.503959656 -249574513.05461162 0 0 0 0 -18167553.196411133 193869269.55184937 0 193869269.55184937 -463343756.03390884 0 0 0 0 48421757.775043488 -56500696.483135223 0 -56500696.483135223 -276674067.61711884 0 0 0 0 -328578352.20265198 281232472.3498497 0 281232472.3498497 -240682364.6219368 0 0 0 0 -38818263.162872314 -60874671.691226959 0 -60874671.691226959 -25362764.207321167 0 0 0 0 323617.77095595933 549214.58166973293 0 549214.58166973293 -1059788.8970088102 0 0 0 0 34541778.17010498 201319.75658226013 0 201319.75658226013 -18811126.432617188 0 0 0 0 16496014.017807007 18455081.100997925 0 18455081.100997925 -33934789.816325665 0 0 0 0 819922.36036485992 1155276.6643814445 0 1155276.6643814445 -2793711.4648692608 0 0 0 0 -5578090.3009490967 15300343.371715546 0 15300343.371715546 -6731148.4930419922 0 0 0 0 1137115.1845226288 -2214545.4758272171 0 -2214545.4758272171 -46203035.067153931 0 0 0 0 1234087.2179799229 4494194.9079978075 0 4494194.9079978075 4910314.4110259954 0 0 0 0 203357.3186416626 11920622.995803833 0 11920622.995803833 -4792077.6254348755 0 0 0 0 -168575.35932922363 16090869.857343674 0 16090869.857343674 8668620.0127029419 0 0 0 0 3239714.4446029663 4481583.2129917145 0 4481583.2129917145 -2007934.7531814575 0 0 0 0 -68756981.203651428 26664609.002269745 0 26664609.002269745 -5244838.7688217163 0 0 0 0 -83043658.389549255 59909550.515980721 0 59909550.515980721 -67618817.739883423 0 0 0 0 -117181.93948364258 61518143.113780975 0 61518143.113780975 -115643259.3915863 0 0 0 0 21978.220512390137 21683815.89365387 0 21683815.89365387 -29359921.32301712 0 0 0 0 -45296880.867126465 74781438.551168442 0 74781438.551168442 -91220233.46147728 0 0 0 0 -39850018.433761597 15237953.574938297 0 15237953.574938297 9666689.1555633545 0 0 0 0 -39328316.857931137 17144084.420241356 0 17144084.420241356 -15882132.733337402 0 0 0 0 -35289188.354141235 66615902.077968597 0 66615902.077968597 25662003.297567368 0 0 0 0 1469443.0493146721 1893119.7756382376 0 1893119.7756382376 -4398037.3495654725 0 0 0 0 -38817055.992576599 18941970.673274994 0 18941970.673274994 -21680462.209043503 0 0 0 0 51587825.032493591 141503327.68420601 0 141503327.68420601 369323802.57505035 0 0 0 0 207922877.30627441 -298467425.80979538 0 -298467425.80979538 293722641.30773163 0 0 0 0 339612673.16791534 -543473951.11274147 0 -543473951.11274147 735171660.51660156 0 0 0 0 132894.87216323614 964564.80578544363 0 964564.80578544363 757036.82741161436 0 0 0 0 -467358373.34899902 208096619.9861145 0 208096619.9861145 1824969575.4721832 0 0 0 0 -82448485.959838867 -185337265.43279648 0 -185337265.43279648 634855877.59201241 0 0 0 0 -268312.08213043213 -39425611.631336212 0 -39425611.631336212 322373446.00099182 0 0 0 0 -33009540.046966553 52285654.625823975 0 52285654.625823975 -31107991.233255386 0 0 0 0 114980.79735232145 -180681.90682691336 0 -180681.90682691336 -508805.42301234603 0 0 0 0 525723985.16882324 -518869933.99604797 0 -518869933.99604797 -126589847.37468719 0 0 0 0 41300612.984527588 818715166.16576385 0 818715166.16576385 1321191843.2603426 0 0 0 0 -79442605.87677002 294802056.32913971 0 294802056.32913971 1387305299.6108665 0 0 0 0 1278414.7491450012 -248437.18032691628 0 -248437.18032691628 34061.537191707641 0 0 0 0 -148693539.19615173 -524832.91655540466 0 -524832.91655540466 567354555.04858398 0 0 0 0 13005071.865589142 -215097562.3791666 0 -215097562.3791666 -141797803.18215179 0 0 0 0 126094876.77819061 173652168.56407928 0 173652168.56407928 128110620.99871063 0 0 0 0 134508100.01670837 649121729.87899399 0 649121729.87899399 759968834.0200386 0 0 0 0 -206865478.44529724 229433063.11112976 0 229433063.11112976 831010771.47947693 0 0 0 0 98668087.365440369 832300024.6349926 0 832300024.6349926 901612075.18447876 0 0 0 0 -33252135.864738464 465744219.27330971 0 465744219.27330971 576172060.99708557 0 0 0 0 282290148.64044189 847614359.65568352 0 847614359.65568352 667669366.56550598 0 0 0 0 -2176274.2211516416 911719938.77022314 0 911719938.77022314 1176419495.8099976 0 0 0 0 203954632.76446533 932786345.21511459 0 932786345.21511459 958206536.73658752 0 0 0 0 123730168.29533386 983998767.31098175 0 983998767.31098175 1182690478.0820599 0 0 0 0 47503144.004203796 675543337.30616379 0 675543337.30616379 1019145645.2521515 0 0 0 0 71047101.441452026 105138929.27376175 0 105138929.27376175 -15254385.705947876 0 0 0 0 264661967.74493408 -48720028.07610321 0 -48720028.07610321 -200405054.7059021 0 0 0 0 597220882.47285461 481346072.39759064 0 481346072.39759064 155974637.53196716 0 0 0 0 89219280.520614624 107696766.46517181 0 107696766.46517181 -34072022.442001343 0 0 0 0 -111147127.1728096 548926831.6639452 0 548926831.6639452 414540816.83514404 0 0 0 0 85656519.694015503 580020498.38033295 0 580020498.38033295 527537181.07652283 0 0 0 0 218022364.35190582 703171254.98021889 0 703171254.98021889 202549362.56822968 0 0 0 0 10874157.209564209 424800502.57499695 0 424800502.57499695 -45855171.648933411 0 0 0 0 92556473.382095337 323387933.4792099 0 323387933.4792099 43553693.863113403 0 0 0 0 165594023.90377808 163237233.91390228 0 163237233.91390228 32318146.428665161 0 0 0 0 214769756.85015869 544800085.7896347 0 544800085.7896347 260807840.18465424 0 0 0 0 268076916.70924377 317011436.81446838 0 317011436.81446838 -383260984.08665466 0 0 0 0 344649711.03450012 -18325674.929660797 0 -18325674.929660797 -404608807.09642363 0 0 0 0 -577549.57733250409 1492387.8295561317 0 1492387.8295561317 -33084.797107579187 0 0 0 0 -796684426.41322327 -15785445.879622459 0 -15785445.879622459 15049973.543361664 0 0 0 0 -139088249.94833374 715826286.64814186 0 715826286.64814186 -593418516.67790985 0 0 0 0 -444234180.75311279 577884974.16043568 0 577884974.16043568 -363834498.71908569 0 0 0 0 342474338.99864197 101142834.73340988 0 101142834.73340988 -872691391.40382004 0 0 0 0 -767702905.3809433 -166126673.22599888 0 -166126673.22599888 403742105.10172272 0 0 0 0 90094438.979125977 -284561106.66728973 0 -284561106.66728973 284479343.80653763 0 0 0 0 286112839.49342346 11128337.72296524 0 11128337.72296524 -275689504.9343338 0 0 0 0 17081676.082221985 64388040.288190842 0 64388040.288190842 552302464.10446167 0 0 0 0 959677.57983086258 118903.77161503397 0 118903.77161503397 110111.72985328268 0 0 0 0 269546257.76168823 -112085396.66933441 0 -112085396.66933441 296837551.74765015 0 0 0 0 196311581.75396729 -130151025.12091827 0 -130151025.12091827 578299746.127985 0 0 0 0 248834665.0635376 -173606858.75599289 0 -173606858.75599289 266185282.22675085 0 0 0 0 1036882.3831948489 2819892.4003503174 0 2819892.4003503174 3353562.8318687212 0 0 0 0 8401001.913028717 8776905.9132966995 0 8776905.9132966995 -8860449.2035980225 0 0 0 0 146523043.00695801 -244732505.92993927 0 -244732505.92993927 269915259.5898571 0 0 0 0 -148065614.81797791 -70874479.62758255 0 -70874479.62758255 389204167.06809235 0 0 0 0 -275470621.98811531 174691282.10361099 0 174691282.10361099 93218314.692848206 0 0 0 0 -319172187.51079845 -161652272.77076912 0 -161652272.77076912 345676570.54524994 0 0 0 0 137988359.77398682 -155125986.70180893 0 -155125986.70180893 278720196.34640884 0 0 0 0 -50867026.202606201 38881922.813949585 0 38881922.813949585 83459943.587181091 0 0 0 0 76722278.114685059 22072865.004096985 0 22072865.004096985 -46576391.512756348 0 0 0 0 9187712.8582763672 -89963797.369915009 0 -89963797.369915009 221980785.61209869 0 0 0 0 -399653477.2673111 -401873416.93278313 0 -401873416.93278313 160303418.83355141 0 0 0 0 21622301.465240479 247356986.80843735 0 247356986.80843735 -491473573.81154251 0 0 0 0 -352038926.19797325 363050479.75244391 0 363050479.75244391 -146679033.48067474 0 0 0 0 -74682934.84085083 208914226.01356506 0 208914226.01356506 -64911284.19336319 0 0 0 0 -84687435.632839203 246931764.00732136 0 246931764.00732136 -207754567.89925385 0 0 0 0 -199043761.99968719 139456091.79310989 0 139456091.79310989 -73848389.883361816 0 0 0 0 -85873637.218856812 269374328.01725006 0 269374328.01725006 -150930148.07475376 0 0 0 0 -65040504.337265015 176896575.16551018 0 176896575.16551018 21376962.91412735 0 0 0 0 7157108.7092437744 8139878.815984726 0 8139878.815984726 -62051906.946212769 0 0 0 0 59395406.142066956 55862187.865764618 0 55862187.865764618 -559095525.62222672 0 0 0 0 -6465314.6235809326 48705024.696075439 0 48705024.696075439 -19876250.991109848 0 0 0 0 -13444671.151321411 108811240.12176132 0 108811240.12176132 -228367178.34483337 0 0 0 0 -52119321.224033356 26222757.051558495 0 26222757.051558495 -29978836.971435547 0 0 0 0 5351170.1030807495 -10662367.207638264 0 -10662367.207638264 15715445.524642944 0 0 0 0 -38023179.008562088 -6011532.6823701859 0 -6011532.6823701859 28717306.421447754 0 0 0 0 1034213.9385192432 8490525.4519920275 0 8490525.4519920275 2894075.7351822201 0 0 0 0 186901390.96385193 34951529.875339508 0 34951529.875339508 12470793.637722969 0 0 0 0 -268980575.44374084 -23278811.357978821 0 -23278811.357978821 1980848.371421814 0 0 0 0 22749535.894674301 34915644.346470833 0 34915644.346470833 -4055245.3773422241 0 0 0 0 -1761155.8722819537 4760140.8067486621 0 4760140.8067486621 335281.38593469188 0 0 0 0 -11160625.533763885 56741197.849181652 0 56741197.849181652 -18050245.423957825 0 0 0 0 -260393477.35658264 -58449176.653884888 0 -58449176.653884888 82861610.474445343 0 0 0 0 331534657.29695129 131448777.56240082 0 131448777.56240082 -112756051.32530594 0 0 0 0 275768961.37672424 395613150.87675762 0 395613150.87675762 -724390071.77685547 0 0 0 0 381356716.42240143 124294304.46976233 0 124294304.46976233 -182451287.850811 0 0 0 0 168763980.47059631 179671765.34899426 0 179671765.34899426 -48467191.343315125 0 0 0 0 8803875.0047588348 -29718879.616112471 0 -29718879.616112471 -5537002.2984237671 0 0 0 0 734269794.830948 139506273.22521007 0 139506273.22521007 -1064918225.3083344 0 0 0 0 71032.091614037752 7125673.9031762481 0 7125673.9031762481 2234529.8395090923 0 0 0 0 713460586.97653198 -704143156.70835495 0 -704143156.70835495 -87756245.016111851 0 0 0 0 17369017.407928467 -16786279.65385437 0 -16786279.65385437 -189889417.65580368 0 0 0 0 96536.460664771497 3032735.1424550959 0 3032735.1424550959 -460179.5288874805 0 0 0 0 40402613.159622192 31610039.948619843 0 31610039.948619843 -3545259.1661518812 0 0 0 0 -53527141.145385742 -29078786.829437256 0 -29078786.829437256 14523238.043395996 0 0 0 0 -340048368.7668829 77180943.305928469 0 77180943.305928469 33470518.605285645 0 0 0 0 129675992.08100128 470014340.39078522 0 470014340.39078522 -303192633.66109753 0 0 0 0 313423.74130379036 1051566.9708156534 0 1051566.9708156534 -530057.81451343 0 0 0 0 12355492.17565155 -208673849.83054733 0 -208673849.83054733 -595886466.49874115 0 0 0 0 72388775.78653717 27016762.201587677 0 27016762.201587677 -61916956.523826599 0 0 0 0 62484178.328533173 72652778.846270084 0 72652778.846270084 -112424229.05960083 0 0 0 0 -6069692.8558197021 14036839.030517578 0 14036839.030517578 35076417.536556244 0 0 0 0 22730136.218696594 -77327.701734542847 0 -77327.701734542847 21008797.684078217 0 0 0 0 -10124385.726264954 6240714.2862529755 0 6240714.2862529755 25255959.187789917 0 0 0 0 5244695.5858898163 27992649.497635365 0 27992649.497635365 -3007525.9027824402 0 0 0 0 6905855.4776866995 7778471.9699434619 0 7778471.9699434619 4247279.7208235273 0 0 0 0 4311.8173522949219 17215804.197914124 0 17215804.197914124 -25925926.621479034 0 0 0 0 -751637.7533184886 3153231.8896644264 0 3153231.8896644264 1423396.449569372 0 0 0 0 3756336.1230316162 -1917568.2114677429 0 -1917568.2114677429 10017120.371198654 0 0 0 0 -127950287.96946716 314975543.70332909 0 314975543.70332909 508665917.2109108 0 0 0 0 -687424.14147952944 3498861.2633681302 0 3498861.2633681302 3437501.0800137101 0 0 0 0 -186856523.02373505 79558816.504150391 0 79558816.504150391 686432840.00266266 0 0 0 0 -1968970.0318012238 11961138.978286266 0 11961138.978286266 14540003.736930847 0 0 0 0 4688863.2372188568 6225122.4560994562 0 6225122.4560994562 3584345.9116164809 0 0 0 0 249855.77971480042 1001416.4325884804 0 1001416.4325884804 1130869.0155598344 0 0 0 0 -40179363.374465942 -288214840.76500702 0 -288214840.76500702 435650624.90692329 0 0 0 0 1952917.9987182617 10447911.780891418 0 10447911.780891418 -20619267.143169403 0 0 0 0 175206429.13728333 -201724877.62923431 0 -201724877.62923431 90822181.696168303 0 0 0 0 17985977.686096191 11233256.846176147 0 11233256.846176147 -75284515.469284058 0 0 0 0 6720019.9724578857 10985013.577344894 0 10985013.577344894 -43759608.857299805 0 0 0 0 20411928.693405151 22098681.023117065 0 22098681.023117065 -41423167.444173813 0 0 0 0 5559232.5280303955 14487248.04347229 0 14487248.04347229 -21877335.934860229 0 0 0 0 -5365343.1048278809 30530229.968479156 0 30530229.968479156 -29495219.812295914 0 0 0 0 13181029.409439087 29862040.38955307 0 29862040.38955307 -43826142.543067932 0 0 0 0 -8760345.0916900635 38160058.728507996 0 38160058.728507996 -44887336.279318333 0 0 0 0 691076.12752532959 27024061.910123825 0 27024061.910123825 -51500760.987251282 0 0 0 0 74127590.622055054 15607542.492752075 0 15607542.492752075 -75232628.564746857 0 0 0 0 38211973.576293945 55621627.17930603 0 55621627.17930603 -83804366.325088501 0 0 0 0 -16657080.6979599 86259237.957790375 0 86259237.957790375 -96909729.789134979 0 0 0 0 -36427460.804611206 32730885.287509918 0 32730885.287509918 -67000084.875923157 0 0 0 0 -24477117.358184814 23395200.921070099 0 23395200.921070099 -44882384.677810669 0 0 0 0 -10681734.56552124 43204703.251022339 0 43204703.251022339 -62943847.018016815 0 0 0 0 2885213.1272888184 17220879.695177078 0 17220879.695177078 -63511016.282783508 0 0 0 0 5729768.8519935608 27251016.765191078 0 27251016.765191078 -44477390.195739746 0 0 0 0 407609.55104255676 12593707.569142818 0 12593707.569142818 -36360860.745002747 0 0 0 0 -13817685.341567993 29029609.353256226 0 29029609.353256226 -29499712.790210724 0 0 0 0 13015080.443683513 9681290.9382993244 0 9681290.9382993244 2342291.2202057224 0 0 0 0 116114698.71417236 -136430473.1569252 0 -136430473.1569252 91370210.880811691 0 0 0 0 141055492.29898071 -118721384.80911255 0 -118721384.80911255 93022329.542665482 0 0 0 0 122355446.01196289 -160490870.93128204 0 -160490870.93128204 79827641.91947937 0 0 0 0 69067495.258476257 -75179187.245149612 0 -75179187.245149612 68869225.044469833 0 0 0 0 9588112.3374864236 8999679.092435332 0 8999679.092435332 4007293.3576538302 0 0 0 0 5014299.8424682617 25354586.198814392 0 25354586.198814392 -47686190.108570099 0 0 0 0 7902530.0001907349 22046832.16071701 0 22046832.16071701 -63684400.119949341 0 0 0 0 6416830.3647918701 19321838.481025696 0 19321838.481025696 -57894199.793279648 0 0 0 0 8897510.4841461182 20512425.007774353 0 20512425.007774353 -70084235.742485046 0 0 0 0 7333561.9139518738 22580466.94542408 0 22580466.94542408 -57012008.305175781 0 0 0 0 -2982413.2452392578 8791454.3189544678 0 8791454.3189544678 -69493924.342681885 0 0 0 0 -34271748.072937012 17134577.844451904 0 17134577.844451904 -37795575.875061035 0 0 0 0 -2494886.3626098633 18324790.294761658 0 18324790.294761658 -50616819.455223083 0 0 0 0 -1230843.8368530273 33222539.944046021 0 33222539.944046021 -37486727.226501465 0 0 0 0 -3604725.0142841339 31775524.686862946 0 31775524.686862946 -34954922.096710205 0 0 0 0 -39788308.022644043 -101651937.47071075 0 -101651937.47071075 439990985.66260147 0 0 0 0 -11030168.988647461 36769232.710647583 0 36769232.710647583 -29803640.704437256 0 0 0 0 6126934.1611328125 46968505.996383667 0 46968505.996383667 -25891625.41884613 0 0 0 0 13320259.801803619 14146224.003062084 0 14146224.003062084 3053024.2248685025 0 0 0 0 19188512.303436279 56624723.476142883 0 56624723.476142883 -38826705.795227051 0 0 0 0 41819534.034606934 60362307.312286377 0 60362307.312286377 -38955138.460540771 0 0 0 0 3821758.331265457 -2539366.4761916324 0 -2539366.4761916324 -3559554.2282706145 0 0 0 0 -37110013.838378906 -186180910.7365799 0 -186180910.7365799 424456579.81253052 0 0 0 0 -26243252.222473145 18112376.990219116 0 18112376.990219116 -42463103.967712402 0 0 0 0 -2848123.1877746582 30247093.768585205 0 30247093.768585205 -39435248.089111328 0 0 0 0 -12425356.300018311 37107845.679870605 0 37107845.679870605 -33061895.133117676 0 0 0 0 -14353835.499023438 38640551.698608398 0 38640551.698608398 -33619444.216522217 0 0 0 0 2512831.1867675781 46258608.552856445 0 46258608.552856445 -31007164.980415344 0 0 0 0 1473902.4927368164 47890323.930130005 0 47890323.930130005 -33876731.969726562 0 0 0 0 -255030.71865844727 50682865.491157532 0 50682865.491157532 -25524694.672912598 0 0 0 0 25519685.03717041 60465498.121154785 0 60465498.121154785 -26533585.860267639 0 0 0 0 16249321.43359375 48209327.003173828 0 48209327.003173828 -25784095.186065674 0 0 0 0 15970977.356079102 55362254.553527832 0 55362254.553527832 -26893055.743297577 0 0 0 0 37690263.412536621 50541277.1039505 0 50541277.1039505 -18549312.739501953 0 0 0 0 18638458.350219727 53415136.121353149 0 53415136.121353149 -30757489.72756958 0 0 0 0 -2674180.2496948242 52052189.661361694 0 52052189.661361694 -30531203.856018066 0 0 0 0 -63395640.857299805 -161427469.55900574 0 -161427469.55900574 403803385.47213769 0 0 0 0 -56504228.453063965 -183649727.48977661 0 -183649727.48977661 375260318.27111816 0 0 0 0 -41505038.478424072 -150397797.43408203 0 -150397797.43408203 321670340.4074707 0 0 0 0 -41995333.37991333 -144161024.82337952 0 -144161024.82337952 339029077.00389099 0 0 0 0 -46169043.905029297 -142777215.88777924 0 -142777215.88777924 383704008.7418232 0 0 0 0 -28364011.664611816 -95278567.932098389 0 -95278567.932098389 404890457.3383472 0 0 0 0 -14836510.25982666 -100088494.65774536 0 -100088494.65774536 359999081.02496338 0 0 0 0 30882104.793212891 -37658092.938308716 0 -37658092.938308716 411103442.61413574 0 0 0 0 71012241.301086426 -23702515.86277771 0 -23702515.86277771 380753192.43386841 0 0 0 0 -37117950.895149231 26355400.677871704 0 26355400.677871704 -37741889.558044434 0 0 0 0 -22391616.456665039 40799485.588989258 0 40799485.588989258 -35618020.058654785 0 0 0 0 155855467.71841431 -53905059.429977417 0 -53905059.429977417 -180348803.41287231 0 0 0 0 146943554.3391571 19204134.478221893 0 19204134.478221893 300279654.02856445 0 0 0 0 -171664787.24475861 119495233.94520569 0 119495233.94520569 196999847.7338562 0 0 0 0 -206285985.75158691 -6678958.9013977051 0 -6678958.9013977051 378680337.66372681 0 0 0 0 178326638.39282227 -177460934.00524139 0 -177460934.00524139 317517289.98704529 0 0 0 0 231062830.03588867 -86530805.977371216 0 -86530805.977371216 279351887.88598633 0 0 0 0 60872527.529968262 60361310.818481445 0 60361310.818481445 -40383178.273010254 0 0 0 0 91955800.055664062 57173111.920196533 0 57173111.920196533 -41620217.839958191 0 0 0 0 43652462.960754395 56092421.296989441 0 56092421.296989441 -26849302.098754883 0 0 0 0 83200093.755981445 -212027735.64691162 0 -212027735.64691162 348332566.89505005 0 0 0 0 -42899905.625014424 -159275105.99607274 0 -159275105.99607274 324253506.34512329 0 0 0 0 -43117523.5078125 -184045607.00514221 0 -184045607.00514221 361771811.05636597 0 0 0 0 28010354.239501953 -168055276.49156952 0 -168055276.49156952 303384129.65036011 0 0 0 0 -45079957.102844238 -172764523.33171844 0 -172764523.33171844 347825973.54240417 0 0 0 0 28010444.973114014 -212527747.29922485 0 -212527747.29922485 355472889.3681221 0 0 0 0 47178940.185791016 -141300623.76815796 0 -141300623.76815796 307892258.61541748 0 0 0 0 53995215.259857178 -69375278.586334229 0 -69375278.586334229 281308055.91954041 0 0 0 0 99296651.072601318 -126427473.34550476 0 -126427473.34550476 293767477.05519104 0 0 0 0 -22551136.858123779 -103082882.330513 0 -103082882.330513 293324295.94598675 0 0 0 0 21124217.004859924 -73124322.418376923 0 -73124322.418376923 269755872.9212265 0 0 0 0 -59387137.739746094 -28284559.979255676 0 -28284559.979255676 287732986.87489462 0 0 0 0 -23254578.843383789 35365458.680118561 0 35365458.680118561 303015882.90844727 0 0 0 0 96020035.115356445 -34989836.405090332 0 -34989836.405090332 288010763.75172997 0 0 0 0 -127403428.8414917 -86677571.355957031 0 -86677571.355957031 237315357.89602661 0 0 0 0 -87472720.258972168 -69440352.373729706 0 -69440352.373729706 189317452.29256439 0 0 0 0 -88906955.515899658 -53253072.676612854 0 -53253072.676612854 266323044.68226242 0 0 0 0 -26718582.381126404 -130405238.49844742 0 -130405238.49844742 251802377.29621887 0 0 0 0 -116329543.40788269 -93156638.826164246 0 -93156638.826164246 237236653.31672668 0 0 0 0 -58326622.865608215 -149274392.04486084 0 -149274392.04486084 170848854.42596436 0 0 0 0 -37377417.245910645 -174274244.33239746 0 -174274244.33239746 311294473.0511055 0 0 0 0 -52573618.956573486 -124465299.59175873 0 -124465299.59175873 281114849.07658386 0 0 0 0 -36197898.005218506 -138589114.78868866 0 -138589114.78868866 255657851.10125732 0 0 0 0 -44845752.263893127 -160483276.69328308 0 -160483276.69328308 314204599.22132874 0 0 0 0 -46523253.625144958 -165168509.3709259 0 -165168509.3709259 221048155.77966309 0 0 0 0 -63550203.234436035 -128373502.06432343 0 -128373502.06432343 257892991.20721245 0 0 0 0 -61316189.7552948 -193243123.63113022 0 -193243123.63113022 79962853.537849426 0 0 0 0 -112480340.61991882 -115856698.4712944 0 -115856698.4712944 163631029.00984859 0 0 0 0 -206098534.6882782 -80505653.590623856 0 -80505653.590623856 188496290.59085846 0 0 0 0 -98133571.059532166 -127129405.92482758 0 -127129405.92482758 86860733.037185669 0 0 0 0 154116537.01753235 -72236758.452297211 0 -72236758.452297211 189845125.29109192 0 0 0 0 60181109.210205078 -118486899.20633698 0 -118486899.20633698 199465490.27667236 0 0 0 0 105823288.62698364 -94284748.406410217 0 -94284748.406410217 153582178.98712158 0 0 0 0 122208381.30740356 -133692770.38806915 0 -133692770.38806915 95023425.913188934 0 0 0 0 117761473.88676453 -23480548.863471985 0 -23480548.863471985 303164811.45483398 0 0 0 0 98284279.008972168 -60773202.302024841 0 -60773202.302024841 232245518.66928101 0 0 0 0 41153001.640625 -76293195.828430176 0 -76293195.828430176 288198829.69998169 0 0 0 0 30022229.156661987 -63622512.949695587 0 -63622512.949695587 334969737.83790588 0 0 0 0 -468599.0245513916 -95897549.605091095 0 -95897549.605091095 321913121.912323 0 0 0 0 8049949.6890258789 -113210158.21041107 0 -113210158.21041107 263825026.5178833 0 0 0 0 -20125981.019012451 -124074741.36785126 0 -124074741.36785126 260187056.02677917 0 0 0 0 -23521017.725524902 -137818556.10865784 0 -137818556.10865784 281067159.13978577 0 0 0 0 35344247.274230957 -115515183.10236359 0 -115515183.10236359 201090900.21075439 0 0 0 0 -2777127.397277832 -143972410.2694397 0 -143972410.2694397 191672860.97534943 0 0 0 0 44446123.449386597 -89789159.778217316 0 -89789159.778217316 258661872.04800415 0 0 0 0 75036200.542312622 -143031854.41287613 0 -143031854.41287613 99990945.215255737 0 0 0 0 -39780929.928192139 -155352598.7515564 0 -155352598.7515564 146347604.53355408 0 0 0 0 8562111.4563293457 -132795730.70878601 0 -132795730.70878601 153558584.63270569 0 0 0 0 36828795.708969116 -169072511.12929916 0 -169072511.12929916 62455633.963226318 0 0 0 0 27178802.77772522 -175661958.56423187 0 -175661958.56423187 88156593.880325317 0 0 0 0 89798966.822341919 -160786006.79623032 0 -160786006.79623032 36585970.030303955 0 0 0 0 123978511.54481506 -152180561.60076523 0 -152180561.60076523 44323332.130279541 0 0 0 0 73800524.336669922 -135033650.40611267 0 -135033650.40611267 133503973.53433609 0 0 0 0 90828248.973632812 -172507595.42236328 0 -172507595.42236328 86004007.970148087 0 0 0 0 167020604.51185608 -169337576.45401382 0 -169337576.45401382 -36341014.967987061 0 0 0 0 97460520.402854919 -196922651.40540648 0 -196922651.40540648 -12505493.172409058 0 0 0 0 44080192.478271484 -207189286.08432007 0 -207189286.08432007 -10116848.432762146 0 0 0 0 -28308663.753692627 -173744091.83258057 0 -173744091.83258057 62122935.222447395 0 0 0 0 36863792.285293579 -182603559.36413193 0 -182603559.36413193 -17574236.631450653 0 0 0 0 12549478.63961792 -216415341.34765244 0 -216415341.34765244 -60963724.317657471 0 0 0 0 -124408523.38243103 -197089492.38784027 0 -197089492.38784027 -46250834.015703201 0 0 0 0 98847511.016662598 -236415419.45745468 0 -236415419.45745468 -93408021.135887146 0 0 0 0 173477693.16944885 -190824999.90919495 0 -190824999.90919495 -97084293.199175358 0 0 0 0 -185751251.27773285 -36383428.861394882 0 -36383428.861394882 29116755.922149658 0 0 0 0 -251767509.09134293 -140244801.44819641 0 -140244801.44819641 90306159.268013 0 0 0 0 -129606937.29380798 -188416051.33656311 0 -188416051.33656311 33274343.369258881 0 0 0 0 -99469002.479278564 -150941539.83449173 0 -150941539.83449173 -23080205.847175598 0 0 0 0 -14213737.981140137 -154631972.15568352 0 -154631972.15568352 39867141.102844238 0 0 0 0 -265320294.92062378 -163614762.10282135 0 -163614762.10282135 -9436690.6801757812 0 0 0 0 -98517730.232017517 -172707328.13706589 0 -172707328.13706589 -106980334.65871048 0 0 0 0 -220271067.42315292 -115002555.78617668 0 -115002555.78617668 -157595934.48088074 0 0 0 0 -619183529.3035965 13131990.587900162 0 13131990.587900162 -81251262.260372162 0 0 0 0 -328580747.69057465 36384276.239408731 0 36384276.239408731 -193361600.1195755 0 0 0 0 -331767022.45459747 -55320226.801651001 0 -55320226.801651001 -121065209.17974091 0 0 0 0 -303411894.19233131 -169114207.85555196 0 -169114207.85555196 -46524278.16242218 0 0 0 0 -380305408.13425446 -79303915.981277466 0 -79303915.981277466 -125087144.21291351 0 0 0 0 208393741.08972168 -269548713.49808884 0 -269548713.49808884 -141404858.14423656 0 0 0 0 195232728.97200394 -218983775.02899885 0 -218983775.02899885 -154885772.24741364 0 0 0 0 36317949.6820755 -295986926.1636467 0 -295986926.1636467 -134200224.03662872 0 0 0 0 155042428.30329895 -336533340.20281982 0 -336533340.20281982 -46106708.967624664 0 0 0 0 -214762975.90322685 -366186780.84054661 0 -366186780.84054661 -5530809.7881088257 0 0 0 0 608687609.46759033 -329765588.31079865 0 -329765588.31079865 -164091747.24565506 0 0 0 0 469189762.93191528 36034816.249095917 0 36034816.249095917 -372010468.35242796 0 0 0 0 257085316.45230103 -59505837.085577011 0 -59505837.085577011 -111333650.24649811 0 0 0 0 361015473.35967255 45052783.003944397 0 45052783.003944397 -130106941.9643631 0 0 0 0 223386072.03291321 -220103245.83764648 0 -220103245.83764648 -158348985.54859161 0 0 0 0 165948858.72352028 -75522334.588238001 0 -75522334.588238001 -55445271.519073486 0 0 0 0 303419853.97432709 -129211720.22001266 0 -129211720.22001266 -113188122.74239349 0 0 0 0 158670660.87854195 -140030379.94894314 0 -140030379.94894314 -20719861.580871582 0 0 0 0 168151186.3681488 -168901336.11992645 0 -168901336.11992645 -98960324.058094025 0 0 0 0 98009653.121398926 25432859.256221771 0 25432859.256221771 -17764381.603143692 0 0 0 0 259631661.35929871 -34382896.787639618 0 -34382896.787639618 -52408265.780740499 0 0 0 0 103627188.75786591 65983873.62603569 0 65983873.62603569 55532246.576423645 0 0 0 0 218759520.20812988 154533991.01979065 0 154533991.01979065 108912675.49869823 0 0 0 0 -145360.42259237915 1617221.136545361 0 1617221.136545361 265000.9555796776 0 0 0 0 112905088.16467285 212981538.04856491 0 212981538.04856491 -152260759.87040424 0 0 0 0 75943454.057678103 138879532.98428756 0 138879532.98428756 -108920.18097686768 0 0 0 0 -42793111.991188049 226005998.11820602 0 226005998.11820602 216394558.56707191 0 0 0 0 -29819806.390129089 22622575.666007996 0 22622575.666007996 -88946618.934120178 0 0 0 0 713246091.76037598 -821317782.01740265 0 -821317782.01740265 491776703.72003174 0 0 0 0 1443787472.0803833 -278129626.18848038 0 -278129626.18848038 -346122478.17808723 0 0 0 0 543297762.29843903 569578293.57941818 0 569578293.57941818 142328024.45693207 0 0 0 0 371192.34944205731 1552356.3725762032 0 1552356.3725762032 719396.04133570567 0 0 0 0 1514274992.1088028 173453822.98031998 0 173453822.98031998 -194745538.60623932 0 0 0 0 393689077.30258942 145758829.00056458 0 145758829.00056458 985914427.896698 0 0 0 0 820449370.51252747 -199651978.77712631 0 -199651978.77712631 -285147182.00547028 0 0 0 0 1421063138.5628543 -750295249.46368814 0 -750295249.46368814 118040841.94128418 0 0 0 0 662023928.31564331 -218973474.85394669 0 -218973474.85394669 -12630524.034618378 0 0 0 0 955460440.08058167 -41772135.00289917 0 -41772135.00289917 -428916947.55695343 0 0 0 0 398347132.35282898 172353376.82509995 0 172353376.82509995 -305434813.1554718 0 0 0 0 361508573.92906189 14935417.227399826 0 14935417.227399826 10380155.088172913 0 0 0 0 22278782.869269371 65123496.73813343 0 65123496.73813343 -141186004.38723755 0 0 0 0 1203267.2549924329 4583061.1559375189 0 4583061.1559375189 1455583.0785082038 0 0 0 0 669221109.40303802 179147809.57675552 0 179147809.57675552 -7452849.0428712368 0 0 0 0 -1735581.4965251088 5971992.7382381102 0 5971992.7382381102 -2843209.4138589678 0 0 0 0 -2460798196.1746216 1541299365.3451538 0 1541299365.3451538 -14103642.036895752 0 0 0 0 669397907.17188263 102544807.52282906 0 102544807.52282906 -225374531.17032623 0 0 0 0 440534583.63626862 281309031.64626694 0 281309031.64626694 -361641317.41944885 0 0 0 0 -983794.28284312412 2311313.5168816168 0 2311313.5168816168 -1293305.7313476708 0 0 0 0 98818110.667106628 203335665.85546875 0 203335665.85546875 382454148.01298904 0 0 0 0 1800663518.8893127 -54180729.772036552 0 -54180729.772036552 549711740.84211731 0 0 0 0 -1831260.428739626 2390045.582851816 0 2390045.582851816 -1938668.968624521 0 0 0 0 -2522793414.3792114 -306842657.75570488 0 -306842657.75570488 802765872.10817337 0 0 0 0 -2530199570.7603607 744829013.80057144 0 744829013.80057144 144222509.41043091 0 0 0 0 -2006444860.0762939 434211354.4324913 0 434211354.4324913 -26461438.150371552 0 0 0 0 -1271364828.5801239 1129321885.6887245 0 1129321885.6887245 -963498844.11540222 0 0 0 0 -1202639521.0809326 199753985.85067558 0 199753985.85067558 64015877.869073868 0 0 0 0 -1222151888.8935089 756840141.60229492 0 756840141.60229492 79943405.559806824 0 0 0 0 -1226427765.7410467 275440085.03822565 0 275440085.03822565 274090657.63536835 0 0 0 0 -267073485.49179077 778231206.12106133 0 778231206.12106133 -162188591.37552643 0 0 0 0 -337027485.57398987 1009924722.2297115 0 1009924722.2297115 436758765.77035141 0 0 0 0 -354376659.89108849 944610132.48653984 0 944610132.48653984 -474603117.08940125 0 0 0 0 -906074410.03459167 692441253.51655006 0 692441253.51655006 16999461.099510193 0 0 0 0 -259151923.35154724 634962094.88519669 0 634962094.88519669 -70939705.76322937 0 0 0 0 264053222.18359375 140589328.43820572 0 140589328.43820572 -265245886.99312973 0 0 0 0 73133183.742137909 490382116.34084702 0 490382116.34084702 -696322974.69844055 0 0 0 0 -357192672.18331909 431498280.57728195 0 431498280.57728195 -500738152.17510986 0 0 0 0 -1822511720.2390671 1480457473.4029121 0 1480457473.4029121 -655321227.61598969 0 0 0 0 -458619627.00920105 838249801.78874207 0 838249801.78874207 -1966424602.48489 0 0 0 0 -2548517229.5512848 612730135.31912422 0 612730135.31912422 396192556.68081665 0 0 0 0 -2482093186.5683517 209386684.6948185 0 209386684.6948185 -176754068.92684937 0 0 0 0 -1009079931.5911026 -445297806.25655365 0 -445297806.25655365 -1258764071.6461029 0 0 0 0 422164705.37007141 264500273.22657776 0 264500273.22657776 -859344744.22283936 0 0 0 0 -380900813.92286682 229192485.65805817 0 229192485.65805817 -545668909.27352905 0 0 0 0 343228998.19781494 302467853.20838928 0 302467853.20838928 -109973250.10079002 0 0 0 0 -165228478.34876251 -103439994.11748886 0 -103439994.11748886 -389196844.43655396 0 0 0 0 117229862.7197113 -374844151.27282715 0 -374844151.27282715 76438296.383132935 0 0 0 0 -259056786.14842224 33799229.373311996 0 33799229.373311996 90287485.279632568 0 0 0 0 -984082125.27152252 -388138395.70298004 0 -388138395.70298004 -104493149.75961304 0 0 0 0 -480058750.39608002 -356227015.48866272 0 -356227015.48866272 205539675.30187607 0 0 0 0 163744469.65206909 -303575339.24917984 0 -303575339.24917984 14149955.762699127 0 0 0 0 -951083955.10261536 220259596.60633469 0 220259596.60633469 -4718802.3941135406 0 0 0 0 -1128601165.1124835 424816939.35893917 0 424816939.35893917 -151018815.53276062 0 0 0 0 -708598827.56167221 221210482.7121172 0 221210482.7121172 -142018496.19788361 0 0 0 0 -1204288345.200119 753443272.73203278 0 753443272.73203278 -320706153.54237366 0 0 0 0 -1068141594.1564178 806800273.60749435 0 806800273.60749435 -460261861.30121994 0 0 0 0 -1017151164.0521545 747028223.86734009 0 747028223.86734009 -414238626.64050293 0 0 0 0 -373020727.37586212 445952132.11761665 0 445952132.11761665 -599882113.58776283 0 0 0 0 646015782.25370026 305153988.87517357 0 305153988.87517357 77722775.755973816 0 0 0 0 -1518554.5130602941 3478438.260337064 0 3478438.260337064 -4211279.5058424026 0 0 0 0 -1021784204.5376644 1101719731.8846874 0 1101719731.8846874 -1199221152.5210571 0 0 0 0 -1346259292.2697525 -569382733.30011749 0 -569382733.30011749 -231556813.62767029 0 0 0 0 -3315125.5542119071 2980667.6162346387 0 2980667.6162346387 409211.93990048394 0 0 0 0 -6049156.1545358403 10246390.498087034 0 10246390.498087034 3568604.0157174934 0 0 0 0 -1773744.7721710205 8258003.2297506332 0 8258003.2297506332 7323380.097026825 0 0 0 0 11871180.884620667 10414574.703807831 0 10414574.703807831 -5716897.0795669556 0 0 0 0 221698.81094414741 758999.5658659935 0 758999.5658659935 1878084.3041284829 0 0 0 0 -1187183477.0109708 -196834180.45907253 0 -196834180.45907253 -25219209.81803894 0 0 0 0 -4498583.4827125072 9420856.9523301125 0 9420856.9523301125 12739500.843448639 0 0 0 0 -7013475.8683149964 10693090.563088 0 10693090.563088 2599663.1763021816 0 0 0 0 -4398688.2937316895 7308355.3013801575 0 7308355.3013801575 7998151.8006420135 0 0 0 0 -2077799.8380012512 195506798.81323242 0 195506798.81323242 145602803.83503723 0 0 0 0 -3048570.6320381165 8865661.3696022034 0 8865661.3696022034 9375629.3171157837 0 0 0 0 -3427852.8675731495 11361973.961967833 0 11361973.961967833 -481878.96923604421 0 0 0 0 -119110149.9705162 48812928.3645401 0 48812928.3645401 342970911.68925095 0 0 0 0 -8697770.2772789001 180048816.50502396 0 180048816.50502396 489438691.1594162 0 0 0 0 -711683883.78168488 269224189.63495255 0 269224189.63495255 480115884.35698605 0 0 0 0 -299801457.49992371 -99803629.50134182 0 -99803629.50134182 206681428.1475296 0 0 0 0 20475700.531204224 676052327.58547592 0 676052327.58547592 197636038.40156937 0 0 0 0 -1106352302.9936752 670263071.29569435 0 670263071.29569435 211525270.14465237 0 0 0 0 -1437628419.2104301 -500526541.64182854 0 -500526541.64182854 71666069.09236145 0 0 0 0 -1199808065.1296844 1478831140.2739372 0 1478831140.2739372 -1901261589.9677734 0 0 0 0 -3430518671.3901725 -59018592.41558075 0 -59018592.41558075 35257978.933258057 0 0 0 0 604602.01536076143 2491436.1893324303 0 2491436.1893324303 -3622902.7964050807 0 0 0 0 -3037013425.3556776 1268861727.3882256 0 1268861727.3882256 -374595290.85987854 0 0 0 0 -1540560053.9113617 -261071664.24937439 0 -261071664.24937439 -86406766.968200684 0 0 0 0 -1375346281.8539505 803016548.94206238 0 803016548.94206238 -330013332.37278748 0 0 0 0 -2041398848.3243484 623046094.26144409 0 623046094.26144409 134898662.56382751 0 0 0 0 946845754.88503838 143864592.55597973 0 143864592.55597973 -1396044082.1360397 0 0 0 0 -85386784.904888153 69527961.292444229 0 69527961.292444229 276186619.788311 0 0 0 0 -1023326.2264813986 -7721.9080255590379 0 -7721.9080255590379 -1217977.3178650588 0 0 0 0 2130507573.3293457 424809851.09931755 0 424809851.09931755 -1874310019.2045593 0 0 0 0 -38843835.986694336 638931187.92759705 0 638931187.92759705 -1537430257.7690697 0 0 0 0 -1689427056.9202805 1477214671.0438342 0 1477214671.0438342 -848099220.1764183 0 0 0 0 -504852614.20838928 355976508.03204727 0 355976508.03204727 -586893503.54328537 0 0 0 0 -1097502165.7000656 660280407.26890659 0 660280407.26890659 -254513151.12973022 0 0 0 0 -305663973.93170166 97666086.581245422 0 97666086.581245422 -269853996.94712448 0 0 0 0 -477072857.69586945 47131045.661838531 0 47131045.661838531 -278277618.6884613 0 0 0 0 -349013551.61637497 -103160466.28003025 0 -103160466.28003025 54929806.111717224 0 0 0 0 -396478165.78373718 -90833312.378026962 0 -90833312.378026962 19210201.470226288 0 0 0 0 112362286.75831604 -11384311.097351074 0 -11384311.097351074 -927881547.67980957 0 0 0 0 -615016123.55378723 453572129.60535622 0 453572129.60535622 -507147040.28484344 0 0 0 0 -228361546.54011536 27585398.724933624 0 27585398.724933624 -321546956.00740051 0 0 0 0 -401589227.82786942 4648381.543387413 0 4648381.543387413 179245720.83637238 0 0 0 0 -370668103.99157715 151776880.92142487 0 151776880.92142487 166256445.00912476 0 0 0 0 30072008.692764282 162032559.54326439 0 162032559.54326439 113764722.30115509 0 0 0 0 83331567.783561707 15663427.121706009 0 15663427.121706009 464939365.63663483 0 0 0 0 -232640087.28415871 45650203.234576225 0 45650203.234576225 258111544.53997803 0 0 0 0 -277531229.86339569 183642732.42912292 0 183642732.42912292 481361707.36787415 0 0 0 0 -34831156.488647461 245719531.2199173 0 245719531.2199173 351464588.92760849 0 0 0 0 -125732743.59024048 151827542.43830872 0 151827542.43830872 315598073.88955688 0 0 0 0 -131074624.08244324 237807994.2685051 0 237807994.2685051 384103904.43874359 0 0 0 0 -77074132.134723663 375880611.70972061 0 375880611.70972061 668637963.78964996 0 0 0 0 344114953.52098083 496584453.786726 0 496584453.786726 354587746.69958496 0 0 0 0 -187320259.5436554 -108854212.3360405 0 -108854212.3360405 78172924.75195694 0 0 0 0 -314190207.15469742 13840.176162719727 0 13840.176162719727 229993620.96870422 0 0 0 0 -304103378.40336609 103161773.5947113 0 103161773.5947113 214259811.75617599 0 0 0 0 -230039661.67451477 -456392.16438674927 0 -456392.16438674927 76672549.999380112 0 0 0 0 -245113517.4691391 47416750.097089767 0 47416750.097089767 313801659.20243073 0 0 0 0 -210177836.1633606 157640811.32651138 0 157640811.32651138 359191566.13940048 0 0 0 0 -158939790.55355835 9268693.1656646729 0 9268693.1656646729 225536359.67339325 0 0 0 0 -171838431.24708557 23697247.895154953 0 23697247.895154953 283113337.53209686 0 0 0 0 16604983.174477816 17524888.717320006 0 17524888.717320006 -545277.79818949848 0 0 0 0 -46201523.017700195 63073962.408218384 0 63073962.408218384 315339354.59163666 0 0 0 0 -34768313.79095459 117840719.55252075 0 117840719.55252075 -30205008.153053284 0 0 0 0 -39463832.10774231 43101504.237815857 0 43101504.237815857 313038687.91770792 0 0 0 0 -86193245.528961182 64509119.51990509 0 64509119.51990509 329864149.70632935 0 0 0 0 -40107005.337036133 22416236.943042755 0 22416236.943042755 302869436.15087891 0 0 0 0 -53314455.211545944 34341798.574452877 0 34341798.574452877 297479722.55882263 0 0 0 0 -95079189.50579834 9459762.9955978394 0 9459762.9955978394 285508171.74310303 0 0 0 0 -153198274.7556839 61116194.949489594 0 61116194.949489594 326878672.40525818 0 0 0 0 -82070928.219848633 56158524.901725769 0 56158524.901725769 333038171.03173065 0 0 0 0 -87180475.147735596 62637960.701637268 0 62637960.701637268 326710907.31085205 0 0 0 0 -77317248.03527832 69481167.524154663 0 69481167.524154663 325510430.16213989 0 0 0 0 -99193372.323852539 99032506.318572998 0 99032506.318572998 316187524.79243469 0 0 0 0 -59690807.522705078 91929866.36529541 0 91929866.36529541 317365092.5468483 0 0 0 0 -107037305.55825806 72837901.139915466 0 72837901.139915466 328366826.9410553 0 0 0 0 -122010924.17120361 93923555.167610168 0 93923555.167610168 325925733.99093056 0 0 0 0 -121850732.88948059 95517909.069152832 0 95517909.069152832 321840074.87107849 0 0 0 0 -110482506.3260746 161787663.93544292 0 161787663.93544292 321430479.68054199 0 0 0 0 -45646344.124084473 92534872.197189331 0 92534872.197189331 266680287.5039978 0 0 0 0 -41085318.824386597 118692926.25885391 0 118692926.25885391 261160353.19017029 0 0 0 0 -64922967.140472412 102756670.56892776 0 102756670.56892776 296030701.3556366 0 0 0 0 -42694736.703735352 81453761.882102966 0 81453761.882102966 289149540.87960815 0 0 0 0 -61046813.50680542 66489255.806659698 0 66489255.806659698 321435866.10946655 0 0 0 0 -90001607.09072876 78250733.456413269 0 78250733.456413269 320382701.86697388 0 0 0 0 3609521.282119751 55864320.100296021 0 55864320.100296021 316371564.93739319 0 0 0 0 56504168.592826843 34539087.474143982 0 34539087.474143982 68890736.94916153 0 0 0 0 181683191.62039375 23237859.390944958 0 23237859.390944958 -12512845.426254272 0 0 0 0 46383784.073064804 136171208.28692913 0 136171208.28692913 125500839.46949005 0 0 0 0 147927722.82650757 200123917.9766655 0 200123917.9766655 163939676.12716293 0 0 0 0 50165783.622940063 246160491.23451996 0 246160491.23451996 142301495.65338898 0 0 0 0 41285096.836257935 262545068.02039719 0 262545068.02039719 288989700.62865448 0 0 0 0 -37269366.148757935 152478755.0320549 0 152478755.0320549 282076066.68941498 0 0 0 0 -34679983.218566895 189320334.44687653 0 189320334.44687653 225624729.27725983 0 0 0 0 39235929.085367203 170764785.98644495 0 170764785.98644495 216659510.52848816 0 0 0 0 9209750.5875549316 121178478.67772675 0 121178478.67772675 180527043.23973846 0 0 0 0 18465381.479370117 10304456.917182922 0 10304456.917182922 238628081.54470444 0 0 0 0 25689273.357055664 108593556.22930908 0 108593556.22930908 187866476.04009247 0 0 0 0 1137238.2730712891 105324174.42481995 0 105324174.42481995 265376575.33617401 0 0 0 0 -1529961.8230895996 119428798.78704834 0 119428798.78704834 224915653.24279785 0 0 0 0 -9544856.7362976074 68366230.782844543 0 68366230.782844543 275350537.80514908 0 0 0 0 23262823.183502197 67048114.802604675 0 67048114.802604675 220801080.65813828 0 0 0 0 29752972.549278259 104286472.94347191 0 104286472.94347191 138609283.84063721 0 0 0 0 41068664.702575684 11385337.017120361 0 11385337.017120361 174052309.58055878 0 0 0 0 41303834.574081421 10962451.27243042 0 10962451.27243042 71242279.566745758 0 0 0 0 20693943.605361938 81682622.693265915 0 81682622.693265915 141298348.64157104 0 0 0 0 61449956.613349915 92492535.891878128 0 92492535.891878128 35539141.400306702 0 0 0 0 13680585.068786621 88457429.245515823 0 88457429.245515823 143121691.35985565 0 0 0 0 8634180.8171542175 8747842.1066975594 0 8747842.1066975594 -10305029.433770761 0 0 0 0 298550188.55303955 61847921.655918121 0 61847921.655918121 -162809644.6783371 0 0 0 0 3110752.1654586485 9292107.013945464 0 9292107.013945464 -3979979.0751413256 0 0 0 0 122473893.10102844 43011684.065471649 0 43011684.065471649 -46621310.324653625 0 0 0 0 -1297587182.0447693 472885493.45324898 0 472885493.45324898 40908141.944107056 0 0 0 0 306542801.52765751 -63860453.769016027 0 -63860453.769016027 -108999371.6479187 0 0 0 0 -1120862278.333107 574655178.37982178 0 574655178.37982178 46615036.917068481 0 0 0 0 1259973.9745323481 1894540.2281259485 0 1894540.2281259485 -811210.71342974529 0 0 0 0 -1206840187.0509567 520133160.6129837 0 520133160.6129837 13937516.023202896 0 0 0 0 -1285329724.0783024 465924271.5327816 0 465924271.5327816 167519193.90951538 0 0 0 0 -470091820.2480545 15899277.021494865 0 15899277.021494865 -197242868.71559143 0 0 0 0 -1206533631.0596924 446020729.87537384 0 446020729.87537384 40271072.04155159 0 0 0 0 2130184.7783251256 7905392.9081573151 0 7905392.9081573151 -8949904.1003046781 0 0 0 0 -477896528.20735168 21339828.476325989 0 21339828.476325989 221336935.99156189 0 0 0 0 496853865.42848206 493153974.01948738 0 493153974.01948738 444425168.65424347 0 0 0 0 373251963.83604431 670519519.63673401 0 670519519.63673401 213250634.53433132 0 0 0 0 637371374.13426971 217312158.15859222 0 217312158.15859222 -51304831.178042412 0 0 0 0 1759975.6955816634 2449744.503897367 0 2449744.503897367 -1820202.5918409135 0 0 0 0 2849366.0446662903 11226156.636388779 0 11226156.636388779 -5952184.1298141479 0 0 0 0 3865598.8929748535 13222255.563167572 0 13222255.563167572 -4144418.016784668 0 0 0 0 4381145.9642105103 8854808.7347984314 0 8854808.7347984314 -2962329.959197998 0 0 0 0 5115027.6609611511 9931208.7675819397 0 9931208.7675819397 -10403864.238845825 0 0 0 0 3724685.5992736816 17729098.112075806 0 17729098.112075806 -16627378.459503174 0 0 0 0 3921851.6844863892 13657891.906997681 0 13657891.906997681 -2734077.9276580811 0 0 0 0 5217119.5797271729 10195535.533302307 0 10195535.533302307 -10141540.64087677 0 0 0 0 98384391.418761969 75709087.040939808 0 75709087.040939808 124379582.55232239 0 0 0 0 4436881.4791122368 10117445.170173289 0 10117445.170173289 -4567865.1801252067 0 0 0 0 157286968.26662159 88541501.033061504 0 88541501.033061504 -93211912.975006104 0 0 0 0 165620760.36487579 43512988.545917511 0 43512988.545917511 616373.65521430969 0 0 0 0 2548418.9291589893 3690639.0584443212 0 3690639.0584443212 -1473147.7501262948 0 0 0 0 90172725.401553333 -222204805.45656312 0 -222204805.45656312 105553357.08760071 0 0 0 0 -1346344.0536664091 2428394.8299968261 0 2428394.8299968261 594771.20895582438 0 0 0 0 -981761090.96037292 320028498.15108871 0 320028498.15108871 -270461664.40164185 0 0 0 0 136366784.43735504 -94151513.077278137 0 -94151513.077278137 24588334.507476807 0 0 0 0 -549022.08979415894 6930254.2130413055 0 6930254.2130413055 -600071.37364959717 0 0 0 0 2204037.6641616821 5410629.895111084 0 5410629.895111084 2823604.0147094727 0 0 0 0 35943.530817795545 7328570.7658290174 0 7328570.7658290174 -1028770.6017244998 0 0 0 0 4308577.8871002197 4604610.9654006958 0 4604610.9654006958 -2712935.1003417969 0 0 0 0 -6607162.4182357788 -538032.75872802734 0 -538032.75872802734 8388466.7391147614 0 0 0 0 -3217539.6747983545 12127045.386435803 0 12127045.386435803 922331.93407012522 0 0 0 0 -2775555.6214444935 19569113.817659654 0 19569113.817659654 8150418.5614765715 0 0 0 0 86805391.14440918 52061061.813163757 0 52061061.813163757 -147664843.34751129 0 0 0 0 1509190.0375976562 36824483.38923645 0 36824483.38923645 -35604752.94101429 0 0 0 0 -4877652.7701873779 21669216.069942474 0 21669216.069942474 -14116686.133552551 0 0 0 0 -5729691.7913208008 44204698.360164642 0 44204698.360164642 -4890886.3433227539 0 0 0 0 -6957906.4457588196 16676102.046215057 0 16676102.046215057 5004448.5228271484 0 0 0 0 14286682.66619873 29670243.589302063 0 29670243.589302063 1763022.8674049377 0 0 0 0 -581822.94944488816 1237908.102160628 0 1237908.102160628 986552.10529579967 0 0 0 0 5164558.0970020294 7317340.5477247238 0 7317340.5477247238 -11462517.140380859 0 0 0 0 -14577876.025642395 46261391.068668365 0 46261391.068668365 3055431.3157348633 0 0 0 0 -40983401.267440796 -25580198.303794861 0 -25580198.303794861 5284641.6057500839 0 0 0 0 -26345414.903366089 35570243.898780823 0 35570243.898780823 -16470056.926202774 0 0 0 0 4226448.951675415 14765182.394508362 0 14765182.394508362 -21273539.434417725 0 0 0 0 -5739545.8787078857 16720291.319198608 0 16720291.319198608 700032.63774108887 0 0 0 0 -5710951.4763946533 8873892.234161377 0 8873892.234161377 18850005.538459778 0 0 0 0 6030994.6311264038 9832799.4229888916 0 9832799.4229888916 2638196.3561325073 0 0 0 0 28418080.932491302 4696413.8786621094 0 4696413.8786621094 3199786.9537696838 0 0 0 0 -18496613.180561066 23873508.846399307 0 23873508.846399307 16597746.512771606 0 0 0 0 -10034090.380985634 13067356.778574765 0 13067356.778574765 3523586.8900769912 0 0 0 0 -577197.63505861163 10823983.362368081 0 10823983.362368081 -3214228.2164873043 0 0 0 0 -3963941.4728622437 18078462.508106232 0 18078462.508106232 3505624.1814460754 0 0 0 0 -3914342.9507980347 17009030.536949158 0 17009030.536949158 12164871.354454041 0 0 0 0 -4162208.5687637329 14523475.513736725 0 14523475.513736725 9180497.5780563354 0 0 0 0 -5390425.9681015015 19332809.212181091 0 19332809.212181091 11424698.861694336 0 0 0 0 -1579047.2837600708 14721183.168552399 0 14721183.168552399 5516907.0276489258 0 0 0 0 -3865632.0929595977 9203484.7603779063 0 9203484.7603779063 -173462.32142979186 0 0 0 0 972526.42781066895 18433494.102050781 0 18433494.102050781 -2754003.7732086182 0 0 0 0 395028857.14772987 -206991537.94280243 0 -206991537.94280243 -144099525.73316956 0 0 0 0 5503730.8748619026 9381771.138404049 0 9381771.138404049 -6538898.7702155784 0 0 0 0 -3745962.7364501953 6980078.1077880859 0 6980078.1077880859 -2072152.6296844482 0 0 0 0 -37468577.167644501 15276548.454914093 0 15276548.454914093 12411285.11114502 0 0 0 0 -16712439.427696228 26873107.493366241 0 26873107.493366241 18322759.722579956 0 0 0 0 -7203189.503112793 7660563.0571899414 0 7660563.0571899414 22858304.547531128 0 0 0 0 -2505000.8217976764 8736003.4154626578 0 8736003.4154626578 4239765.8790596053 0 0 0 0 3342109.8862228394 22806201.479866028 0 22806201.479866028 9223790.0897827148 0 0 0 0 -1864111.610824585 23437968.830368042 0 23437968.830368042 16190050.302093506 0 0 0 0 -429376.60771930683 -794472.80042463169 0 -794472.80042463169 444885.84727755934 0 0 0 0 6992365.0005607605 14633353.902175903 0 14633353.902175903 308668.66859436035 0 0 0 0 1105801.8003082275 19217093.132938385 0 19217093.132938385 3742811.5109100342 0 0 0 0 -8676764.7929458618 16715912.989112854 0 16715912.989112854 3398291.4910984039 0 0 0 0 -1929358.6269378662 8179404.8470230103 0 8179404.8470230103 -4349211.8634033203 0 0 0 0 -7263438.5139827728 19731438.381847382 0 19731438.381847382 7127420.2255935669 0 0 0 0 -5416404.0439086556 21117800.335065335 0 21117800.335065335 7500107.4944610596 0 0 0 0 -4954667.1904983521 19061686.565193176 0 19061686.565193176 191426.43882751465 0 0 0 0 -7603684.4595241547 19327528.909246445 0 19327528.909246445 2579138.43800354 0 0 0 0 -10974036.965606689 14440025.21521759 0 14440025.21521759 -77966.536926269531 0 0 0 0 -30890498.907123566 12315523.169691086 0 12315523.169691086 1277515.9494094849 0 0 0 0 -22896185.639144897 4672806.9567565918 0 4672806.9567565918 -1042252.1467475891 0 0 0 0 -11897471.563671112 15590192.96787262 0 15590192.96787262 -1396880.2124633789 0 0 0 0 -21040591.357959747 10138100.868835449 0 10138100.868835449 -1291281.0554863214 0 0 0 0 -21161570.914720058 10947833.037143707 0 10947833.037143707 -5513628.4941101074 0 0 0 0 -12749560.380084991 16332885.260852814 0 16332885.260852814 -1229218.1048583984 0 0 0 0 -8976551.2266311646 13364716.080032349 0 13364716.080032349 -650380.48293304443 0 0 0 0 -10259634.852909088 16527782.075138092 0 16527782.075138092 3501.7483103349159 0 0 0 0 -20491773.520320892 8998476.3787708282 0 8998476.3787708282 -2555947.3628921509 0 0 0 0 -25747491.305689812 15001386.689393044 0 15001386.689393044 -9266.8745040893555 0 0 0 0 -588126.46224021912 16788748.845212936 0 16788748.845212936 -15737.78377532959 0 0 0 0 -4820822.5375747681 12745199.544160843 0 12745199.544160843 -400417.33234405518 0 0 0 0 -5494590.2419967651 18825769.262638092 0 18825769.262638092 2354221.3807315826 0 0 0 0 1109378.7080221176 14971032.216247559 0 14971032.216247559 9428246.5960388184 0 0 0 0 568157.34712600708 17337644.200149536 0 17337644.200149536 1401079.9677658081 0 0 0 0 -5281116.5367064476 20229725.188637257 0 20229725.188637257 7364208.4162597656 0 0 0 0 -5180774.4838523865 18870809.867195129 0 18870809.867195129 2285282.5068740845 0 0 0 0 69036.152393341064 20347213.361766815 0 20347213.361766815 4780262.9008293152 0 0 0 0 -29085931.791210175 5032952.8048248291 0 5032952.8048248291 34309867.081039429 0 0 0 0 1378424.1034832001 22754340.08168602 0 22754340.08168602 7785616.1778106689 0 0 0 0 -5154635.7781471778 3793112.4920149678 0 3793112.4920149678 3997380.6812565327 0 0 0 0 -12792382.785755157 5299406.7706375122 0 5299406.7706375122 5017497.4334697723 0 0 0 0 -543450.8010703139 188586.49356557149 0 188586.49356557149 205270.74874318391 0 0 0 0 -78144264.787744522 -4327614.4003257751 0 -4327614.4003257751 13065323.589447021 0 0 0 0 26227593.1342659 28290623.200864792 0 28290623.200864792 448524.72494506836 0 0 0 0 -32323941.306671143 15760191.929956436 0 15760191.929956436 13753.262382507324 0 0 0 0 -15460580.856040955 28947799.381027222 0 28947799.381027222 1638623.2058105469 0 0 0 0 -22082377.587554932 19164122.766102314 0 19164122.766102314 -4907.0743942260742 0 0 0 0 -23997407.742149353 13011802.752609253 0 13011802.752609253 -7391729.0748138428 0 0 0 0 -27553674.834259033 19466474.787895203 0 19466474.787895203 6922374.27734375 0 0 0 0 -30952796.526809692 28822525.512882233 0 28822525.512882233 -10762807.207591057 0 0 0 0 -9859655.0927467346 19814696.415340424 0 19814696.415340424 -7154156.9061126709 0 0 0 0 -8643411.5307291746 27422061.989627421 0 27422061.989627421 11026048.656478882 0 0 0 0 -8397123.813117981 17404059.927150726 0 17404059.927150726 3942083.820766449 0 0 0 0 -27397906.15524292 24296121.959400177 0 24296121.959400177 44034992.321578979 0 0 0 0 11691373.327827454 87684565.056131363 0 87684565.056131363 126613540.69551849 0 0 0 0 513580.91312939674 -61523.168289743364 0 -61523.168289743364 -336973.80051193759 0 0 0 0 51837497.542508483 76047223.215027571 0 76047223.215027571 -84117407.263465881 0 0 0 0 49997305.679656982 128782721.25261688 0 128782721.25261688 29254098.759689331 0 0 0 0 -19757185.995628357 47068850.194408417 0 47068850.194408417 102340055.13578033 0 0 0 0 44954179.533109665 40807401.946243286 0 40807401.946243286 52544663.623573303 0 0 0 0 -15521362.992525924 8887809.9078693315 0 8887809.9078693315 -1174501.0408546152 0 0 0 0 -16952824.324345589 12502758.015301505 0 12502758.015301505 -609474.53151727282 0 0 0 0 -8044153.5777740479 30656040.030326843 0 30656040.030326843 16023280.405155182 0 0 0 0 -19528930.494850159 34649783.678611755 0 34649783.678611755 22882707.509590149 0 0 0 0 20651935.717651367 70440197.730360985 0 70440197.730360985 -11207221.987854004 0 0 0 0 21177145.097724915 68192848.41900444 0 68192848.41900444 -1692492.9483947754 0 0 0 0 34602363.502700806 56010898.449012756 0 56010898.449012756 -5577401.1216697693 0 0 0 0 19501138.315750122 58658011.187437057 0 58658011.187437057 -14209616.03414917 0 0 0 0 3806488.3883514404 53808372.63791275 0 53808372.63791275 32386078.680244446 0 0 0 0 4613028.8726043701 30766290.060756683 0 30766290.060756683 3603586.7117881775 0 0 0 0 43482038.766204834 26227258.65662384 0 26227258.65662384 -12941220.085006714 0 0 0 0 55998249.878509521 30832694.625007629 0 30832694.625007629 -11252169.783195496 0 0 0 0 34553698.42099762 54066660.57234478 0 54066660.57234478 -12314766.677764893 0 0 0 0 77678910.211219788 50885411.934768677 0 50885411.934768677 -14012305.809341431 0 0 0 0 44924963.929443359 54792963.4167099 0 54792963.4167099 707764.3572845459 0 0 0 0 93583065.951843262 42229643.283355713 0 42229643.283355713 -23141640.977638245 0 0 0 0 114837592.4364624 53244383.92300415 0 53244383.92300415 -41066854.636383057 0 0 0 0 8056945.6055755615 -4900644.4172039032 0 -4900644.4172039032 45691041.466644287 0 0 0 0 59426658.73223877 22563762.036563873 0 22563762.036563873 5537136.6428222656 0 0 0 0 209094061.5519104 -20349828.900741577 0 -20349828.900741577 -10303176.990585327 0 0 0 0 63782832.42364502 -153140870.90817261 0 -153140870.90817261 213035909.15415955 0 0 0 0 9796362.1489257812 -15254607.460784912 0 -15254607.460784912 53520405.824707031 0 0 0 0 21039091.38634491 55835607.284183502 0 55835607.284183502 -23696311.652099609 0 0 0 0 25555584.346107483 65730561.724479675 0 65730561.724479675 -13718529.703903198 0 0 0 0 17650596.151184082 57762228.266143799 0 57762228.266143799 -8526992.4918441772 0 0 0 0 42996283.873931885 62160586.706951141 0 62160586.706951141 -20754400.061309814 0 0 0 0 35270479.824859619 54615561.148986816 0 54615561.148986816 -17789435.845611572 0 0 0 0 31697147.771789551 63581233.042877197 0 63581233.042877197 -15976476.073638916 0 0 0 0 21337461.010391235 52102979.798583984 0 52102979.798583984 -16363682.760772705 0 0 0 0 8411561.3902740479 45356974.80267334 0 45356974.80267334 -24826250.132019043 0 0 0 0 6055097.8424987793 51183714.313262939 0 51183714.313262939 -17938166.160858154 0 0 0 0 15900037.342926025 57217050.391647339 0 57217050.391647339 -20343984.500144958 0 0 0 0 11778087.496124268 35552698.799968719 0 35552698.799968719 -47670773.23551178 0 0 0 0 13556290.633575439 46413016.01146698 0 46413016.01146698 -29989366.314483643 0 0 0 0 6430860.8760986328 32252729.563064575 0 32252729.563064575 -40159742.876983643 0 0 0 0 24936347.380889893 50432161.581184387 0 50432161.581184387 -34310546.526403427 0 0 0 0 14667749.672409058 60934844.234397888 0 60934844.234397888 -15180557.452941895 0 0 0 0 9092198.7670288086 32659686.399589539 0 32659686.399589539 -42356271.620780945 0 0 0 0 10288212.777740479 36675169.074756622 0 36675169.074756622 -48482046.65858078 0 0 0 0 129673.61019897461 11138941.909052849 0 11138941.909052849 -64486363.050514221 0 0 0 0 9430223.2546081543 25155731.131248474 0 25155731.131248474 -59467843.719081879 0 0 0 0 23010484.88060379 26466635.315950394 0 26466635.315950394 -87185613.060096741 0 0 0 0 56336601.798675537 69730960.846506119 0 69730960.846506119 -41985783.125205994 0 0 0 0 16006351.036880493 67219917.119037628 0 67219917.119037628 -7956589.7757339478 0 0 0 0 944576.89772304893 -77324.135345593095 0 -77324.135345593095 -601963.10869603232 0 0 0 0 -28609681.739318848 113714642.79243851 0 113714642.79243851 -101830564.94989395 0 0 0 0 -32482998.426506042 37634969.963804245 0 37634969.963804245 -62678763.252676249 0 0 0 0 -17020814.142715454 55241183.392019272 0 55241183.392019272 -107380149.19020844 0 0 0 0 554519.08058833331 -75734.914317384362 0 -75734.914317384362 -395132.69017583504 0 0 0 0 54038403.071228027 112350666.94308853 0 112350666.94308853 -168177482.89079666 0 0 0 0 8084613.085647583 97976751.494163513 0 97976751.494163513 -11285092.466720581 0 0 0 0 -50037535.583946228 92799714.951683044 0 92799714.951683044 -9891765.8286056519 0 0 0 0 -8436428.7186431885 45944610.146270752 0 45944610.146270752 -143126491.04755974 0 0 0 0 -68051518.518264771 38654664.906862259 0 38654664.906862259 8568653.5459671021 0 0 0 0 -44519593.170184702 79763648.00447908 0 79763648.00447908 49738500.264541626 0 0 0 0 -44391962.100074768 32768300.248023987 0 32768300.248023987 93191249.718315125 0 0 0 0 -85981921.157394409 43446478.545703888 0 43446478.545703888 156001247.92784119 0 0 0 0 -59545863.135559082 17648033.436737061 0 17648033.436737061 158920458.72640991 0 0 0 0 -51802760.467636108 -1968390.5752220154 0 -1968390.5752220154 195203805.3875885 0 0 0 0 -11211811.086746216 5088269.6966743469 0 5088269.6966743469 100602153.98169327 0 0 0 0 -27937805.2394104 57150603.458404541 0 57150603.458404541 152455352.30017471 0 0 0 0 -21624052.097045898 -899067.22256851196 0 -899067.22256851196 242159019.83464813 0 0 0 0 -7378926.3706359863 58464560.361186981 0 58464560.361186981 145613493.55213165 0 0 0 0 -23952417.824417114 95896415.158734322 0 95896415.158734322 119018564.18610382 0 0 0 0 21778325.279632568 50285562.730987549 0 50285562.730987549 156586287.71546173 0 0 0 0 -62384410.92225647 45047998.773281097 0 45047998.773281097 156672552.24436092 0 0 0 0 -52483249.199630737 95688648.316757202 0 95688648.316757202 127423139.79985809 0 0 0 0 -68928633.591011047 18545121.390464783 0 18545121.390464783 65817973.77960968 0 0 0 0 -42877294.649627686 87553378.479043961 0 87553378.479043961 168396053.84315109 0 0 0 0 -13155387.080038965 7675549.6089069359 0 7675549.6089069359 -2009841.5245217783 0 0 0 0 -11187196.682357788 22215829.474182129 0 22215829.474182129 27304413.180433273 0 0 0 0 -6400923.4432411194 16962450.908874512 0 16962450.908874512 4971914.351600647 0 0 0 0 -10269216.459451057 7627069.927620763 0 7627069.927620763 -3200624.3671948407 0 0 0 0 -23935889.930130005 57190374.915744781 0 57190374.915744781 218792456.05226135 0 0 0 0 -7921487.4877738953 17647152.921134949 0 17647152.921134949 6045577.9214935303 0 0 0 0 -4966913.591796875 21164061.587837219 0 21164061.587837219 5964915.2013545036 0 0 0 0 -3194983.9998626709 20484238.43781662 0 20484238.43781662 -980151.52280044556 0 0 0 0 -9808865.0062103271 18345899.008747101 0 18345899.008747101 968331.5479183197 0 0 0 0 -971528.82972335815 19698728.746711731 0 19698728.746711731 -184841.85535430908 0 0 0 0 -4698899.9523429871 19118705.581424713 0 19118705.581424713 -275007.91279602051 0 0 0 0 -4395622.6663284302 22504850.92020607 0 22504850.92020607 -2154.9673385620117 0 0 0 0 21363040.638980865 8097523.9798183441 0 8097523.9798183441 -6337206.0483703613 0 0 0 0 -5309962.0294453725 2251473.6223237887 0 2251473.6223237887 -597757.27939246967 0 0 0 0 -1319139.670173645 19271031.585586548 0 19271031.585586548 -153949.32967376709 0 0 0 0 8321579.0792770386 22639390.081550598 0 22639390.081550598 -2459.3695678710938 0 0 0 0 -2107199.8277816772 6555942.3275566101 0 6555942.3275566101 -6403973.194442749 0 0 0 0 -3697258.9973449707 10965820.691589355 0 10965820.691589355 -2674982.3651018143 0 0 0 0 8887162.2199707031 14920278.379013062 0 14920278.379013062 -3284422.0532913208 0 0 0 0 -8746126.4719486311 5793634.378706296 0 5793634.378706296 -2284956.1459972039 0 0 0 0 -6241862.2148971558 10594632.593143463 0 10594632.593143463 -2028348.8743515015 0 0 0 0 -19280142.716033936 37809154.776069641 0 37809154.776069641 -15138987.740661621 0 0 0 0 -3992399.4345245361 17010079.868434906 0 17010079.868434906 4035621.7767944336 0 0 0 0 -18557012.037719727 -25842560.895736694 0 -25842560.895736694 173326858.25073624 0 0 0 0 8345224.3068132401 109648993.20187378 0 109648993.20187378 289324053.43845367 0 0 0 0 -2012567.2455651909 -853912.47055069171 0 -853912.47055069171 2216423.3959453702 0 0 0 0 -33123651.982025146 33026927.504699707 0 33026927.504699707 188412964.84979248 0 0 0 0 571998.17561981082 1475726.596983023 0 1475726.596983023 -1146814.5352885295 0 0 0 0 -39503465.680267334 46675447.199714661 0 46675447.199714661 165108095.0533905 0 0 0 0 -736836.53715991974 28840845.236700535 0 28840845.236700535 177306310.57104492 0 0 0 0 -34353407.083892822 31908276.435089111 0 31908276.435089111 193978463.34039354 0 0 0 0 -58818987.243347168 9678882.2312393188 0 9678882.2312393188 177360869.88075256 0 0 0 0 -58586440.891548157 14677996.638645172 0 14677996.638645172 145977018.07769775 0 0 0 0 -53131956.918792725 -18253703.802787781 0 -18253703.802787781 185682486.25325012 0 0 0 0 -51925975.520370483 -23673143.821388245 0 -23673143.821388245 133024361.43906784 0 0 0 0 -20301952.615036011 3161581.5534057617 0 3161581.5534057617 66462597.20954895 0 0 0 0 -4060656.9189453125 -29960684.283485413 0 -29960684.283485413 126819091.28648376 0 0 0 0 -28091827.302337646 -1714832.9075241089 0 -1714832.9075241089 138188732.52175903 0 0 0 0 -34957267.173751831 39399903.170265198 0 39399903.170265198 44793633.632553101 0 0 0 0 17015916.608078003 -7072215.2176971436 0 -7072215.2176971436 49796425.013244629 0 0 0 0 49223368.763214111 -80051782.541526794 0 -80051782.541526794 92177980.645652771 0 0 0 0 -3547518.0717600361 509074.56323091313 0 509074.56323091313 -1488703.4459352456 0 0 0 0 -2299912.4752120972 -4716333.1044654846 0 -4716333.1044654846 55713477.388408661 0 0 0 0 -7854237.4694900513 2491020.5511779785 0 2491020.5511779785 -6283576.9872245789 0 0 0 0 -21977334.585960388 12598534.388519287 0 12598534.388519287 2154001.3296127319 0 0 0 0 -1309217.9382292777 3163586.5847984292 0 3163586.5847984292 -612653.2261813581 0 0 0 0 -6653580.3210741617 4938657.5418000016 0 4938657.5418000016 -2569965.080008395 0 0 0 0 2074133.8366851807 -22772334.645248413 0 -22772334.645248413 20168677.88495326 0 0 0 0 -5190849.0971240997 4364932.7909917831 0 4364932.7909917831 -5034684.4118118286 0 0 0 0 -2751921.604347229 -22116043.555706024 0 -22116043.555706024 34499424.195663452 0 0 0 0 -4735586.3145141602 -2576434.7498626709 0 -2576434.7498626709 20028413.125640869 0 0 0 0 -21987361.005876541 5409017.7920446396 0 5409017.7920446396 50044001.207580566 0 0 0 0 -6586124.5825195312 -9674715.254447937 0 -9674715.254447937 67420232.320346832 0 0 0 0 -4033690.2511901855 6879781.9002914429 0 6879781.9002914429 -3825589.9248504639 0 0 0 0 -7441938.8268127441 12004393.536838531 0 12004393.536838531 -2169659.5285186768 0 0 0 0 -5436048.1420653462 3027921.6915360726 0 3027921.6915360726 -1560790.7597062066 0 0 0 0 -12974134.690460205 10251932.253072739 0 10251932.253072739 -743518.58470153809 0 0 0 0 -1123502.8301010132 926914.08563613892 0 926914.08563613892 -287723.62894439697 0 0 0 0 -3522236.2888698019 4820574.7802897273 0 4820574.7802897273 -3423919.2173544206 0 0 0 0 -8670848.759552002 4570009.3990402222 0 4570009.3990402222 -8741996.5228271484 0 0 0 0 -4480307.9797058105 2755848.1189422607 0 2755848.1189422607 1647411.1603240967 0 0 0 0 -113709.41882365197 127714.26073361188 0 127714.26073361188 -105527.3707883805 0 0 0 0 -2947701.6634671949 1561024.7690147571 0 1561024.7690147571 -546101.49084888026 0 0 0 0 -4778100.1023254395 5163422.8363952637 0 5163422.8363952637 -1589019.4763793945 0 0 0 0 -1668514.7537231445 8211531.756149292 0 8211531.756149292 -2493090.0155181885 0 0 0 0 -3418365.3531646729 4465228.4153823853 0 4465228.4153823853 -1474230.9794483185 0 0 0 0 -10011069.07648468 7946143.8426132202 0 7946143.8426132202 -1146635.8497924805 0 0 0 0 3690948.5896835327 3526896.3509635925 0 3526896.3509635925 -4813787.8129577637 0 0 0 0 -4236627.9089843482 1907137.5684761442 0 1907137.5684761442 -737701.97120884061 0 0 0 0 -6253284.1727676392 10577524.093757629 0 10577524.093757629 -8885.765007019043 0 0 0 0 -16113705.583374023 7232727.9871368408 0 7232727.9871368408 -781642.5271987915 0 0 0 0 -5081772.2805938721 11167670.777175903 0 11167670.777175903 -3006149.7552490234 0 0 0 0 -2274653714.1185303 1183666053.4918823 0 1183666053.4918823 271152.86075522029 0 0 0 0 192003.75461959839 397377780.5097065 0 397377780.5097065 -238358649.74253082 0 0 0 0 -1792748451.2426605 2273828259.7720222 0 2273828259.7720222 -833982794.18139648 0 0 0 0 -481998523.0332489 -268575961.96873474 0 -268575961.96873474 -54946490.716781616 0 0 0 0 -807312.70961537212 784049.93345160782 0 784049.93345160782 -297665.24272957444 0 0 0 0 -35111605.201808929 56695511.972011566 0 56695511.972011566 -85800714.769439697 0 0 0 0 29829920.31968689 -24566046.146881104 0 -24566046.146881104 -205330606.51202393 0 0 0 0 -2186056.2639302164 2356000.2547058174 0 2356000.2547058174 -892322.09969567135 0 0 0 0 -2264150.3383515347 3252825.8450923041 0 3252825.8450923041 -1262205.6333956346 0 0 0 0 -187110666.26453018 53743371.19711113 0 53743371.19711113 68600.337371826172 0 0 0 0 -47406124.304138184 -26415705.037750244 0 -26415705.037750244 -18851358.669277191 0 0 0 0 -148610265.57675171 -15405257.514793396 0 -15405257.514793396 4894012.9663696289 0 0 0 0 -82686308.659286499 31131535.038505554 0 31131535.038505554 -11981552.495502472 0 0 0 0 -193499350.4377594 212966727.97608805 0 212966727.97608805 -131458942.6631012 0 0 0 0 -184434020.3174758 65383177.221168756 0 65383177.221168756 2281226.2192993164 0 0 0 0 -939887.13159516454 1433273.9504565783 0 1433273.9504565783 -2971658.3468021154 0 0 0 0 -482891.09641955793 983620.83691339567 0 983620.83691339567 -570507.23624260351 0 0 0 0 -20841050.382843018 15200570.510170937 0 15200570.510170937 -43804350.56854248 0 0 0 0 15389887.186340332 11401818.531272888 0 11401818.531272888 1084635.903717041 0 0 0 0 -5442228.7549591064 34227460.858669281 0 34227460.858669281 74634352.103050232 0 0 0 0 -122880.10137429088 970718.45552116632 0 970718.45552116632 -3224970.7752246596 0 0 0 0 -35136925.270874023 182928590.00196075 0 182928590.00196075 516200623.49840927 0 0 0 0 12386.797490826168 -5910376.3460133141 0 -5910376.3460133141 117293465.88986969 0 0 0 0 139979880.49427032 -119597453.54417419 0 -119597453.54417419 388833253.39244652 0 0 0 0 130001447.29383087 172924024.9044342 0 172924024.9044342 250690820.2641449 0 0 0 0 -50315793.028808594 162252881.27741623 0 162252881.27741623 486915669.31884003 0 0 0 0 133209629.26058197 -237364128.40891647 0 -237364128.40891647 345613549.58951569 0 0 0 0 -74207703.717254639 44802422.920967102 0 44802422.920967102 31252173.078125 0 0 0 0 68510.99318799749 1098420.6030451469 0 1098420.6030451469 -439216.90563740581 0 0 0 0 -75315835.05947876 -68116462.64667511 0 -68116462.64667511 547806680.16005707 0 0 0 0 -23895484.313034058 -82296613.626266479 0 -82296613.626266479 227168816.56483459 0 0 0 0 -80074415.900924683 -8608724.2579345703 0 -8608724.2579345703 256562131.54577065 0 0 0 0 -29840485.637584686 -37830519.246128082 0 -37830519.246128082 262519132.65893555 0 0 0 0 -75047908.475479126 -2333804.1660079956 0 -2333804.1660079956 194954227.36843491 0 0 0 0 -70288043.654136658 -6494265.9761886597 0 -6494265.9761886597 198402247.75847626 0 0 0 0 -71524891.514091492 41406669.701442719 0 41406669.701442719 118877717.47366333 0 0 0 0 -88131869.962188721 46959714.981319427 0 46959714.981319427 219420728.44941711 0 0 0 0 -81815726.259979248 88909772.16368866 0 88909772.16368866 137176196.5302887 0 0 0 0 -82059823.003234863 85833831.104930878 0 85833831.104930878 121486541.39533782 0 0 0 0 -28231752.759178162 41591711.71402359 0 41591711.71402359 242303598.48045349 0 0 0 0 -110484563.55505371 75212360.248203278 0 75212360.248203278 309399244.89608574 0 0 0 0 -98078927.887863159 165582021.77316666 0 165582021.77316666 189267557.85221481 0 0 0 0 -42611436.861732483 107620746.74028206 0 107620746.74028206 11089269.815551758 0 0 0 0 -121036148.0546875 171552325.3106575 0 171552325.3106575 56639163.494232178 0 0 0 0 -9694880.5944366455 154309301.17315292 0 154309301.17315292 -136415851.24517059 0 0 0 0 -67045231.763244629 69643014.156734467 0 69643014.156734467 116680795.20105362 0 0 0 0 -30566676.833396912 275448032.57629395 0 275448032.57629395 -282501968.49429733 0 0 0 0 71557913.295726776 152161797.33483887 0 152161797.33483887 -137316808.27843475 0 0 0 0 -262678688.86743164 185433553.44351768 0 185433553.44351768 -16419235.528419495 0 0 0 0 -82580515.129364014 -23988616.932159424 0 -23988616.932159424 -275212409.02736282 0 0 0 0 42799420.127807617 -38902377.066337585 0 -38902377.066337585 -89325887.391811371 0 0 0 0 -20541.545457945314 69892409.900212452 0 69892409.900212452 142241168.4300766 0 0 0 0 37819862.508522034 32982663.178215027 0 32982663.178215027 74405375.099822998 0 0 0 0 -22542168.367315292 118709773.15612793 0 118709773.15612793 12540154.2342453 0 0 0 0 76985860.073125839 247944094.86311722 0 247944094.86311722 415170607.17555237 0 0 0 0 -11931200.4612872 21438822.709472157 0 21438822.709472157 -22037282.018318549 0 0 0 0 474971246.19364166 371442523.66336823 0 371442523.66336823 231268337.76335144 0 0 0 0 313862660.18817139 -53218965.322235107 0 -53218965.322235107 207861697.58241272 0 0 0 0 447385260.58614922 189328653.37771606 0 189328653.37771606 379762127.33727264 0 0 0 0 1386850808.7710342 305809496.69005585 0 305809496.69005585 13087211.01159668 0 0 0 0 554440394.83365774 434596582.7563839 0 434596582.7563839 487118504.59664917 0 0 0 0 383340306.36940002 365827367.94153023 0 365827367.94153023 132062686.928895 0 0 0 0 290136322.46228027 37947237.048923492 0 37947237.048923492 -43638002.603926659 0 0 0 0 -3203529.3827432529 4366016.6782889087 0 4366016.6782889087 2212479.2912054509 0 0 0 0 467922560.77998352 240714115.92616653 0 240714115.92616653 -189866946.46614838 0 0 0 0 147698646.10202026 29113253.488189697 0 29113253.488189697 -20892608.327323914 0 0 0 0 156641121.52113342 26110800.468835831 0 26110800.468835831 -307886467.16633606 0 0 0 0 -149707539.58725071 -5546471.1394207478 0 -5546471.1394207478 -408922775.82419968 0 0 0 0 -139373434.25569153 58786820.332763672 0 58786820.332763672 -107002654.09337616 0 0 0 0 -178959013.53746033 305122301.44504166 0 305122301.44504166 325233803.69510078 0 0 0 0 -81626889.453552246 19354735.164966583 0 19354735.164966583 200100254.14149475 0 0 0 0 -67599023.333520889 46792791.85616684 0 46792791.85616684 -247656142.95186615 0 0 0 0 -155325429.82522964 357066547.07655334 0 357066547.07655334 -79454686.320243835 0 0 0 0 365791358.19270325 23276067.513402939 0 23276067.513402939 -209613988.51759148 0 0 0 0 379097757.30775738 456115269.02659845 0 456115269.02659845 370647937.25831604 0 0 0 0 -14470626.023988526 16658934.980645914 0 16658934.980645914 -12623898.255939841 0 0 0 0 357856658.40952206 323899897.76563644 0 323899897.76563644 222722286.2169342 0 0 0 0 437493239.73109436 649103863.06719971 0 649103863.06719971 27185257.262088776 0 0 0 0 463113970.66452599 625806114.63676453 0 625806114.63676453 626684634.6680336 0 0 0 0 217997464.4162426 328147833.91434479 0 328147833.91434479 455526345.64066696 0 0 0 0 181253152.16604567 164838375.37180138 0 164838375.37180138 256335591.52642822 0 0 0 0 19546953.659751892 407467818.75088501 0 407467818.75088501 418320891.30513573 0 0 0 0 269179173.37564373 146373094.94079208 0 146373094.94079208 173020341.70355225 0 0 0 0 -3164151.553653717 408592017.42658997 0 408592017.42658997 418275859.51757812 0 0 0 0 1972098.503032011 1426848.7620819062 0 1426848.7620819062 -1039901.9558149856 0 0 0 0 316195101.86423111 271971388.61244202 0 271971388.61244202 296174016.58940887 0 0 0 0 228109863.32920837 189344458.59373474 0 189344458.59373474 178939080.56280518 0 0 0 0 549962118.95044804 164724312.33610153 0 164724312.33610153 145868037.73883057 0 0 0 0 346290419.91287231 175708656.74330139 0 175708656.74330139 147984834.61991882 0 0 0 0 234462888.39208603 135523832.93715668 0 135523832.93715668 165917601.04444885 0 0 0 0 -24348610.269927979 -17683260.421020508 0 -17683260.421020508 293188375.2701416 0 0 0 0 252436329.0032506 248788960.89592361 0 248788960.89592361 740784333.5483017 0 0 0 0 141386531.32764816 185407110.48030853 0 185407110.48030853 202517569.94625854 0 0 0 0 -13507885.387937546 291297682.45254517 0 291297682.45254517 1074845842.0819397 0 0 0 0 113007441.63508034 457255949.50397491 0 457255949.50397491 148226408.93302917 0 0 0 0 239322653.47343826 687572829.26054382 0 687572829.26054382 354788907.37905884 0 0 0 0 45532148.11183548 498247303.96568298 0 498247303.96568298 305424751.52215576 0 0 0 0 265999153.83439136 445836374.78692436 0 445836374.78692436 94912557.058959961 0 0 0 0 152124902.30540848 278279354.43334961 0 278279354.43334961 7791234.7141113281 0 0 0 0 -103100126.8371911 167530084.22972107 0 167530084.22972107 -52868565.627197266 0 0 0 0 -31010403.32459259 93846972.756790161 0 93846972.756790161 1051238208.2657776 0 0 0 0 111041.742155015 1516171.4271356873 0 1516171.4271356873 791567.41320019588 0 0 0 0 753304.08966648579 96553836.429351807 0 96553836.429351807 321359368.29766846 0 0 0 0 24596327.902804852 57279793.405052185 0 57279793.405052185 382650852.02241516 0 0 0 0 -75336184.622541666 243812896.35462189 0 243812896.35462189 504620091.11034584 0 0 0 0 1098809.7911949828 794588.73431742564 0 794588.73431742564 -575863.02730800398 0 0 0 0 -18881050.251235962 -42540757.272737503 0 -42540757.272737503 388200781.74474335 0 0 0 0 -1806341.5351479053 44195180.935825348 0 44195180.935825348 265007375.88943863 0 0 0 0 -3724977.6652703285 66519601.361602783 0 66519601.361602783 77953918.208129883 0 0 0 0 9801616.6836280823 127489270.53411102 0 127489270.53411102 152792857.74183655 0 0 0 0 -33043216.895626307 55784714.271533966 0 55784714.271533966 367676301.46792221 0 0 0 0 986461.96292016772 3431057.6889380813 0 3431057.6889380813 1553813.6050968114 0 0 0 0 -90670727.686113 305605956.8134346 0 305605956.8134346 269404838.20643234 0 0 0 0 -32390227.474178016 133254534.90129089 0 133254534.90129089 395781215.32722473 0 0 0 0 -58434632.777297378 212249638.60224152 0 212249638.60224152 177779389.78736877 0 0 0 0 25780073.245905876 230998510.14285469 0 230998510.14285469 83985759.627166748 0 0 0 0 12155793.929293633 248225935.98249054 0 248225935.98249054 189400260.07526398 0 0 0 0 75700546.172193527 271401188.38129044 0 271401188.38129044 24115065.074623108 0 0 0 0 -17709003.829976201 339267744.94838715 0 339267744.94838715 54106555.980049133 0 0 0 0 60277319.609639645 216418614.9840126 0 216418614.9840126 -230525904.74914169 0 0 0 0 176235419.69802737 -421774318.71781158 0 -421774318.71781158 -371603858.45896912 0 0 0 0 -532733308.3450551 -243721745.24528503 0 -243721745.24528503 317319838.0509491 0 0 0 0 -314081018.96833515 581424752.15369797 0 581424752.15369797 73260711.789291382 0 0 0 0 589290842.39444447 596781095.74145126 0 596781095.74145126 -737945949.73083496 0 0 0 0 532843244.52360725 981735394.56484985 0 981735394.56484985 -226316477.85730743 0 0 0 0 -788628333.2233839 -400091074.87112045 0 -400091074.87112045 145365723.36989594 0 0 0 0 393033.0729285446 1954494.1929069906 0 1954494.1929069906 -1302597.8545638248 0 0 0 0 -509917524.42691326 -87035658.362808228 0 -87035658.362808228 132626244.91118622 0 0 0 0 -129214780.29473686 318612995.21028137 0 318612995.21028137 248676009.28683567 0 0 0 0 359857774.5507822 247645023.42095947 0 247645023.42095947 35551805.820053101 0 0 0 0 44658625.210050285 226800642.19598579 0 226800642.19598579 174123827.68460083 0 0 0 0 1247347.9162534361 6716772.0923660677 0 6716772.0923660677 -3431629.0645532012 0 0 0 0 -122735377.94446766 -17750702.352516174 0 -17750702.352516174 133588116.31309032 0 0 0 0 -7108626.9814462662 46792358.038040161 0 46792358.038040161 14348588.689178467 0 0 0 0 3535985.4651549254 13438934.818002144 0 13438934.818002144 -4684403.5555515438 0 0 0 0 21703379.299788475 -251522855.52753448 0 -251522855.52753448 30390228.01953125 0 0 0 0 -115095493.29654115 81813017.04168272 0 81813017.04168272 39208681.147293091 0 0 0 0 -34733001.612030029 115182710.17934418 0 115182710.17934418 18050422.942451477 0 0 0 0 -118543990.98189658 30535939.741851807 0 30535939.741851807 8658710.5364685059 0 0 0 0 -73691986.230222702 -95753469.786849976 0 -95753469.786849976 -161049522.68658447 0 0 0 0 3115508.0650943518 1113298.4779822771 0 1113298.4779822771 -3885201.545992434 0 0 0 0 388791192.23178029 73029212.719543457 0 73029212.719543457 -56044823.385101318 0 0 0 0 160890352.52536583 278968906.82428741 0 278968906.82428741 35959385.942315936 0 0 0 0 -80306748.137882233 85263473.790687561 0 85263473.790687561 27906462.622674942 0 0 0 0 -112921715.50251389 130322787.42646027 0 130322787.42646027 91348483.826568604 0 0 0 0 -54472775.997775078 179789502.42360306 0 179789502.42360306 106108716.45075989 0 0 0 0 -50058418.784436226 147488419.15354156 0 147488419.15354156 -45311435.926376343 0 0 0 0 -67142337.342041016 278358349.12582397 0 278358349.12582397 -55670050.206504822 0 0 0 0 80568068.608537674 151831030.29135132 0 151831030.29135132 57186795.743560791 0 0 0 0 123755701.87744713 44872649.585687637 0 44872649.585687637 70303591.431396484 0 0 0 0 182602972.68721437 53633298.597766876 0 53633298.597766876 -47660705.440963745 0 0 0 0 278617731.22505188 -135737779.42971802 0 -135737779.42971802 125543697.71018982 0 0 0 0 -129008835.44303775 82556726.140268326 0 82556726.140268326 647960156.87286377 0 0 0 0 -350719244.49277496 1025758929.3787231 0 1025758929.3787231 112343940.95898438 0 0 0 0 -286903917.95864296 -607309223.41793823 0 -607309223.41793823 1488557057.3292542 0 0 0 0 553457.52752036555 2012806.3114330284 0 2012806.3114330284 -1857851.5850489438 0 0 0 0 222040189.92716098 90745650.264755249 0 90745650.264755249 -62300754.808013916 0 0 0 0 13072299.928623879 1461891.5108522549 0 1461891.5108522549 -15464606.245221414 0 0 0 0 189890132.76432824 -314288230.75675201 0 -314288230.75675201 277423694.368927 0 0 0 0 157120.18793487549 7251651.4584350586 0 7251651.4584350586 -3497605.3253412247 0 0 0 0 29743944.586147308 6977673.4648561478 0 6977673.4648561478 -25712464.436426163 0 0 0 0 3336296.0926565938 15497799.597369945 0 15497799.597369945 -21525485.081856243 0 0 0 0 27069040.956212997 24780821.860534668 0 24780821.860534668 37546773.886444092 0 0 0 0 3491253.4885905958 11294333.601429496 0 11294333.601429496 -16939769.612886313 0 0 0 0 66837864.640018463 -13323560.639051914 0 -13323560.639051914 -32852036.778152466 0 0 0 0 18936157.4374955 2345980.2560695782 0 2345980.2560695782 -19213584.374215744 0 0 0 0 86706561.875442505 -59230888.66620636 0 -59230888.66620636 2461723.1133880615 0 0 0 0 83815452.97555542 -46564369.576196671 0 -46564369.576196671 -35758395.576114655 0 0 0 0 116929701.21385193 7176554.0987644196 0 7176554.0987644196 -26039000.330954552 0 0 0 0 148120485.48893738 -33839354.507102966 0 -33839354.507102966 -33897637.790944099 0 0 0 0 44877449.659451485 121314435.82905197 0 121314435.82905197 38400122.380264282 0 0 0 0 165698949.75335693 -5056626.4890823364 0 -5056626.4890823364 -50309670.731464386 0 0 0 0 477094.28387466515 5773868.6552325413 0 5773868.6552325413 -5346290.3284920678 0 0 0 0 -3510055.1813673493 24029192.575337052 0 24029192.575337052 -32038591.884891637 0 0 0 0 382801112.73387432 96485226.193324089 0 96485226.193324089 -73399001.36265564 0 0 0 0 147662767.72898865 -29172414.859584808 0 -29172414.859584808 -49324035.155258179 0 0 0 0 114025452.56617355 -92586614.935773849 0 -92586614.935773849 -76630056.170864105 0 0 0 0 212445500.97563744 -11902862.185458183 0 -11902862.185458183 -117315896.52735138 0 0 0 0 189880013.46064758 50231416.769807816 0 50231416.769807816 11679539.415769577 0 0 0 0 356475736.85783386 87626760.275702953 0 87626760.275702953 -116277891.43035126 0 0 0 0 -10107168.764168786 26528096.050856903 0 26528096.050856903 -27991844.399784513 0 0 0 0 108669621.32634974 -25554920.142959595 0 -25554920.142959595 -127370512.44496155 0 0 0 0 8979406.8845648412 -1741960.2204058729 0 -1741960.2204058729 -7558046.450670369 0 0 0 0 508902433.95525932 1028708747.1905594 0 1028708747.1905594 127337267.66618729 0 0 0 0 -168387449.90091705 -17313715.636264801 0 -17313715.636264801 -163844295.17033005 0 0 0 0 -177599498.29852295 -68235192.575019836 0 -68235192.575019836 -396036353.47126007 0 0 0 0 -39516600.015701294 -135137335.69567108 0 -135137335.69567108 -185978979.94988251 0 0 0 0 144475399.28535461 -53904763.141941071 0 -53904763.141941071 -110651453.06242085 0 0 0 0 148819196.8638382 -53459086.464811325 0 -53459086.464811325 -211977724.83835983 0 0 0 0 299124802.28601456 38776269.151702881 0 38776269.151702881 -186503825.70748138 0 0 0 0 -7322223.7328796387 -81617150.816410065 0 -81617150.816410065 -95828647.717479706 0 0 0 0 56419206.483795166 -131812272.6381073 0 -131812272.6381073 -118036958.24631214 0 0 0 0 -7059358.4546699524 -94471100.349209309 0 -94471100.349209309 -231611054.33338165 0 0 0 0 -160344706.0915451 -137971096.78722572 0 -137971096.78722572 -93695289.041561127 0 0 0 0 -50050573.329999924 -104853153.30365658 0 -104853153.30365658 -8295729.7841148376 0 0 0 0 -34624593.915122986 -56696014.50778389 0 -56696014.50778389 -41792775.153907776 0 0 0 0 91314450.582702637 -27850120.842208862 0 -27850120.842208862 33266895.159505844 0 0 0 0 52160638.250518799 -96495033.25450325 0 -96495033.25450325 -36130608.902173549 0 0 0 0 88811641.004135132 -80203078.25782299 0 -80203078.25782299 -36424825.434913635 0 0 0 0 37155187.126976013 -121101021.21738148 0 -121101021.21738148 40025872.123622894 0 0 0 0 13077870.408081777 -347425.83798995707 0 -347425.83798995707 -11793352.41142378 0 0 0 0 88936597.173805237 12409979.558810234 0 12409979.558810234 -47712628.286380768 0 0 0 0 15291354.170791626 -23279808.045351028 0 -23279808.045351028 -5932114.0719258785 0 0 0 0 15314820.469147079 -44766692.192269258 0 -44766692.192269258 82093743.592384338 0 0 0 0 6339573.0539510325 494416.64987451769 0 494416.64987451769 -6301024.1882705214 0 0 0 0 10029498.956260737 -1432924.2409268543 0 -1432924.2409268543 -9524654.2467911411 0 0 0 0 -8182237.7870407104 -22862021.344745159 0 -22862021.344745159 -5350842.0461235046 0 0 0 0 -70576336.681110382 -19507907.363027573 0 -19507907.363027573 117538518.39434433 0 0 0 0 -2290957.4318237305 -67005782.728653908 0 -67005782.728653908 95662554.841403484 0 0 0 0 -44038193.608940125 10348132.071595192 0 10348132.071595192 87517554.955816269 0 0 0 0 15112935.075286865 23330520.15809536 0 23330520.15809536 64364979.549703598 0 0 0 0 1769209.9096510876 -1426474.1084525958 0 -1426474.1084525958 -252345.7113756286 0 0 0 0 420755548.02039337 197242796.86786747 0 197242796.86786747 -71682307.923042297 0 0 0 0 1316293053.217865 -67214168.529151917 0 -67214168.529151917 -86888626.594082355 0 0 0 0 359530.50681091845 326920.4089740538 0 326920.4089740538 -458828.72155965655 0 0 0 0 174838.26841119677 161672.56361842901 0 161672.56361842901 225835.75034496933 0 0 0 0 72489901.381038666 295502001.77839947 0 295502001.77839947 -15976909.610454559 0 0 0 0 -101364232.43898678 13944458.735480785 0 13944458.735480785 89988917.841875076 0 0 0 0 -120557516.08833313 -43739724.364919662 0 -43739724.364919662 4186290.7447929382 0 0 0 0 -273199173.27649689 403473678.85242844 0 403473678.85242844 92213180.363310814 0 0 0 0 -339564683.07507324 570323265.27289772 0 570323265.27289772 -49265858.099012375 0 0 0 0 633654847.33892822 419348766.39334488 0 419348766.39334488 -85804175.295444489 0 0 0 0 512381996.42437744 774424263.28290176 0 774424263.28290176 291440718.8295064 0 0 0 0 -250487040.91419983 763110249.43244171 0 763110249.43244171 -133214883.37269115 0 0 0 0 -105165207.85037041 370822525.09271193 0 370822525.09271193 64761066.511569977 0 0 0 0 -829312494.84437561 960505490.46859646 0 960505490.46859646 -908192481.22319221 0 0 0 0 -659614511.25230408 543535335.72663784 0 543535335.72663784 34672842.829656601 0 0 0 0 -2109408841.9660187 1421348625.2458038 0 1421348625.2458038 -809941077.85206318 0 0 0 0 -1491346957.9230003 672779845.83375931 0 672779845.83375931 63024750.720911026 0 0 0 0 -961586654.22880554 672283677.98210526 0 672283677.98210526 79685208.6314888 0 0 0 0 -1285286733.8631783 823217431.51764488 0 823217431.51764488 63901097.086677551 0 0 0 0 -374394297.87072754 813804770.40480566 0 813804770.40480566 -217637635.47289085 0 0 0 0 -1010932428.0250168 885262293.8245163 0 885262293.8245163 58898050.969326019 0 0 0 0 -799801867.86376953 815137415.00139427 0 815137415.00139427 68935793.499376297 0 0 0 0 -936935172.1581955 790389496.42264938 0 790389496.42264938 82599243.495716095 0 0 0 0 -965176776.49559021 713209597.91946411 0 713209597.91946411 114256581.46932793 0 0 0 0 -578086547.0904541 493668596.37077713 0 493668596.37077713 141734779.58700466 0 0 0 0 -1335709017.6081696 592974224.91088676 0 592974224.91088676 133645105.89974785 0 0 0 0 -939567605.94737816 793192180.5404582 0 793192180.5404582 170102310.23692322 0 0 0 0 -921891614.05640411 301668301.48423386 0 301668301.48423386 154936475.01519394 0 0 0 0 -386408127.7235527 354492969.90287399 0 354492969.90287399 124745339.24035645 0 0 0 0 -23438059.067556381 1027056020.4372339 0 1027056020.4372339 304784524.63318634 0 0 0 0 -350345981.82795143 319886787.19044113 0 319886787.19044113 140593431.69914246 0 0 0 0 -1521256639.8790588 897855752.65988159 0 897855752.65988159 259975796.07235146 0 0 0 0 -946582966.0144577 732774672.56981468 0 732774672.56981468 33987298.072719574 0 0 0 0 -968134593.58956909 737893195.78451538 0 737893195.78451538 223373884.89318085 0 0 0 0 -1068736441.7997856 426559140.7789216 0 426559140.7789216 -126520097.11660004 0 0 0 0 -991001374.44825745 695436798.99313927 0 695436798.99313927 -587236175.72051048 0 0 0 0 -2216392987.7925034 952132724.03107834 0 952132724.03107834 -259784616.00661659 0 0 0 0 -745398973.47637939 274059969.41893578 0 274059969.41893578 -517372714.07876205 0 0 0 0 -720772536.22309875 -38367296.138721466 0 -38367296.138721466 -213458575.8387413 0 0 0 0 -1118038660.0169067 69112470.962610245 0 69112470.962610245 -180437380.27835846 0 0 0 0 -511831118.06032562 -89807861.65196228 0 -89807861.65196228 -89472567.86057663 0 0 0 0 -517680211.56314445 208962584.4019348 0 208962584.4019348 -232164528.54170609 0 0 0 0 -177272378.09419203 45997055.129622936 0 45997055.129622936 -80421095.697738647 0 0 0 0 -624222464.8791275 138243271.38474274 0 138243271.38474274 -44318204.261791229 0 0 0 0 -688179417.03042221 538415278.05759144 0 538415278.05759144 113239651.58362579 0 0 0 0 -707800043.70165253 655428056.56484413 0 655428056.56484413 -4635471.6755065918 0 0 0 0 94761747.033241272 -304660287.19963455 0 -304660287.19963455 457084829.32059479 0 0 0 0 -59196667.243396759 21859265.938562393 0 21859265.938562393 25539852.678886414 0 0 0 0 -3170106.3284217957 9077426.3695919029 0 9077426.3695919029 9791581.0848975014 0 0 0 0 -8022693.0590591431 7608295.2377686501 0 7608295.2377686501 9573625.471321106 0 0 0 0 -28488317.41431427 4828481.2777957916 0 4828481.2777957916 3905075.2226629257 0 0 0 0 -12344094.365670966 361282.67684478848 0 361282.67684478848 10489368.975295752 0 0 0 0 -7642387.3469775897 -1338825.3538013704 0 -1338825.3538013704 6771083.3020718312 0 0 0 0 -3832028.2757575447 1173203.1868764125 0 1173203.1868764125 -291983.14327229466 0 0 0 0 9064368.1929206848 -26680992.005133629 0 -26680992.005133629 16833467.786100388 0 0 0 0 -57242244.558116913 -18763832.419492722 0 -18763832.419492722 51174805.783288956 0 0 0 0 -226518355.30793571 -182232981.22366047 0 -182232981.22366047 -146636206.88506126 0 0 0 0 -885932765.23816299 43468275.563797951 0 43468275.563797951 128508758.04198074 0 0 0 0 -1241270410.9027672 -773435678.86155176 0 -773435678.86155176 -481051791.59612846 0 0 0 0 -11496141.457366943 807705.77097511292 0 807705.77097511292 -10315693.82935524 0 0 0 0 -1614160.7969712876 177836.73708120175 0 177836.73708120175 1185739.8535019672 0 0 0 0 -2752645388.7458048 176424847.38309383 0 176424847.38309383 293733085.58995438 0 0 0 0 -1141464165.1221466 -80995633.23192215 0 -80995633.23192215 296736348.53484714 0 0 0 0 -921403500.98292542 217053236.77468681 0 217053236.77468681 265884507.58223343 0 0 0 0 -1804179186.6775742 268954862.57776213 0 268954862.57776213 265905479.10901642 0 0 0 0 -1061986930.914978 97689820.464603424 0 97689820.464603424 174023836.54932404 0 0 0 0 -778655148.37125397 145906758.99975967 0 145906758.99975967 153413585.44543076 0 0 0 0 -759336245.40565109 145317633.24332619 0 145317633.24332619 233541126.5116806 0 0 0 0 -714579791.18775177 120028525.07697392 0 120028525.07697392 38059412.39515686 0 0 0 0 -1008297729.2045212 -17912824.089021683 0 -17912824.089021683 135141936.14651871 0 0 0 0 -483938.76682048384 1209977.5430866927 0 1209977.5430866927 -902802.41623679176 0 0 0 0 -17673513.132213593 -164088523.62104607 0 -164088523.62104607 84131911.008892059 0 0 0 0 -1018799317.0457306 38351801.828903198 0 38351801.828903198 131295062.90162373 0 0 0 0 -1095478081.3582039 56843258.201799393 0 56843258.201799393 186104236.53673935 0 0 0 0 -887562.67138371058 5194420.6862973366 0 5194420.6862973366 5592921.2606777083 0 0 0 0 -95646522.074400425 72477400.656831264 0 72477400.656831264 4058122.4799880981 0 0 0 0 629406602.78928757 -939538234.78035927 0 -939538234.78035927 163387909.9423418 0 0 0 0 -34531064.069084167 -139481434.32210922 0 -139481434.32210922 405505591.94178963 0 0 0 0 -345558424.29564095 -72489868.311191559 0 -72489868.311191559 544646347.28578186 0 0 0 0 -1375375694.0021706 778165738.84910583 0 778165738.84910583 -91272027.961553574 0 0 0 0 -550491718.94811535 939501966.63387489 0 939501966.63387489 -693646111.89516449 0 0 0 0 -768866378.36506653 403727783.77835464 0 403727783.77835464 -509756672.32305145 0 0 0 0 -322434886.22634888 -133921454.34670258 0 -133921454.34670258 -1827125761.7492065 0 0 0 0 -287112432.48057675 -644587218.66801417 0 -644587218.66801417 -438574848.46595764 0 0 0 0 -47059918.588245392 582157647.42942429 0 582157647.42942429 -965750329.30703735 0 0 0 0 95996479.852121353 -18421012.486506462 0 -18421012.486506462 -76455608.377601624 0 0 0 0 936819625.00659561 76205144.347148895 0 76205144.347148895 -490998200.50819397 0 0 0 0 274158039.77109909 424063984.43608475 0 424063984.43608475 -527698563.80987549 0 0 0 0 -384245107.04108047 431078401.56104755 0 431078401.56104755 -59387147.816215515 0 0 0 0 244547341.25539351 -78013314.326088428 0 -78013314.326088428 388087908.3785553 0 0 0 0 244430032.82740021 313511942.498909 0 313511942.498909 -70181651.470100403 0 0 0 0 564777889.95885086 -483735829.08514214 0 -483735829.08514214 663482389.86972809 0 0 0 0 1212262391.7028675 -717172843.7235136 0 -717172843.7235136 -87277235.021858215 0 0 0 0 -811026159.43005371 160417153.8852253 0 160417153.8852253 156948996.45345306 0 0 0 0 -806400156.28484344 277638936.9695797 0 277638936.9695797 -71914335.626929283 0 0 0 0 794628.81579994969 3092649.0472751837 0 3092649.0472751837 1854189.5369220879 0 0 0 0 -489293981.10847473 393167707.8575325 0 393167707.8575325 -296878046.33192825 0 0 0 0 -733530435.32023621 115402270.60820389 0 115402270.60820389 77723265.153526306 0 0 0 0 -498321921.50783539 291153754.304245 0 291153754.304245 163873255.46541977 0 0 0 0 -880331501.79008102 805729040.43527985 0 805729040.43527985 -49969017.955123901 0 0 0 0 1003088.6976224836 1354660.8577008918 0 1354660.8577008918 -77176.155678734183 0 0 0 0 -681243817.44548607 355230720.9692421 0 355230720.9692421 520266532.14503479 0 0 0 0 -406487525.37579727 445390827.934021 0 445390827.934021 671469474.18015289 0 0 0 0 -229945721.0402422 655355480.16035891 0 655355480.16035891 225463556.39819336 0 0 0 0 -28751236.800909042 -356346843.10380173 0 -356346843.10380173 -202404223.42352295 0 0 0 0 -1466497339.5276413 -305213830.31714249 0 -305213830.31714249 132117457.66552734 0 0 0 0 -911184800.93916321 495779266.121418 0 495779266.121418 -124198395.58926392 0 0 0 0 -98718074.361579895 376114742.56491852 0 376114742.56491852 -142977076.52179718 0 0 0 0 -413624946.61310959 619358122.92495728 0 619358122.92495728 8573836.4254760742 0 0 0 0 -261875150.48906708 562500921.35987854 0 562500921.35987854 -224652813.33480072 0 0 0 0 47175802.236785889 350526363.71376038 0 350526363.71376038 84914477.427484512 0 0 0 0 -376669326.62024307 754227963.68028641 0 754227963.68028641 -224076111.22877121 0 0 0 0 -311938817.48199081 699887200.59549141 0 699887200.59549141 -288430.41686248779 0 0 0 0 -120683493.21763229 246519767.9186039 0 246519767.9186039 228850093.76384735 0 0 0 0 -507947831.71980286 639678105.28528976 0 639678105.28528976 -4349737.3641242981 0 0 0 0 -502230815.79548025 662360925.05363369 0 662360925.05363369 -170749096.92782593 0 0 0 0 -737509880.4802742 586501693.82701874 0 586501693.82701874 -172335955.22484589 0 0 0 0 -726251738.98478699 560426313.23560333 0 560426313.23560333 -156866698.88574982 0 0 0 0 -1110641564.604332 523581308.54866791 0 523581308.54866791 -28613785.220222473 0 0 0 0 -915153266.21766663 586551673.95349884 0 586551673.95349884 -8456164.3362541199 0 0 0 0 -1104106249.2439766 658985938.45525742 0 658985938.45525742 106998638.78315735 0 0 0 0 -814865872.43151474 742023307.86388016 0 742023307.86388016 44668537.861907959 0 0 0 0 -723624452.95636368 567008755.2325058 0 567008755.2325058 116357.52112579346 0 0 0 0 -921657016.20954132 832665086.9342308 0 832665086.9342308 -110696876.43509483 0 0 0 0 -1390716491.7790813 615628320.93424416 0 615628320.93424416 100465963.46863556 0 0 0 0 -2001086834.3277111 -450676179.48528385 0 -450676179.48528385 -263739225.9619751 0 0 0 0 -1772895212.5653381 128722152.42798233 0 128722152.42798233 -252291903.62126607 0 0 0 0 -1644202648.5262833 -119223348.44120026 0 -119223348.44120026 73935363.167160034 0 0 0 0 -1069562193.5004272 268402906.87198257 0 268402906.87198257 -177584840.48450804 0 0 0 0 -709868846.67707825 -174735999.95267677 0 -174735999.95267677 -191639.82799530029 0 0 0 0 -923473663.38497925 -180318587.30762482 0 -180318587.30762482 -218494878.35049272 0 0 0 0 -819848095.63899994 182959756.97587967 0 182959756.97587967 -174310639.12671661 0 0 0 0 -1532991632.6690521 -37085946.562847137 0 -37085946.562847137 -212370297.81109619 0 0 0 0 -3251654564.3983841 97072228.307914734 0 97072228.307914734 261556519.93033218 0 0 0 0 -1655945545.6441879 327513311.06254959 0 327513311.06254959 -240709651.95600128 0 0 0 0 -1469209.4772497891 3716261.8661435321 0 3716261.8661435321 167004.34190003201 0 0 0 0 109538821.34019089 -17754614.106517792 0 -17754614.106517792 -210436719.6063385 0 0 0 0 -1529885.384260959 2564200.8438032195 0 2564200.8438032195 1297140.1961295158 0 0 0 0 915631153.86662292 845518409.12664032 0 845518409.12664032 -167373626.27337646 0 0 0 0 689597337.45622253 127732856.2945137 0 127732856.2945137 -102323577.80348206 0 0 0 0 -89897761.432250977 -6947097.5058479309 0 -6947097.5058479309 367133096.44161987 0 0 0 0 74962119.791481018 530328766.92108536 0 530328766.92108536 173367792.69913769 0 0 0 0 -302282821.01097107 58712586.233182907 0 58712586.233182907 228489336.68447113 0 0 0 0 -492271634.51068687 409961333.57131386 0 409961333.57131386 237377605.47680664 0 0 0 0 -343503540.57887459 231777112.70146751 0 231777112.70146751 84437741.023643494 0 0 0 0 -598281797.46536636 399576323.67369652 0 399576323.67369652 160230605.83631706 0 0 0 0 -2817381.6988764601 4517456.2215797482 0 4517456.2215797482 2510613.6575147435 0 0 0 0 -344180379.0632019 221015681.93935394 0 221015681.93935394 10282416.028980255 0 0 0 0 -383145559.24360275 198870257.45174026 0 198870257.45174026 102427179.15650558 0 0 0 0 -383356529.35902023 211350532.55204582 0 211350532.55204582 161353431.52439117 0 0 0 0 -3031626.5080188708 7812438.3294086345 0 7812438.3294086345 -796490.31787160411 0 0 0 0 404138422.09127617 383436157.05448723 0 383436157.05448723 -228494358.85012054 0 0 0 0 -1549572.975289681 2392603.4092604676 0 2392603.4092604676 1472162.9939669371 0 0 0 0 -19007551.458820343 -167095967.11759472 0 -167095967.11759472 -116752549.50724792 0 0 0 0 -1403614773.7299423 249665001.95289612 0 249665001.95289612 75788262.473023415 0 0 0 0 -1648729607.8881073 -289220846.05113602 0 -289220846.05113602 -39873205.641960144 0 0 0 0 -1083808723.0460358 183971303.14260101 0 183971303.14260101 -37219988.844367027 0 0 0 0 -2248680158.321681 -53817060.565170288 0 -53817060.565170288 252986332.54434967 0 0 0 0 -1092357117.4549255 222422277.67708969 0 222422277.67708969 262148644.1151123 0 0 0 0 -280136275.4644413 -267589065.66308117 0 -267589065.66308117 362022648.10910797 0 0 0 0 -916663448.58048248 369562221.46321106 0 369562221.46321106 232224270.61529446 0 0 0 0 -11642742.924036337 10738076.887158625 0 10738076.887158625 -6173472.1395546123 0 0 0 0 517740155.7644577 468953377.30104828 0 468953377.30104828 624395063.27508545 0 0 0 0 243700210.22864914 421625996.07255554 0 421625996.07255554 677599300.97566223 0 0 0 0 459637465.50879669 170349448.43170166 0 170349448.43170166 151052353.05014801 0 0 0 0 365905245.95864487 451282947.10540771 0 451282947.10540771 -264181815.79481506 0 0 0 0 -4788020.9511263575 3705617.4107449148 0 3705617.4107449148 -1603420.9519389607 0 0 0 0 476519418.64661986 812638005.98052871 0 812638005.98052871 -582447859.31941223 0 0 0 0 -3442944577.0334854 -1581295734.1346054 0 -1581295734.1346054 1151168608.3499756 0 0 0 0 -936284392.84937382 61016679.545531034 0 61016679.545531034 45653534.835830688 0 0 0 0 -1469795231.9330902 8251759.2637290955 0 8251759.2637290955 167381509.04888153 0 0 0 0 -3220187.2488845885 8585959.3005195819 0 8585959.3005195819 -4335026.9984113164 0 0 0 0 -1715790519.9620914 102919594.7530899 0 102919594.7530899 279658219.61631012 0 0 0 0 -963749408.82342148 -2034358.2592945099 0 -2034358.2592945099 242674431.06188965 0 0 0 0 -401065521.09367371 474187118.76860428 0 474187118.76860428 135983522.8194809 0 0 0 0 -1116050370.6355209 74763318.008922577 0 74763318.008922577 -39602534.381900787 0 0 0 0 556903966.77908325 805309433.25059032 0 805309433.25059032 -3608800357.1218414 0 0 0 0 -1448754293.4507904 207128320.50133133 0 207128320.50133133 -14491961.749664307 0 0 0 0 -2796832717.1209908 1380123294.2504807 0 1380123294.2504807 875654936.12477112 0 0 0 0 -2329475.7968927622 6171389.105242678 0 6171389.105242678 -6774303.4161527455 0 0 0 0 -1602119397.3717461 74387374.898151398 0 74387374.898151398 -114841784.63559723 0 0 0 0 -1608816746.2294378 781914616.77125859 0 781914616.77125859 -249303175.9434967 0 0 0 0 -3676336725.3752918 405103538.89215088 0 405103538.89215088 81186110.889919281 0 0 0 0 -1149715994.8332405 648266709.1247406 0 648266709.1247406 -573226551.13433838 0 0 0 0 -965019.7028563465 2033330.3435821142 0 2033330.3435821142 -3326799.1518342122 0 0 0 0 -131576184.18835831 -258581958.7650795 0 -258581958.7650795 685174539.74789429 0 0 0 0 327674888.29987526 -142119759.75362396 0 -142119759.75362396 -215702155.46156311 0 0 0 0 -817959446.54324722 505968234.38500214 0 505968234.38500214 -27547106.963996887 0 0 0 0 -405902189.15015793 735562835.91623688 0 735562835.91623688 108564075.3078804 0 0 0 0 -815223011.63787842 518684127.26530457 0 518684127.26530457 31537276.311611176 0 0 0 0 -402675229.57177734 671219496.88226318 0 671219496.88226318 -133445856.75561523 0 0 0 0 84358455.614612579 533021824.77828979 0 533021824.77828979 -138688976.44135928 0 0 0 0 -74252452.931630135 642920185.31825066 0 642920185.31825066 -181688738.45846558 0 0 0 0 94561978.82724762 997752572.26010323 0 997752572.26010323 -254564384.55529785 0 0 0 0 -1340686734.181263 464976230.70321655 0 464976230.70321655 1302391507.7134895 0 0 0 0 -549697371.5570755 1585862359.0819016 0 1585862359.0819016 -771070051.34204483 0 0 0 0 -1135322826.734848 1169365829.2842941 0 1169365829.2842941 -99028341.061126709 0 0 0 0 -647416335.91932678 442585313.08636093 0 442585313.08636093 -196534404.88777924 0 0 0 0 -672312434.48727417 502035863.06161499 0 502035863.06161499 -207473078.86864471 0 0 0 0 -697210924.94216156 449035262.03468323 0 449035262.03468323 -276337983.47387695 0 0 0 0 -810986267.391716 526724324.77994537 0 526724324.77994537 -170205663.48204041 0 0 0 0 -622023768.168396 628954422.80420685 0 628954422.80420685 -195649279.97211075 0 0 0 0 -656387319.91748047 512444108.04994965 0 512444108.04994965 -299674389.78112793 0 0 0 0 -636306300.17365265 566504630.64437103 0 566504630.64437103 -247704766.83743286 0 0 0 0 -621403862.16516304 560754046.83878708 0 560754046.83878708 -283569219.38658142 0 0 0 0 -447232295.33943558 590311672.35341263 0 590311672.35341263 -285896468.50263977 0 0 0 0 -452775589.06612587 615075961.87841225 0 615075961.87841225 -295346844.89355469 0 0 0 0 -433093918.07320023 619506100.76636887 0 619506100.76636887 -299902879.08969879 0 0 0 0 -414530379.21273422 612226174.21610641 0 612226174.21610641 -328816346.84475708 0 0 0 0 -392956596.40636063 517902964.11632156 0 517902964.11632156 -276498186.3905983 0 0 0 0 -415891471.94128036 593961536.91625214 0 593961536.91625214 -306509186.0226059 0 0 0 0 -517401996.03071213 686653285.46264648 0 686653285.46264648 -322821593.68852234 0 0 0 0 -406335472.48177719 609732384.79384995 0 609732384.79384995 -341829867.7853775 0 0 0 0 -463054883.65642548 661948913.70337296 0 661948913.70337296 -348115650.31080246 0 0 0 0 -500755374.88781357 630010343.25452805 0 630010343.25452805 -242512577.00177193 0 0 0 0 -463971240.25474453 560943404.41911221 0 560943404.41911221 -265323654.99364471 0 0 0 0 -595009884.20412254 563712361.07340431 0 563712361.07340431 -264920648.84181213 0 0 0 0 -834379761.61721039 613658031.50621796 0 613658031.50621796 -234267251.29598999 0 0 0 0 -764066221.76011658 500488077.62447548 0 500488077.62447548 -185238024.20500183 0 0 0 0 -877465614.54621792 925049273.77432919 0 925049273.77432919 -444024681.30445099 0 0 0 0 -1082268086.8979187 439563481.04692841 0 439563481.04692841 -190676506.79932833 0 0 0 0 -1129757136.4809151 750552640.37704086 0 750552640.37704086 -334227189.10351372 0 0 0 0 -340321189.14089036 809219359.98544264 0 809219359.98544264 -739780429.12584686 0 0 0 0 -307993536.4812355 421141000.29299927 0 421141000.29299927 -245504718.30789948 0 0 0 0 -250329611.54033852 748099332.48476791 0 748099332.48476791 -530850988.62913513 0 0 0 0 -546544545.95714188 607883335.00922775 0 607883335.00922775 -279571320.88023376 0 0 0 0 -104243347.2967186 401828105.28840637 0 401828105.28840637 -233386249.30191422 0 0 0 0 -223576438.14341354 573945641.45623779 0 573945641.45623779 -379148300.6918335 0 0 0 0 168952760.46844482 -37406251.03956604 0 -37406251.03956604 125117280.03723907 0 0 0 0 -35018231.061395645 455681859.87251663 0 455681859.87251663 -214328788.61074066 0 0 0 0 -1935659.7454452515 161667057.36393356 0 161667057.36393356 163389397.04917908 0 0 0 0 2680675.1438679416 3502129.2327552494 0 3502129.2327552494 -1654842.8621039018 0 0 0 0 132712317.92986012 224199882.23449516 0 224199882.23449516 -258532922.26547241 0 0 0 0 81299207.904016495 -177686138.56274414 0 -177686138.56274414 94814108.731628418 0 0 0 0 -242327477.98593938 248897260.28588593 0 248897260.28588593 -111589987.77152252 0 0 0 0 -25734059.422512054 22093271.681098938 0 22093271.681098938 5058904.6074428558 0 0 0 0 -848798.61926103663 -1561146.093910398 0 -1561146.093910398 865220.00752352178 0 0 0 0 -1687067.3889091108 2113894.0361182094 0 2113894.0361182094 1849558.9959152639 0 0 0 0 -32246348.298493385 -6588338.6502895355 0 -6588338.6502895355 -5630509.0218048096 0 0 0 0 211234011.45372772 -306282379.03693771 0 -306282379.03693771 -270506613.91333008 0 0 0 0 -2020237.743223927 5010718.77027403 0 5010718.77027403 3346341.5798897967 0 0 0 0 2023402.6358857453 2229035.9857350066 0 2229035.9857350066 -1376455.2887567803 0 0 0 0 937157000.72782135 -174399649.62128067 0 -174399649.62128067 -337065353.7349205 0 0 0 0 1299246.5976667404 186039399.58954334 0 186039399.58954334 360478938.52333069 0 0 0 0 558354916.40189934 332361426.74881363 0 332361426.74881363 -135377205.27452087 0 0 0 0 345340359.4499054 -332162791.00083923 0 -332162791.00083923 -573094394.33898163 0 0 0 0 368156337.1978569 -316981225.29475403 0 -316981225.29475403 359228769.65567398 0 0 0 0 318531218.04274368 317676170.64067078 0 317676170.64067078 -224756198.70755768 0 0 0 0 140669481.6458931 55518750.836448669 0 55518750.836448669 -232469931.83709717 0 0 0 0 189753864.43943918 494460452.91125762 0 494460452.91125762 -514661743.4143219 0 0 0 0 12701613.499440193 521573089.07492256 0 521573089.07492256 -680501114.64038086 0 0 0 0 -664285539.69897461 368746703.67179108 0 368746703.67179108 -533964217.83777237 0 0 0 0 -458397436.35617828 -5944214.2315139771 0 -5944214.2315139771 -158176198.91871643 0 0 0 0 -596276653.77216101 495028273.42565489 0 495028273.42565489 -1082744093.4978714 0 0 0 0 -350310160.75028706 467543965.7816534 0 467543965.7816534 -111756659.70963287 0 0 0 0 -185591403.54410648 -68354218.331326485 0 -68354218.331326485 111480507.00466919 0 0 0 0 -322200164.75000572 77394109.97991848 0 77394109.97991848 58657937.361251831 0 0 0 0 -120853973.33918762 377566145.5634613 0 377566145.5634613 182919988.57337952 0 0 0 0 837245682.53604889 356540622.54761505 0 356540622.54761505 544720.73469543457 0 0 0 0 918748652.31548691 426749493.19824219 0 426749493.19824219 -46966828.858470917 0 0 0 0 1555273056.6060791 -456990975.27326775 0 -456990975.27326775 -257845579.82420349 0 0 0 0 743618.92459218856 643280.80893821642 0 643280.80893821642 -483730.08952792734 0 0 0 0 -59453756.622020721 158953015.73398209 0 158953015.73398209 601602032.74649048 0 0 0 0 -23197047.33741951 29819075.796655655 0 29819075.796655655 -45.386573791503906 0 0 0 0 1298173325.9004364 125320695.62863922 0 125320695.62863922 -817430112.54830933 0 0 0 0 -1701985.6206715917 514363.15270892903 0 514363.15270892903 709591.8441798687 0 0 0 0 -964532.06778040621 -1774849.8856389616 0 -1774849.8856389616 947597.80989679694 0 0 0 0 -41910338.499824524 9443942.0321846008 0 9443942.0321846008 1401502.2144012451 0 0 0 0 -1500431.0954475403 2358800.8750076294 0 2358800.8750076294 -7991708.0943145752 0 0 0 0 -19605149.441003799 11330112.078718185 0 11330112.078718185 -6548919.4653167725 0 0 0 0 -1198003686.1343212 1142016357.6397552 0 1142016357.6397552 -579269202.15837479 0 0 0 0 -510194220.82254219 584417157.57598495 0 584417157.57598495 -459547305.84489441 0 0 0 0 -505233778.97656941 411909389.10202885 0 411909389.10202885 -285261602.79334259 0 0 0 0 -444641909.86952591 566803229.79254532 0 566803229.79254532 -173251278.61342621 0 0 0 0 -440716405.66715693 814266622.34821677 0 814266622.34821677 -910529477.11405182 0 0 0 0 214571826.70774841 82715067.361011505 0 82715067.361011505 -578821402.2127533 0 0 0 0 -2685392652.521307 1403170868.9496098 0 1403170868.9496098 -476354793.72190094 0 0 0 0 -1285715203.1618233 1279753540.8004398 0 1279753540.8004398 -1147446020.7527008 0 0 0 0 -1401714175.7794037 99920942.260852814 0 99920942.260852814 -208926853.93822861 0 0 0 0 -1826047204.8371391 806290840.79620266 0 806290840.79620266 31188514.741241455 0 0 0 0 -1057666868.3122482 577638611.45456696 0 577638611.45456696 312118.50328063965 0 0 0 0 -1086647969.3783703 563520250.1399765 0 563520250.1399765 54848355.08253479 0 0 0 0 -1122102543.0695562 609040317.72873688 0 609040317.72873688 84249.883453369141 0 0 0 0 -670547901.67010498 648586212.05079842 0 648586212.05079842 -216752329.29149628 0 0 0 0 -720296771.4690609 467724656.52389145 0 467724656.52389145 -280115.13241577148 0 0 0 0 -937475191.99503708 701455217.18973732 0 701455217.18973732 -221737766.89749146 0 0 0 0 -639459894.92553043 525564724.61694717 0 525564724.61694717 -159188916.7118988 0 0 0 0 -486644376.28315544 367293761.7006073 0 367293761.7006073 -53128.266380310059 0 0 0 0 -461938327.44438362 494379990.48376846 0 494379990.48376846 -235958880.00465393 0 0 0 0 -565177837.95570374 347311224.95813751 0 347311224.95813751 -238604633.42470932 0 0 0 0 -239627463.71139526 247912096.43793106 0 247912096.43793106 -146061.75305938721 0 0 0 0 -381559189.43281984 398985266.91253662 0 398985266.91253662 -159577485.04670715 0 0 0 0 -155371253.14697647 304716718.71894073 0 304716718.71894073 -171070861.97960806 0 0 0 0 -183968631.77315235 265659608.5476017 0 265659608.5476017 -224333421.38554382 0 0 0 0 -846718.00247298321 -11362.512115364894 0 -11362.512115364894 893807.71179416031 0 0 0 0 93714129.897684097 85957162.621067047 0 85957162.621067047 -176220995.37226295 0 0 0 0 -34968325.601871967 364453528.30771255 0 364453528.30771255 -342101051.83802032 0 0 0 0 144370195.3135376 77637347.928016663 0 77637347.928016663 -72337381.467323303 0 0 0 0 -56271424.336155891 72706867.330307007 0 72706867.330307007 109626321.26616669 0 0 0 0 -32034459.505662918 43579889.877365112 0 43579889.877365112 141500128.25117493 0 0 0 0 -145615230.06563377 155571471.44007874 0 155571471.44007874 127465452.16516113 0 0 0 0 -491223306.5036602 432017430.74277496 0 432017430.74277496 -426102216.50965881 0 0 0 0 646572.35205769818 205381.62848340441 0 205381.62848340441 -1273189.9532746151 0 0 0 0 -547506731.53065491 371532102.23321724 0 371532102.23321724 -75047595.225067139 0 0 0 0 -428228923.21402931 80610487.872489929 0 80610487.872489929 60705696.775466919 0 0 0 0 -498046063.12222528 437309225.82727051 0 437309225.82727051 -88181488.740325928 0 0 0 0 -465710873.75074959 531608853.56678391 0 531608853.56678391 -318462223.13787079 0 0 0 0 -291164275.28758621 453806253.30179596 0 453806253.30179596 -104404557.61877441 0 0 0 0 -193475019.21762085 366590179.65277863 0 366590179.65277863 -42453081.921974182 0 0 0 0 -29261778.340698242 367189749.29966736 0 367189749.29966736 -112284252.48243713 0 0 0 0 -31185479.43579483 307551756.49225616 0 307551756.49225616 -34397167.294700623 0 0 0 0 215613627.6286068 171502660.37001801 0 171502660.37001801 -43871441.99609375 0 0 0 0 208806652.18379974 -33956982.106620789 0 -33956982.106620789 -17709350.218429565 0 0 0 0 -12244760.018054485 130439392.34217024 0 130439392.34217024 -20373776.722381592 0 0 0 0 2565957.1912376881 8490131.5402550697 0 8490131.5402550697 -24098391.213119507 0 0 0 0 -17594147.632850647 157647765.60769653 0 157647765.60769653 -51216754.695793152 0 0 0 0 -298597619.406147 151170337.34089768 0 151170337.34089768 82610203.102905273 0 0 0 0 162335701.79457825 38937795.229559183 0 38937795.229559183 -34209818.265945435 0 0 0 0 1074295.1717100376 771426.24021790735 0 771426.24021790735 -2332269.1811578833 0 0 0 0 155980124.56287956 -45249774.680862427 0 -45249774.680862427 -70904548.758449554 0 0 0 0 8383033.0201041698 8618198.3349294662 0 8618198.3349294662 115419571.97053528 0 0 0 0 6611059.0734186172 61131030.147457123 0 61131030.147457123 111725349.2186985 0 0 0 0 133927706.98515701 -3238196.461730957 0 -3238196.461730957 19206294.208572388 0 0 0 0 95801945.867733002 -5151533.5384902954 0 -5151533.5384902954 19110600.796983719 0 0 0 0 132813146.14683151 11195595.407829285 0 11195595.407829285 -44469680.825798035 0 0 0 0 133716451.5774889 -47504544.166309357 0 -47504544.166309357 17027942.293869019 0 0 0 0 510624070.8182869 -72623115.796630859 0 -72623115.796630859 17446456.372421265 0 0 0 0 -455423.77593540773 302157.44661992043 0 302157.44661992043 767542.28495686501 0 0 0 0 -1570247.3508659601 -6672621.1736564636 0 -6672621.1736564636 -287471675.80595398 0 0 0 0 364106.5866061328 229348.92021072283 0 229348.92021072283 -736012.13378595561 0 0 0 0 -827356.03048923798 834116.46931228973 0 834116.46931228973 1577807.1569666229 0 0 0 0 -4620476.8312168121 -27961721.296401978 0 -27961721.296401978 -135919129.78312683 0 0 0 0 -6035723.9831466675 174723449.9365921 0 174723449.9365921 -234657686.89011383 0 0 0 0 -329159608.72178364 323980242.30969238 0 323980242.30969238 -300515193.03781128 0 0 0 0 -104587325.20240593 82931944.704690933 0 82931944.704690933 -62300291.338470459 0 0 0 0 -48339549.911884308 306785941.98030853 0 306785941.98030853 171726821.35560608 0 0 0 0 -230577616.58972359 294600215.96347809 0 294600215.96347809 38422275.454040527 0 0 0 0 79258403.639874458 280029602.63303375 0 280029602.63303375 -150573969.53079224 0 0 0 0 2978179.7953748703 323726160.95135689 0 323726160.95135689 210816410.60652161 0 0 0 0 -65827943.470598221 156647421.32859421 0 156647421.32859421 57474381.295303345 0 0 0 0 284974926.03370285 347130928.44094086 0 347130928.44094086 150720403.6817627 0 0 0 0 82486318.502773285 389784225.02827454 0 389784225.02827454 126779422.21127319 0 0 0 0 117039713.62290192 301018680.9959259 0 301018680.9959259 314001505.83078003 0 0 0 0 1077808.780500792 862933.72500784323 0 862933.72500784323 -625031.44115492888 0 0 0 0 223207004.81660604 14876403.253178596 0 14876403.253178596 303225585.45404053 0 0 0 0 253935521.06999016 64759678.177558899 0 64759678.177558899 66698754.647171021 0 0 0 0 405357839.11431122 220674888.69572449 0 220674888.69572449 208754468.93367767 0 0 0 0 161358655.68438339 253241253.1348877 0 253241253.1348877 210827961.98691559 0 0 0 0 244710477.91047764 141666337.69273567 0 141666337.69273567 97067131.665710449 0 0 0 0 196350987.58706665 291343971.33135223 0 291343971.33135223 -78948544.276832581 0 0 0 0 102992601.71853161 144895463.19507217 0 144895463.19507217 81150482.831848145 0 0 0 0 347120691.90428925 276991355.58930206 0 276991355.58930206 249511114.61447334 0 0 0 0 267123075.86468697 160421318.40927505 0 160421318.40927505 81834439.031585693 0 0 0 0 5480689.1670126915 19633721.521130562 0 19633721.521130562 -48394323.442047119 0 0 0 0 15756963.55144906 54264887.554393768 0 54264887.554393768 -137342212.74093628 0 0 0 0 -17975817.681862831 75355988.779220581 0 75355988.779220581 -98414611.132568359 0 0 0 0 -2403389.2997360229 44571624.845123291 0 44571624.845123291 -81228705.322921753 0 0 0 0 -2606629.3558659554 25525059.461860657 0 25525059.461860657 -33124215.454452515 0 0 0 0 -8694894.758174777 21527890.991150856 0 21527890.991150856 -16897766.3203125 0 0 0 0 -7301870.4418184459 33936472.917818069 0 33936472.917818069 -42564617.730697632 0 0 0 0 5540976.226216197 5973959.8651456833 0 5973959.8651456833 -21178875.634643555 0 0 0 0 4267015.3140439987 17209430.513572693 0 17209430.513572693 -44327122.246170044 0 0 0 0 2631628.8442719793 3747717.2779374421 0 3747717.2779374421 1273817.2919261977 0 0 0 0 1380401.5261170864 -3020874.9786338806 0 -3020874.9786338806 -6208712.1010284424 0 0 0 0 13024346.12660265 -2973191.3160715103 0 -2973191.3160715103 -26238341.486404419 0 0 0 0 -2673358.8943347931 -19505232.431186676 0 -19505232.431186676 27654410.690086365 0 0 0 0 60052.158316913992 3013702.9529375508 0 3013702.9529375508 319442.10698452499 0 0 0 0 3587075.2611885071 17540719.033660889 0 17540719.033660889 -1668480.7009506226 0 0 0 0 10596162.324629307 15340628.284996033 0 15340628.284996033 -51914238.769931793 0 0 0 0 -36173430.334821224 -33162608.354890823 0 -33162608.354890823 -22712745.909881592 0 0 0 0 85295580.055608749 -45616639.817695618 0 -45616639.817695618 -110833486.39520264 0 0 0 0 97213498.762345314 56626779.031707764 0 56626779.031707764 -190753623.99243164 0 0 0 0 -332809589.53201675 31635054.194656372 0 31635054.194656372 -91883729.151657104 0 0 0 0 -257690825.8363018 37463114.368400574 0 37463114.368400574 -31559697.118597031 0 0 0 0 -154687017.76722717 102922297.3731575 0 102922297.3731575 -64546636.393112183 0 0 0 0 -43327.552958377171 1107687.4122094512 0 1107687.4122094512 55206.448070550337 0 0 0 0 -416538520.3309598 -27693269.410785675 0 -27693269.410785675 -132134198.27770996 0 0 0 0 -444273498.10357571 146712400.57636642 0 146712400.57636642 -42961771.301513672 0 0 0 0 -196883218.74372005 3289049.6655426025 0 3289049.6655426025 -318251047.87760925 0 0 0 0 -183670980.15849495 254153173.9182663 0 254153173.9182663 -321055931.32500398 0 0 0 0 37519790.379209518 68668952.176712036 0 68668952.176712036 -201252418.89785767 0 0 0 0 -2298539.7620258331 46068234.052612305 0 46068234.052612305 -103542864.9834404 0 0 0 0 -53538031.39780426 77468525.76940918 0 77468525.76940918 -158629963.65079498 0 0 0 0 -41552121.764730453 123461534.0840683 0 123461534.0840683 -225281994.28172302 0 0 0 0 -110826051.40664768 134755076.13054276 0 134755076.13054276 -127267159.68481445 0 0 0 0 -56348827.956176758 147046975.44570923 0 147046975.44570923 -180770565.56892776 0 0 0 0 -77799759.585561275 113620232.77037811 0 113620232.77037811 -79050141.343139648 0 0 0 0 -96631882.083496571 169079827.88204193 0 169079827.88204193 -89175921.235214233 0 0 0 0 -121176341.54558802 172730984.41775131 0 172730984.41775131 -141740527.39805603 0 0 0 0 -195050469.81342888 60677108.606987 0 60677108.606987 -23477433.821971893 0 0 0 0 -241545043.56207848 170357316.51764297 0 170357316.51764297 -70733599.285942078 0 0 0 0 -1471247.6782196676 980093.94129671156 0 980093.94129671156 1678834.7943873368 0 0 0 0 -78166504.950725555 10978498.262962341 0 10978498.262962341 124614609.4493866 0 0 0 0 -154463941.86447334 138328438.9670105 0 138328438.9670105 -71690267.709373474 0 0 0 0 -160169118.99660778 256850301.28697205 0 256850301.28697205 -69946020.347107649 0 0 0 0 -738418.32821241114 329117.2253510803 0 329117.2253510803 840649.43515062705 0 0 0 0 -156286658.22755241 208548683.13837814 0 208548683.13837814 138967817.27935028 0 0 0 0 -69772671.789384365 120716950.22199631 0 120716950.22199631 -7170824.355178833 0 0 0 0 -123265791.94208097 112640025.4016571 0 112640025.4016571 89563760.026481628 0 0 0 0 -104734392.12037086 155379817.06747818 0 155379817.06747818 -10862722.650108337 0 0 0 0 -67987438.457868576 107796368.70619965 0 107796368.70619965 -40002023.613988876 0 0 0 0 -26544340.745970249 70207851.238456726 0 70207851.238456726 -46005437.749359131 0 0 0 0 -29262327.465701312 76233894.304508924 0 76233894.304508924 -53996145.116271973 0 0 0 0 -27570994.225654602 108773045.36541748 0 108773045.36541748 -117249913.3495636 0 0 0 0 -34110386.664029121 56632431.341995239 0 56632431.341995239 -22696602.56035614 0 0 0 0 -52979766.121222496 74869208.067329407 0 74869208.067329407 16700052.348396301 0 0 0 0 -28479214.703942299 52246036.261428833 0 52246036.261428833 -19294461.490020752 0 0 0 0 -66193981.440244675 68406549.529762268 0 68406549.529762268 22030724.856685638 0 0 0 0 -114331170.15418518 66268240.20190239 0 66268240.20190239 44414983.765411377 0 0 0 0 -133877819.2567966 46113391.378746033 0 46113391.378746033 63865789.354362488 0 0 0 0 -164902972.86838007 27215919.071388245 0 27215919.071388245 52962532.601753235 0 0 0 0 -169312609.06841731 84230023.122066498 0 84230023.122066498 89932888.547592163 0 0 0 0 -167996371.71031046 57565580.438240051 0 57565580.438240051 277760561.21563721 0 0 0 0 -174363264.08057213 44132932.613433838 0 44132932.613433838 131469479.33326721 0 0 0 0 -111547626.67866421 4983466.1737747192 0 4983466.1737747192 44288202.474624634 0 0 0 0 -171819483.13335514 62288904.681617737 0 62288904.681617737 -9877552.6737289429 0 0 0 0 -193095763.81063366 -2932400.8105773926 0 -2932400.8105773926 35171200.756149292 0 0 0 0 -207842835.65432349 -41957649.360983133 0 -41957649.360983133 20982972.833251953 0 0 0 0 -202202028.07849652 16763716.502775192 0 16763716.502775192 4019793.4480133057 0 0 0 0 -143433334.92192701 -31585011.493188858 0 -31585011.493188858 1507092.4905395508 0 0 0 0 -187425277.6658206 28146414.829124451 0 28146414.829124451 57590654.680847168 0 0 0 0 8065099.2490615845 -158641037.00169754 0 -158641037.00169754 322395524.22554779 0 0 0 0 -85459839.466063499 150008681.53482437 0 150008681.53482437 269529767.74958897 0 0 0 0 -1300502.3341608047 -7410898.7475509644 0 -7410898.7475509644 60099993.461090088 0 0 0 0 -102780620.87285042 77678906.073313713 0 77678906.073313713 -7018181.9256286621 0 0 0 0 -113844235.47943878 58597441.027778625 0 58597441.027778625 -16959900.484664917 0 0 0 0 -92391335.535233617 990589.68758296967 0 990589.68758296967 -25584273.043136597 0 0 0 0 -130949934.72421098 186733901.19784927 0 186733901.19784927 -138366672.14437866 0 0 0 0 -121759081.77287388 183816956.69652176 0 183816956.69652176 -75292925.770338058 0 0 0 0 -1650491.5445319368 9568.6670584492385 0 9568.6670584492385 1676714.5180541761 0 0 0 0 -77434048.520698071 71730733.463405609 0 71730733.463405609 -100977662.06459045 0 0 0 0 -1938994.1395263895 -62368.58462106809 0 -62368.58462106809 1753045.2188250199 0 0 0 0 -205550241.92600346 151946398.99942017 0 151946398.99942017 -230998.28358459473 0 0 0 0 -98902442.143692493 112948158.84154129 0 112948158.84154129 -133386923.96852875 0 0 0 0 -221470934.71182919 209110960.13385391 0 209110960.13385391 -140270961.99016953 0 0 0 0 -172156207.09998435 -43690285.208900452 0 -43690285.208900452 -16114080.156257629 0 0 0 0 -272303611.87206888 15808658.520988464 0 15808658.520988464 -67810836.59817791 0 0 0 0 -434716320.9070425 -21269088.97593689 0 -21269088.97593689 -43720537.664764404 0 0 0 0 -376203136.30121946 -40620168.554046631 0 -40620168.554046631 -70043256.822845459 0 0 0 0 -321468107.70283937 -183304201.46813965 0 -183304201.46813965 -26625374.146514893 0 0 0 0 -87181.223065413302 124028.5597454235 0 124028.5597454235 50290.951200686395 0 0 0 0 -285675721.13842726 -2398005.411239624 0 -2398005.411239624 732096.20597839355 0 0 0 0 -174102203.42306709 49795645.165496826 0 49795645.165496826 -22293095.280525208 0 0 0 0 -140991408.73816013 105994127.94133759 0 105994127.94133759 -96096528.1587677 0 0 0 0 -231388534.31578708 102376406.40692329 0 102376406.40692329 -51124154.161331177 0 0 0 0 -379059014.96310806 82100728.02696228 0 82100728.02696228 -49836624.087567806 0 0 0 0 -404017645.65655518 176719607.86914062 0 176719607.86914062 -269524.27826755418 0 0 0 0 -102898026.9540925 101250613.72308636 0 101250613.72308636 -105280474.66352844 0 0 0 0 -167314267.30400443 168012401.31783295 0 168012401.31783295 -77678379.81086731 0 0 0 0 -602815092.83702016 -26574582.053657532 0 -26574582.053657532 30847553.64151001 0 0 0 0 2388742.6642452739 -786617.21610214561 0 -786617.21610214561 -1205231.9155379161 0 0 0 0 2368108.9386308193 2636182.7959842682 0 2636182.7959842682 1467.091926574707 0 0 0 0 543875.4203619957 1620775.8614959717 0 1620775.8614959717 -179358.10977935791 0 0 0 0 -165328.44247171748 1945881.0162691772 0 1945881.0162691772 484645.06378500722 0 0 0 0 4480369.3690748215 1402875.7328414917 0 1402875.7328414917 -3775290.9690132141 0 0 0 0 8685386.8140721321 -6916977.0061912537 0 -6916977.0061912537 3556609.3593864441 0 0 0 0 11479716.28892827 548800.04588890076 0 548800.04588890076 -12767105.700157166 0 0 0 0 -785919.4610042572 2481601.0432071686 0 2481601.0432071686 -7687.1124114990234 0 0 0 0 1026691.8561973572 -21111130.846893311 0 -21111130.846893311 19756514.598308563 0 0 0 0 -390184.21145972097 1709854.8515778668 0 1709854.8515778668 571613.05954610929 0 0 0 0 -1588658.8949728012 1125222.2194137573 0 1125222.2194137573 -1665577.8190612793 0 0 0 0 -2667789.1029453278 168159.19627380371 0 168159.19627380371 22777.216064453125 0 0 0 0 12598807.606052399 18106308.569320679 0 18106308.569320679 -15214278.025924683 0 0 0 0 20075741.277888298 -2532408.0532836914 0 -2532408.0532836914 -36893369.108917236 0 0 0 0 45777.113969019614 310307.27264399081 0 310307.27264399081 -101123.86784960423 0 0 0 0 -13460771.695949554 5208814.4674987793 0 5208814.4674987793 -20521111.41230011 0 0 0 0 -29444070.463691711 9764860.4402770996 0 9764860.4402770996 5267308.104385376 0 0 0 0 -7775272.786547184 11419708.001579285 0 11419708.001579285 -7552797.7176837921 0 0 0 0 -8488366.9520468712 -1877391.6499061584 0 -1877391.6499061584 1331800.7789497375 0 0 0 0 -3715403.0061037471 102602.20059688762 0 102602.20059688762 1745639.9496018998 0 0 0 0 -5080388.3109850287 2260864.2908744812 0 2260864.2908744812 -1552993.4333496094 0 0 0 0 -6458357.3087124825 1487351.0957565308 0 1487351.0957565308 -28521.099498748779 0 0 0 0 3375261.056861639 2227935.2159576416 0 2227935.2159576416 -1018256.7851638794 0 0 0 0 -2869004.0372539666 41961.647531365976 0 41961.647531365976 1276383.0758740008 0 0 0 0 -93897.330243587494 3414451.9936637878 0 3414451.9936637878 -1333934.9054584503 0 0 0 0 732146.39830587187 82310.426082716323 0 82310.426082716323 -1303980.0909117013 0 0 0 0 -77613363.315273821 -1006864.9748191833 0 -1006864.9748191833 14868382.946121216 0 0 0 0 -64198119.891338497 16173044.308124542 0 16173044.308124542 11634510.166465759 0 0 0 0 667810.97703746078 -434101.52950820699 0 -434101.52950820699 -1325140.9774634019 0 0 0 0 24151246.065448761 -15505256.066711426 0 -15505256.066711426 -19400505.655482292 0 0 0 0 75478656.024126053 24118998.345054626 0 24118998.345054626 -8284009.2330169678 0 0 0 0 28755978.778158188 9964962.5936813354 0 9964962.5936813354 -11688676.315994263 0 0 0 0 25096497.251426697 10977082.72564888 0 10977082.72564888 -21042.088539123535 0 0 0 0 23343556.36905098 8653690.1549434662 0 8653690.1549434662 -2063534.5184402466 0 0 0 0 24615175.819736004 12631886.636985779 0 12631886.636985779 -3582164.9049530029 0 0 0 0 35893812.348045349 18144250.262924194 0 18144250.262924194 -2967612.8461494446 0 0 0 0 21264383.936973572 13482337.269695282 0 13482337.269695282 7710.1437149047852 0 0 0 0 5147745.9717035294 6895899.5915145874 0 6895899.5915145874 3956091.5673141479 0 0 0 0 23842760.958749771 21443653.748794556 0 21443653.748794556 4585735.2990570068 0 0 0 0 16567907.711713791 27234233.88394165 0 27234233.88394165 27768968.043563843 0 0 0 0 8519642.1202030182 6590357.2531051636 0 6590357.2531051636 1146890.5402488708 0 0 0 0 3132584.4107408524 922121.09145355225 0 922121.09145355225 1847808.4893875122 0 0 0 0 -2174310.3459014893 3973574.3095092773 0 3973574.3095092773 98408.869438171387 0 0 0 0 -230473.30844461918 -68366.140484465286 0 -68366.140484465286 125202.9426792413 0 0 0 0 24355337.970718384 21902178.443786621 0 21902178.443786621 -35578.184661865234 0 0 0 0 32183530.424973488 3526678.6285190582 0 3526678.6285190582 2006391.6277389526 0 0 0 0 -2340812.1685908781 227528.09863625467 0 227528.09863625467 1967906.2936103642 0 0 0 0 24862401.433578491 74096686.278862 0 74096686.278862 15559257.141298294 0 0 0 0 -285859.20507784933 893719.75500642508 0 893719.75500642508 336790.76848285273 0 0 0 0 -25419408.808710098 -28113460.858879089 0 -28113460.858879089 -19692266.07119751 0 0 0 0 -24260690.818916321 4729132.5284233093 0 4729132.5284233093 35409371.675750732 0 0 0 0 2613132.4206581116 5931895.0180358887 0 5931895.0180358887 4608323.1042785645 0 0 0 0 -2472244.6485975012 230100.36202729121 0 230100.36202729121 1934517.7274411023 0 0 0 0 2376638.6570386887 469526.52353286743 0 469526.52353286743 -1014171.2960662842 0 0 0 0 -8475185.9696395397 25974591.69747448 0 25974591.69747448 -9207338.6744689941 0 0 0 0 -1638071.5853798576 2320050.4117368013 0 2320050.4117368013 -546567.15678938944 0 0 0 0 -3881414.7836556435 1994572.7992477417 0 1994572.7992477417 -968128.58001708984 0 0 0 0 -4900822.131495595 2894849.8481578827 0 2894849.8481578827 -334865.26219940186 0 0 0 0 -11259168.853384972 17111974.194732666 0 17111974.194732666 18366570.582107544 0 0 0 0 494935.34149551392 -6339253.4087409973 0 -6339253.4087409973 1747044.922706604 0 0 0 0 251172.24088604376 223805.46998231113 0 223805.46998231113 622814.10185179859 0 0 0 0 6562179.9282455444 6227420.6196060181 0 6227420.6196060181 -30798797.698829651 0 0 0 0 1097504.5066197319 1789192.5743620172 0 1789192.5743620172 -593984.51776468381 0 0 0 0 20251407.421663284 34725215.9532547 0 34725215.9532547 25917482.066017151 0 0 0 0 5208801.6991233826 -23598423.197727203 0 -23598423.197727203 64299761.880405426 0 0 0 0 4337323.8395309448 -9701232.166847229 0 -9701232.166847229 29677137.219329834 0 0 0 0 7244037.5008964539 42017052.250453949 0 42017052.250453949 48442978.58946228 0 0 0 0 -5620184.2217025757 5341794.4534835815 0 5341794.4534835815 50213783.100982666 0 0 0 0 174415915.61843872 53953455.94543457 0 53953455.94543457 -3265325.6457824707 0 0 0 0 418974.87249300163 715097.90210855007 0 715097.90210855007 -228395.5448040301 0 0 0 0 79434462.139650345 -42505846.946550369 0 -42505846.946550369 -31529896.837631226 0 0 0 0 -691195.12565984018 -102192.18802189641 0 -102192.18802189641 857779.58223236352 0 0 0 0 85458492.877578735 76037048.109794617 0 76037048.109794617 61619819.558761597 0 0 0 0 88573499.863128662 -206407980.71138763 0 -206407980.71138763 -32793346.95324707 0 0 0 0 184667420.26886368 17505915.193107605 0 17505915.193107605 -21208843.474767685 0 0 0 0 87904037.907280922 4246435.805770874 0 4246435.805770874 -14730149.354354858 0 0 0 0 4440283.6490674019 -3108917.9577763081 0 -3108917.9577763081 -15175067.331420898 0 0 0 0 4722069.3131076731 3914154.7614200935 0 3914154.7614200935 1079198.9061940331 0 0 0 0 19244704.227743149 14318238.937980652 0 14318238.937980652 -54909084.761352539 0 0 0 0 9015842.6145992279 -16409931.393325806 0 -16409931.393325806 -7424519.6394615173 0 0 0 0 4917983.9060258865 182386.5464553833 0 182386.5464553833 -33188129.840858459 0 0 0 0 -4927069.391254425 -7730559.1288490295 0 -7730559.1288490295 5015013.5664901733 0 0 0 0 791485.22138362145 215972.83123231772 0 215972.83123231772 466906.78547800332 0 0 0 0 -6377572.3435606956 2745748.4921875 0 2745748.4921875 -345919.35904788971 0 0 0 0 -4636351.3397631645 -7390462.9092445374 0 -7390462.9092445374 -1237527.9962844849 0 0 0 0 -47253.881663322449 1422431.2415981293 0 1422431.2415981293 -600693.29344177246 0 0 0 0 -97108139.65165329 176885972.2159729 0 176885972.2159729 -178393608.2156601 0 0 0 0 -111825649.7128067 136525722.7830658 0 136525722.7830658 -42296691.765220642 0 0 0 0 -93674668.672924042 273311860.85783958 0 273311860.85783958 -424020033.73703766 0 0 0 0 3765043.3426345196 4550990.5425392427 0 4550990.5425392427 1423782.1165917851 0 0 0 0 216037032.83616638 60082513.578052521 0 60082513.578052521 -597411953.26672363 0 0 0 0 -178427452.69026089 134833795.35956001 0 134833795.35956001 -65142729.965286255 0 0 0 0 -35004563.767166138 272104140.63562775 0 272104140.63562775 52098278.257827759 0 0 0 0 -64107567.098499298 191139321.5752058 0 191139321.5752058 483946698.00282288 0 0 0 0 786944404.90464401 222197793.61309814 0 222197793.61309814 -99645353.476615906 0 0 0 0 -70528775.001987457 225016097.32723236 0 225016097.32723236 -99478248.806785583 0 0 0 0 -79472193.409009457 -159630319.23676014 0 -159630319.23676014 -476401275.14808655 0 0 0 0 100105526.79660797 505440549.04061127 0 505440549.04061127 -883463062.45993805 0 0 0 0 20551050.30533874 16989947.196907043 0 16989947.196907043 5483629.8724822998 0 0 0 0 11452534.111200839 16042664.085609436 0 16042664.085609436 38345670.854736328 0 0 0 0 19525222.014335215 42698300.778198242 0 42698300.778198242 45321634.904956818 0 0 0 0 -4063027.083937645 13004141.399459839 0 13004141.399459839 32802548.625091553 0 0 0 0 4826850.6708884239 10995238.986076355 0 10995238.986076355 -5346820.6497955322 0 0 0 0 11132129.73491931 19659135.516326904 0 19659135.516326904 5821317.9427661896 0 0 0 0 15239811.025016308 10299311.675010681 0 10299311.675010681 -9258331.658493042 0 0 0 0 5368032.7280359268 10541239.161499023 0 10541239.161499023 -482778.06985473633 0 0 0 0 4759184.2639009953 13823916.815551758 0 13823916.815551758 6100140.4635925293 0 0 0 0 -3303542.6354959011 18672011.542984009 0 18672011.542984009 -15543112.531272888 0 0 0 0 -3436846.2783873081 17312075.41859436 0 17312075.41859436 -5689461.9149627686 0 0 0 0 -32917444.598594606 41542238.657314301 0 41542238.657314301 558459.68362426758 0 0 0 0 -19770515.349084854 24769638.876708984 0 24769638.876708984 21955378.223999023 0 0 0 0 19903379.71678796 15864737.72869873 0 15864737.72869873 4238043.1084594727 0 0 0 0 -15780797.566162348 27588495.115615845 0 27588495.115615845 8241664.4418869019 0 0 0 0 -3745999.2344763186 11424517.02331543 0 11424517.02331543 28379324.944580078 0 0 0 0 44880180.560175896 40383341.586990356 0 40383341.586990356 7335535.972076416 0 0 0 0 -31250834.072286427 14483686.645561218 0 14483686.645561218 3565214.7980041504 0 0 0 0 29020016.386112213 16732410.502090454 0 16732410.502090454 23234244.672218323 0 0 0 0 -76703381.232002556 42136592.039833069 0 42136592.039833069 31774731.141204834 0 0 0 0 -29990948.394811869 11465222.773147583 0 11465222.773147583 43937478.253067017 0 0 0 0 -35243191.698713779 43162955.3878479 0 43162955.3878479 17446701.755569458 0 0 0 0 -4756863.167620182 4086583.5855026245 0 4086583.5855026245 -157488.88874816895 0 0 0 0 -10953590.377741098 -7035744.2760848999 0 -7035744.2760848999 3060392.0728149414 0 0 0 0 23496515.731271386 36651380.982192993 0 36651380.982192993 52045094.898773193 0 0 0 0 -144123.82665698943 -116376.69711207971 0 -116376.69711207971 -47409.895856633782 0 0 0 0 -256299.88681643046 42041.924577755854 0 42041.924577755854 212255.63262891769 0 0 0 0 -6872336.9872510433 2732516.737071991 0 2732516.737071991 5527399.5233764648 0 0 0 0 -5547796.8409431577 5129843.8949317932 0 5129843.8949317932 4210463.570602417 0 0 0 0 -6405217.9713687897 2435453.9326210022 0 2435453.9326210022 2201125.9270401001 0 0 0 0 -4564744.3186564445 8992472.8707199097 0 8992472.8707199097 363148.45652008057 0 0 0 0 -4778093.7115802765 7423589.738609314 0 7423589.738609314 -1188785.0721359253 0 0 0 0 -4933308.4564194679 10587184.231994629 0 10587184.231994629 11720967.542129517 0 0 0 0 -5512263.5959792137 7978248.1700134277 0 7978248.1700134277 1038489.6486206055 0 0 0 0 4279928.6178276539 16620270.159469604 0 16620270.159469604 127362.47705841064 0 0 0 0 -4707684.309407711 9968173.6429672241 0 9968173.6429672241 2127286.4127502441 0 0 0 0 1020580.9943163395 10440939.111530304 0 10440939.111530304 -8426248.3453674316 0 0 0 0 4460838.3487288971 4413804.2613789923 0 4413804.2613789923 1020214.6183519103 0 0 0 0 3693973.4912137985 13300182.227478027 0 13300182.227478027 -10663375.460006714 0 0 0 0 -52451315.952713013 149020228.40664673 0 149020228.40664673 -260081315.42422104 0 0 0 0 2276943.5260633952 633281.42420987785 0 633281.42420987785 -391864.40061920881 0 0 0 0 2207420.2356761964 5247968.9307118021 0 5247968.9307118021 1849567.6712074187 0 0 0 0 4597168.1514639854 194085.41728973389 0 194085.41728973389 -9750230.4165267944 0 0 0 0 507401.77107426664 214672.40661269892 0 214672.40661269892 -358125.93508306146 0 0 0 0 -103577285.21473885 150071704.47132111 0 150071704.47132111 -97871857.748886108 0 0 0 0 -66800414.511470795 144251347.4101944 0 144251347.4101944 -168814325.00491333 0 0 0 0 -72193696.074943542 88609282.792770386 0 88609282.792770386 -145755838.61883545 0 0 0 0 7062331.4172315598 8140390.4248771667 0 8140390.4248771667 -51911702.217689514 0 0 0 0 -78966942.376361847 68420088.824913025 0 68420088.824913025 -50001490.033279419 0 0 0 0 -24852368.88495636 72011110.272712708 0 72011110.272712708 -66235427.003417969 0 0 0 0 -108380487.31479645 148320480.75363159 0 148320480.75363159 -112481812.43473816 0 0 0 0 3575280.0793879139 4028628.9629911315 0 4028628.9629911315 1191912.8535319027 0 0 0 0 -59651743.524723053 51655558.900917053 0 51655558.900917053 37254084.687278748 0 0 0 0 13284480.274165154 818231.16410064697 0 818231.16410064697 -2743065.8868484497 0 0 0 0 26230511.708860397 1551145.1121826172 0 1551145.1121826172 -11697278.829437256 0 0 0 0 8828178.3447122574 8472505.2567749023 0 8472505.2567749023 -19419859.121513367 0 0 0 0 2771021.6172781736 6134398.6037955284 0 6134398.6037955284 -14785225.651031494 0 0 0 0 12316700.437746972 14500956.579589844 0 14500956.579589844 -11030107.165733337 0 0 0 0 7193493.1934536099 11182473.412361145 0 11182473.412361145 -8747028.6283798218 0 0 0 0 4994956.5052332878 11679118.19367981 0 11679118.19367981 -28052873.096466064 0 0 0 0 8474738.8761397004 8014400.7236785889 0 8014400.7236785889 -16653925.859260559 0 0 0 0 4635029.6313683987 10077901.302505493 0 10077901.302505493 -17362863.289993286 0 0 0 0 5611521.6795996428 5533092.6852798462 0 5533092.6852798462 -18503784.537248611 0 0 0 0 4659938.639072299 7200198.636100769 0 7200198.636100769 -19242534.584533691 0 0 0 0 84312.640598052647 3904696.9117125757 0 3904696.9117125757 392917.3238936523 0 0 0 0 -7425366.7663383484 12514392.97644043 0 12514392.97644043 11197611.185218811 0 0 0 0 4823320.1272888184 74402745.880699158 0 74402745.880699158 53755684.519554138 0 0 0 0 13079829.036030769 76019242.729171753 0 76019242.729171753 51386312.717412949 0 0 0 0 14391383.286064863 120518624.97293282 0 120518624.97293282 -12883590.431518555 0 0 0 0 96752.590647871606 1699676.3902796842 0 1699676.3902796842 3771.6124326800928 0 0 0 0 4369443.669678688 43768325.869812012 0 43768325.869812012 -111255125.83360291 0 0 0 0 11676602.319608688 96086758.312488556 0 96086758.312488556 -216960162.20913696 0 0 0 0 37720420.183168411 140886710.02687836 0 140886710.02687836 -44288742.384239197 0 0 0 0 -17963281.174020767 147190015.08759952 0 147190015.08759952 -17125773.910140991 0 0 0 0 -13207432.304295182 90131652.494234324 0 90131652.494234324 -76874485.102371216 0 0 0 0 32732743.764426708 228698502.53071213 0 228698502.53071213 27796345.977798462 0 0 0 0 57407582.849046707 208330812.58126068 0 208330812.58126068 36063107.746650696 0 0 0 0 86957409.023854256 269538968.28479004 0 269538968.28479004 53233494.546348572 0 0 0 0 75712140.307839841 243580058.45134676 0 243580058.45134676 83230263.051361084 0 0 0 0 151487054.89857483 207935387.03977585 0 207935387.03977585 -18744061.715246201 0 0 0 0 56503874.699617386 67769991.714147568 0 67769991.714147568 -29550557.738525391 0 0 0 0 -657086936.96126556 205062028.1444931 0 205062028.1444931 338072370.50536346 0 0 0 0 -356505.07262321003 3700726.9550961964 0 3700726.9550961964 5837765.925632447 0 0 0 0 -53845348.345294595 117251423.64532071 0 117251423.64532071 -62442170.224746704 0 0 0 0 -54418931.852428436 86468735.918960571 0 86468735.918960571 3753467.4947662354 0 0 0 0 -83600259.61713028 61779201.95463562 0 61779201.95463562 -19072766.832427979 0 0 0 0 -76629952.502048492 55341985.927467346 0 55341985.927467346 -27189135.520431519 0 0 0 0 -98056958.418203354 65135449.514717102 0 65135449.514717102 -21630270.770599365 0 0 0 0 -79299052.715007782 64868826.599617004 0 64868826.599617004 -23985654.458473206 0 0 0 0 -79938721.005622864 86117668.771400452 0 86117668.771400452 -60369097.656425476 0 0 0 0 -62141452.365991592 99703972.51525116 0 99703972.51525116 -7355409.267791748 0 0 0 0 -100005526.07479477 74788509.15435791 0 74788509.15435791 -13274359.210403442 0 0 0 0 -117286402.07209015 140421998.51990509 0 140421998.51990509 -98001650.514587402 0 0 0 0 -134027675.66656446 59563780.684473038 0 59563780.684473038 -72499061.407608032 0 0 0 0 -77837384.86517477 97961640.785552979 0 97961640.785552979 -65600500.490020752 0 0 0 0 -77594855.097862244 108000373.80646515 0 108000373.80646515 -159458079.03884125 0 0 0 0 -89409455.521362305 94198981.755180359 0 94198981.755180359 -66525934.715591431 0 0 0 0 -96382234.559822083 69861824.471572876 0 69861824.471572876 -3055128.688117981 0 0 0 0 -60994451.218296051 100406204.82268524 0 100406204.82268524 -64253449.156532288 0 0 0 0 -121529503.41979408 65733434.547801971 0 65733434.547801971 60607158.745399475 0 0 0 0 1607198.9618375394 2782498.5465734489 0 2782498.5465734489 3182855.4076138884 0 0 0 0 -31628899.084190369 -32616476.46141386 0 -32616476.46141386 73036829.72353363 0 0 0 0 -87519205.013015747 59222731.902236938 0 59222731.902236938 1135272.1609840393 0 0 0 0 -45108189.046397924 60630377.103922367 0 60630377.103922367 -18491809.015075684 0 0 0 0 698372419.30461025 -832067362.40476274 0 -832067362.40476274 -90441206.676475525 0 0 0 0 -3015666.4326896667 -119945708.19997406 0 -119945708.19997406 456352529.20399714 0 0 0 0 419431.14832310751 823749.6433544904 0 823749.6433544904 1109359.6757505164 0 0 0 0 32161759.408660889 -43825609.305900574 0 -43825609.305900574 103954089.6075325 0 0 0 0 434851306.44814682 -73687514.071250916 0 -73687514.071250916 -665267165.16131592 0 0 0 0 416454235.35137177 -119854488.1022377 0 -119854488.1022377 -114126724.64073181 0 0 0 0 252576.91582747246 1101846.7522416133 0 1101846.7522416133 2028793.9203902781 0 0 0 0 -19926833.130142212 -101350372.4301033 0 -101350372.4301033 44084735.746734619 0 0 0 0 167575221.00202942 -15220282.026260376 0 -15220282.026260376 10492590.95244503 0 0 0 0 189526178.32023621 -201336809.64637375 0 -201336809.64637375 -91683187.793304443 0 0 0 0 44394475.36095047 -228306643.80314255 0 -228306643.80314255 -79412108.09262085 0 0 0 0 38333878.588837028 -163841317.86890185 0 -163841317.86890185 1236786161.7597961 0 0 0 0 -360885749.48776627 -68396149.546203613 0 -68396149.546203613 421105864.35807037 0 0 0 0 222494.64934646524 1423085.1806044215 0 1423085.1806044215 2097726.7269895822 0 0 0 0 974208820.35292816 1874260388.603157 0 1874260388.603157 -401161298.0009079 0 0 0 0 1462445.3846412878 4290254.9761184342 0 4290254.9761184342 5371800.0205371343 0 0 0 0 -72194122.705230713 40428717.339851379 0 40428717.339851379 -2553408.7452220917 0 0 0 0 301514722.6148262 -940276972.25845337 0 -940276972.25845337 -55946307.586490631 0 0 0 0 792193532.28798676 713005616.13954926 0 713005616.13954926 728162364.59848785 0 0 0 0 128187.12137187505 849682.64195307251 0 849682.64195307251 3972618.3241009861 0 0 0 0 1355341740.2972279 357662371.52706528 0 357662371.52706528 118630739.57548523 0 0 0 0 -936655745.60991669 -669760173.53915787 0 -669760173.53915787 1042051865.5297356 0 0 0 0 428386340.66577911 -615663250.31664467 0 -615663250.31664467 412142490.94438171 0 0 0 0 -396466419.36179733 -153791166.66236115 0 -153791166.66236115 154046889.03113556 0 0 0 0 662020174.49991179 477982825.87388182 0 477982825.87388182 146997889.41316223 0 0 0 0 738936027.16658783 28368957.25976181 0 28368957.25976181 -31908086.973258972 0 0 0 0 268256103.31682205 -9816317.6731910706 0 -9816317.6731910706 88459483.613494873 0 0 0 0 280433763.30104828 16191692.704208374 0 16191692.704208374 119265472.81763458 0 0 0 0 -346556726.3295126 -26723701.556247711 0 -26723701.556247711 299043270.58909607 0 0 0 0 832843.55640034191 4130276.2873521149 0 4130276.2873521149 10718719.353838906 0 0 0 0 262751394.48595619 66872371.18514061 0 66872371.18514061 29534853.602081299 0 0 0 0 355213348.12880707 -148156149.67749786 0 -148156149.67749786 80830515.48840332 0 0 0 0 -1050597.8917836845 -3729.4833313236013 0 -3729.4833313236013 1398377.789493259 0 0 0 0 -283478262.06222153 93350069.539985657 0 93350069.539985657 -124330540.0471077 0 0 0 0 263533949.11833191 185394381.7882309 0 185394381.7882309 -52095759.824584961 0 0 0 0 278040337.66758728 465393670.06546783 0 465393670.06546783 129381201.3556366 0 0 0 0 270928880.09285736 347661623.31764984 0 347661623.31764984 474483642.98453522 0 0 0 0 10653061.737174988 250665155.68353271 0 250665155.68353271 677531205.13877106 0 0 0 0 268916745.77621841 205022153.52391434 0 205022153.52391434 296071497.60625839 0 0 0 0 320159952.03631973 358781115.97996902 0 358781115.97996902 165573191.5239563 0 0 0 0 123899.84003279824 856059.12765843328 0 856059.12765843328 982670.85182284564 0 0 0 0 270472195.09424591 545075350.47143555 0 545075350.47143555 346655985.95559692 0 0 0 0 -346536274.86407232 292663650.94413042 0 292663650.94413042 580230319.68054199 0 0 0 0 -480224162.60225677 547774383.60027695 0 547774383.60027695 779142583.54417419 0 0 0 0 100509512.81417084 -173803840.01435852 0 -173803840.01435852 -55958073.087341309 0 0 0 0 -169269415.49986267 416668861.13933563 0 416668861.13933563 -367980990.18680191 0 0 0 0 39549892.725306034 25393652.207954407 0 25393652.207954407 155523798.64280701 0 0 0 0 269799517.60194397 117187430.19691467 0 117187430.19691467 77215766.777088165 0 0 0 0 -472289020.69876862 237295300.70153809 0 237295300.70153809 -97743849.167667389 0 0 0 0 69057227.832492828 -12509283.197875977 0 -12509283.197875977 56081.640167236328 0 0 0 0 -141588428.37123871 145539259.6411972 0 145539259.6411972 -19561055.039863586 0 0 0 0 224234677.79240417 73958440.165931702 0 73958440.165931702 -196133273.93825531 0 0 0 0 146429780.0873909 57726803.728221893 0 57726803.728221893 -223412883.62480164 0 0 0 0 6845487.4880943298 -13621757.904327393 0 -13621757.904327393 -83219812.878078461 0 0 0 0 1379043.24700737 1658457.4374335273 0 1658457.4374335273 -2478646.5719374493 0 0 0 0 -642945535.87166977 484670373.57070541 0 484670373.57070541 -89096762.018356323 0 0 0 0 10352228.37458992 17536583.616891861 0 17536583.616891861 -13482705.129928589 0 0 0 0 4439647.2798448838 5706252.5053304695 0 5706252.5053304695 -1034797.2166019976 0 0 0 0 225264579.69356918 -79304504.718364716 0 -79304504.718364716 -6648284.7052383423 0 0 0 0 161015305.61022949 -43673846.613990784 0 -43673846.613990784 55086257.939300537 0 0 0 0 236017698.37290573 105469378.22496796 0 105469378.22496796 -53574785.354446411 0 0 0 0 -23160544.780815125 96686970.026451111 0 96686970.026451111 51301158.228385925 0 0 0 0 354273250.24306738 23309385.316330045 0 23309385.316330045 -42439927.8384552 0 0 0 0 385819603.03428268 -160107476.85366344 0 -160107476.85366344 -65269529.69152832 0 0 0 0 1172454.3491630564 984842.03440085007 0 984842.03440085007 -1153508.2471939921 0 0 0 0 121668203.6268959 -147956111.00394058 0 -147956111.00394058 96578954.820755005 0 0 0 0 -9996625.4706878662 59162479.987960815 0 59162479.987960815 131911715.1492157 0 0 0 0 13811212.70230341 -137039913.18241024 0 -137039913.18241024 83397831.21496582 0 0 0 0 316419.02854919434 1434509.9999237061 0 1434509.9999237061 1316541.9963569641 0 0 0 0 3527586.3719601631 45753641.644341707 0 45753641.644341707 -23018916.039115906 0 0 0 0 -307600435.90285873 435065774.59621429 0 435065774.59621429 -97180866.200775146 0 0 0 0 2490242.7976053879 8962891.354340978 0 8962891.354340978 13044958.796662167 0 0 0 0 -379176603.06782055 223353776.0147438 0 223353776.0147438 31088469.188720703 0 0 0 0 -87696823.908653259 214963019.3046875 0 214963019.3046875 -35086584.989273071 0 0 0 0 79441450.058923721 165504326.3093338 0 165504326.3093338 -375185254.90028381 0 0 0 0 422522444.75411987 209154951.85153961 0 209154951.85153961 -104483052.58316612 0 0 0 0 14235797.747947693 217791414.53619385 0 217791414.53619385 -100968791.79226685 0 0 0 0 -107485282.07833958 314663005.58866882 0 314663005.58866882 427177897.52243042 0 0 0 0 -36258641.013584137 160139144.93988037 0 160139144.93988037 -269391327.61745071 0 0 0 0 8236808.0726684146 14233120.518471152 0 14233120.518471152 12391689.672827981 0 0 0 0 -15438663.612466812 376088591.54749298 0 376088591.54749298 -370583352.93971539 0 0 0 0 91219556.593574524 82559587.762466431 0 82559587.762466431 -231987196.06159973 0 0 0 0 84183901.502422333 11979256.203231812 0 11979256.203231812 -372515504.28379059 0 0 0 0 274771973.07252121 173417261.66851807 0 173417261.66851807 -283056403.14635468 0 0 0 0 115444325.2199049 279523075.35579681 0 279523075.35579681 -329627316.97959137 0 0 0 0 253849145.82696724 -217214412.8036499 0 -217214412.8036499 -476643335.47068024 0 0 0 0 279322944.57538795 -328472326.52256775 0 -328472326.52256775 2591287.3594703674 0 0 0 0 -62458330.324411392 97074783.783828735 0 97074783.783828735 -293654279.102211 0 0 0 0 239162873.09378815 17096655.430328369 0 17096655.430328369 -281854090.53439331 0 0 0 0 -73637394.574339747 -251352375.12488532 0 -251352375.12488532 -286688524.10681152 0 0 0 0 31806956.562289238 -106503213.0457077 0 -106503213.0457077 -165109451.79737854 0 0 0 0 -15292426.209168434 -118630328.08404541 0 -118630328.08404541 -5255123.0202026367 0 0 0 0 317820221.7802124 -252312340.59177399 0 -252312340.59177399 47215790.486366272 0 0 0 0 195089861.38593674 73758442.091140747 0 73758442.091140747 206516925.26272583 0 0 0 0 126730961.75355721 43623207.7733078 0 43623207.7733078 -99433689.834472656 0 0 0 0 386262072.69921684 125970382.88539124 0 125970382.88539124 -93633682.095117569 0 0 0 0 1005964408.7714481 252705201.06081772 0 252705201.06081772 211099326.68215942 0 0 0 0 127809060.6639967 -215646350.81202698 0 -215646350.81202698 756508321.15953064 0 0 0 0 -12802600.678720474 3650361.4939060211 0 3650361.4939060211 463090630.74609375 0 0 0 0 231237607.43779087 504901638.71286011 0 504901638.71286011 428105131.93833923 0 0 0 0 361711045.54395103 141499504.50708389 0 141499504.50708389 -141039382.59109116 0 0 0 0 10967843.850006104 -481876281.26277161 0 -481876281.26277161 1202110367.151413 0 0 0 0 -923431.44456015527 1417326.2376550958 0 1417326.2376550958 2869986.9001579136 0 0 0 0 -73875641.923116684 -104395250.19992542 0 -104395250.19992542 432179655.87309265 0 0 0 0 -396976164.10463333 -139132497.86830139 0 -139132497.86830139 627653410.40341187 0 0 0 0 -180146550.77254486 205471216.01872253 0 205471216.01872253 393505235.82814789 0 0 0 0 -307108729.68906593 157643616.40460968 0 157643616.40460968 384554237.4102478 0 0 0 0 -44372178.306501389 16262199.52130127 0 16262199.52130127 415271484.91326904 0 0 0 0 22494898.920387268 409920133.13609314 0 409920133.13609314 1171360140.5138254 0 0 0 0 -43449233.303909302 -12440041.484519958 0 -12440041.484519958 79829327.353710175 0 0 0 0 -10276933.87550354 41240964.169082642 0 41240964.169082642 -24050765.265838623 0 0 0 0 19762943.679111481 -93862125.589793205 0 -93862125.589793205 -69092459.587051392 0 0 0 0 -33372486.393196106 22345845.787403107 0 22345845.787403107 -22646809.769012451 0 0 0 0 -633307.25496473908 -1097226.2132245824 0 -1097226.2132245824 129324.52448151261 0 0 0 0 -12553709.05500412 21096483.172828674 0 21096483.172828674 -39824628.543319702 0 0 0 0 -13625829.344694138 33316678.391578674 0 33316678.391578674 -45378071.324768066 0 0 0 0 10023115.864173889 -45586311.201210022 0 -45586311.201210022 39653717.375312805 0 0 0 0 -45286935.667867661 15681117.403610229 0 15681117.403610229 53354113.386257172 0 0 0 0 -4788478.3342091274 1157630.2825015113 0 1157630.2825015113 3208945.4159815684 0 0 0 0 1289786.1609468721 7586218.2121678339 0 7586218.2121678339 5625260.1845162064 0 0 0 0 -70100251.439147949 -13033201.036464691 0 -13033201.036464691 58016413.56549263 0 0 0 0 16000350.817945957 -618955.90249490738 0 -618955.90249490738 14169634.480407715 0 0 0 0 -14942783.056680679 58486829.747608185 0 58486829.747608185 -31847162.095119476 0 0 0 0 37839134.012283325 -71499323.221117973 0 -71499323.221117973 114395173.95610046 0 0 0 0 2591973.2823459245 5515572.2859528344 0 5515572.2859528344 3933142.7252395749 0 0 0 0 -41552020.800206184 7104618.9870042801 0 7104618.9870042801 119548531.31086731 0 0 0 0 -6796838.9504013062 -6028908.8966732025 0 -6028908.8966732025 120609389.05731964 0 0 0 0 -101825194.19947815 71145673.313373566 0 71145673.313373566 79611422.683605194 0 0 0 0 -33941254.176843643 21022934.725581169 0 21022934.725581169 116060256.33480072 0 0 0 0 -128877444.69218445 77159871.634494781 0 77159871.634494781 119001327.51531219 0 0 0 0 -146277027.539505 80968334.084968567 0 80968334.084968567 145592519.74110413 0 0 0 0 -77776542.20526123 8160339.8373394012 0 8160339.8373394012 185222094.76442719 0 0 0 0 68507068.121046066 -193260680.91272259 0 -193260680.91272259 264438876.23017883 0 0 0 0 -131495526.00265503 -45662630.909301758 0 -45662630.909301758 239466071.86775732 0 0 0 0 2794924.7671621088 3823382.5264564641 0 3823382.5264564641 2476044.3952581845 0 0 0 0 -179079132.29444504 42840805.398353577 0 42840805.398353577 -23273150.884437561 0 0 0 0 -153718463.56262493 -28298035.146458626 0 -28298035.146458626 143001551.97107697 0 0 0 0 -149852099.38709641 236782614.77677917 0 236782614.77677917 -40521079.197345734 0 0 0 0 -130448010.37777138 148762557.26380348 0 148762557.26380348 158086970.9943161 0 0 0 0 296474332.10965729 367370421.67226791 0 367370421.67226791 265402153.32822418 0 0 0 0 314019128.86502409 493100962.23291445 0 493100962.23291445 139122104.66297913 0 0 0 0 -815730288.20082092 -499019728.37233734 0 -499019728.37233734 150104060.78326416 0 0 0 0 -486070525.83680344 1060069792.7768936 0 1060069792.7768936 1534711662.0481186 0 0 0 0 -295838032.18147659 6250450.8814620972 0 6250450.8814620972 538661774.7385788 0 0 0 0 -300396214.15863419 -194673257.60838318 0 -194673257.60838318 -19726452.77721405 0 0 0 0 80834565.601169586 76408087.738964081 0 76408087.738964081 13168245.818183899 0 0 0 0 4621923.4307310097 4375616.7096949061 0 4375616.7096949061 789124.35729625076 0 0 0 0 1271487502.7148705 323746068.24668884 0 323746068.24668884 -147075658.25695038 0 0 0 0 602839771.43515015 -242469549.63565826 0 -242469549.63565826 4044944.344201088 0 0 0 0 1942004348.7467995 1079275110.3127251 0 1079275110.3127251 292782937.39696503 0 0 0 0 1272044.1128687784 -97608.454629134387 0 -97608.454629134387 -98604.694159142673 0 0 0 0 -56652807.611984253 41022940.021766663 0 41022940.021766663 473791505.69540405 0 0 0 0 2536311145.2430115 807091767.87258911 0 807091767.87258911 697499677.69903564 0 0 0 0 1884331307.5593033 -269197112.83598709 0 -269197112.83598709 -16223840.606225967 0 0 0 0 2030359.4153939411 1465083.1296651997 0 1465083.1296651997 50593.770465679467 0 0 0 0 -111348000.58568573 976966849.47093201 0 976966849.47093201 705559865.73348999 0 0 0 0 21103492.844516754 103609088.79584503 0 103609088.79584503 -209697101.07167816 0 0 0 0 876207710.06811523 401288540.56394196 0 401288540.56394196 120514511.76772308 0 0 0 0 135686349.21556091 96472594.994529724 0 96472594.994529724 63749249.500143051 0 0 0 0 417554007.17782974 -38450170.063083649 0 -38450170.063083649 -84711449.364349365 0 0 0 0 390285031.53612328 -34842924.186975479 0 -34842924.186975479 -43874851.984100342 0 0 0 0 142068701.33938217 -18009196.496040344 0 -18009196.496040344 -86205643.266029358 0 0 0 0 100667906.78637314 -1428701.538318634 0 -1428701.538318634 -67571200.273376465 0 0 0 0 195546295.83269501 5696705.7778396606 0 5696705.7778396606 -96108023.076721191 0 0 0 0 67755869.991167068 9509118.6651802063 0 9509118.6651802063 -45589634.478393555 0 0 0 0 160945253.50003433 91152324.11781311 0 91152324.11781311 -158980423.30516815 0 0 0 0 -83959548.826293945 -219268427.8747406 0 -219268427.8747406 -220505013.34796143 0 0 0 0 1660850.4174468983 -782529.80084223673 0 -782529.80084223673 -406704.97986697778 0 0 0 0 -32737017.743690491 81982983.795257568 0 81982983.795257568 -90738286.658569336 0 0 0 0 61168246.871688843 -114048304.32440186 0 -114048304.32440186 -9625413.5967388153 0 0 0 0 -118649711.81966782 28354210.39919281 0 28354210.39919281 14754847.349975586 0 0 0 0 99376563.194042206 -4560412.1343078613 0 -4560412.1343078613 -57959986.06313324 0 0 0 0 -43667291.374641418 -27311892.953910828 0 -27311892.953910828 15186075.846282959 0 0 0 0 407934.11883414909 -135633.52388299629 0 -135633.52388299629 -378349.8554617241 0 0 0 0 20002983.825313568 32281901.904663086 0 32281901.904663086 -81888021.54927063 0 0 0 0 -4730261.151055336 28771169.876840591 0 28771169.876840591 22507537.261077881 0 0 0 0 761290.69406472147 -229134.70447163656 0 -229134.70447163656 -687248.74007381126 0 0 0 0 82217175.4278965 19292217.290513992 0 19292217.290513992 -44577316.947433472 0 0 0 0 61294663.053161621 -15205120.200550079 0 -15205120.200550079 -52938003.268115997 0 0 0 0 34033406.151945114 36629268.381515503 0 36629268.381515503 79116267.769741058 0 0 0 0 31201377.962612152 20322046.656921387 0 20322046.656921387 10996382.985015869 0 0 0 0 22806668.781799793 104234904.34518003 0 104234904.34518003 -63251106.02822876 0 0 0 0 144781552.58437347 16935150.882850647 0 16935150.882850647 -87751657.820602417 0 0 0 0 136775723.85244751 3323194.1061172485 0 3323194.1061172485 -67808283.743473053 0 0 0 0 123241814.96234131 68326283.82875824 0 68326283.82875824 -3221331.6241722107 0 0 0 0 130074019.15286636 49581764.209411621 0 49581764.209411621 -75713048.965126038 0 0 0 0 87535973.576826096 38881710.172632217 0 38881710.172632217 -5648339.758972168 0 0 0 0 183388390.72576427 68736576.85899353 0 68736576.85899353 74697612.711730957 0 0 0 0 224590093.74364853 73667266.155250549 0 73667266.155250549 3135913.1368751526 0 0 0 0 40456442.381727219 61733301.399047852 0 61733301.399047852 193316293.96342468 0 0 0 0 142653483.15498352 157667839.07316017 0 157667839.07316017 272333369.83069611 0 0 0 0 -8576.4424500670284 -148575.36157563329 0 -148575.36157563329 38368.681782714091 0 0 0 0 243294795.30019379 -259594.05867004395 0 -259594.05867004395 -463880397.62662506 0 0 0 0 451801387.98850155 291588439.85537624 0 291588439.85537624 -99754167.521911621 0 0 0 0 350373918.97642517 -105272357.18817139 0 -105272357.18817139 -66679276.975067139 0 0 0 0 400866955.5002594 -879695.5224609375 0 -879695.5224609375 76539737.741500854 0 0 0 0 10040624.432527542 -8276.6789474487305 0 -8276.6789474487305 66437263.819717407 0 0 0 0 -21919562.797012329 4960814.9387359619 0 4960814.9387359619 69322329.556997299 0 0 0 0 26975004.254619598 20866957.139678955 0 20866957.139678955 69453230.55304718 0 0 0 0 -484527.47747035697 51317.779202111065 0 51317.779202111065 299202.6824930422 0 0 0 0 721052.14642333984 7719117.9690551758 0 7719117.9690551758 122459139.60364532 0 0 0 0 100955381.62711334 -56131175.756225586 0 -56131175.756225586 -515075574.93281174 0 0 0 0 48465373.02936554 55938159.319747925 0 55938159.319747925 -489963003.11908531 0 0 0 0 -1662407.245488558 608515.36998302117 0 608515.36998302117 920123.70774049358 0 0 0 0 -20397363.019477844 5234258.8722839355 0 5234258.8722839355 93787242.905845642 0 0 0 0 -819068.22604084015 1578283.7065010071 0 1578283.7065010071 60341677.124526978 0 0 0 0 -25540388.14478302 2029826.5970001221 0 2029826.5970001221 60351498.089441836 0 0 0 0 -2396575.9237213135 7728835.4409141541 0 7728835.4409141541 15399718.366638184 0 0 0 0 -24399548.788204193 47838949.442764282 0 47838949.442764282 4495301.0895328522 0 0 0 0 738115.93300414085 -205671.88791558146 0 -205671.88791558146 -647452.8150794208 0 0 0 0 -18283915.437056065 20665758.727194786 0 20665758.727194786 -23896496.682495117 0 0 0 0 -22878114.20223999 24835870.394359589 0 24835870.394359589 -25225731.017456055 0 0 0 0 5716785.0241413116 26530304.495298386 0 26530304.495298386 -53801033.240188599 0 0 0 0 -10485998.622226715 11392758.813232422 0 11392758.813232422 -22549887.4173702 0 0 0 0 -3421582.2608623505 20131928.53585434 0 20131928.53585434 -24540230.127574921 0 0 0 0 -5835821.0361652374 19286829.241771698 0 19286829.241771698 -23116100.787208557 0 0 0 0 -9253661.4010238647 14578593.152879715 0 14578593.152879715 -27381520.37297821 0 0 0 0 -18085372.968548298 21723824.123678207 0 21723824.123678207 -22369995.541229248 0 0 0 0 -283063.55140686035 25390427.224246979 0 25390427.224246979 -34403509.563171387 0 0 0 0 367599.81267166138 -104826.65326385014 0 -104826.65326385014 -322471.60433639959 0 0 0 0 2384556.473815918 39034885.171840668 0 39034885.171840668 -3652699.2847099304 0 0 0 0 -13736558.218288422 27922149.490379333 0 27922149.490379333 35161904.795829773 0 0 0 0 -4674056.9386100769 9797541.2505989075 0 9797541.2505989075 29066421.65222168 0 0 0 0 8398093.1025085449 21550485.010250092 0 21550485.010250092 35879702.047714233 0 0 0 0 2202801.2544555664 26189837.746322632 0 26189837.746322632 58617632.164176941 0 0 0 0 -22186396.133639336 22732306.086349487 0 22732306.086349487 66174827.738128662 0 0 0 0 -6629611.2857084274 15428869.1074543 0 15428869.1074543 49229730.315612793 0 0 0 0 183471893.35479736 142812444.11029053 0 142812444.11029053 -49255620.900642395 0 0 0 0 -3483637.2085802332 1706266.1976837404 0 1706266.1976837404 2166448.4130183873 0 0 0 0 -2079249.3059310913 12385164.349945068 0 12385164.349945068 51252149.702026367 0 0 0 0 -7885509.5199108124 954128.20948886871 0 954128.20948886871 22996399.150421143 0 0 0 0 -8922058.3843574524 4241433.0464935303 0 4241433.0464935303 41821645.362319946 0 0 0 0 -41170366.420068741 19266726.861694336 0 19266726.861694336 23890515.578292847 0 0 0 0 -233977803.1342392 233745509.56292725 0 233745509.56292725 -79426382.324615479 0 0 0 0 -1586700.1034274176 427268.26520978287 0 427268.26520978287 1378499.3027045578 0 0 0 0 -19612408.427513123 4412701.4653320312 0 4412701.4653320312 32072244.533973694 0 0 0 0 -7689763.6848297119 -7260186.6302566528 0 -7260186.6302566528 26707747.673660278 0 0 0 0 -98113632.822934151 197459862.56901264 0 197459862.56901264 -49372425.315872192 0 0 0 0 -96767777.764608383 203739847.58846283 0 203739847.58846283 -84201019.338226318 0 0 0 0 -205938837.89722443 118234666.64216614 0 118234666.64216614 -136087932.79919624 0 0 0 0 6768946.2764053345 -66281966.735946655 0 -66281966.735946655 -30957218.102676392 0 0 0 0 -14425732.81178987 245625396.2003721 0 245625396.2003721 -145009198.89227295 0 0 0 0 -594862.37559362315 124037.0746275736 0 124037.0746275736 562207.98386019096 0 0 0 0 -15856137.271652222 189001603.20841599 0 189001603.20841599 -148349267.48083305 0 0 0 0 -141456222.90176392 221992682.85434723 0 221992682.85434723 24125248.92868042 0 0 0 0 -204698762.07653809 49491610.206085205 0 49491610.206085205 -205064837.11256409 0 0 0 0 -80340656.059425354 163909313.93878174 0 163909313.93878174 -146724473.91285706 0 0 0 0 -29178274.77532196 186666839.97244263 0 186666839.97244263 -167446189.03909683 0 0 0 0 -56363162.946640015 222133109.80172729 0 222133109.80172729 -125971344.79629517 0 0 0 0 91321792.576641083 163255113.65407562 0 163255113.65407562 -384575832.73970032 0 0 0 0 167094100.94369316 61177369.093143463 0 61177369.093143463 -161372278.2144928 0 0 0 0 71603277.474910736 195483773.20646667 0 195483773.20646667 -126070683.20077515 0 0 0 0 51665909.73472023 178338512.59538269 0 178338512.59538269 -40342490.698760986 0 0 0 0 35941132.317245483 168383894.21455383 0 168383894.21455383 -146585865.67040348 0 0 0 0 -52168071.201507568 177162334.97624207 0 177162334.97624207 -71407821.667022705 0 0 0 0 -42488665.416694641 200292690.35098267 0 200292690.35098267 -140219345.34411621 0 0 0 0 -7750415.8758277893 212660204.95173645 0 212660204.95173645 -43045633.008880615 0 0 0 0 -47910783.198524475 203946706.04572296 0 203946706.04572296 995164.88154602051 0 0 0 0 15884750.662582397 144672092.65633392 0 144672092.65633392 -43816624.040819347 0 0 0 0 -48650644.727531433 122534790.27251434 0 122534790.27251434 12033912.106948853 0 0 0 0 183741310.39654922 176317957.60290527 0 176317957.60290527 51661466.758865356 0 0 0 0 56897989.077224731 205843060.98461151 0 205843060.98461151 46707851.166671753 0 0 0 0 118611140.6916275 100439134.90364075 0 100439134.90364075 -32947368.042004585 0 0 0 0 128152221.31305695 139583953.37935638 0 139583953.37935638 15817221.926914215 0 0 0 0 131784286.94676971 107158423.2114563 0 107158423.2114563 107194648.3419342 0 0 0 0 314622222.35791779 134627443.56726074 0 134627443.56726074 45804971.79258728 0 0 0 0 231050596.17695618 90318619.761604309 0 90318619.761604309 48269825.71887207 0 0 0 0 167485635.2554245 128692937.8302536 0 128692937.8302536 78452078.510391235 0 0 0 0 205784844.84600067 151697470.18217468 0 151697470.18217468 102245399.76852417 0 0 0 0 329898142.15202332 44455124.229866028 0 44455124.229866028 71712934.252691269 0 0 0 0 120098936.67020035 70645581.730575562 0 70645581.730575562 51034074.069978714 0 0 0 0 14626977.600578308 140205563.28215027 0 140205563.28215027 3861477.0877075195 0 0 0 0 -60120870.563373566 169674247.8783493 0 169674247.8783493 42856536.062530518 0 0 0 0 13422537.321796417 146747316.69097137 0 146747316.69097137 88307215.75213623 0 0 0 0 -50140095.592460632 102340627.70030212 0 102340627.70030212 44765310.239692926 0 0 0 0 -122730414.72151184 146766006.07776642 0 146766006.07776642 50504814.63394165 0 0 0 0 -219451321.09733582 138335172.75453949 0 138335172.75453949 47139731.939479828 0 0 0 0 -122062004.57440948 148014769.95863342 0 148014769.95863342 -17860513.726577759 0 0 0 0 -165242949.66033173 108624966.40117645 0 108624966.40117645 22681462.773021698 0 0 0 0 -253664741.23563385 106846595.77311707 0 106846595.77311707 37743377.456436157 0 0 0 0 -225290435.06659698 119519731.46799469 0 119519731.46799469 -10494835.247375488 0 0 0 0 -241449706.11488342 115532409.30954742 0 115532409.30954742 -11007321.657917023 0 0 0 0 -189679881.01898575 158731275.8170929 0 158731275.8170929 -116479908.41970825 0 0 0 0 -83326150.194198608 166241388.80422974 0 166241388.80422974 -98168648.737060547 0 0 0 0 -82947043.336952209 157769330.91799927 0 157769330.91799927 -59865959.956869125 0 0 0 0 -193630661.90704536 151761704.13962364 0 151761704.13962364 -1090304.4789276123 0 0 0 0 847631540.45335388 -5591618.4154129028 0 -5591618.4154129028 -460003108.32860947 0 0 0 0 164663984.12675858 -501495230.09405136 0 -501495230.09405136 358434489.78874207 0 0 0 0 359186400.07148933 324915575.20280457 0 324915575.20280457 491141685.79974365 0 0 0 0 468788420.49651527 36224474.186132431 0 36224474.186132431 1342901503.3180542 0 0 0 0 549324681.42683029 131016502.93162727 0 131016502.93162727 -163124659.50531006 0 0 0 0 143514.73702948866 360500.41967998724 0 360500.41967998724 946846.7342947498 0 0 0 0 124898807.08592606 -65240611.512756348 0 -65240611.512756348 -142516069.04556274 0 0 0 0 -106102315.55235291 -118939699.15631866 0 -118939699.15631866 -133120241.54589081 0 0 0 0 76542107.92660141 12786682.036933899 0 12786682.036933899 -39239121.984283447 0 0 0 0 -75875491.804862976 -132965822.09120178 0 -132965822.09120178 -271413762.87314224 0 0 0 0 115642431.65138817 -325389859.65695572 0 -325389859.65695572 -181606235.79733276 0 0 0 0 -108721696.43576813 -199499032.54658508 0 -199499032.54658508 140305272.64780426 0 0 0 0 -329038074.63972092 -257595044.95024109 0 -257595044.95024109 -115277362.09568787 0 0 0 0 371030.32884399116 -50824.268832428381 0 -50824.268832428381 -14395.908524177969 0 0 0 0 -98672049.952215195 -188797790.15922737 0 -188797790.15922737 -203560620.84539795 0 0 0 0 645579634.98362732 65069600.755867004 0 65069600.755867004 -101848221.75601196 0 0 0 0 -139236437.99472141 -61993183.449289322 0 -61993183.449289322 -106256747.21121216 0 0 0 0 19554834.494987488 36022731.213039398 0 36022731.213039398 -354857295.68232727 0 0 0 0 27542947.769313812 -107807610.47158051 0 -107807610.47158051 -160701261.42852783 0 0 0 0 237243226.44120789 154770963.67926788 0 154770963.67926788 -232544640.95482635 0 0 0 0 -60460032.187705994 68704199.464839935 0 68704199.464839935 -251922430.43553162 0 0 0 0 464841454.66869354 -80117984.946815491 0 -80117984.946815491 -176020573.35800171 0 0 0 0 200848085.44713211 134456284.10256958 0 134456284.10256958 -24518332.327072144 0 0 0 0 318104504.89685822 30299277.284095764 0 30299277.284095764 -27069329.746759176 0 0 0 0 410391866.85250854 96571778.231315613 0 96571778.231315613 -7220898.8726959229 0 0 0 0 510489351.74155998 -82084779.927772522 0 -82084779.927772522 -31002603.202026367 0 0 0 0 792618967.96900272 -225364921.03280258 0 -225364921.03280258 30272561.171813965 0 0 0 0 668043331.46297455 195062439.90618896 0 195062439.90618896 52461979.553436279 0 0 0 0 525793499.78675079 78316661.005683899 0 78316661.005683899 -6424945.4583587646 0 0 0 0 316685182.33139038 87450348.666175842 0 87450348.666175842 188351912.13482666 0 0 0 0 665721059.29125404 39810511.555423737 0 39810511.555423737 5122985.5817337036 0 0 0 0 453599091.39225006 56704336.243286133 0 56704336.243286133 58731389.855728149 0 0 0 0 330182812.00572968 55284694.794624329 0 55284694.794624329 176277025.7247467 0 0 0 0 452511648.96329117 63246253.697734833 0 63246253.697734833 349243326.70123291 0 0 0 0 503515690.77902603 213076619.72953415 0 213076619.72953415 90688763.609975815 0 0 0 0 -17747550.226934433 10248737.998157501 0 10248737.998157501 -550722.18396377563 0 0 0 0 1081127.1195036063 -549552.60287598986 0 -549552.60287598986 823770.72516079247 0 0 0 0 88834.370101960376 303152.13714433461 0 303152.13714433461 162722.20826692507 0 0 0 0 -28754001.12604785 -81992829.392807484 0 -81992829.392807484 -202398459.60536194 0 0 0 0 478704804.370327 -76816319.906745911 0 -76816319.906745911 3538933.2469406128 0 0 0 0 1121336.5357192347 -54706.741229981184 0 -54706.741229981184 94770.927144281566 0 0 0 0 3450038.9242206942 2067673.0630688854 0 2067673.0630688854 788632.79888715595 0 0 0 0 -59428187.703647614 -184919541.98592758 0 -184919541.98592758 -111862530.69224167 0 0 0 0 -11354404.316724777 20355676.763446808 0 20355676.763446808 1427503.8067016602 0 0 0 0 -13113586.749591827 15673467.593269348 0 15673467.593269348 -9980713.8916435242 0 0 0 0 -7118965.1922492981 15766007.246772766 0 15766007.246772766 -7448640.7683792114 0 0 0 0 3058472.7720022202 28170266.858728409 0 28170266.858728409 3163565.2472381592 0 0 0 0 10821335.709302068 43123665.408495903 0 43123665.408495903 -41553730.521865845 0 0 0 0 359076340.00944901 42629842.329540253 0 42629842.329540253 -882956004.64654541 0 0 0 0 4581197.4519901797 3004974.5972660109 0 3004974.5972660109 828725.75603337586 0 0 0 0 598858.76184082031 248714.71899414062 0 248714.71899414062 -3413862.7784881592 0 0 0 0 -7393825.2629203796 908637.72666168213 0 908637.72666168213 5078579.5638122559 0 0 0 0 -6232415.5043306351 3630769.3180656433 0 3630769.3180656433 -7054785.6514282227 0 0 0 0 4221443.6328659058 -4951337.4140396118 0 -4951337.4140396118 2215841.3148498535 0 0 0 0 -4311695.9306869507 -4487194.1549835205 0 -4487194.1549835205 14392345.366043091 0 0 0 0 -5609070.3023358285 7841021.6008084416 0 7841021.6008084416 15342443.957122803 0 0 0 0 -13822526.109127045 10308503.120422363 0 10308503.120422363 28588367.679290771 0 0 0 0 -14163584.306240559 13344223.195786953 0 13344223.195786953 5243076.1196136475 0 0 0 0 -18542865.471961975 10963938.291280746 0 10963938.291280746 2176578.0537414551 0 0 0 0 -23241127.902664661 3583166.5455855727 0 3583166.5455855727 581194.23876190186 0 0 0 0 -19740425.037654877 11883605.516365051 0 11883605.516365051 6755667.8652992249 0 0 0 0 -23067424.647903442 10186234.663406372 0 10186234.663406372 10538844.692718506 0 0 0 0 -50980660.532445908 10134139.102153778 0 10134139.102153778 5158139.4865722656 0 0 0 0 712086838.95245743 151137540.31187057 0 151137540.31187057 -28124634.725784302 0 0 0 0 1026261.4826560009 -991016.64713996183 0 -991016.64713996183 237640.20333716273 0 0 0 0 579162304.87491226 90612594.709526062 0 90612594.709526062 -2678390.0812988281 0 0 0 0 412115209.15480423 110653025.83932495 0 110653025.83932495 14973342.745605469 0 0 0 0 563466987.54912758 53696789.798454285 0 53696789.798454285 -20143994.410301208 0 0 0 0 534093096.5419724 69222918.590880394 0 69222918.590880394 58162558.457565308 0 0 0 0 528151986.40227234 136485574.60769844 0 136485574.60769844 -36154563.728858948 0 0 0 0 589582919.36605263 186800980.93259048 0 186800980.93259048 78199.617347717285 0 0 0 0 -110090889.11931133 104850892.48311901 0 104850892.48311901 582622.77389526367 0 0 0 0 895490686.39221191 83399629.745368958 0 83399629.745368958 -69292828.456054688 0 0 0 0 1042413.6178238525 -1329945.877848261 0 -1329945.877848261 -109513.48620742559 0 0 0 0 -12795565.410066605 12704439.442810059 0 12704439.442810059 -15566855.639984131 0 0 0 0 -3869222.5680217743 -2205233.5397834778 0 -2205233.5397834778 -4481123.7004909515 0 0 0 0 -1839588.0847420227 -404779.23046816885 0 -404779.23046816885 1906869.2201578952 0 0 0 0 -7867028.7222080231 6979982.6766166687 0 6979982.6766166687 11867.211514797798 0 0 0 0 -36473843.401408195 -9806591.8672161102 0 -9806591.8672161102 70851.267402648926 0 0 0 0 3619334.4272632599 -8455379.3597755432 0 -8455379.3597755432 -5771527.1499862671 0 0 0 0 -1503430.1498685218 -261926.90652814321 0 -261926.90652814321 1740775.5300619304 0 0 0 0 -3806468.0742988586 -1991205.8512420654 0 -1991205.8512420654 -3861926.3475694656 0 0 0 0 21559695.045071602 3018187.9796431065 0 3018187.9796431065 -5262637.9537124634 0 0 0 0 -60914565.34327507 4608611.8716506958 0 4608611.8716506958 22841142.050491333 0 0 0 0 -68440298.863990784 161786579.55510712 0 161786579.55510712 56518838.169715881 0 0 0 0 -228145261.40847778 79392034.392261505 0 79392034.392261505 64694748.750102997 0 0 0 0 -394395501.27114677 120221107.83398438 0 120221107.83398438 62712648.025348663 0 0 0 0 -219975869.44454956 67450829.623828888 0 67450829.623828888 9435416.484916687 0 0 0 0 -295524605.42367172 74730983.458850861 0 74730983.458850861 25683302.912368774 0 0 0 0 -260621250.46217537 137212771.21625137 0 137212771.21625137 56942604.53527832 0 0 0 0 -210073818.24351883 123844460.56017017 0 123844460.56017017 86669478.210220337 0 0 0 0 -52391347.438026428 117660706.91747284 0 117660706.91747284 29584335.352935791 0 0 0 0 -137597589.06207657 156334115.31189346 0 156334115.31189346 64962591.0443573 0 0 0 0 64309928.59740448 90967158.315849304 0 90967158.315849304 31062816.08467865 0 0 0 0 21320669.917007446 167577882.9467392 0 167577882.9467392 57103736.101028442 0 0 0 0 -53581752.893693924 119299736.79216766 0 119299736.79216766 89362782.859985352 0 0 0 0 381528746.70537567 55076540.050689697 0 55076540.050689697 20176717.871185303 0 0 0 0 303995380.07836723 161377953.61328125 0 161377953.61328125 50692654.959220886 0 0 0 0 104201328.02641678 154391686.16791153 0 154391686.16791153 49796874.545425415 0 0 0 0 261894469.7183876 79461902.935390472 0 79461902.935390472 -13483958.928985596 0 0 0 0 29576234.682567596 217883033.88300514 0 217883033.88300514 27317221.544326782 0 0 0 0 340055763.46823502 39902164.426445007 0 39902164.426445007 39527837.47470665 0 0 0 0 227625061.97835922 209191166.23185921 0 209191166.23185921 24396.817337036133 0 0 0 0 -114631627.74133301 44893681.658626556 0 44893681.658626556 13516058.492248535 0 0 0 0 -216656805.04663467 217212747.3429718 0 217212747.3429718 -221120.37450408936 0 0 0 0 -235650621.14578724 103182713.5662365 0 103182713.5662365 -9181026.8562011719 0 0 0 0 -788931663.17113495 -8141764.3973274231 0 -8141764.3973274231 53146148.763965607 0 0 0 0 90592526.838340759 23981600.089172363 0 23981600.089172363 12997.362205505371 0 0 0 0 44272763.772453308 49965171.088054657 0 49965171.088054657 5154036.3064880371 0 0 0 0 763910.98860852001 -1167973.6488135383 0 -1167973.6488135383 -856577.63819829375 0 0 0 0 128287957.07095337 49020244.229171753 0 49020244.229171753 -16212567.144821167 0 0 0 0 74601741.536445618 35590973.157234192 0 35590973.157234192 17303730.788581848 0 0 0 0 73860986.034362078 19916555.172767997 0 19916555.172767997 -9136249.4874572754 0 0 0 0 11174203.668586731 7111198.7491378784 0 7111198.7491378784 -6089919.9636688232 0 0 0 0 99623702.599700928 47751614.74874115 0 47751614.74874115 -12772562.820281982 0 0 0 0 84046875.871208191 37811067.894134521 0 37811067.894134521 -2401791.2997436523 0 0 0 0 80761226.415382385 54669537.991539001 0 54669537.991539001 -16482196.131652832 0 0 0 0 94084135.363550186 24494049.198354721 0 24494049.198354721 -49072768.361236572 0 0 0 0 155490.22569120349 -546962.86513326876 0 -546962.86513326876 -87376.112884387374 0 0 0 0 35849888.937038422 -13648728.64065361 0 -13648728.64065361 22319816.039428711 0 0 0 0 143562177.72975159 38087172.036750793 0 38087172.036750793 -24813620.058227539 0 0 0 0 128089370.40196228 23632391.970123291 0 23632391.970123291 -14405448.825561523 0 0 0 0 90266018.643112183 29086995.197624207 0 29086995.197624207 5089203.373374939 0 0 0 0 20114521.335659027 32328427.141231537 0 32328427.141231537 30804781.816673279 0 0 0 0 -523082961.30274963 -31751808.210517883 0 -31751808.210517883 40979781.895591736 0 0 0 0 909921.69363826746 -580731.08715846762 0 -580731.08715846762 -1370597.0945147425 0 0 0 0 220955.28612595215 -572428.73852672055 0 -572428.73852672055 -36905.030619964004 0 0 0 0 18676827.967273712 10965208.033435822 0 10965208.033435822 -12128652.153656006 0 0 0 0 120189673.80361557 60776242.041370392 0 60776242.041370392 -26335848.044509888 0 0 0 0 97456852.679332733 77212104.824085236 0 77212104.824085236 13561336.489593506 0 0 0 0 47248386.27081871 65495956.638963699 0 65495956.638963699 53222957.711357117 0 0 0 0 -176969.3218963109 388719.37025484722 0 388719.37025484722 1589.3234573639929 0 0 0 0 109188707.57406616 -3273179.7425918579 0 -3273179.7425918579 -3998156.4259033203 0 0 0 0 451575.94192123413 -132759.66999053955 0 -132759.66999053955 19022818.248218536 0 0 0 0 318063.92947827093 360051.67430632189 0 360051.67430632189 50920.630532376468 0 0 0 0 -285238066.20748138 65370391.986663818 0 65370391.986663818 31059082.7986269 0 0 0 0 -283987312.35378551 57090312.585485458 0 57090312.585485458 10177458.376281738 0 0 0 0 1075780.3477735715 -170271.92543955147 0 -170271.92543955147 -1667722.6182781309 0 0 0 0 -29170065.491088867 6203514.1320419312 0 6203514.1320419312 19442520.475734711 0 0 0 0 -42005381.915390015 41106099.25396347 0 41106099.25396347 42513654.228240967 0 0 0 0 108375799.65116119 54060693.728870392 0 54060693.728870392 7968589.0175628662 0 0 0 0 35888050.024333954 85699849.01587677 0 85699849.01587677 55316085.074623108 0 0 0 0 95485207.839523315 -5454268.6480407715 0 -5454268.6480407715 -86396698.38885498 0 0 0 0 -100311905.58004761 42768893.796657562 0 42768893.796657562 89363068.855941772 0 0 0 0 314185.26429684833 716416.68647068366 0 716416.68647068366 -357339.99178447388 0 0 0 0 -61454160.869691849 -53630382.648778915 0 -53630382.648778915 -27756429.179344177 0 0 0 0 -38002618.099140167 50594452.664133072 0 50594452.664133072 -25755260.612533569 0 0 0 0 -108633842.96096039 -18534958.042463303 0 -18534958.042463303 6286316.5007247925 0 0 0 0 8970529.5688018799 15942042.825866699 0 15942042.825866699 14255767.938503265 0 0 0 0 -15775358.9335289 18348285.600208282 0 18348285.600208282 14631423.326377869 0 0 0 0 25445247.530441284 34050091.842330933 0 34050091.842330933 -38537.484538850214 0 0 0 0 -51663008.728374481 46509468.489372253 0 46509468.489372253 158251.32399749756 0 0 0 0 -53846399.095157623 53517118.657459259 0 53517118.657459259 30679642.145347595 0 0 0 0 1414814.306510482 1483197.0762920268 0 1483197.0762920268 -1386088.8808898944 0 0 0 0 -29933125.739826202 24491627.40970993 0 24491627.40970993 64488859.952056885 0 0 0 0 3550304.4075622559 3327932.3095016479 0 3327932.3095016479 -3808.0919063031547 0 0 0 0 5908800.6693267822 1042591.1282806396 0 1042591.1282806396 43077965.963218689 0 0 0 0 -14734988.246459961 11604119.080574036 0 11604119.080574036 38041023.421676636 0 0 0 0 12227643.898010254 3017296.023563385 0 3017296.023563385 25187696.117416382 0 0 0 0 -15286065.356765747 19237400.93157959 0 19237400.93157959 19367722.569477081 0 0 0 0 -11200948.26134491 11719965.974510193 0 11719965.974510193 24875013.082885742 0 0 0 0 45873505.237686157 41470919.406118393 0 41470919.406118393 52334847.048416138 0 0 0 0 15226987.75680542 18455848.549871445 0 18455848.549871445 17190941.480300903 0 0 0 0 21569831.296546936 36246645.103181839 0 36246645.103181839 53248321.448394775 0 0 0 0 34164925.149833679 16286223.493358612 0 16286223.493358612 52039.033966064453 0 0 0 0 1227759.5581181571 1327589.8142348342 0 1327589.8142348342 -1233003.652021464 0 0 0 0 -2140318.9262256622 18992371.22547245 0 18992371.22547245 50531355.78087616 0 0 0 0 4736704.4186782837 5297819.5810775757 0 5297819.5810775757 29582307.73878479 0 0 0 0 618280.59094215184 667114.05036772043 0 667114.05036772043 -618151.40081935748 0 0 0 0 16363998.764831543 40583772.421928406 0 40583772.421928406 29101943.245834351 0 0 0 0 83282592.97769928 120711116.43754578 0 120711116.43754578 80070731.801895142 0 0 0 0 9468268.9739532471 30272460.362354279 0 30272460.362354279 61975549.333198547 0 0 0 0 -41929.763290405273 12927436.591346741 0 12927436.591346741 461058.59931945801 0 0 0 0 -5515050.3569273949 -22338298.466226578 0 -22338298.466226578 26009114.61932373 0 0 0 0 316820.07780456543 14843570.407821655 0 14843570.407821655 22741351.544826508 0 0 0 0 -1923070.4441986084 3768292.182144165 0 3768292.182144165 1930253.5422973633 0 0 0 0 495084.55452407151 2345384.0137066208 0 2345384.0137066208 -392840.27157554403 0 0 0 0 6771608.6720409393 -3747518.3751516342 0 -3747518.3751516342 -1591173.8255310059 0 0 0 0 -35372967.321731567 23367682.577079773 0 23367682.577079773 6411713.8983917236 0 0 0 0 123975973.04784393 -21328888.971118927 0 -21328888.971118927 -36806392.727554321 0 0 0 0 715449.34537485614 484843.13330808654 0 484843.13330808654 -266809.64244770631 0 0 0 0 188635367.36685181 68565265.283706665 0 68565265.283706665 -964049.02729797363 0 0 0 0 -391306.47915097326 881157.55568513554 0 881157.55568513554 1362196.6227537319 0 0 0 0 2191819.0155944824 -410444.06790161133 0 -410444.06790161133 145097.1017036438 0 0 0 0 518664.39759612828 1648378.7311017364 0 1648378.7311017364 -578432.95848929137 0 0 0 0 -7748002.444442749 15155432.161453247 0 15155432.161453247 17969152.748336792 0 0 0 0 -2507314.0051727295 4272691.2091178894 0 4272691.2091178894 2001308.1058197021 0 0 0 0 -5937084.6305618286 -238147.45412445068 0 -238147.45412445068 3460253.6735916138 0 0 0 0 -16097648.517723083 -8786871.2062301636 0 -8786871.2062301636 -2084816.0312576294 0 0 0 0 -23437390.6366539 -2694917.8086853027 0 -2694917.8086853027 11012648.044265747 0 0 0 0 -15502564.939338684 6386101.5410079956 0 6386101.5410079956 14389716.11164856 0 0 0 0 -23223425.16053009 -348750.0707244873 0 -348750.0707244873 24048490.202186584 0 0 0 0 -21152981.031044006 11114477.579277039 0 11114477.579277039 19147429.714431763 0 0 0 0 -12272790.244812012 15460945.93926239 0 15460945.93926239 9000441.4933929443 0 0 0 0 -9290204.921787262 20849444.692604065 0 20849444.692604065 18572517.323944092 0 0 0 0 -11953911.590835571 13470479.290969849 0 13470479.290969849 4792123.8516845703 0 0 0 0 -16825237.743251801 3275005.1135559082 0 3275005.1135559082 7448515.2582550049 0 0 0 0 -7928831.6243286133 8690863.9734611511 0 8690863.9734611511 92992.081329345703 0 0 0 0 -1350572.7082672119 4378471.6645278931 0 4378471.6645278931 1948448.2308197021 0 0 0 0 -9031116.7296905518 9213337.9137039185 0 9213337.9137039185 10739171.821472168 0 0 0 0 -51860022.003845215 46623448.711540222 0 46623448.711540222 14425778.443008423 0 0 0 0 -4417073.8964800835 12164372.406828165 0 12164372.406828165 1797175.9839782715 0 0 0 0 4256149.0255558938 3590696.5661334936 0 3590696.5661334936 -43573.404190219939 0 0 0 0 -3903629.8455848694 19992099.257222176 0 19992099.257222176 -10161282.009338379 0 0 0 0 265051.6740626283 385960.21731772646 0 385960.21731772646 171492.95932769589 0 0 0 0 -21669109.343505859 23409227.218353271 0 23409227.218353271 636496.90476989746 0 0 0 0 -9620133.8487854004 14916147.279708862 0 14916147.279708862 248151.05758666992 0 0 0 0 -3351298.6111450195 18655181.585784912 0 18655181.585784912 -6601973.8818969727 0 0 0 0 -3275201.3760910034 18787450.58895874 0 18787450.58895874 460356.03256225586 0 0 0 0 -3780280.1684875488 19526569.072185516 0 19526569.072185516 1141338.282989502 0 0 0 0 -6433421.0295333862 19525436.705764771 0 19525436.705764771 6915056.1434631348 0 0 0 0 -10255225.16230011 15277197.227355957 0 15277197.227355957 5997183.1623840332 0 0 0 0 15354346.038879395 -12069599.440872192 0 -12069599.440872192 -38534048.322128296 0 0 0 0 -87553621.702857971 4769394.4113540649 0 4769394.4113540649 -39951.085037231445 0 0 0 0 -39120728.193592072 -44548270.440895081 0 -44548270.440895081 -53982559.560440063 0 0 0 0 2287053.0047945008 2234513.4113528468 0 2234513.4113528468 794349.07580361515 0 0 0 0 -1540444.323425293 3718053.6871490479 0 3718053.6871490479 1866156.1723670959 0 0 0 0 22779048.178623199 15873029.860120773 0 15873029.860120773 -58572016.501785278 0 0 0 0 102389564.17032623 39466564.193626404 0 39466564.193626404 -53157340.305309296 0 0 0 0 -47024425.805316925 76252676.704619408 0 76252676.704619408 115208546.17933655 0 0 0 0 -59149652.660919189 -37061656.850082397 0 -37061656.850082397 112662964.14140916 0 0 0 0 73147522.232589722 -32742801.577671051 0 -32742801.577671051 -64303533.356891632 0 0 0 0 -4816059.776260376 -25260345.085018158 0 -25260345.085018158 113158734.5434494 0 0 0 0 17941.814434487373 208482.77058439516 0 208482.77058439516 244521.91060762107 0 0 0 0 11965685.264328003 902360.06048583984 0 902360.06048583984 -11642920.964447021 0 0 0 0 10605704.834098816 84826797.098556519 0 84826797.098556519 58749434.841457367 0 0 0 0 17826168.876666069 36281677.262825966 0 36281677.262825966 -84674070.785934448 0 0 0 0 231026.17938804999 -641130.3319655098 0 -641130.3319655098 -678261.685016023 0 0 0 0 3306635.4071884155 4110467.9400482178 0 4110467.9400482178 -7908550.6501655579 0 0 0 0 6659239.689306058 5223528.8258081246 0 5223528.8258081246 -1270608.9875276284 0 0 0 0 2713253.7499429919 4775441.3838627897 0 4775441.3838627897 1798962.8420048188 0 0 0 0 121998696.04587936 -67274506.693462372 0 -67274506.693462372 -113598021.82446289 0 0 0 0 18444309.625030518 34430677.449409485 0 34430677.449409485 -58375840.864435196 0 0 0 0 8546922.4671693146 5508443.4149269536 0 5508443.4149269536 -2420323.7816257309 0 0 0 0 29613857.403526306 25123829.185852051 0 25123829.185852051 -125171214.56833649 0 0 0 0 10553106.734069824 29514482.484941483 0 29514482.484941483 -53240020.418388367 0 0 0 0 -6908575.6327209473 20038022.642501831 0 20038022.642501831 203824.01973152161 0 0 0 0 1680119.4265155792 4652462.4662647247 0 4652462.4662647247 -6354653.5843734741 0 0 0 0 2863156.8557188623 6221273.9963410692 0 6221273.9963410692 2014538.4957835786 0 0 0 0 -409738.16122436523 20300279.909034729 0 20300279.909034729 -998711.84440612793 0 0 0 0 535129.01042175293 22653628.515686035 0 22653628.515686035 -2519722.314453125 0 0 0 0 327802.81494140625 5185970.7384567261 0 5185970.7384567261 -1465357.1823234558 0 0 0 0 1968116.423633799 5092337.8282283321 0 5092337.8282283321 1536803.7375848237 0 0 0 0 -53157698.781066895 -52518112.04914856 0 -52518112.04914856 -42336583.948474884 0 0 0 0 1463899.8864212036 30895159.676412582 0 30895159.676412582 -22614516.84047699 0 0 0 0 1011230.2043838501 32159074.722232819 0 32159074.722232819 -14401175.382897377 0 0 0 0 5283114.2216243893 8915937.4961429853 0 8915937.4961429853 2797715.8918441935 0 0 0 0 -6567228.0401916504 9156220.0324172974 0 9156220.0324172974 -3750784.7960758209 0 0 0 0 856323.16437085345 9123087.5296314228 0 9123087.5296314228 4777521.7299934113 0 0 0 0 4951197.0561046265 8754497.21298334 0 8754497.21298334 1843005.2477510162 0 0 0 0 6068503.8233718872 18551023.04019165 0 18551023.04019165 -7476141.8477554321 0 0 0 0 7469793.9130706787 20613549.5286026 0 20613549.5286026 -4231957.5126800537 0 0 0 0 -694049.10155963898 18083336.071045399 0 18083336.071045399 -4758249.1059112549 0 0 0 0 667789.20311737061 21155025.165473938 0 21155025.165473938 -1480900.7066345215 0 0 0 0 16609573.28175354 10387706.945243835 0 10387706.945243835 -8806548.0511856079 0 0 0 0 10548448.604858398 22694896.85250473 0 22694896.85250473 -3586836.0856781006 0 0 0 0 1428810.0395483673 7538126.1418443155 0 7538126.1418443155 2487897.6724099694 0 0 0 0 6624290.3249399662 9651441.2153551579 0 9651441.2153551579 -8734530.3849639893 0 0 0 0 5176840.5208587646 7975993.277053833 0 7975993.277053833 3102753.5012512207 0 0 0 0 -3934810.069984436 5082342.5455169678 0 5082342.5455169678 1191834.95262146 0 0 0 0 -2181749.7547149658 7973539.0539207458 0 7973539.0539207458 4739877.2737426758 0 0 0 0 -5073875.0199584961 65554.157348632812 0 65554.157348632812 6414272.2030029297 0 0 0 0 2001532.1787109375 5348773.6449432373 0 5348773.6449432373 2644809.2150421143 0 0 0 0 5163529.2177734375 3932458.5702362061 0 3932458.5702362061 -1821985.0138225555 0 0 0 0 -999594.21929168701 10884372.953575134 0 10884372.953575134 7279596.8800964355 0 0 0 0 2780817.6673135515 3317097.1161438748 0 3317097.1161438748 3724939.2785664275 0 0 0 0 -60024.992805734277 419977.30485130101 0 419977.30485130101 136122.72536220215 0 0 0 0 6013122.9674669532 7014060.2242623232 0 7014060.2242623232 2710916.6886225417 0 0 0 0 6111884.0870857239 9184831.2360343933 0 9184831.2360343933 11178533.117523193 0 0 0 0 -1368568.9761266578 8600466.5949615836 0 8600466.5949615836 8160384.56758295 0 0 0 0 10359058.604446411 3430737.0422058105 0 3430737.0422058105 10757282.869689941 0 0 0 0 5914585.3797607422 11227837.804199219 0 11227837.804199219 12715866.278503418 0 0 0 0 3856235.15774744 7785117.1523658 0 7785117.1523658 -2338244.1492885109 0 0 0 0 -36372.795168640092 111085.9902981855 0 111085.9902981855 216501.29053049162 0 0 0 0 649478.77569580078 9932390.649810791 0 9932390.649810791 7663634.2675476074 0 0 0 0 -4161670.0763092041 18192300.166137695 0 18192300.166137695 -3789138.07472229 0 0 0 0 -6107315.6915669311 5348988.5807931125 0 5348988.5807931125 4717203.3324436229 0 0 0 0 -15387109.7733078 24354484.925827026 0 24354484.925827026 1752876.2045288086 0 0 0 0 -303934.91284179688 15571331.195007324 0 15571331.195007324 1137777.4904174805 0 0 0 0 5226962.3115386963 -317831.09999084473 0 -317831.09999084473 10891985.773101807 0 0 0 0 -2581336.7359466553 18168447.410774231 0 18168447.410774231 2994523.3576660156 0 0 0 0 3417032.9318237305 13604205.682495117 0 13604205.682495117 5462285.8573455811 0 0 0 0 -310013.04887390137 12244801.532440186 0 12244801.532440186 7457213.0040893555 0 0 0 0 -1930473.0953674316 13939240.490478516 0 13939240.490478516 6171151.2856750488 0 0 0 0 -3462877.2455368042 12008912.399856567 0 12008912.399856567 9386032.6214904785 0 0 0 0 -6950339.6878967285 14627336.270294189 0 14627336.270294189 9972427.07188797 0 0 0 0 -6614842.9889373779 15895908.036972046 0 15895908.036972046 9736822.5477142334 0 0 0 0 -3215449.4903488159 6514430.5626220703 0 6514430.5626220703 9023687.7447509766 0 0 0 0 -448859.89446752542 -331817.96968115121 0 -331817.96968115121 -49998.445480726659 0 0 0 0 -20378321.174051285 16220979.182044983 0 16220979.182044983 15858375.784179688 0 0 0 0 -10596272.878601074 9033467.3004455566 0 9033467.3004455566 21129394.919492722 0 0 0 0 -9396963.4139480591 11002410.046272278 0 11002410.046272278 11355676.046936035 0 0 0 0 -2239303.2959136963 10575860.532836914 0 10575860.532836914 10345929.316589355 0 0 0 0 -1624198.4877166748 4712033.6037139893 0 4712033.6037139893 16306481.304962158 0 0 0 0 -7273219.7478752136 6996798.4191055298 0 6996798.4191055298 16349297.768707275 0 0 0 0 -6473712.7998657227 4946308.6487579346 0 4946308.6487579346 12021114.716999054 0 0 0 0 -8234886.424243927 4748001.4302139282 0 4748001.4302139282 11998792.084594727 0 0 0 0 -10824432.28364563 4686624.0766601562 0 4686624.0766601562 20511536.45059967 0 0 0 0 -9797878.3807945251 1251122.1236152649 0 1251122.1236152649 11497442.582763672 0 0 0 0 18381182.322015762 3142963.9364042282 0 3142963.9364042282 -2764065.9074707031 0 0 0 0 18843639.218772888 8676123.5034484863 0 8676123.5034484863 3396884.865234375 0 0 0 0 -24831614.084789276 -8073201.8333129883 0 -8073201.8333129883 7688076.4554100037 0 0 0 0 2261131.1723825568 3488754.2595832609 0 3488754.2595832609 -3549495.3346065208 0 0 0 0 2228842.110839203 2951144.4718767982 0 2951144.4718767982 1803006.3247463405 0 0 0 0 10062218.304763794 11392272.996639252 0 11392272.996639252 -8515027.6964263916 0 0 0 0 145028.82527923584 12107573.412055969 0 12107573.412055969 5536427.2911376953 0 0 0 0 4971419.4476089478 9544758.0386047363 0 9544758.0386047363 293726.22399902344 0 0 0 0 13265125.236869812 5064754.5399055481 0 5064754.5399055481 2183054.2064208984 0 0 0 0 2893458.9091192121 580863.54021367431 0 580863.54021367431 -2421028.7634843439 0 0 0 0 32236387.019161224 13147429.794971466 0 13147429.794971466 -8725751.6494445801 0 0 0 0 13566920.279855728 -534697.81980133057 0 -534697.81980133057 -664492.36138916016 0 0 0 0 -7030403.7889022827 4534639.3150482178 0 4534639.3150482178 -2441576.3630218506 0 0 0 0 -2717234.0221407488 739103.86754720937 0 739103.86754720937 2003068.1058301106 0 0 0 0 -6068792.2191009521 4135899.7597503662 0 4135899.7597503662 640698.57627868652 0 0 0 0 -8527043.2493743896 5989884.6874542236 0 5989884.6874542236 314581.04821205139 0 0 0 0 -3912397.309135437 4173398.6812515259 0 4173398.6812515259 1754505.6752319336 0 0 0 0 -6765507.972869873 7142651.6867675781 0 7142651.6867675781 -938454.09265136719 0 0 0 0 -13091680.95463562 -1082205.1585083008 0 -1082205.1585083008 -1199959.8293457031 0 0 0 0 990801.75861938111 2725783.7149205785 0 2725783.7149205785 -38294.810313984752 0 0 0 0 257687.99283079524 -23793.598672877997 0 -23793.598672877997 -42277.210916183889 0 0 0 0 -241394005.78950739 115587269.21249008 0 115587269.21249008 -22291048.284851074 0 0 0 0 679043.18132400513 -389985.72805786133 0 -389985.72805786133 -195630.30810546875 0 0 0 0 13222548.848041534 2169603.3954963684 0 2169603.3954963684 235089.83020019531 0 0 0 0 -1961430.5563362148 1904548.2860367233 0 1904548.2860367233 -385414.25759975985 0 0 0 0 -265469798.54680634 77129271.604179382 0 77129271.604179382 -32321888.617788315 0 0 0 0 46805238.882965088 -9048710.4756393433 0 -9048710.4756393433 -2373501.6999282837 0 0 0 0 58659789.38090229 28458142.034123421 0 28458142.034123421 -4336494.6240997314 0 0 0 0 23920944.390029907 39681493.639663696 0 39681493.639663696 6445126.0046463013 0 0 0 0 23930692.797452852 41949592.28742981 0 41949592.28742981 16169868.407455444 0 0 0 0 -4965520.7654571533 21579255.43875885 0 21579255.43875885 7440105.7312927246 0 0 0 0 -788690.49282073975 31053781.664337158 0 31053781.664337158 11380640.379005432 0 0 0 0 -1904064.6881561279 22493014.035423279 0 22493014.035423279 7683205.3640403748 0 0 0 0 7599312.9973630905 23267030.97424221 0 23267030.97424221 -856839.9725189209 0 0 0 0 7412868.9433631897 22090920.821108341 0 22090920.821108341 -2249216.6908111572 0 0 0 0 19603555.255195618 18881166.748466492 0 18881166.748466492 -6680640.3564567566 0 0 0 0 23878245.652442932 27399407.715888977 0 27399407.715888977 -649358.6240234375 0 0 0 0 385243095.61797714 1682431253.6801033 0 1682431253.6801033 369856232.67158699 0 0 0 0 1850080.3588465308 1006893466.53917 0 1006893466.53917 940755032.56731415 0 0 0 0 729123151.06572914 937172307.73021889 0 937172307.73021889 572310459.77085114 0 0 0 0 -480867.74128916115 1189370.0668578483 0 1189370.0668578483 535894.27213880792 0 0 0 0 1369628217.8643799 1919435421.9285259 0 1919435421.9285259 -390985.68494415283 0 0 0 0 1805929692.0499191 1588897993.9753609 0 1588897993.9753609 -356982405.97528648 0 0 0 0 3093854343.352211 1255001843.1177635 0 1255001843.1177635 -281181383.28164673 0 0 0 0 2400227.8843490742 1754787.8595587397 0 1754787.8595587397 427435.7497625798 0 0 0 0 3634471403.2127514 -531579460.97965813 0 -531579460.97965813 -86704196.753593445 0 0 0 0 1489005592.3165073 -320676471.18351793 0 -320676471.18351793 -67065351.210792542 0 0 0 0 884347129.82518768 361488215.76961613 0 361488215.76961613 -319054591.83945465 0 0 0 0 -310290.93142389506 603053.96640858054 0 603053.96640858054 189628.09661898389 0 0 0 0 838146263.72684479 983177131.84415436 0 983177131.84415436 -722933324.2572403 0 0 0 0 711223116.57238007 359090454.76725006 0 359090454.76725006 396545696.8225441 0 0 0 0 1097797833.5545349 1244275299.7596703 0 1244275299.7596703 688256239.87447357 0 0 0 0 576747310.26345825 394711427.9964447 0 394711427.9964447 -87897662.337576389 0 0 0 0 211602042.67926025 -205394920.87818146 0 -205394920.87818146 -145466035.77364349 0 0 0 0 74694946.130550385 47628168.091169357 0 47628168.091169357 -177582168.95830536 0 0 0 0 2086181.7099891454 6741966.8792992197 0 6741966.8792992197 7396712.4954369292 0 0 0 0 -154040976.90180206 270951604.89316463 0 270951604.89316463 72344694.163406372 0 0 0 0 -60592209.794429779 43780920.485660553 0 43780920.485660553 42110156.063461304 0 0 0 0 56305365.829269409 -26901515.679523468 0 -26901515.679523468 -41072630.283401489 0 0 0 0 757895519.34277344 204398281.36911392 0 204398281.36911392 -418235205.40289307 0 0 0 0 778553267.1592865 64207257.439170837 0 64207257.439170837 -177227574.16448677 0 0 0 0 3195755.6978524663 4514387.9335102141 0 4514387.9335102141 3714448.0100802183 0 0 0 0 -32994180.435443878 23985181.908941269 0 23985181.908941269 -14918.37589263916 0 0 0 0 21995395.225456238 26687981.109527588 0 26687981.109527588 12030.050308227539 0 0 0 0 -10238068.531951904 -1170595.6612472534 0 -1170595.6612472534 -5295259.8513259888 0 0 0 0 16214522.912078857 24270934.918151855 0 24270934.918151855 -21985157.570289612 0 0 0 0 15644594.468897343 17742501.446354628 0 17742501.446354628 4817716.2346954346 0 0 0 0 45829735.627334595 36706552.340057373 0 36706552.340057373 -146069803.34235382 0 0 0 0 -259146286.05337143 -93764358.743493557 0 -93764358.743493557 48046722.551116943 0 0 0 0 65420732.026985168 10875692.263702393 0 10875692.263702393 -17066775.95753479 0 0 0 0 917443.32412926434 -1340459.5240595881 0 -1340459.5240595881 -150962.0187118724 0 0 0 0 -52016207.893096924 17419305.465522766 0 17419305.465522766 -147689.52073636508 0 0 0 0 70834216.274881363 -2864216.6628646851 0 -2864216.6628646851 -33637185.684173584 0 0 0 0 217698585.13548279 77634297.152023315 0 77634297.152023315 -71084715.351821899 0 0 0 0 49426596.798706055 43397303.742614746 0 43397303.742614746 -11268286.600975037 0 0 0 0 -49562200.513931274 -152731585.39109802 0 -152731585.39109802 -50066978.044967651 0 0 0 0 42899787.984855652 -12840822.681400299 0 -12840822.681400299 194155843.65644836 0 0 0 0 494267798.04957581 -291307029.37316895 0 -291307029.37316895 362243706.26843262 0 0 0 0 89557463.69052124 208605835.83872986 0 208605835.83872986 229809579.53782654 0 0 0 0 -3862125.248087883 -3735135.804336071 0 -3735135.804336071 149078583.73152161 0 0 0 0 -256456.72449906915 262221.18652342819 0 262221.18652342819 591610.83535845578 0 0 0 0 28986093.497375488 18824018.790557861 0 18824018.790557861 -564361.57773017883 0 0 0 0 258088259.93022156 -143159326.26189423 0 -143159326.26189423 10332150.51953125 0 0 0 0 105014440.23511887 271524030.16310501 0 271524030.16310501 159415396.76849365 0 0 0 0 17777612.270042419 14887082.820335388 0 14887082.820335388 8308233.1912307739 0 0 0 0 1145429.9163810201 -444582.30764416233 0 -444582.30764416233 -432103.771850124 0 0 0 0 -337200473.24320984 78452793.08864975 0 78452793.08864975 252526071.78137207 0 0 0 0 289134.43782547861 123002.09913503937 0 123002.09913503937 -424220.78270806372 0 0 0 0 -35743756.895490646 -26825804.389324188 0 -26825804.389324188 -51397785.685058594 0 0 0 0 -2875397.6414871216 25133075.431682587 0 25133075.431682587 -14756972.41299057 0 0 0 0 3651197.8743173722 3285517.9525137041 0 3285517.9525137041 -1643544.1362653747 0 0 0 0 -7170045.3363571167 -761789.00422286987 0 -761789.00422286987 735145.76647186279 0 0 0 0 -1073519.7705191486 742843.28837182838 0 742843.28837182838 1618516.4286869057 0 0 0 0 -119119337.69440746 -81218301.993948936 0 -81218301.993948936 7942864.1235046387 0 0 0 0 -92831163.260437012 177256551.65479279 0 177256551.65479279 -131906802.71723366 0 0 0 0 71628119.734115601 -180025211.62887573 0 -180025211.62887573 -220414738.94198608 0 0 0 0 -11461341.537254333 13567518.809516907 0 13567518.809516907 11450201.317260742 0 0 0 0 -1436423.1472015381 -5426094.0963516235 0 -5426094.0963516235 20024082.981231689 0 0 0 0 201031343.51805115 255786696.58110046 0 255786696.58110046 -107057918.57098389 0 0 0 0 -197022.3771337457 583178.7784501398 0 583178.7784501398 844990.13258437067 0 0 0 0 -1303734.5524814129 2936483.0265139341 0 2936483.0265139341 -1376246.8229064941 0 0 0 0 -1777306.3641072512 -510164.57085127197 0 -510164.57085127197 1624934.7670288645 0 0 0 0 965272.38105941913 6543385.1890568063 0 6543385.1890568063 8422974.9773076326 0 0 0 0 -14220324.698838234 -6045119.5851566792 0 -6045119.5851566792 21640872.248641968 0 0 0 0 -12522431.442466736 7005809.0501327515 0 7005809.0501327515 25530208.507566452 0 0 0 0 -5993507.286914587 1222392.3856271505 0 1222392.3856271505 30588693.264099121 0 0 0 0 15079382.199350357 49155393.910212994 0 49155393.910212994 -1854832.5498352051 0 0 0 0 -5206682.0250854492 15262539.465248108 0 15262539.465248108 8745644.4637794495 0 0 0 0 -5708158.627746582 18014786.473709106 0 18014786.473709106 43175380.33323288 0 0 0 0 5973808.2257232666 8501645.4894104004 0 8501645.4894104004 -20646345.539611816 0 0 0 0 5204448.4017915726 8289301.54545784 0 8289301.54545784 1752789.2036743164 0 0 0 0 8052611.2050882615 3516655.7025471739 0 3516655.7025471739 -3112580.3937500902 0 0 0 0 33084214.77961731 42794719.169952393 0 42794719.169952393 -346491604.5508194 0 0 0 0 310170.40686425567 813017.65920069069 0 813017.65920069069 109341.43693025783 0 0 0 0 -100597402.81646729 378305644.54018307 0 378305644.54018307 -1158848984.7308655 0 0 0 0 297498.00973091344 644463.63087993115 0 644463.63087993115 26274.548979580402 0 0 0 0 -5056940.2886734009 12119133.460624695 0 12119133.460624695 5874657.9000244141 0 0 0 0 -1440977.2818263359 4641211.8117255531 0 4641211.8117255531 9917874.169647105 0 0 0 0 -245172873.25308228 -49811939.345029831 0 -49811939.345029831 1624078.7868270874 0 0 0 0 -469958664.35787344 93485173.515212297 0 93485173.515212297 6935304.2557220459 0 0 0 0 -95536963.343963623 146453718.37705994 0 146453718.37705994 -171234044.22962952 0 0 0 0 -106028608.24317932 65907628.630699158 0 65907628.630699158 -541462952.86127472 0 0 0 0 -952939619.11688232 71125950.460189819 0 71125950.460189819 108378593.09104919 0 0 0 0 116645334.41008759 -29440565.88942337 0 -29440565.88942337 -130115073.5406208 0 0 0 0 21991252.623088837 223254172.32628822 0 223254172.32628822 -66010607.101806641 0 0 0 0 32317492.236473083 93328519.500192642 0 93328519.500192642 236162266.43799591 0 0 0 0 -386936338.81277418 36449641.820317745 0 36449641.820317745 161714215.30526733 0 0 0 0 31640549.876533508 155990031.4954834 0 155990031.4954834 -15172454.192396879 0 0 0 0 168034033.90727997 74331265.627346039 0 74331265.627346039 -119720271.79405212 0 0 0 0 -282557.06577813625 -37743.952367864549 0 -37743.952367864549 507545.98814372718 0 0 0 0 274259979.94608212 507050122.42937803 0 507050122.42937803 337126346.86287689 0 0 0 0 465757865.55475426 571387971.7816081 0 571387971.7816081 212982059.99152374 0 0 0 0 626485100.90724182 278485639.11071396 0 278485639.11071396 83513507.762319565 0 0 0 0 -244518.51044742763 107392.33844805509 0 107392.33844805509 577729.7137285918 0 0 0 0 263169279.42123413 333566954.41109848 0 333566954.41109848 253001779.55841827 0 0 0 0 310324092.00799561 214208616.76776695 0 214208616.76776695 38073963.065734863 0 0 0 0 140420938.9921875 87645756.061302185 0 87645756.061302185 67236085.636050224 0 0 0 0 240066169.12709045 175193281.39637947 0 175193281.39637947 21091315.172019958 0 0 0 0 143554378.9058075 55039151.787660599 0 55039151.787660599 97528094.768180847 0 0 0 0 184327140.81546021 58126427.479545593 0 58126427.479545593 21125825.152753893 0 0 0 0 158109007.17619324 120160345.14830971 0 120160345.14830971 263589513.18457031 0 0 0 0 206691642.20681763 148560764.31771088 0 148560764.31771088 128147317.60803795 0 0 0 0 -150729.70489437133 113129.04931561649 0 113129.04931561649 294273.79787945002 0 0 0 0 211553246.28676987 159074867.8213439 0 159074867.8213439 96670098.725776672 0 0 0 0 104664049.13219452 207747618.45352745 0 207747618.45352745 120416356.87404442 0 0 0 0 -5513521.8319358826 312053077.0194931 0 312053077.0194931 1310987893.8150291 0 0 0 0 -42557.083091476896 672133654.07046437 0 672133654.07046437 466626467.19770813 0 0 0 0 1024557.0102081299 673142206.7016983 0 673142206.7016983 467061653.80182266 0 0 0 0 588018003.40219879 381371589.5945282 0 381371589.5945282 48761655.928974152 0 0 0 0 441528461.83106613 993111263.37708664 0 993111263.37708664 316348582.9432373 0 0 0 0 585431550.73197365 488324804.2900207 0 488324804.2900207 313568217.44906616 0 0 0 0 850909759.49183655 710127242.13685322 0 710127242.13685322 355373112.3091507 0 0 0 0 -138638.66094719991 948460.00744903088 0 948460.00744903088 1124439.2737132981 0 0 0 0 -2387342.3804702759 15691978.415203094 0 15691978.415203094 -80534857.356601715 0 0 0 0 -10517271.226379395 29981439.881973267 0 29981439.881973267 -64658323.44303894 0 0 0 0 8819.1984481811523 37917004.457389832 0 37917004.457389832 -107990376.72669411 0 0 0 0 -19958.672709810115 35405858.889505669 0 35405858.889505669 -129883972.99393082 0 0 0 0 1343714.3808911145 -523458.44054188021 0 -523458.44054188021 -172659.83847410977 0 0 0 0 -4641406.1879196167 26962356.810472488 0 26962356.810472488 -116819713.67445564 0 0 0 0 -4403496.9323632121 50289896.235934526 0 50289896.235934526 -156530172.20594788 0 0 0 0 2440558.1985255852 265794.72903770115 0 265794.72903770115 114417.31001023948 0 0 0 0 128800986.61717224 -98520716.587718964 0 -98520716.587718964 401737953.36917114 0 0 0 0 136111513.06125355 -74003377.501493454 0 -74003377.501493454 44583000.196418762 0 0 0 0 -12471737.244668841 66415762.875674069 0 66415762.875674069 -220971473.79650116 0 0 0 0 -11015547.662101746 29007360.687206268 0 29007360.687206268 -122764285.155056 0 0 0 0 1044959.1741867065 17273549.196708679 0 17273549.196708679 -124913127.56096888 0 0 0 0 -33788719.702796936 22172614.791349411 0 22172614.791349411 -73955961.247253418 0 0 0 0 -6681354.5353546143 11815163.615375519 0 11815163.615375519 -72371864.114817619 0 0 0 0 -11328708.522857666 -2488098.1196746826 0 -2488098.1196746826 -77477559.657951832 0 0 0 0 55876416.680934906 20210959.341743469 0 20210959.341743469 -415476583.74750519 0 0 0 0 4497231.8795094267 2684107.9568018997 0 2684107.9568018997 1145155.5856319908 0 0 0 0 -9481373.6228866577 -11083005.133846283 0 -11083005.133846283 -160038121.49618149 0 0 0 0 -45641848.294647217 8420420.8995304108 0 8420420.8995304108 -75561919.876582623 0 0 0 0 51059069.437057495 -281804674.97947693 0 -281804674.97947693 365752338.82376671 0 0 0 0 3384845.3410275057 1265299.6403954038 0 1265299.6403954038 534447.61330304481 0 0 0 0 -252770301.90644836 -189724115.26751709 0 -189724115.26751709 32896853.828094482 0 0 0 0 -120345096.60961914 -191597588.75857544 0 -191597588.75857544 -295789307.52479172 0 0 0 0 -665666853.45824051 -175818149.78417778 0 -175818149.78417778 -245099670.6390686 0 0 0 0 -773237358.03234863 605374963.21609497 0 605374963.21609497 -951009719.4881897 0 0 0 0 -399865134.99040222 266687193.32863998 0 266687193.32863998 -199759310.82012939 0 0 0 0 -300227177.15786743 52342013.210567474 0 52342013.210567474 386454009.7092514 0 0 0 0 162936777.3427124 -116658546.44802284 0 -116658546.44802284 27800381.534347534 0 0 0 0 -55889803.160263062 -238099328.82319641 0 -238099328.82319641 529660855.78183746 0 0 0 0 49984150.194046021 33032049.003753662 0 33032049.003753662 148828106.17109013 0 0 0 0 -121274894.50915146 130234802.40684128 0 130234802.40684128 128620311.87086487 0 0 0 0 -429313011.87008667 239838518.50506592 0 239838518.50506592 -103747675.23254395 0 0 0 0 -31047014.490989685 -9836764.0374717712 0 -9836764.0374717712 33765299.122077942 0 0 0 0 -404220202.99688721 109246736.82434082 0 109246736.82434082 -121237799.42127991 0 0 0 0 147241870.84650135 -92469523.456185341 0 -92469523.456185341 -844781983.40124512 0 0 0 0 -399620753.27087402 103904905.33204651 0 103904905.33204651 -297534676.0916748 0 0 0 0 -116092.84550476074 -7316804.2820110321 0 -7316804.2820110321 -146363739.21199036 0 0 0 0 -5607039.7199668884 168732080.44976425 0 168732080.44976425 -158013863.54540253 0 0 0 0 -50449169.257053375 123521920.60141945 0 123521920.60141945 169208143.7772522 0 0 0 0 11290957.361099243 50836650.397182465 0 50836650.397182465 65165671.08013916 0 0 0 0 5788533.6817145497 4413335.5815645847 0 4413335.5815645847 1760077.0344192013 0 0 0 0 -5270035.9552764893 -44507796.539608002 0 -44507796.539608002 285877004.09152412 0 0 0 0 37827108.837505341 -119060552.30304623 0 -119060552.30304623 -7820825.6133728027 0 0 0 0 246478714.47336769 215324202.91509438 0 215324202.91509438 -475730864.96591949 0 0 0 0 -187736950.02890778 134200261.7394371 0 134200261.7394371 274351023.978508 0 0 0 0 27538186.56955719 -185693326.69322968 0 -185693326.69322968 270910053.84909058 0 0 0 0 -73736847.582862854 3872455.9563560486 0 3872455.9563560486 216828797.43213654 0 0 0 0 110638897.41314316 181665092.69562054 0 181665092.69562054 135338502.43297577 0 0 0 0 113231520.0324707 126827934.62781954 0 126827934.62781954 47449392.658912659 0 0 0 0 72897258.344238281 2151999.1607475281 0 2151999.1607475281 -14136975.038732529 0 0 0 0 262736018.63628387 39958397.809844971 0 39958397.809844971 -9811374.448764801 0 0 0 0 794956.86761070415 1141762.0248535909 0 1141762.0248535909 -830200.86324030161 0 0 0 0 24266698.653991699 8990038.983397007 0 8990038.983397007 5405776.7893981934 0 0 0 0 58322328.510986328 8242469.188533783 0 8242469.188533783 -4752193.2988510132 0 0 0 0 28111458.176879883 11877409.918457031 0 11877409.918457031 -368166.89428329468 0 0 0 0 41580536.190994263 10586496.488929749 0 10586496.488929749 -7168271.488483429 0 0 0 0 20169598.656494141 14432353.414606094 0 14432353.414606094 -1471727.4348831177 0 0 0 0 21025031.801609993 51382647.041710615 0 51382647.041710615 20270323.513320923 0 0 0 0 28158692.271270752 16695733.722480774 0 16695733.722480774 1713876.1165275574 0 0 0 0 24588437.744003296 20424413.256813049 0 20424413.256813049 -1226179.4357223511 0 0 0 0 37512984.314678192 27563481.620856285 0 27563481.620856285 2492034.12084198 0 0 0 0 53615079.120771408 72442724.2189641 0 72442724.2189641 21184200.938796997 0 0 0 0 64215775.785308838 28879201.25320816 0 28879201.25320816 -5102166.4836196899 0 0 0 0 135133835.5579834 34518205.715373993 0 34518205.715373993 -18265702.798988342 0 0 0 0 57234969.516442299 29455992.11814785 0 29455992.11814785 -2559253.395942688 0 0 0 0 25963983.649520874 77759770.878658295 0 77759770.878658295 20836717.797374725 0 0 0 0 5730835.7269096375 76687943.740225792 0 76687943.740225792 35981636.416938782 0 0 0 0 26006028.375091553 87198591.654064178 0 87198591.654064178 39676445.125671387 0 0 0 0 19405678.362060547 56753550.006710052 0 56753550.006710052 15196502.060546875 0 0 0 0 -12304809.309234619 41208679.29794693 0 41208679.29794693 17230692.538635254 0 0 0 0 -1602032.8992462158 58852098.55134201 0 58852098.55134201 38672318.374436378 0 0 0 0 -1650325.4698867798 71012411.539154053 0 71012411.539154053 37349829.919143677 0 0 0 0 1037571.8945159912 65379785.656609535 0 65379785.656609535 48487994.280727386 0 0 0 0 -13772046.671787262 56140360.362606049 0 56140360.362606049 32983341.654956818 0 0 0 0 -22374609.87260437 56909302.262765884 0 56909302.262765884 34922884.978437424 0 0 0 0 1628904.1577072144 105172110.79648018 0 105172110.79648018 87729146.939641953 0 0 0 0 -27081849.620475769 72894464.152889252 0 72894464.152889252 73849097.649772644 0 0 0 0 -48198714.09552002 7186511.0410079956 0 7186511.0410079956 16748463.841369629 0 0 0 0 -16027487.148780823 37571643.271585464 0 37571643.271585464 -14429901.145889282 0 0 0 0 -33747885.9401474 27012666.416139603 0 27012666.416139603 14948799.255382538 0 0 0 0 -18296492.433418274 67057820.194263458 0 67057820.194263458 49257793.235664368 0 0 0 0 -5090223.7305679321 49494096.617027283 0 49494096.617027283 20790573.558636665 0 0 0 0 -507097.39364624023 66058442.214227676 0 66058442.214227676 50667964.415435791 0 0 0 0 5377502.9706344604 42859969.975309372 0 42859969.975309372 54309137.158531189 0 0 0 0 -7904526.7104873657 57512397.338888168 0 57512397.338888168 43737023.557891846 0 0 0 0 -5597433.8707089424 27713678.067607045 0 27713678.067607045 32604359.025222778 0 0 0 0 1403784.8369293213 44174186.897867203 0 44174186.897867203 58079312.749801636 0 0 0 0 22445358.421585083 34539091.27570343 0 34539091.27570343 62238364.545951843 0 0 0 0 14544.765098571777 36906660.682413101 0 36906660.682413101 66787925.091079712 0 0 0 0 9474894.0445690155 25852545.44695282 0 25852545.44695282 34791585.467319489 0 0 0 0 -24581.04874420166 42671848.908802032 0 42671848.908802032 28195615.746957779 0 0 0 0 11364967.222854614 35412907.209931374 0 35412907.209931374 -5315206.8260173798 0 0 0 0 -18529890.602851868 20319753.500095367 0 20319753.500095367 -9924566.5300035477 0 0 0 0 -7650023.0807800293 13424761.801332474 0 13424761.801332474 -50430182.385658264 0 0 0 0 11037.564140810278 39401133.945918515 0 39401133.945918515 -51218248.582763672 0 0 0 0 24011748.153556824 26539082.658058167 0 26539082.658058167 29641410.081523299 0 0 0 0 25101687.9429245 45510896.108793259 0 45510896.108793259 44349134.80606842 0 0 0 0 -485007.89306244068 8821866.0067732166 0 8821866.0067732166 4782727.606803298 0 0 0 0 -1775414.5191469528 2289813.2709918059 0 2289813.2709918059 1448627.161002731 0 0 0 0 32405686.212608337 50406558.863136292 0 50406558.863136292 27957774.544906616 0 0 0 0 86317841.648971558 1896875.4276657104 0 1896875.4276657104 -6431287.9229698181 0 0 0 0 -16669723.515504837 16754777.604435921 0 16754777.604435921 10337610.458374023 0 0 0 0 24555902.754653931 54665723.47883606 0 54665723.47883606 48260025.424106598 0 0 0 0 98181993.45135498 37784201.408966064 0 37784201.408966064 29966199.872903824 0 0 0 0 57700058.298904419 48972903.011711121 0 48972903.011711121 -17593596.890262604 0 0 0 0 63878827.647960663 28160729.425343513 0 28160729.425343513 -76614404.229042053 0 0 0 0 29809483.344212055 8003205.125692606 0 8003205.125692606 -37895363.005050659 0 0 0 0 86420903.995053813 52914101.876180798 0 52914101.876180798 -17085591.73576355 0 0 0 0 38676379.145904541 53770055.630653381 0 53770055.630653381 -3010844.7754745483 0 0 0 0 54076113.203636169 45034974.256908417 0 45034974.256908417 -10618873.590415955 0 0 0 0 -14888770.976009369 17057486.61138916 0 17057486.61138916 6889490.9532012939 0 0 0 0 19025378.499511719 17579670.857341766 0 17579670.857341766 -1683753.4976730347 0 0 0 0 5232221.7805875614 13035683.00048054 0 13035683.00048054 -1273692.8678790294 0 0 0 0 -10562865.547372768 7312114.7491765786 0 7312114.7491765786 7723606.1194004565 0 0 0 0 -15356608.002897263 18572205.278739929 0 18572205.278739929 13969557.704284668 0 0 0 0 -18479624.16317749 22904924.091114044 0 22904924.091114044 10040461.701881409 0 0 0 0 -15029518.696323395 14340958.278621674 0 14340958.278621674 27953629.78452301 0 0 0 0 -8012757.9703617301 6232537.2759121023 0 6232537.2759121023 8370402.3607729226 0 0 0 0 -27581868.445419312 8167631.9608154297 0 8167631.9608154297 51932572.861370087 0 0 0 0 -12677503.129447937 13525728.059013367 0 13525728.059013367 2429552.6154251099 0 0 0 0 -138363.141259389 6894413.2614094568 0 6894413.2614094568 2739323.9343062118 0 0 0 0 -11509884.345767975 22759451.984577179 0 22759451.984577179 -3173965.7795972824 0 0 0 0 -7809738.4852790833 30839113.576626778 0 30839113.576626778 -4219066.5443649292 0 0 0 0 -8102421.444480896 2945844.5261993408 0 2945844.5261993408 4741014.6861038208 0 0 0 0 -3240794.9365027584 8493653.1072037667 0 8493653.1072037667 7490961.7669699118 0 0 0 0 -7921250.0558509827 10893251.293815613 0 10893251.293815613 872790.09554290771 0 0 0 0 -17284005.407492161 24012313.290305138 0 24012313.290305138 8598855.892578125 0 0 0 0 -9910204.1944732666 14914500.282112122 0 14914500.282112122 8082426.8832855225 0 0 0 0 -1168454.8524677483 7356050.2836015709 0 7356050.2836015709 5968135.3700347915 0 0 0 0 -18343290.394966125 21031698.499082565 0 21031698.499082565 16801127.494400024 0 0 0 0 -15356836.073352814 12841669.488571167 0 12841669.488571167 17088513.227903128 0 0 0 0 -12050937.486618042 5783438.5320587158 0 5783438.5320587158 18403019.067644119 0 0 0 0 -16676246.231372833 11683198.385444641 0 11683198.385444641 33163381.276542664 0 0 0 0 -16587404.144558549 13302035.744396925 0 13302035.744396925 19315786.565078735 0 0 0 0 -15687897.58997345 5931075.4363021851 0 5931075.4363021851 20900177.466201782 0 0 0 0 -1436045.1793670654 2050192.4258041382 0 2050192.4258041382 1167631.6300354004 0 0 0 0 8978692.6464691162 5157950.5652008057 0 5157950.5652008057 2121654.9820556641 0 0 0 0 7419300.0594378524 5290422.0617787987 0 5290422.0617787987 3613826.6532047577 0 0 0 0 -15433372.041332245 13414432.780036926 0 13414432.780036926 13233984.140594482 0 0 0 0 -15364790.981918335 6070504.6716918945 0 6070504.6716918945 12956369.627456665 0 0 0 0 2101857.2292294241 3313822.122692002 0 3313822.122692002 1950113.9483827502 0 0 0 0 3547627.20703125 5143429.8927612305 0 5143429.8927612305 2487860.4015808105 0 0 0 0 -1377722.0271080788 7753917.6061748639 0 7753917.6061748639 6430223.8528645039 0 0 0 0 3338268.7676736033 4045530.7378739472 0 4045530.7378739472 515556.46444609016 0 0 0 0 7306376.9711151123 5617724.2914199829 0 5617724.2914199829 -496846.5856628418 0 0 0 0 1150832.2068710327 8099219.8467178345 0 8099219.8467178345 8912886.5088768005 0 0 0 0 4867229.9107208252 7556270.2021255493 0 7556270.2021255493 -1617824.6442565918 0 0 0 0 4130412.4593963623 11319361.884872437 0 11319361.884872437 842057.64018249512 0 0 0 0 974237.70336914062 7767058.7608642578 0 7767058.7608642578 -2981629.2549133301 0 0 0 0 -1571805.1687207222 11677715.471627712 0 11677715.471627712 -1884807.4042205811 0 0 0 0 711676.69750466011 8578523.6059769206 0 8578523.6059769206 5634665.1379392706 0 0 0 0 -1849070.5410003662 4961597.7210769653 0 4961597.7210769653 652297.7388458252 0 0 0 0 6407113.7023546491 7238419.0561221913 0 7238419.0561221913 2703721.32828651 0 0 0 0 3106357.2346111033 3277271.6955907699 0 3277271.6955907699 1759215.2762132771 0 0 0 0 1994643.4177699722 1703394.605164554 0 1703394.605164554 898988.20886109397 0 0 0 0 58631585.791656494 17358721.09349823 0 17358721.09349823 -2693116.926940918 0 0 0 0 -1446960.1033325195 2076425.2415618896 0 2076425.2415618896 1366664.9047241211 0 0 0 0 6532999.9152189866 4368487.8805596605 0 4368487.8805596605 43252.859099794179 0 0 0 0 -191625.14604949951 1892065.6445541382 0 1892065.6445541382 1524054.8289794922 0 0 0 0 28601150.188308716 13821802.649734497 0 13821802.649734497 12014859.278839111 0 0 0 0 -3561933.1795198955 9400915.6582647301 0 9400915.6582647301 5069332.8022066467 0 0 0 0 -5660939.9933347739 8857495.0974936448 0 8857495.0974936448 6585614.3651729673 0 0 0 0 -23294766.319320679 20813144.80198288 0 20813144.80198288 11433946.463344574 0 0 0 0 -14348031.719497681 14350759.06930542 0 14350759.06930542 8659476.6286773682 0 0 0 0 -15868758.252960205 13989732.053314209 0 13989732.053314209 9409861.3578338623 0 0 0 0 -13498783.183998108 17317463.822669029 0 17317463.822669029 9946647.5187988281 0 0 0 0 -1029364.0207214355 18432647.974021912 0 18432647.974021912 6315340.6531066895 0 0 0 0 -8076442.4708518982 22060797.384597778 0 22060797.384597778 4457543.2673339844 0 0 0 0 -3366390.4318408966 28739818.295183182 0 28739818.295183182 -3509864.8064422607 0 0 0 0 -15326054.234268188 38379628.931022644 0 38379628.931022644 6458269.4197921753 0 0 0 0 -12664075.21811676 47804101.611000061 0 47804101.611000061 14725364.717720032 0 0 0 0 3183945.834854126 54360362.363994598 0 54360362.363994598 -13482938.510055542 0 0 0 0 -10768649.225341797 68724660.679294586 0 68724660.679294586 42622497.26524353 0 0 0 0 -25602499.661270142 47886367.09205246 0 47886367.09205246 14772539.933948517 0 0 0 0 -23684371.791160583 43124727.703712463 0 43124727.703712463 26478177.685256958 0 0 0 0 -27279188.455276489 36279359.689850807 0 36279359.689850807 15888833.912567139 0 0 0 0 29731824.410736084 59540409.932315826 0 59540409.932315826 -66015727.866504669 0 0 0 0 5896207.126914978 62063819.223842621 0 62063819.223842621 7159989.401550293 0 0 0 0 7888144.8104553223 61255994.555568695 0 61255994.555568695 7034966.9193315506 0 0 0 0 -6949546.5187225342 55719731.290138245 0 55719731.290138245 89035375.199119568 0 0 0 0 12552555.129379272 97825393.654312134 0 97825393.654312134 2339660.0033531189 0 0 0 0 2704518.236366272 33677871.242668152 0 33677871.242668152 74858944.706136703 0 0 0 0 40791364.367355347 258679806.22822189 0 258679806.22822189 -514344002.2806282 0 0 0 0 6505378.4977959991 6159967.1655130014 0 6159967.1655130014 2214988.5160640981 0 0 0 0 16449260.802949905 -12634189.206056595 0 -12634189.206056595 125605354.68549347 0 0 0 0 -188251918.17787823 289650209.3794958 0 289650209.3794958 -62400828.834068298 0 0 0 0 -72172023.026115417 32061230.947507858 0 32061230.947507858 37313213.227371216 0 0 0 0 -39389654.30721283 710251.23180007935 0 710251.23180007935 -80414.785690307617 0 0 0 0 -26693255.461334229 37673571.202957153 0 37673571.202957153 51253626.265174866 0 0 0 0 -30923850.8621521 49942434.327404022 0 49942434.327404022 34570062.09413147 0 0 0 0 -51402410.792770386 71076091.004112244 0 71076091.004112244 63299245.917579651 0 0 0 0 44407286.461122513 42691788.821387291 0 42691788.821387291 23711223.852500916 0 0 0 0 -128635893.53020477 25991233.336460114 0 25991233.336460114 63404193.310646057 0 0 0 0 2151084.8049696647 1229821.97084371 0 1229821.97084371 -331349.23135408014 0 0 0 0 122451785.13803101 92473644.871566772 0 92473644.871566772 -110293846.87582397 0 0 0 0 -121329054.50712585 -40132014.144893646 0 -40132014.144893646 19991115.927257538 0 0 0 0 138847402.50192261 188309144.66181183 0 188309144.66181183 -67016870.585754395 0 0 0 0 56697619.194824219 149123233.8685379 0 149123233.8685379 56439018.473754883 0 0 0 0 -87146904.125228882 288236706.34974289 0 288236706.34974289 1165176.0168533325 0 0 0 0 -27068019.523827553 -143511077.93564081 0 -143511077.93564081 73181945.148906708 0 0 0 0 -116812705.82922363 -182970447.80007935 0 -182970447.80007935 13432564.051424026 0 0 0 0 -909040.33287803084 2463205.3590686731 0 2463205.3590686731 948934.27417670842 0 0 0 0 5981994.9852749035 8261110.3358922582 0 8261110.3358922582 2604718.185594881 0 0 0 0 -11133244.161758423 110372323.47206497 0 110372323.47206497 -115635029.97330093 0 0 0 0 -69034788.690948486 192198357.39012909 0 192198357.39012909 27280532.651975632 0 0 0 0 -61615045.586791992 39825378.878875732 0 39825378.878875732 -19022979.988922119 0 0 0 0 -63154568.47158432 41933846.476663589 0 41933846.476663589 45733139.672119141 0 0 0 0 -44805824.014038086 25619645.521568298 0 25619645.521568298 -7627119.8035583496 0 0 0 0 -50392630.575424194 40092192.021244049 0 40092192.021244049 -15266813.85206604 0 0 0 0 -5476678.6429595947 17272979.411205292 0 17272979.411205292 -14903052.791603088 0 0 0 0 -8467356.2070617676 -1685436.3100280762 0 -1685436.3100280762 -28784766.736343384 0 0 0 0 -22086458.44140625 27246501.251609802 0 27246501.251609802 -51084400.735427856 0 0 0 0 -12084379.712463379 9671609.158203125 0 9671609.158203125 -57760312.111923218 0 0 0 0 -20612354.850097656 19904964.153259277 0 19904964.153259277 -15028640.56288147 0 0 0 0 -115433802.02227783 -32721565.644142151 0 -32721565.644142151 117771453.31458282 0 0 0 0 -58916449.178070068 -7522047.7181625366 0 -7522047.7181625366 129000544.09912872 0 0 0 0 -78382133.157653809 118876276.27752686 0 118876276.27752686 94579086.967193604 0 0 0 0 -85382082.488189697 125917308.48307037 0 125917308.48307037 240167577.40856552 0 0 0 0 -166242102.99841309 63589823.528244019 0 63589823.528244019 159180136.79153728 0 0 0 0 -32928616.48324585 73955413.779342651 0 73955413.779342651 157075279.00124073 0 0 0 0 -56232160.272949219 -103400584.70014191 0 -103400584.70014191 -123492553.13788986 0 0 0 0 -49903790.222290039 17851141.612358093 0 17851141.612358093 155554801.47542572 0 0 0 0 -59998795.071624756 288236547.68890381 0 288236547.68890381 325441478.29214478 0 0 0 0 67966000.807052612 164065511.49711227 0 164065511.49711227 172828597.94576645 0 0 0 0 -77935016.412166595 16229558.12832737 0 16229558.12832737 12595306.742774963 0 0 0 0 -61397177.030029297 18577904.685005188 0 18577904.685005188 6133988.8622322083 0 0 0 0 -1213753.8975173421 1096299.0481706709 0 1096299.0481706709 2172432.5859041885 0 0 0 0 72606709.519058228 43854280.867984772 0 43854280.867984772 133274739.4445343 0 0 0 0 521405.50438839942 361243.82773569971 0 361243.82773569971 -825850.15843319148 0 0 0 0 -58933160.290092468 -8516595.3937397003 0 -8516595.3937397003 124129700.12303162 0 0 0 0 -1016857.2510070801 10597263.668857574 0 10597263.668857574 89624599.49564743 0 0 0 0 -9575945.1206226349 40512516.224190712 0 40512516.224190712 140295190.89811707 0 0 0 0 -60330465.534599304 -3881788.1146650314 0 -3881788.1146650314 123959972.65176392 0 0 0 0 -70093539.191070557 46952109.602340698 0 46952109.602340698 168382876.19821167 0 0 0 0 -3366536.0032653809 89882314.319480896 0 89882314.319480896 170454111.11622143 0 0 0 0 -34383583.468109131 4455611.0528640747 0 4455611.0528640747 88930892.907722473 0 0 0 0 2589916.5996757001 3661286.2727803383 0 3661286.2727803383 -3070249.7840428874 0 0 0 0 22011933.716709137 18157219.272186279 0 18157219.272186279 -4501422.8091125488 0 0 0 0 3193339.577255249 4615526.9746589661 0 4615526.9746589661 -7376090.5567779541 0 0 0 0 29096375.464723587 5016067.8509132862 0 5016067.8509132862 -12503451.381698608 0 0 0 0 177841.62225373462 6884006.6592261791 0 6884006.6592261791 -3196250.6517748069 0 0 0 0 -1203558.80050423 6925600.27685811 0 6925600.27685811 6175715.8943930101 0 0 0 0 -4365358.2855987549 18580651.10232687 0 18580651.10232687 -12259820.519090652 0 0 0 0 -36329348.386367798 12370536.329174042 0 12370536.329174042 4940770.1121606827 0 0 0 0 5044005.8744501323 3548398.0122899804 0 3548398.0122899804 -6390016.2985455683 0 0 0 0 33059745.475402832 11515192.135154724 0 11515192.135154724 -25438918.779167175 0 0 0 0 4455659.4665145874 745356.79990100861 0 745356.79990100861 -7593101.5805912018 0 0 0 0 13922530.073623657 -2064967.8309593201 0 -2064967.8309593201 -4471794.6696243286 0 0 0 0 3621731.12240839 -7636766.5558984876 0 -7636766.5558984876 73565901.452941895 0 0 0 0 -2338284.3772783764 5362884.52884119 0 5362884.52884119 -5202132.8531246688 0 0 0 0 -31212547.290847778 24684610.124318123 0 24684610.124318123 -3270900.3608016968 0 0 0 0 -29581188.011756897 29947000.774536133 0 29947000.774536133 3034460.2228622437 0 0 0 0 -43230670.330055237 25104885.740667343 0 25104885.740667343 6525330.5387039185 0 0 0 0 -3017106.0444293767 9608323.8124688528 0 9608323.8124688528 10150936.221496785 0 0 0 0 -41115802.474777222 35853337.114124298 0 35853337.114124298 1003916.5669059753 0 0 0 0 -47069601.583633423 57862809.793789387 0 57862809.793789387 -13434858.656929016 0 0 0 0 -32035972.480705261 14215908.858966827 0 14215908.858966827 2044654.7442131042 0 0 0 0 -4332829.5728321448 15969432.434690461 0 15969432.434690461 4490058.8861335143 0 0 0 0 23169977.280431747 45306334.924093246 0 45306334.924093246 10175310.197021484 0 0 0 0 -9862778.9943084717 30133218.122524261 0 30133218.122524261 2072580.2501730919 0 0 0 0 7330006.7954788208 37617789.831445694 0 37617789.831445694 18872335.72354126 0 0 0 0 -9014136.6667575836 54982642.19550705 0 54982642.19550705 15580150.479820251 0 0 0 0 -16049162.48846817 26149857.402466774 0 26149857.402466774 15199931.769767761 0 0 0 0 -20213769.292022705 21796190.954204559 0 21796190.954204559 22674459.446250916 0 0 0 0 -11975184.987049103 38795788.672521591 0 38795788.672521591 37371053.937911987 0 0 0 0 -9141567.5290222168 13067552.977523804 0 13067552.977523804 6183714.8107070923 0 0 0 0 21922295.45942688 25151314.059457779 0 25151314.059457779 -7093715.3417778015 0 0 0 0 -5070307.7842663862 14555831.521049701 0 14555831.521049701 4647556.4220984951 0 0 0 0 -4043387.6262324601 11064008.141084956 0 11064008.141084956 4366362.8166132001 0 0 0 0 -889707.18425750732 26354033.967168808 0 26354033.967168808 3054475.8233146667 0 0 0 0 -7789916.7654495239 9516311.4554157257 0 9516311.4554157257 7150929.4346160889 0 0 0 0 -24087700.211547852 7174367.2334289551 0 7174367.2334289551 4821948.9654846191 0 0 0 0 -21608374.997623444 16659265.366292953 0 16659265.366292953 9940624.9779205322 0 0 0 0 -26811106.808652878 25315140.534370422 0 25315140.534370422 40624936.26121521 0 0 0 0 4983541.8631971292 11399770.21545486 0 11399770.21545486 3458962.3581514303 0 0 0 0 5081904.2755012512 21801584.461559296 0 21801584.461559296 1018050.5543632507 0 0 0 0 -5638324.0952758789 9222208.8031921387 0 9222208.8031921387 2971638.7936935425 0 0 0 0 -17470444.812263921 6663579.4172088243 0 6663579.4172088243 5464390.2164290864 0 0 0 0 2714758.3991609532 13698588.849925678 0 13698588.849925678 4997352.0065412037 0 0 0 0 6658100.3022311255 13994782.218419712 0 13994782.218419712 -2232874.0338966437 0 0 0 0 6823858.8909187317 24382124.965198517 0 24382124.965198517 -3421724.9437255859 0 0 0 0 -5854678.5892562866 12430682.379781723 0 12430682.379781723 21953256.800292969 0 0 0 0 -5735097.7492542267 20087785.218198776 0 20087785.218198776 3346867.4137115479 0 0 0 0 3140940.9237518311 48507233.152114868 0 48507233.152114868 98207699.17388916 0 0 0 0 -68111151.35051918 149373621.32851851 0 149373621.32851851 34434643.337104797 0 0 0 0 3090154.3216235638 12762254.201633513 0 12762254.201633513 3974280.058051588 0 0 0 0 39365697.879562378 57475744.622932434 0 57475744.622932434 728863.57109069824 0 0 0 0 -29219224.037948608 13715587.294631958 0 13715587.294631958 28825586.728298187 0 0 0 0 -15509432.479215622 22691484.49182415 0 22691484.49182415 33272037.426345825 0 0 0 0 -41590086.804956436 40756183.801784515 0 40756183.801784515 16321266.180221558 0 0 0 0 -9614554.8595199585 27828452.723739624 0 27828452.723739624 7094950.1099853516 0 0 0 0 5013940.1772622466 28358393.534284174 0 28358393.534284174 -12748403.992507935 0 0 0 0 -10203856.555122375 32495618.982978821 0 32495618.982978821 3488738.0828704834 0 0 0 0 -13859125.239753723 41746755.893428802 0 41746755.893428802 -15583235.848175049 0 0 0 0 -6797457.0367126465 28616919.477027893 0 28616919.477027893 -14198925.279369354 0 0 0 0 -4791526.9329030663 10546757.785552895 0 10546757.785552895 3615756.3854648881 0 0 0 0 -5803049.6368789673 33810948.725067139 0 33810948.725067139 -12672667.85319519 0 0 0 0 -1768698.1215119697 3849678.3976734132 0 3849678.3976734132 1287173.5349265905 0 0 0 0 -22788008.571521759 73491650.978279114 0 73491650.978279114 -85960604.759376526 0 0 0 0 -84709081.08272934 66402514.94197464 0 66402514.94197464 5516423.2142715454 0 0 0 0 -67376900.231647491 3013521.9699325562 0 3013521.9699325562 87665810.754390717 0 0 0 0 -112851364.79700851 40818467.492034912 0 40818467.492034912 86602933.72592926 0 0 0 0 -70928666.445869446 49736590.926521301 0 49736590.926521301 83632699.355110168 0 0 0 0 -25598988.590778351 47491026.603775024 0 47491026.603775024 33717741.209846497 0 0 0 0 -20037876.938415527 20178780.425426483 0 20178780.425426483 51273025.144805908 0 0 0 0 -19869029.984199524 27613818.430206299 0 27613818.430206299 29274973.74836731 0 0 0 0 -51040038.674102783 37515347.957107544 0 37515347.957107544 54897002.063010216 0 0 0 0 -9420849.6825332642 59103711.489093781 0 59103711.489093781 36485418.131855965 0 0 0 0 -45792626.880304337 87472410.14141655 0 87472410.14141655 22915152.75390625 0 0 0 0 -85834918.409492493 97799967.920639038 0 97799967.920639038 80170543.389625549 0 0 0 0 -66057419.267002106 75757484.085670471 0 75757484.085670471 72025656.880792618 0 0 0 0 -85014803.100257874 128630989.78668594 0 128630989.78668594 67645183.377002716 0 0 0 0 -34097817.216958046 105429883.32713509 0 105429883.32713509 -57000009.51587677 0 0 0 0 -32279431.081958771 91147253.796237946 0 91147253.796237946 50265085.782291412 0 0 0 0 18025360.873279572 93795623.009525299 0 93795623.009525299 22240698.262327194 0 0 0 0 10391217.115365982 64609777.720507622 0 64609777.720507622 -12939867.749023438 0 0 0 0 55487802.966201782 44204813.815860748 0 44204813.815860748 -83752215.102470398 0 0 0 0 45523662.944853783 63182247.920741081 0 63182247.920741081 -40141465.05834198 0 0 0 0 -31608798.678253174 44176480.781990051 0 44176480.781990051 -30676516.767629623 0 0 0 0 2494756.3436431885 83185420.544647217 0 83185420.544647217 -44012294.333599091 0 0 0 0 -18926765.666191101 4602554.3549804688 0 4602554.3549804688 -99130767.665153503 0 0 0 0 19547716.684951782 -45039090.155986786 0 -45039090.155986786 201421080.62678528 0 0 0 0 1366197.79628033 1669798.9748208169 0 1669798.9748208169 1526855.236783844 0 0 0 0 57624218.483333588 28548894.785331726 0 28548894.785331726 -161413639.71212387 0 0 0 0 -18055096.452186584 18215401.897193909 0 18215401.897193909 312835221.47360229 0 0 0 0 -390122695.45791626 277010930.26107788 0 277010930.26107788 381242736.86164093 0 0 0 0 69473132.630981445 -20042429.31275177 0 -20042429.31275177 68737659.627365112 0 0 0 0 5277670.2226352543 11339018.076006103 0 11339018.076006103 -288085.21876145899 0 0 0 0 4108626.3033133112 5287747.8555580918 0 5287747.8555580918 4974050.4733964913 0 0 0 0 6419710.3337402344 33072674.228942871 0 33072674.228942871 115391800.5853653 0 0 0 0 19382621.37310791 57342812.664970398 0 57342812.664970398 91891884.471694946 0 0 0 0 38172730.871986389 65851885.998325348 0 65851885.998325348 48731811.112380981 0 0 0 0 5338903.6180922203 15114620.700547583 0 15114620.700547583 -408729.6306004338 0 0 0 0 1720635.0472793579 16372499.944059372 0 16372499.944059372 -7242059.7626819611 0 0 0 0 24665792.36378479 22464199.997264862 0 22464199.997264862 31837820.151185989 0 0 0 0 -2974369.1297683716 15580120.422031403 0 15580120.422031403 6745228.2776088715 0 0 0 0 2882597.635471344 13118950.496376038 0 13118950.496376038 -2802950.5567016602 0 0 0 0 -282340.39518356323 11710448.575756073 0 11710448.575756073 3088619.225944519 0 0 0 0 -1624395.5568161011 15375469.666202545 0 15375469.666202545 -1326620.8552055359 0 0 0 0 -13527128.514221191 18009979.505409241 0 18009979.505409241 4750661.7401046753 0 0 0 0 -7753654.5977325439 11730293.176145554 0 11730293.176145554 3922690.2592697144 0 0 0 0 -13172248.902954102 18669621.755369186 0 18669621.755369186 4013872.8030815125 0 0 0 0 -13183399.505648136 18433347.152463555 0 18433347.152463555 6363415.5207824707 0 0 0 0 -7743464.6037960052 25717034.554515839 0 25717034.554515839 -8755981.0274963379 0 0 0 0 -12085462.998474121 16217625.43967247 0 16217625.43967247 2704246.8993759155 0 0 0 0 -17159379.046386719 24192479.509435654 0 24192479.509435654 -7856514.5236701965 0 0 0 0 -16359287.456420898 16582940.130096436 0 16582940.130096436 5200717.1393508911 0 0 0 0 -15471643.824737549 16961717.320327759 0 16961717.320327759 -4846298.6753463745 0 0 0 0 -22225965.03099823 13827023.597447395 0 13827023.597447395 4120393.0846862793 0 0 0 0 1503252.8210377302 15014940.407936115 0 15014940.407936115 11861660.92183871 0 0 0 0 -10606025.815002441 7520611.9075784683 0 7520611.9075784683 10621975.154155731 0 0 0 0 -14033455.921657562 9675859.1565070152 0 9675859.1565070152 15599308.671070099 0 0 0 0 -16596043.996154785 19584565.839790344 0 19584565.839790344 23636384.173980713 0 0 0 0 4267613.4569317922 1912045.9627456777 0 1912045.9627456777 -5228649.1887927502 0 0 0 0 -226233.43935990334 41520102.774056196 0 41520102.774056196 95093692.493286133 0 0 0 0 -43100795.628234863 8945854.5375366211 0 8945854.5375366211 -41159995.810058594 0 0 0 0 14525585.797052652 13928901.139916711 0 13928901.139916711 -717398.21711901575 0 0 0 0 -518350.04882049561 33091849.162590027 0 33091849.162590027 75602498.505462646 0 0 0 0 45613233.207443237 84776359.831802368 0 84776359.831802368 64975030.054672241 0 0 0 0 14491692.439007759 65299969.981326103 0 65299969.981326103 98844703.683853149 0 0 0 0 12311631.196395874 50968397.889343262 0 50968397.889343262 52766447.354064941 0 0 0 0 13496039.779571533 92480509.578056335 0 92480509.578056335 55156738.116775513 0 0 0 0 73098302.099502563 39225802.936897278 0 39225802.936897278 -52706478.06186676 0 0 0 0 -21583267.973342896 -14341994.993896484 0 -14341994.993896484 10488491.879501343 0 0 0 0 22282448.48677063 1074935.7469406128 0 1074935.7469406128 10457805.037704468 0 0 0 0 -42422286.224197388 -2805529.2870559692 0 -2805529.2870559692 27327172.175735474 0 0 0 0 12195415.334320068 14502142.897125244 0 14502142.897125244 58274547.969299316 0 0 0 0 31385958.833992004 59843375.135414124 0 59843375.135414124 30717180.308563232 0 0 0 0 26272297.84728241 56854382.166233063 0 56854382.166233063 53591859.317062378 0 0 0 0 -6454670.0208282471 9877891.3249053955 0 9877891.3249053955 24955776.280288696 0 0 0 0 6463063.0284087285 12696246.143291293 0 12696246.143291293 10041541.049334709 0 0 0 0 -26244616.342315674 11217071.193260193 0 11217071.193260193 26727647.932262421 0 0 0 0 -42005417.261079907 11434091.059956014 0 11434091.059956014 30356241.471542358 0 0 0 0 -3925059.3509668596 10989269.869484192 0 10989269.869484192 11909126.27953798 0 0 0 0 -10059544.822616577 19067933.862229347 0 19067933.862229347 3787504.4010009766 0 0 0 0 -14114358.695556641 19604090.360240936 0 19604090.360240936 5270722.1783790588 0 0 0 0 -16491902.940414429 9264303.4363918304 0 9264303.4363918304 -1881661.1970825195 0 0 0 0 -7189021.9723052382 16283959.423320685 0 16283959.423320685 19002566.770037733 0 0 0 0 -9171383.4974975586 8178509.3594665527 0 8178509.3594665527 4348807.4167175293 0 0 0 0 -4179961.1882731402 20957230.988904551 0 20957230.988904551 5991179.3377044499 0 0 0 0 -3468888.4623737335 35568732.350475311 0 35568732.350475311 57440577.392074585 0 0 0 0 9880419.5994544774 11219659.760405343 0 11219659.760405343 2670207.2308644019 0 0 0 0 46552954.365020752 32076790.218067169 0 32076790.218067169 14738549.368915558 0 0 0 0 4673344.3209851831 6444435.1136378124 0 6444435.1136378124 2695165.438229531 0 0 0 0 -5740772.5047895182 16142492.764329379 0 16142492.764329379 12474132.668726582 0 0 0 0 2599214.1385376994 3079948.7283031233 0 3079948.7283031233 1281262.4685305301 0 0 0 0 -32222977.711326599 -8632610.1039085388 0 -8632610.1039085388 53220570.074050903 0 0 0 0 21782602.439239979 133242855.30218744 0 133242855.30218744 109580925.20180511 0 0 0 0 50143788.301567078 58742732.85798645 0 58742732.85798645 4239690.4772119522 0 0 0 0 29419410.929641724 36190364.39679718 0 36190364.39679718 -34461732.029075623 0 0 0 0 11800739.539413929 45473242.62530756 0 45473242.62530756 13163232.480957031 0 0 0 0 36134247.455770493 20457666.349056244 0 20457666.349056244 2000578.6112747192 0 0 0 0 13333474.235069275 50261305.975608826 0 50261305.975608826 13004470.220655441 0 0 0 0 -36815658.707260132 30087586.713653088 0 30087586.713653088 -3687482.1955108643 0 0 0 0 1929435.0895388573 1204497.7982692886 0 1204497.7982692886 -2294986.9824186098 0 0 0 0 155783116.92549133 21101193.484698296 0 21101193.484698296 -90546494.903300285 0 0 0 0 -149398841.21429443 25993753.087140083 0 25993753.087140083 206773185.24209404 0 0 0 0 87965613.845581055 94585426.167369843 0 94585426.167369843 65317021.389036179 0 0 0 0 103484386.95336914 95111716.839671135 0 95111716.839671135 41428293.894386292 0 0 0 0 94112132.375 82365922.617779732 0 82365922.617779732 36518717.092205524 0 0 0 0 -86096708.813049316 38754827.16219902 0 38754827.16219902 42847711.695981979 0 0 0 0 114727883.7015543 -4337716.0980914235 0 -4337716.0980914235 46057125.795015335 0 0 0 0 -136989662.05885315 82872353.284052849 0 82872353.284052849 55111481.453918457 0 0 0 0 -11674161.153992578 12024835.495165611 0 12024835.495165611 17844619.333005816 0 0 0 0 -86325897.060913086 -26030572.85219574 0 -26030572.85219574 -20290975.173906326 0 0 0 0 -40930769.286132812 -8044179.8701820374 0 -8044179.8701820374 -19935715.190414429 0 0 0 0 -9060823.9675769806 11344939.018676246 0 11344939.018676246 16213259.019826578 0 0 0 0 39849950.457244873 -90709486.619874001 0 -90709486.619874001 14170193.743560791 0 0 0 0 44979061.014862061 -40086658.669121742 0 -40086658.669121742 -88902053.339269638 0 0 0 0 9373320.6894989014 14595667.046890259 0 14595667.046890259 57962878.090278625 0 0 0 0 50772515.355773926 -14621450.607254982 0 -14621450.607254982 22721688.856424332 0 0 0 0 19986006.347930908 -29968497.98155117 0 -29968497.98155117 15913553.82982254 0 0 0 0 55799858.395233154 58207485.513145447 0 58207485.513145447 84279235.538194656 0 0 0 0 100814136.82925415 68518109.962296486 0 68518109.962296486 46721905.284801483 0 0 0 0 59294693.303497314 68240230.308413506 0 68240230.308413506 47575993.332590103 0 0 0 0 52408928.362731934 98308228.041576385 0 98308228.041576385 38450289.183168411 0 0 0 0 50886009.812728882 44343247.35495472 0 44343247.35495472 11877727.081514359 0 0 0 0 70907175.903884888 64911656.385961533 0 64911656.385961533 27607154.165966034 0 0 0 0 29885246.861778259 6439547.6383070946 0 6439547.6383070946 3142258.6136035919 0 0 0 0 61526537.474090576 50317025.027388096 0 50317025.027388096 -57171999.204330444 0 0 0 0 5006057.1922302246 96198074.893650055 0 96198074.893650055 -1870441.8470649719 0 0 0 0 9802316.6045694351 45352472.923247695 0 45352472.923247695 -10669449.111808777 0 0 0 0 51515894.722643852 32250115.717672467 0 32250115.717672467 -150111470.42795563 0 0 0 0 50688099.770950317 21084810.573517799 0 21084810.573517799 -33636170.707514763 0 0 0 0 11210420.323730469 82364806.506934404 0 82364806.506934404 124259800.0645237 0 0 0 0 28988116.152404785 63581618.776165009 0 63581618.776165009 35792155.8360672 0 0 0 0 39102251.436141968 109287308.49090767 0 109287308.49090767 100951314.42749977 0 0 0 0 64087582.674133301 100404396.15590096 0 100404396.15590096 39496983.254449666 0 0 0 0 -2980864.9451028779 5524322.5005503586 0 5524322.5005503586 6662512.8918222971 0 0 0 0 63935528.971073151 93295052.195306301 0 93295052.195306301 88789248.006381035 0 0 0 0 66204015.243637085 85804356.572983265 0 85804356.572983265 113472054.94420481 0 0 0 0 59296439.16519165 82143343.391517639 0 82143343.391517639 54659285.008966446 0 0 0 0 103488673.79055786 97017909.673253059 0 97017909.673253059 88616119.289683819 0 0 0 0 58564914.891809464 87036876.339516103 0 87036876.339516103 106399415.30269051 0 0 0 0 -11676061.915039062 59834327.593666553 0 59834327.593666553 -33881796.328109443 0 0 0 0 19758123.722213745 44668731.136680841 0 44668731.136680841 -137480905.32959318 0 0 0 0 24733224.892524719 10454602.742314458 0 10454602.742314458 -53761390.957982063 0 0 0 0 105983923.92948914 139514735.39504981 0 139514735.39504981 111386857.72205023 0 0 0 0 28847630.621482849 -17428219.079912484 0 -17428219.079912484 -201240518.8805654 0 0 0 0 -2707842.2623921484 2473972.4664950073 0 2473972.4664950073 4052851.6055484354 0 0 0 0 36108168.931274414 152272295.77750248 0 152272295.77750248 248985942.38810956 0 0 0 0 -7671128.2500244528 9685139.8114006091 0 9685139.8114006091 19456806.860492267 0 0 0 0 3030841.6498947144 12814416.516828537 0 12814416.516828537 5692220.7555179596 0 0 0 0 -53038180.51789856 8365836.0964679718 0 8365836.0964679718 32919607.554296374 0 0 0 0 6575498.0485731717 14435696.909058517 0 14435696.909058517 4295783.1306731049 0 0 0 0 2880584.1303405762 11833862.76033783 0 11833862.76033783 11303827.561759472 0 0 0 0 2576757.4941041172 13614744.241865084 0 13614744.241865084 8788914.358646784 0 0 0 0 3956691.7369308472 10896369.43444252 0 10896369.43444252 5364130.8116455078 0 0 0 0 -443677.75193614513 4603288.6211086623 0 4603288.6211086623 2011096.4834451233 0 0 0 0 28589575.571258545 -12159642.977178097 0 -12159642.977178097 15447973.796834469 0 0 0 0 -2324695.8564300537 56646647.64539814 0 56646647.64539814 110145444.27837658 0 0 0 0 -2837587.6758544967 178580.9411558006 0 178580.9411558006 2622401.5812500548 0 0 0 0 -3908620.5160293579 63890325.361944079 0 63890325.361944079 -66643816.856805325 0 0 0 0 1458647.8532724231 11659132.726701621 0 11659132.726701621 5087618.1139087984 0 0 0 0 -11102026.777543068 3429212.1781368181 0 3429212.1781368181 -6855974.7873849869 0 0 0 0 633372.14112091064 11225055.037921906 0 11225055.037921906 5124236.4377346039 0 0 0 0 8236381.3913695607 14174152.718861535 0 14174152.718861535 2063154.6194390981 0 0 0 0 3567463.5335083008 17703408.320502281 0 17703408.320502281 -3622835.8727817535 0 0 0 0 -203594858.37322998 182177512.7985754 0 182177512.7985754 -99919510.614667416 0 0 0 0 30338649.711898804 -1755308.7388182878 0 -1755308.7388182878 -326719135.91132069 0 0 0 0 871268.44938419387 3986569.5591615923 0 3986569.5591615923 1169754.9551478522 0 0 0 0 -142278397.63708496 94275735.351050854 0 94275735.351050854 -790541.12539464235 0 0 0 0 -53922631.154098511 234276664.93567777 0 234276664.93567777 -314254334.60921049 0 0 0 0 52942101.896453857 80109787.583513498 0 80109787.583513498 -141314161.14774799 0 0 0 0 35455192.793193817 126388847.78351164 0 126388847.78351164 -213054948.70425034 0 0 0 0 107120926.41944504 66297612.223104894 0 66297612.223104894 -252600384.0855217 0 0 0 0 80036791.05947876 -25490657.341319561 0 -25490657.341319561 -438147402.91498184 0 0 0 0 -200954511.4023056 269507130.62006688 0 269507130.62006688 -241241948.61366749 0 0 0 0 17614387.86946106 186357889.20431995 0 186357889.20431995 -467180166.38457394 0 0 0 0 51259961.663707733 42356687.975288212 0 42356687.975288212 -185626107.64956665 0 0 0 0 8673922.8307952881 22338939.388574839 0 22338939.388574839 -189723541.96941924 0 0 0 0 -29200551.622749329 -37212940.713028193 0 -37212940.713028193 -196423386.06249523 0 0 0 0 54230990.748756409 51396846.071017504 0 51396846.071017504 -228565014.18991184 0 0 0 0 99338218.821792603 22022078.841316223 0 22022078.841316223 -247856848.63238025 0 0 0 0 140785619.38787842 -44571736.265576363 0 -44571736.265576363 -178183199.86053658 0 0 0 0 82930335.501960754 -13261156.78086251 0 -13261156.78086251 -173405586.50274086 0 0 0 0 41621752.300613403 1935662.3795342445 0 1935662.3795342445 -142702603.97852778 0 0 0 0 39288363.059980392 -31636429.671393201 0 -31636429.671393201 -81146563.790737152 0 0 0 0 10232033.732116699 -54994471.806936741 0 -54994471.806936741 18674721.14023757 0 0 0 0 87878240.397926331 -70627467.017198801 0 -70627467.017198801 -88180030.166210651 0 0 0 0 6950925.9890670776 -47012391.517916679 0 -47012391.517916679 -201514.86245059967 0 0 0 0 19888845.279338121 -66921505.866642185 0 -66921505.866642185 -15261393.919028282 0 0 0 0 19737450.317940712 -71120259.112072408 0 -71120259.112072408 10650751.018192291 0 0 0 0 138852700.81510925 -123083537.78822088 0 -123083537.78822088 -29921034.865266323 0 0 0 0 83994471.998199463 -38136998.553676605 0 -38136998.553676605 -141333514.48411369 0 0 0 0 -1165615.5216064453 -23524957.69067955 0 -23524957.69067955 65668928.988967896 0 0 0 0 165753002.56892395 -118204488.47020245 0 -118204488.47020245 -29806674.391117096 0 0 0 0 14112190.514892578 -99009999.268070221 0 -99009999.268070221 127070636.07577848 0 0 0 0 54000226.734802246 -135376178.5548625 0 -135376178.5548625 265194957.40370274 0 0 0 0 -7698227.367515564 -50234187.195434809 0 -50234187.195434809 18000312.904478073 0 0 0 0 1080555.5631713867 -41622577.744565964 0 -41622577.744565964 25931395.947697163 0 0 0 0 22639095.134887695 156963164.82735062 0 156963164.82735062 -195660098.94137478 0 0 0 0 52288567.286773682 154006204.29406834 0 154006204.29406834 -99394293.949421883 0 0 0 0 157512862.27703857 213065021.7026639 0 213065021.7026639 -174246240.02181053 0 0 0 0 282333527.16612244 -30688658.40831852 0 -30688658.40831852 -239891500.63282961 0 0 0 0 29849842.614982605 74709342.887876511 0 74709342.887876511 -65311067.744708061 0 0 0 0 287425011.96942139 -22006777.245889187 0 -22006777.245889187 -42828968.428980708 0 0 0 0 421097730.70260334 148676447.05268577 0 148676447.05268577 144972037.21424389 0 0 0 0 363972335.00283813 -283441507.84292936 0 -283441507.84292936 107900316.55953789 0 0 0 0 616343276.98834229 -281422560.80925846 0 -281422560.80925846 261736242.02192569 0 0 0 0 221740933.66682243 230717174.57600349 0 230717174.57600349 -67227328.272040367 0 0 0 0 310572917.10714722 23208524.588826656 0 23208524.588826656 -12403624.736187935 0 0 0 0 79966851.523132324 109332810.73272419 0 109332810.73272419 112596744.16069221 0 0 0 0 -20527109.191360474 114981660.15253735 0 114981660.15253735 -16282897.892931461 0 0 0 0 -28104899.977172852 207316049.60316229 0 207316049.60316229 -225891941.36863518 0 0 0 0 92747202.742981911 187857020.79235867 0 187857020.79235867 -132300540.16335011 0 0 0 0 -55302572.73638916 238201717.46177864 0 238201717.46177864 -64060301.473089695 0 0 0 0 70915625.328920364 234314490.43466979 0 234314490.43466979 -172437994.86573124 0 0 0 0 -122444798.04827881 293295653.55779791 0 293295653.55779791 -135984661.66460419 0 0 0 0 -53991448.408065796 219951671.83600354 0 219951671.83600354 -203712066.13871956 0 0 0 0 -32699712.016296387 274748829.27374697 0 274748829.27374697 -218901477.54667377 0 0 0 0 -36087845.624176025 289931865.20389462 0 289931865.20389462 -156036226.94701672 0 0 0 0 -163652977.00286865 223024663.60667562 0 223024663.60667562 -221023431.7762382 0 0 0 0 -348012888.60359192 226702660.03056908 0 226702660.03056908 -142474023.39863491 0 0 0 0 -143445932.48340607 285101092.29599261 0 285101092.29599261 -174851024.87233543 0 0 0 0 -170417721.30314636 183903638.74152851 0 183903638.74152851 -129919889.97389507 0 0 0 0 -280097173.77630615 326477862.4519968 0 326477862.4519968 -246776889.74764156 0 0 0 0 -389851544.49521255 311985385.97147977 0 311985385.97147977 -154687952.15580845 0 0 0 0 78861795.256500244 22492051.428498268 0 22492051.428498268 -66541579.129600525 0 0 0 0 -352387147.04171753 223893163.11855841 0 223893163.11855841 -227228092.43085337 0 0 0 0 -74547866.58745575 61002301.048573494 0 61002301.048573494 15481571.022853851 0 0 0 0 -45202539.459564209 -185727229.13238716 0 -185727229.13238716 27005882.230776072 0 0 0 0 3962778.4100655764 3306861.9703453034 0 3306861.9703453034 1231148.4199057235 0 0 0 0 2835475.0549163818 -13776067.55828166 0 -13776067.55828166 148456410.40163565 0 0 0 0 30113585.314369202 -53066406.756863117 0 -53066406.756863117 -154154664.9322238 0 0 0 0 11840278.348878317 11542728.016420638 0 11542728.016420638 4727537.5769255795 0 0 0 0 -51978477.015090942 149424968.31019974 0 149424968.31019974 -79941819.599526405 0 0 0 0 -5382916.1149902344 22273980.084863663 0 22273980.084863663 -7619008.5355300903 0 0 0 0 73902188.69934082 128128043.09250402 0 128128043.09250402 -162214036.74504521 0 0 0 0 37034093.719924927 97671653.996166229 0 97671653.996166229 -89187901.452000618 0 0 0 0 90245684.39200592 -28293941.586794853 0 -28293941.586794853 -41648757.962590218 0 0 0 0 -72153883.927734375 21208060.144931793 0 21208060.144931793 -39016792.77375263 0 0 0 0 4641952.2676505968 1491588.6047339216 0 1491588.6047339216 -5377545.4236045284 0 0 0 0 7094048.1656373851 5929003.211115187 0 5929003.211115187 1895924.2575675207 0 0 0 0 12661956.342285156 40733342.611442566 0 40733342.611442566 -53670951.21774292 0 0 0 0 48786371.620498657 18995137.718883038 0 18995137.718883038 -66748587.170717239 0 0 0 0 -124116971.09729004 -64458652.902572632 0 -64458652.902572632 -80854651.87786293 0 0 0 0 -157732880.66377258 -9238783.8569822311 0 -9238783.8569822311 -16879766.784070969 0 0 0 0 166534074.68203735 -36003944.673297882 0 -36003944.673297882 -187701161.54711151 0 0 0 0 98149035.222423553 142179388.25858116 0 142179388.25858116 21983672.171859741 0 0 0 0 1441301.9234313965 90396959.10700798 0 90396959.10700798 68543072.175303459 0 0 0 0 -925543.61947631836 19304582.336166382 0 19304582.336166382 -10298160.955955505 0 0 0 0 -710020.63549804688 16961822.311386108 0 16961822.311386108 -8068142.511932373 0 0 0 0 -3613026.578414917 18856449.640098572 0 18856449.640098572 -6910479.4227752686 0 0 0 0 -1219506.8651885986 16078943.465641022 0 16078943.465641022 -4760764.7311887741 0 0 0 0 -2894595.8930892944 16527706.088922501 0 16527706.088922501 -4713385.3213882446 0 0 0 0 -766215.94955444336 16678577.508029938 0 16678577.508029938 -6965250.5740315914 0 0 0 0 -1431884.3561687469 17947869.615464211 0 17947869.615464211 -5992066.2486572266 0 0 0 0 23922.541397094727 16637380.706638336 0 16637380.706638336 -5868974.8806712627 0 0 0 0 -291328.02030944824 17111468.694265604 0 17111468.694265604 -4826424.0043411255 0 0 0 0 -430912.2671687603 14413982.449241281 0 14413982.449241281 -2275328.4595413208 0 0 0 0 -184264.70397949219 18640135.546936035 0 18640135.546936035 -6161490.5344772339 0 0 0 0 12148344.679252164 10579092.753650945 0 10579092.753650945 -1586364.6059259754 0 0 0 0 -879574.88475036621 18336365.489517212 0 18336365.489517212 -6250950.6436920166 0 0 0 0 -11599460.843017578 48495711.234037399 0 48495711.234037399 26606147.411582947 0 0 0 0 68510750.972808838 107073486.5544548 0 107073486.5544548 16623384.797943115 0 0 0 0 6446611.9933232255 1744724.8437139075 0 1744724.8437139075 -5831202.5469097793 0 0 0 0 -1297371.0986022949 78704126.361808777 0 78704126.361808777 63335902.189916611 0 0 0 0 -25784617.082679749 17566256.565532207 0 17566256.565532207 -29507176.748943329 0 0 0 0 -31049838.419677734 9719394.0519371033 0 9719394.0519371033 -26833384.499908447 0 0 0 0 -11112777.132904053 -9823326.8039093018 0 -9823326.8039093018 -107736831.51986694 0 0 0 0 -6548300.3363342285 58041583.11157608 0 58041583.11157608 29797582.139751434 0 0 0 0 -23035810.849761963 45135406.283824921 0 45135406.283824921 18351016.521148682 0 0 0 0 -2704474.4884643555 56932810.574146271 0 56932810.574146271 21161199.804048538 0 0 0 0 -13620005.505950928 57761858.302467346 0 57761858.302467346 36835850.781074524 0 0 0 0 -17985009.304672241 45444585.518457413 0 45444585.518457413 18608719.736442566 0 0 0 0 -12703732.689544678 50442547.241592407 0 50442547.241592407 21086154.791725159 0 0 0 0 -22509836.258868217 32264555.809866071 0 32264555.809866071 -4685331.4858398438 0 0 0 0 19412809.366516113 84717343.783668518 0 84717343.783668518 13281806.213891983 0 0 0 0 -18414206.21383667 32621272.479763031 0 32621272.479763031 23234532.002746224 0 0 0 0 60440837.248413086 -13577725.033325195 0 -13577725.033325195 -179561440.47103882 0 0 0 0 91978864.923431396 27981573.225215912 0 27981573.225215912 -183240909.98635864 0 0 0 0 143319419.30728149 109435934.07060051 0 109435934.07060051 -135236497.05885696 0 0 0 0 714114.73381277919 1122551.8625328615 0 1122551.8625328615 812355.68514660839 0 0 0 0 29098159.886230469 43939372.929954529 0 43939372.929954529 -46406868.273193359 0 0 0 0 4523110.6077270508 54772429.157020569 0 54772429.157020569 -43545416.488502502 0 0 0 0 -27944297.191589355 26691593.899131775 0 26691593.899131775 -4720107.3246421814 0 0 0 0 -19702830.523742676 38824186.440448761 0 38824186.440448761 1373548.6119995117 0 0 0 0 -18429642.535888672 15639774.042041779 0 15639774.042041779 -13335429.588874817 0 0 0 0 11696234.74438858 -16285639.398802876 0 -16285639.398802876 -224154870.79081631 0 0 0 0 -9715664.2237548828 28479487.379796982 0 28479487.379796982 -63324492.321121216 0 0 0 0 11287493.898293912 10436210.383217398 0 10436210.383217398 54153.942765570711 0 0 0 0 -87051635.649658203 -38954391.584716797 0 -38954391.584716797 126435473.12871552 0 0 0 0 -41573936.620941162 -46158221.099933624 0 -46158221.099933624 -52299891.954846382 0 0 0 0 -14225467.181365967 25247196.092744827 0 25247196.092744827 -8396517.0236463547 0 0 0 0 -34024394.233551025 28734215.075059891 0 28734215.075059891 49780643.342092514 0 0 0 0 -42715974.730392456 70432034.166876793 0 70432034.166876793 112142001.78031754 0 0 0 0 9784523.9400939941 170756143.28028297 0 170756143.28028297 -178303903.32994092 0 0 0 0 -108453817.84595871 248760732.39822227 0 248760732.39822227 -227110323.94355011 0 0 0 0 78685255.112419128 5938791.2933254242 0 5938791.2933254242 -30544928.550384521 0 0 0 0 8633979.4045052379 7516581.2445702609 0 7516581.2445702609 -36916.489767189836 0 0 0 0 -104439409.92048645 270194710.50346899 0 270194710.50346899 -207993611.89547646 0 0 0 0 4524994.9978005085 2085479.7928392887 0 2085479.7928392887 -2707104.5312186382 0 0 0 0 15686731.26109314 61402654.348115921 0 61402654.348115921 12370742.787899017 0 0 0 0 8559239.4026184082 81503925.876413345 0 81503925.876413345 53131576.663995743 0 0 0 0 31683.986679077148 16524265.010050774 0 16524265.010050774 -5864949.718837738 0 0 0 0 6792828.3416539431 14613023.9241319 0 14613023.9241319 -10305690.326084137 0 0 0 0 8294505.9339141846 20852385.790819168 0 20852385.790819168 -30346804.680213928 0 0 0 0 6808096.1861877441 16462487.368156433 0 16462487.368156433 -21236047.396831512 0 0 0 0 3229741.1421127319 47128470.52722168 0 47128470.52722168 -45747687.807949066 0 0 0 0 7131899.7751469612 31293098.450978398 0 31293098.450978398 -18624476.337936401 0 0 0 0 3146221.3781890869 46644064.016843796 0 46644064.016843796 30424699.256614685 0 0 0 0 -11018.888999938965 31458042.38073349 0 31458042.38073349 83457955.315483093 0 0 0 0 22331983.313735962 21827243.603597641 0 21827243.603597641 51370683.777740479 0 0 0 0 9791873.5426483154 25919723.549589634 0 25919723.549589634 77688014.681816101 0 0 0 0 5352833.9288101196 38567198.756852627 0 38567198.756852627 100482835.74006653 0 0 0 0 3494693.1337585449 57525099.438552856 0 57525099.438552856 187136273.30633926 0 0 0 0 90163015.604003906 10648053.513713837 0 10648053.513713837 -91641972.015073776 0 0 0 0 36942357.481124878 57678790.468036652 0 57678790.468036652 89172401.091223717 0 0 0 0 -149973.44084746391 -754065.51588625833 0 -754065.51588625833 42946.652452401351 0 0 0 0 -56647454.670043945 563500.90929222107 0 563500.90929222107 -7884454.2670822144 0 0 0 0 7425110.0118484497 48129069.173419952 0 48129069.173419952 96459032.85824585 0 0 0 0 18010941.326147079 30105780.652130127 0 30105780.652130127 86128461.453399658 0 0 0 0 12480050.883907318 55236545.182283401 0 55236545.182283401 70411288.074279785 0 0 0 0 15033192.984802246 21494663.079780579 0 21494663.079780579 103096516.45728302 0 0 0 0 11981183.178894043 24751905.403049469 0 24751905.403049469 59060795.060287476 0 0 0 0 1781967.614440918 50464436.815193176 0 50464436.815193176 67909148.316757202 0 0 0 0 -273853.015173316 -1368979.9384752084 0 -1368979.9384752084 -131333.73733263183 0 0 0 0 -3644927.1672821045 -1568443.0596313477 0 -1568443.0596313477 -17946393.679109573 0 0 0 0 11836833.706375122 -1423226.2200222015 0 -1423226.2200222015 -29424699.841957092 0 0 0 0 2768917.2753868103 40199206.323430061 0 40199206.323430061 108349705.49198914 0 0 0 0 2623967.8890533447 14399524.052606583 0 14399524.052606583 -6414370.7842559814 0 0 0 0 766856.94990666211 -273345.53302928805 0 -273345.53302928805 -1478761.307596514 0 0 0 0 -5817783.4100646973 -12753059.456981659 0 -12753059.456981659 -6859772.4620246887 0 0 0 0 6358178.624578476 23251709.851901591 0 23251709.851901591 -33406574.779697418 0 0 0 0 -2287611.7546844482 13055724.26102829 0 13055724.26102829 -32786318.387434959 0 0 0 0 -10403277.700424194 14353537.387828827 0 14353537.387828827 -15263214.213310242 0 0 0 0 -10434328.944442749 13810375.597309113 0 13810375.597309113 -19465347.351661682 0 0 0 0 -6248623.1271972656 9151045.8444137573 0 9151045.8444137573 -26833254.885990143 0 0 0 0 -3378090.7658996582 3939913.3575553894 0 3939913.3575553894 5117433.715549469 0 0 0 0 1472952.0645222068 -95081.925482776947 0 -95081.925482776947 -4002278.4899504473 0 0 0 0 -11641675.033599854 12429817.356313705 0 12429817.356313705 -18175078.957401276 0 0 0 0 -16004.158569335938 4969197.5370879173 0 4969197.5370879173 479950.90061187744 0 0 0 0 -2022833.8773561418 5092124.6751807593 0 5092124.6751807593 -8759487.5704603232 0 0 0 0 -1313474.9176939102 4870418.8541040421 0 4870418.8541040421 1533602.7345434763 0 0 0 0 -2757449.2340545654 4643837.7403640747 0 4643837.7403640747 4700146.7227191925 0 0 0 0 -548013.84655380249 16535256.51147747 0 16535256.51147747 12823194.703338623 0 0 0 0 1804153.7228807434 3749601.3376315054 0 3749601.3376315054 -11407924.119410042 0 0 0 0 -5511123.1305847168 -5422615.5335063934 0 -5422615.5335063934 7180862.6783256531 0 0 0 0 -1818395.6126861572 8127543.0547027588 0 8127543.0547027588 -2275400.074848175 0 0 0 0 -833146.35131835938 4134297.4307518005 0 4134297.4307518005 -3088883.8006010056 0 0 0 0 -4660534.1251831055 6848173.2282142639 0 6848173.2282142639 5011960.6634197235 0 0 0 0 114530.01824951172 6049884.5490550995 0 6049884.5490550995 -7521716.9040489197 0 0 0 0 1328883.0149993896 29525809.330757141 0 29525809.330757141 43799959.440803528 0 0 0 0 -234718.53334006667 -1177169.544200398 0 -1177169.544200398 -654459.97650033748 0 0 0 0 1814490.9705352783 4125120.6115493774 0 4125120.6115493774 -10894509.704620361 0 0 0 0 9292453.6971168518 33291233.794257164 0 33291233.794257164 35189609.53767395 0 0 0 0 5745120.8623657227 38918545.821743011 0 38918545.821743011 43966861.136302948 0 0 0 0 1393630.7816019058 57127561.424771786 0 57127561.424771786 33251184.392456055 0 0 0 0 4143040.0498352051 60962082.134742737 0 60962082.134742737 20601385.279724121 0 0 0 0 -23836892.649124146 47323601.130012512 0 47323601.130012512 22891047.011327744 0 0 0 0 15455078.291534424 1251153.528137207 0 1251153.528137207 13479182.291697979 0 0 0 0 1674411.6318054199 51035480.324789047 0 51035480.324789047 9808018.731338501 0 0 0 0 -17512060.91362381 30983251.98635006 0 30983251.98635006 2673166.8270568848 0 0 0 0 -470294.60350360349 2722913.0641472563 0 2722913.0641472563 1079662.1859321184 0 0 0 0 -26566800.099056244 38709787.932736397 0 38709787.932736397 -56256781.203903198 0 0 0 0 -23149865.13180542 -14035392.232978821 0 -14035392.232978821 -7197799.8040466309 0 0 0 0 -112395.72321610153 -263745.38535926491 0 -263745.38535926491 224382.7495069399 0 0 0 0 -14947434.932228088 -2022258.9348783493 0 -2022258.9348783493 9799836.1191864014 0 0 0 0 554956.4873046875 2915273.2672595978 0 2915273.2672595978 -7313198.4113349915 0 0 0 0 -128070.16465294734 284824.65344899893 0 284824.65344899893 83766.525748163462 0 0 0 0 31535363.893829346 50947625.477872849 0 50947625.477872849 -2388014.041601181 0 0 0 0 -43908972.045843124 61104474.700778484 0 61104474.700778484 4931767.6041564941 0 0 0 0 -2878051.3693814799 5485331.0474947393 0 5485331.0474947393 -7504588.9211647799 0 0 0 0 -39194013.811691284 9591920.0628662109 0 9591920.0628662109 2572740.5262832642 0 0 0 0 -49837976.939559937 59701918.809761047 0 59701918.809761047 -20453854.249279022 0 0 0 0 27465323.069671631 -14737859.193002701 0 -14737859.193002701 -17868923.779491425 0 0 0 0 -19059209.221679688 43435502.737762451 0 43435502.737762451 16629427.032974243 0 0 0 0 5972620.9768981934 5173052.1408653259 0 5173052.1408653259 2996919.8676528931 0 0 0 0 -2864332.7933159508 5489229.0362646729 0 5489229.0362646729 -6478230.2655186402 0 0 0 0 49916563.508636475 24154994.827753067 0 24154994.827753067 -13732823.110269547 0 0 0 0 -146191962.06796265 259789866.25934982 0 259789866.25934982 -326433307.69076157 0 0 0 0 29199938.550579071 15384740.086310387 0 15384740.086310387 -3097847.3302764893 0 0 0 0 70529985.15738678 -81509396.803006172 0 -81509396.803006172 -164191991.31665039 0 0 0 0 -135145515.29005432 130203670.03352928 0 130203670.03352928 -80015349.400896072 0 0 0 0 -154773297.84875107 -18832767.285068005 0 -18832767.285068005 20951664.04207325 0 0 0 0 61188297.316253662 -170357937.34623337 0 -170357937.34623337 188703351.38912296 0 0 0 0 -1346358.64453125 99826244.100082397 0 99826244.100082397 -235513977.41338825 0 0 0 0 -792163.05962856859 431860.7291812785 0 431860.7291812785 -51471.970021823421 0 0 0 0 -105403588.28752136 87213755.547794342 0 87213755.547794342 -22435530.865439415 0 0 0 0 -60809084.233413696 69363934.44963932 0 69363934.44963932 41208076.884421349 0 0 0 0 51292785.958404541 53224749.699183464 0 53224749.699183464 25831193.94135952 0 0 0 0 -9790264.7814941406 68629196.661351204 0 68629196.661351204 112646575.05946064 0 0 0 0 68977939.561828613 30740051.406938076 0 30740051.406938076 -36188384.23443532 0 0 0 0 -35911281.97432518 -57399247.549569964 0 -57399247.549569964 -11314228.365162849 0 0 0 0 -71620578.272613525 125362522.22031784 0 125362522.22031784 -42277314.647571564 0 0 0 0 990484.26000716537 -1355656.5695333071 0 -1355656.5695333071 -3951895.2316963626 0 0 0 0 -40490406.390663147 39866405.310927629 0 39866405.310927629 87066989.881670952 0 0 0 0 -13319506.388397217 -20229200.655533791 0 -20229200.655533791 -7242983.2522640228 0 0 0 0 44576186.61315918 14196929.070528507 0 14196929.070528507 81072782.511802852 0 0 0 0 -738993.32821655273 8138346.4687271118 0 8138346.4687271118 -31910130.663116455 0 0 0 0 63994812.983627319 -58382512.759269714 0 -58382512.759269714 -11899750.718647003 0 0 0 0 120968031.92800903 250725133.77686167 0 250725133.77686167 59993066.880835772 0 0 0 0 169470822.33688354 178767944.44467711 0 178767944.44467711 -19346319.938059807 0 0 0 0 186466384.37921143 254762401.0526669 0 254762401.0526669 32543673.84787941 0 0 0 0 39736913.155441284 271315457.54504347 0 271315457.54504347 367364374.75316435 0 0 0 0 99975869.758300304 47176385.301559806 0 47176385.301559806 114580460.26152325 0 0 0 0 14247376.987442017 92717331.492141724 0 92717331.492141724 305448094.04654908 0 0 0 0 1510949.2487335205 -78887838.276273012 0 -78887838.276273012 -322382760.01751232 0 0 0 0 -1202439.0834352523 568097.59627747163 0 568097.59627747163 1502162.3020333592 0 0 0 0 109552607.42567444 27904256.482984543 0 27904256.482984543 -703664266.7629199 0 0 0 0 44887505.027755737 -138419007.52117443 0 -138419007.52117443 20540690.555797398 0 0 0 0 -9868472.9666595459 38386551.505420923 0 38386551.505420923 -159486921.98342752 0 0 0 0 -287973737.45318604 633607806.29115343 0 633607806.29115343 183861896.73971939 0 0 0 0 120840199.50841522 58543083.995400429 0 58543083.995400429 5456974.2188484669 0 0 0 0 183416335.07668877 287512022.72668362 0 287512022.72668362 -240230358.03290176 0 0 0 0 647337626.60681152 -778934757.11247826 0 -778934757.11247826 -107860060.36135352 0 0 0 0 681641.52753161639 100074.55905804411 0 100074.55905804411 -1176771.170754625 0 0 0 0 697418.79588193912 -2178209.9051890187 0 -2178209.9051890187 -671524.9833826063 0 0 0 0 -3103012.2200927734 -8221061.9491276741 0 -8221061.9491276741 17045352.747306824 0 0 0 0 548240.46653390676 -457281.36019052565 0 -457281.36019052565 -12235286.922498122 0 0 0 0 184275460.87804413 6485424.6102820635 0 6485424.6102820635 -73357765.502557755 0 0 0 0 349555.74366291333 4233677.4067602865 0 4233677.4067602865 -12434238.678424533 0 0 0 0 47157842.178161621 -31333680.461936474 0 -31333680.461936474 -17621679.099313259 0 0 0 0 -24531103.438430786 -15139796.439314365 0 -15139796.439314365 -37011545.05927372 0 0 0 0 4786516.2994689941 29601914.506462097 0 29601914.506462097 -159678702.46811819 0 0 0 0 10494685.007705688 -25317147.406988621 0 -25317147.406988621 -59703051.742119789 0 0 0 0 27539097.124710083 -58836400.721596718 0 -58836400.721596718 -49539048.049808741 0 0 0 0 48396358.010986328 -32444823.730272293 0 -32444823.730272293 -22932216.750440598 0 0 0 0 15291897.332183838 -46656522.186078906 0 -46656522.186078906 -16102408.328163147 0 0 0 0 10159109.688591003 -42389409.16131258 0 -42389409.16131258 5937476.3743972778 0 0 0 0 4667403.311630249 -33435216.401312351 0 -33435216.401312351 9676069.5236377716 0 0 0 0 5950242.0821990967 -25942769.542266726 0 -25942769.542266726 -5545304.7332458496 0 0 0 0 19691666.080745697 795165.34867268801 0 795165.34867268801 -26835755.081165314 0 0 0 0 -7511110.1174163818 -1323001.0669603348 0 -1323001.0669603348 -17030032.500235558 0 0 0 0 25498161.929122925 -20628529.893523216 0 -20628529.893523216 -9728174.6233053505 0 0 0 0 40727311.425384521 -28841806.840530872 0 -28841806.840530872 -5576184.5491657257 0 0 0 0 38882431.662143707 -20665361.009657085 0 -20665361.009657085 -2455628.0017414093 0 0 0 0 225072.2355542928 605164.06632200652 0 605164.06632200652 -1768292.8621742742 0 0 0 0 64614627.552124023 -23550103.971735716 0 -23550103.971735716 -21359374.073554516 0 0 0 0 546973.36523837037 2491627.1164484881 0 2491627.1164484881 -12899664.737945843 0 0 0 0 75077030.796234131 23615633.987728119 0 23615633.987728119 -19612723.438718796 0 0 0 0 90011926.944717407 35181295.990458488 0 35181295.990458488 -80883258.288482666 0 0 0 0 70684348.584869385 -37697694.796257019 0 -37697694.796257019 -100400145.02815247 0 0 0 0 -76319727.807800293 74395510.526222229 0 74395510.526222229 132446247.1968689 0 0 0 0 -47728788.506225586 -80271916.251033783 0 -80271916.251033783 -17925968.958999634 0 0 0 0 -11650981.230361938 -106703985.36714172 0 -106703985.36714172 -156549014.19573975 0 0 0 0 69938415.319328308 69912616.678555489 0 69912616.678555489 117171237.80031586 0 0 0 0 146540869.95396423 64734065.80627346 0 64734065.80627346 -198625738.57097244 0 0 0 0 -933522.47532996535 633542.13051204756 0 633542.13051204756 -5250880.4652715726 0 0 0 0 5099220.1355743408 -19181949.863290787 0 -19181949.863290787 33123696.452396393 0 0 0 0 747894.1973919943 -1310228.4645569278 0 -1310228.4645569278 -5518016.0821476253 0 0 0 0 1335980.2019348145 -753402.14233398438 0 -753402.14233398438 -2512126.2719621658 0 0 0 0 1457424.0952290278 2000104.4977030568 0 2000104.4977030568 -8699937.5573762879 0 0 0 0 -168097939.18243408 -172545853.9471035 0 -172545853.9471035 -41934956.396312714 0 0 0 0 -2457386.255083397 -926199.26701309718 0 -926199.26701309718 -3253702.2576388624 0 0 0 0 -47312036.616516113 32747146.502181053 0 32747146.502181053 -48393538.163216114 0 0 0 0 814533.37222221494 260209.42169914022 0 260209.42169914022 -2065394.07119649 0 0 0 0 -9619088.0832672119 2856301.7677764893 0 2856301.7677764893 -9664134.0648651123 0 0 0 0 -194185590.14628601 -82943160.642074585 0 -82943160.642074585 19099098.059932709 0 0 0 0 -29753.674167412333 93103.82536386326 0 93103.82536386326 -289150.47459948808 0 0 0 0 -100197508.49486542 101535734.81472683 0 101535734.81472683 47910932.364833832 0 0 0 0 -202585418.90180969 23189896.676218033 0 23189896.676218033 40102395.089447021 0 0 0 0 -25187364.437553406 23450552.892177582 0 23450552.892177582 -21942900.39874649 0 0 0 0 -64147133.777301788 2488260.4912650585 0 2488260.4912650585 -6754441.9133453369 0 0 0 0 -29062274.682563782 30536812.207102776 0 30536812.207102776 -24107219.8543396 0 0 0 0 135933.82318065781 -301076.01363836229 0 -301076.01363836229 -1198579.0104631335 0 0 0 0 -23027302.613750458 30599518.310259819 0 30599518.310259819 -19198105.823951721 0 0 0 0 -31969102.525932312 25394439.768954754 0 25394439.768954754 -18511158.449428558 0 0 0 0 -33022949.974609375 14704383.190601349 0 14704383.190601349 -11567225.083751678 0 0 0 0 -62991180.009796143 26599033.843776703 0 26599033.843776703 -11434257.365959167 0 0 0 0 -35497345.369277954 33856161.568573952 0 33856161.568573952 -23058543.957778931 0 0 0 0 -23665477.945159912 -54437425.696250916 0 -54437425.696250916 19745719.571674347 0 0 0 0 36114265.951580048 -7699785.3907690048 0 -7699785.3907690048 -24405012.276016235 0 0 0 0 95917766.740577698 -10586270.044055939 0 -10586270.044055939 -99679542.40794754 0 0 0 0 517776.47981483489 -609197.86547429115 0 -609197.86547429115 -578835.38543545641 0 0 0 0 -28675322.012802124 -10756331.086751938 0 -10756331.086751938 10594152.755512238 0 0 0 0 6308763.2779541016 -51947710.740436554 0 -51947710.740436554 -3301731.6262283325 0 0 0 0 -6930042.748840332 -23743447.31029129 0 -23743447.31029129 34677445.034061432 0 0 0 0 -23997953.799346924 -38214835.385280609 0 -38214835.385280609 24995391.70690918 0 0 0 0 14590778.953521729 -14826530.357639313 0 -14826530.357639313 -12352681.466136932 0 0 0 0 2162759.0996305682 -2327680.8029285632 0 -2327680.8029285632 -2370954.7146956641 0 0 0 0 2880650.8146820068 -4502583.9637184143 0 -4502583.9637184143 4646862.1336956024 0 0 0 0 16716048.092453003 -1344397.9203872681 0 -1344397.9203872681 -11580524.838745117 0 0 0 0 1093311.7894539461 412314.98446583282 0 412314.98446583282 -15224091.998828698 0 0 0 0 -144598.69143676758 -558632.27673339844 0 -558632.27673339844 -6295436.3861427307 0 0 0 0 200799.31171868369 -2569808.5985673368 0 -2569808.5985673368 -1251078.2550322134 0 0 0 0 1853814.3481387235 946250.36987852678 0 946250.36987852678 -3564226.2622985374 0 0 0 0 -1320868.4050598145 -15368815.555152893 0 -15368815.555152893 -8187741.0397186279 0 0 0 0 3382398.8313751221 -87632.034780502319 0 -87632.034780502319 -2143953.7123184204 0 0 0 0 -6537434.8753852844 7003411.7497639656 0 7003411.7497639656 -13680465.146713257 0 0 0 0 -19073580.0691185 16016495.287704468 0 16016495.287704468 -14855118.187812805 0 0 0 0 -18010320.955276489 13056936.201835632 0 13056936.201835632 -6816008.1620330811 0 0 0 0 -27315885.343200684 18873674.48765564 0 18873674.48765564 -9106435.375213623 0 0 0 0 -24014702.508056641 5516738.5608215332 0 5516738.5608215332 716507.95503234863 0 0 0 0 -40419838.547103882 11601533.221107483 0 11601533.221107483 1839412.9770965576 0 0 0 0 238813.91140855849 -179849.78292356059 0 -179849.78292356059 -311207.20981122181 0 0 0 0 -7244528.6676483154 18833736.655902863 0 18833736.655902863 -16138279.900577545 0 0 0 0 -11561386.624740601 20722775.990200043 0 20722775.990200043 -16243957.708024979 0 0 0 0 -6406637.810836792 20083604.27636528 0 20083604.27636528 -16815804.230441093 0 0 0 0 -6915043.6702880859 16896203.258115768 0 16896203.258115768 -17734816.353797913 0 0 0 0 -4141907.1098480225 20103542.675900459 0 20103542.675900459 -17060992.166248322 0 0 0 0 5584898.1202468872 14961532.956506729 0 14961532.956506729 -24164335.460589409 0 0 0 0 5498646.5654067993 15973990.501785278 0 15973990.501785278 -2816118.0350227356 0 0 0 0 9209679.8283615112 -1694966.4360132217 0 -1694966.4360132217 -14130200.479053497 0 0 0 0 27034936.30708313 12554689.288555145 0 12554689.288555145 -27874490.065811157 0 0 0 0 -7887529.9642868042 32445675.168274879 0 32445675.168274879 -32037826.116802216 0 0 0 0 117040643.17102051 25413804.142765045 0 25413804.142765045 -33688961.678257942 0 0 0 0 13611459.486122131 -10621536.50296402 0 -10621536.50296402 -9033901.6784801483 0 0 0 0 -4226739.741153717 -6295777.3872971535 0 -6295777.3872971535 -10017965.325149536 0 0 0 0 -1875695.545357585 -1212675.5510893203 0 -1212675.5510893203 -1905511.786797476 0 0 0 0 3923380.0079612732 -822716.92184400558 0 -822716.92184400558 -10320864.315979004 0 0 0 0 4799407.6539497375 -605288.49296855927 0 -605288.49296855927 -11675259.108697891 0 0 0 0 7143303.3504486084 -587778.37928199768 0 -587778.37928199768 -14325060.486771107 0 0 0 0 3265907.310218811 3981672.981921196 0 3981672.981921196 -15250910.469871044 0 0 0 0 1582246.9408950806 3791897.5684161186 0 3791897.5684161186 -7303705.8088006973 0 0 0 0 -1557.0641617367073 8561663.7170401607 0 8561663.7170401607 -929288.87252044678 0 0 0 0 -4550.1375885009766 9531265.2604637146 0 9531265.2604637146 -14198799.33042717 0 0 0 0 -1710356.6694650948 -154463.5517417714 0 -154463.5517417714 1698578.9546764186 0 0 0 0 7555124.3959350586 934536.21376037598 0 934536.21376037598 -28869421.787540436 0 0 0 0 7523136.7415962219 -495816.17731714249 0 -495816.17731714249 -8257431.1290092468 0 0 0 0 7931235.4743041992 -1577067.6480922699 0 -1577067.6480922699 -13173351.61405611 0 0 0 0 -899367.33363202214 -77679.849015593529 0 -77679.849015593529 886846.34937045909 0 0 0 0 6550229.0545349121 1758905.9668064117 0 1758905.9668064117 -25606262.668213844 0 0 0 0 795.03521728515625 11034545.095583916 0 11034545.095583916 6651417.1131515503 0 0 0 0 6028996.6838874817 2812222.4994778633 0 2812222.4994778633 -4431921.4844741821 0 0 0 0 -4389695.839630127 30766948.867088318 0 30766948.867088318 -29204133.898282051 0 0 0 0 -3332859.3150482178 35860651.596920013 0 35860651.596920013 -6017845.7133617401 0 0 0 0 5909874.7830352783 27900148.032017231 0 27900148.032017231 -43642272.416721344 0 0 0 0 6457647.7587585449 24277371.119860649 0 24277371.119860649 -26957858.465219975 0 0 0 0 -19053260.692443848 91705480.280425072 0 91705480.280425072 30816340.035879135 0 0 0 0 -18795904.615600586 -53161382.158256531 0 -53161382.158256531 -176874366.09422684 0 0 0 0 8736604.3407287598 29073247.684540749 0 29073247.684540749 -46559446.657051086 0 0 0 0 -24180368.479858398 14473014.419502258 0 14473014.419502258 -56389389.937975883 0 0 0 0 6644936.3628845215 38604615.910802841 0 38604615.910802841 -73186942.186288834 0 0 0 0 -32407974.772979736 -7044646.3324241638 0 -7044646.3324241638 -82682395.988430977 0 0 0 0 -4981432.0686950684 16353308.110958099 0 16353308.110958099 -98862397.178630829 0 0 0 0 17497565.940834045 64830215.944518566 0 64830215.944518566 -60935182.947349548 0 0 0 0 -2005517.3885040283 43691254.354166031 0 43691254.354166031 -46825199.680733681 0 0 0 0 -1346460.1384124756 51602528.092311859 0 51602528.092311859 -38779219.200507641 0 0 0 0 2435256.1799475253 218788.22413100861 0 218788.22413100861 -2594404.3866822571 0 0 0 0 -143488323.20141602 292307596.85655499 0 292307596.85655499 -417504406.14086819 0 0 0 0 -15423102.5883255 23655853.169597626 0 23655853.169597626 -12225932.848392963 0 0 0 0 -18750734.176168442 14423231.279327869 0 14423231.279327869 47430169.395441055 0 0 0 0 -8306351.2326126099 20683006.057723999 0 20683006.057723999 -22368864.795046806 0 0 0 0 -2279.0634878217516 24724846.016731892 0 24724846.016731892 -20944339.616962433 0 0 0 0 -198362832.80081177 375859611.26381302 0 375859611.26381302 -751317689.46987784 0 0 0 0 -31288.370661924535 20299327.457214102 0 20299327.457214102 -22966529.989854813 0 0 0 0 1995196.2643361911 50409.256734214723 0 50409.256734214723 -2600848.3779222872 0 0 0 0 -2294905.2432796573 569398653.14422667 0 569398653.14422667 -754116255.3024559 0 0 0 0 -35589185.423141479 255620680.56336689 0 255620680.56336689 -1059039016.5678549 0 0 0 0 -951794.71818031371 -1403750.5369070508 0 -1403750.5369070508 -1435673.257926737 0 0 0 0 35324815.407440186 25456646.371407986 0 25456646.371407986 -634619002.4962101 0 0 0 0 -92199536.991470337 226608219.62851906 0 226608219.62851906 -429900249.74838829 0 0 0 0 -229923151.14532852 326647741.85366392 0 326647741.85366392 -501579283.24875641 0 0 0 0 -82175019.817773819 153775554.27651131 0 153775554.27651131 -342931603.89003372 0 0 0 0 -56318616.18081665 72986704.991614342 0 72986704.991614342 -262115649.69911623 0 0 0 0 2033388.1044769287 9187193.9822292328 0 9187193.9822292328 -146495546.42444611 0 0 0 0 25655022.584701538 56695508.160950184 0 56695508.160950184 -345721487.22302055 0 0 0 0 -51553952.491256714 176119295.96640015 0 176119295.96640015 -330145475.23688388 0 0 0 0 -12810303.923423767 123948648.44030046 0 123948648.44030046 -301989401.36219788 0 0 0 0 917532.48815917969 140978824.1557622 0 140978824.1557622 -349306040.09157944 0 0 0 0 -61921729.096298218 175538692.87369442 0 175538692.87369442 -327367963.16922474 0 0 0 0 -80615246.476219177 160050020.18757606 0 160050020.18757606 -296207980.04431343 0 0 0 0 -27554089.46937561 140622286.23362017 0 140622286.23362017 -296760941.09082413 0 0 0 0 -167554168.02397156 230490725.95444298 0 230490725.95444298 -337714138.92988151 0 0 0 0 -166983442.71250916 102806884.92723656 0 102806884.92723656 19249502.692341089 0 0 0 0 -967206.50281251967 -380163.39731772989 0 -380163.39731772989 705307.8731406047 0 0 0 0 42443511.606170654 -19601095.51832962 0 -19601095.51832962 -203065305.74338222 0 0 0 0 -126307019.18983459 -181241026.18610454 0 -181241026.18610454 -40208070.398218155 0 0 0 0 74569672.079994202 121006184.18594694 0 121006184.18594694 -125426223.77108288 0 0 0 0 57097101.20293045 35187904.947844982 0 35187904.947844982 -200349873.06267166 0 0 0 0 2891498.8086471297 508430.44094692916 0 508430.44094692916 -2540434.9608946322 0 0 0 0 -74889678.095336914 173594184.71143055 0 173594184.71143055 -297966510.04349208 0 0 0 0 -78835835.008140564 164926894.70279408 0 164926894.70279408 -272339806.72809982 0 0 0 0 -31264066.757141113 126936614.54204273 0 126936614.54204273 -287688315.58178902 0 0 0 0 -65450946.42791748 121358059.63314342 0 121358059.63314342 -177283883.22294435 0 0 0 0 -11968433.470230103 126510284.91102791 0 126510284.91102791 -323747776.42354059 0 0 0 0 -32563016.677459717 95864043.873313427 0 95864043.873313427 -217527186.10544872 0 0 0 0 -83451104.005653381 171325508.09657288 0 171325508.09657288 -294784634.05150986 0 0 0 0 -41555952.096138 138976160.01766491 0 138976160.01766491 -286809846.73799133 0 0 0 0 -130411883.0793457 87755906.450370789 0 87755906.450370789 -300128976.91465759 0 0 0 0 -103383097.58764648 104764177.76450729 0 104764177.76450729 -296112972.99093342 0 0 0 0 -14975997.142414093 120068853.01307464 0 120068853.01307464 -357255316.90240479 0 0 0 0 -46854454.673591614 132326765.76289272 0 132326765.76289272 -282885079.23438454 0 0 0 0 -27419668.074264526 135801267.8059864 0 135801267.8059864 -323757752.47588921 0 0 0 0 -3033626.4935913086 130949327.26150131 0 130949327.26150131 -327382243.43206787 0 0 0 0 -2720663.1361999512 128879411.96828842 0 128879411.96828842 -314147287.03731203 0 0 0 0 -16811935.055236816 125952861.09768677 0 125952861.09768677 -314580559.89115906 0 0 0 0 -28659736.305709839 123785855.98076439 0 123785855.98076439 -254116361.41864014 0 0 0 0 -33241507.873397827 126277041.12876225 0 126277041.12876225 -253140535.23435974 0 0 0 0 -11310637.360931396 138463078.5047245 0 138463078.5047245 -279731441.34531975 0 0 0 0 -30869905.611450195 72654685.766282082 0 72654685.766282082 -134052466.45303726 0 0 0 0 -4946793.4342498779 29147446.342693329 0 29147446.342693329 -92792835.693824768 0 0 0 0 3909776.9435272217 72293463.070217133 0 72293463.070217133 -287379565.42304349 0 0 0 0 -55375103.946350098 86923475.595590591 0 86923475.595590591 -114801345.40817642 0 0 0 0 -29733672.675003052 49398503.619010925 0 49398503.619010925 -96010039.919761658 0 0 0 0 51203546.95892334 415017.33550930023 0 415017.33550930023 -66721448.652187347 0 0 0 0 468404.44333426841 -170611.43348452821 0 -170611.43348452821 -2728958.2303122301 0 0 0 0 12254143.260498047 -21035307.476038933 0 -21035307.476038933 -53500632.124290466 0 0 0 0 17547246.505645752 -22651161.004378319 0 -22651161.004378319 -31946968.430713654 0 0 0 0 -56122579.508758545 45768641.82882309 0 45768641.82882309 -40459959.014685154 0 0 0 0 -78433362.128631592 136290004.80941582 0 136290004.80941582 -117434691.76114607 0 0 0 0 -162393410.25775146 60674627.968044281 0 60674627.968044281 54696439.97146225 0 0 0 0 -224255738.93212891 190303526.02474022 0 190303526.02474022 -90286902.134090424 0 0 0 0 -138543.2637592461 -406713.70109941065 0 -406713.70109941065 -303471.21116072964 0 0 0 0 57730170.9152565 -98911885.406060696 0 -98911885.406060696 -191229669.32556152 0 0 0 0 -68133951.989227295 113580342.51457214 0 113580342.51457214 -137655480.91912079 0 0 0 0 -136083674.88803101 247495265.99876022 0 247495265.99876022 -244229372.20812607 0 0 0 0 -53180355.534820557 106596612.63757372 0 106596612.63757372 -458765823.70545197 0 0 0 0 -40529648.143966675 149783620.19403648 0 149783620.19403648 -314294590.59588242 0 0 0 0 -111273664.67449379 164563372.69239473 0 164563372.69239473 -269798557.80511093 0 0 0 0 -27855506.410915375 65380806.229842663 0 65380806.229842663 -91996484.88993454 0 0 0 0 29739816.929260254 69077731.415369034 0 69077731.415369034 -337122063.3963213 0 0 0 0 -74701343.684509277 -1685791.8590230942 0 -1685791.8590230942 -9973949.1605863571 0 0 0 0 1554661.1960644424 -2812190.6503015533 0 -2812190.6503015533 -5639238.2149772067 0 0 0 0 -797956.48875202239 -1251323.3885352626 0 -1251323.3885352626 -1170671.0189805878 0 0 0 0 319471.61023330688 -55209.63470095396 0 -55209.63470095396 -961537.20827770233 0 0 0 0 11464066.533218384 519743.70052051544 0 519743.70052051544 -17728462.040813923 0 0 0 0 4276885.1586608887 -14245629.54517138 0 -14245629.54517138 -6776708.4870147705 0 0 0 0 1140969.1163000911 -5454929.0557073122 0 -5454929.0557073122 -3312535.4765450167 0 0 0 0 -106207.93095397949 -7110795.4954781532 0 -7110795.4954781532 -8971563.0611312389 0 0 0 0 -71167.336169175804 -180843.37333091348 0 -180843.37333091348 770135.06110958476 0 0 0 0 -21571114.041648865 3738351.993193984 0 3738351.993193984 -76979460.513626099 0 0 0 0 11751203.326850891 67029623.922919273 0 67029623.922919273 -190043400.42015362 0 0 0 0 -72964326.706451416 154608783.60646248 0 154608783.60646248 -225352531.29687786 0 0 0 0 -47820688.2435112 84950350.461104393 0 84950350.461104393 -164553707.56923294 0 0 0 0 -54224724.44871521 89895276.3800354 0 89895276.3800354 -162591088.23411179 0 0 0 0 -91585167.093917847 170626311.96514511 0 170626311.96514511 -251210823.3988862 0 0 0 0 -37337491.412017822 137352910.7578392 0 137352910.7578392 -271291382.33480453 0 0 0 0 -142871045.58666992 282358132.2359376 0 282358132.2359376 -320501014.06333447 0 0 0 0 -54234615.001678467 141506453.50854635 0 141506453.50854635 -271091681.14603996 0 0 0 0 -103087681.60697937 165177540.08486843 0 165177540.08486843 -186565623.23173618 0 0 0 0 -64720680.975776672 183652291.82052422 0 183652291.82052422 -202542264.9890871 0 0 0 0 -105325351.36283112 263517847.30761886 0 263517847.30761886 -3897314.6980204582 0 0 0 0 -59514995.992630005 280027700.22316456 0 280027700.22316456 -204381208.475618 0 0 0 0 -72584670.684112549 202043413.66280484 0 202043413.66280484 503630198.55508709 0 0 0 0 7035193.7324676514 125216485.27028847 0 125216485.27028847 -672063249.89064121 0 0 0 0 -307264.51251288503 -197992.3134728279 0 -197992.3134728279 34963.894463287666 0 0 0 0 64893669.835830688 68774159.55879879 0 68774159.55879879 201402666.83629274 0 0 0 0 -79103271.35193634 301530561.84720016 0 301530561.84720016 190356521.41411972 0 0 0 0 55469903.428020954 77606232.011460081 0 77606232.011460081 43207247.674641609 0 0 0 0 54753900.637920618 108698027.38221785 0 108698027.38221785 166530659.94311047 0 0 0 0 -18524658.050788879 117930488.85841012 0 117930488.85841012 32467257.679178476 0 0 0 0 -11186764.457111359 144994271.32818347 0 144994271.32818347 -77217314.41163063 0 0 0 0 17039764.335906982 155529309.33140838 0 155529309.33140838 -3216131.402700901 0 0 0 0 -25442491.40605545 -8516923.2397993505 0 -8516923.2397993505 90124356.475724578 0 0 0 0 98649176.63548851 82308923.33264479 0 82308923.33264479 -24821021.973461151 0 0 0 0 101689272.45034027 89898893.870297089 0 89898893.870297089 -31264404.087216496 0 0 0 0 89104146.660453796 -21818239.861875296 0 -21818239.861875296 -204390218.35524088 0 0 0 0 18014870.719676971 156375345.50440642 0 156375345.50440642 274191120.10114461 0 0 0 0 365781.54969111085 -506469.61292282213 0 -506469.61292282213 -97693.333540937921 0 0 0 0 668116.4120105654 -808237.62886211835 0 -808237.62886211835 -167821.82915549591 0 0 0 0 -36559807.606941223 111530830.7783168 0 111530830.7783168 59479679.381699562 0 0 0 0 53634385.161453247 96001927.440617561 0 96001927.440617561 -72816719.743421197 0 0 0 0 50328998.020935059 75144177.686613083 0 75144177.686613083 64162677.405933022 0 0 0 0 -13797198.34292984 75846941.883492351 0 75846941.883492351 178033955.34792948 0 0 0 0 740930.52969360352 10402384.869519234 0 10402384.869519234 369217194.93222523 0 0 0 0 107687930.59979248 42488942.392671585 0 42488942.392671585 -13812664.271168351 0 0 0 0 86946936.346740723 152651659.07150602 0 152651659.07150602 158671491.86031389 0 0 0 0 40496485.24684906 15428927.322542667 0 15428927.322542667 189942662.72387981 0 0 0 0 -565773.43983113766 -203191.51854391117 0 -203191.51854391117 -116840.01694467838 0 0 0 0 108696309.35754395 164272925.25848484 0 164272925.25848484 242611167.06554794 0 0 0 0 -30764481.230697632 89423198.525299549 0 89423198.525299549 -211415882.414855 0 0 0 0 81176.481045991182 66650.423513004556 0 66650.423513004556 -133473.5285220535 0 0 0 0 61588498.50378418 146694445.49988031 0 146694445.49988031 287526939.39116096 0 0 0 0 14554451.385110855 68684300.850313663 0 68684300.850313663 -254854405.15403748 0 0 0 0 -2925978.7540039197 -27243.75731881801 0 -27243.75731881801 1162378.2745976043 0 0 0 0 2870863.2017921507 1215629.8582315203 0 1215629.8582315203 -1849200.107884529 0 0 0 0 -33787659.665710449 50688182.280501366 0 50688182.280501366 -177213134.03312019 0 0 0 0 -12720321.828308105 82051542.278730869 0 82051542.278730869 -235953869.41244555 0 0 0 0 37924927.859031677 24882820.663158417 0 24882820.663158417 10434352.501497984 0 0 0 0 18434661.294654846 49341793.442811012 0 49341793.442811012 26496869.447186947 0 0 0 0 -93769789.209938049 -9560712.7798759937 0 -9560712.7798759937 65498101.748022079 0 0 0 0 -73064254.105354309 -62993667.0437994 0 -62993667.0437994 38119108.705006599 0 0 0 0 -46042887.3097229 -34044744.4399786 0 -34044744.4399786 43359959.049398422 0 0 0 0 -1230064.4231272191 -451073.95417948905 0 -451073.95417948905 576870.04400796373 0 0 0 0 -52168071.699569702 3430584.4562089443 0 3430584.4562089443 69361153.534161687 0 0 0 0 37215292.472610474 92164719.799184322 0 92164719.799184322 -67428220.06350255 0 0 0 0 -27048542.718399048 84171639.337813139 0 84171639.337813139 181730588.31085348 0 0 0 0 21595227.529998779 67458987.691447973 0 67458987.691447973 71448204.221575022 0 0 0 0 -4870968.2520523071 56474782.071893692 0 56474782.071893692 69696375.318722963 0 0 0 0 10686419.002845764 118652786.89760996 0 118652786.89760996 -12002243.909556091 0 0 0 0 153980462.7208252 80535331.720558017 0 80535331.720558017 -230919804.41365618 0 0 0 0 101993744.67857361 12428327.43678759 0 12428327.43678759 -185208064.76126269 0 0 0 0 -28672490.89641571 8607111.3111144602 0 8607111.3111144602 -8327851.1889046133 0 0 0 0 339997.94669257104 -512988.70847453584 0 -512988.70847453584 -100946.33639710429 0 0 0 0 -33061042.799995422 49772951.020043492 0 49772951.020043492 175856542.41123867 0 0 0 0 -28315458.657089233 155893151.06331158 0 155893151.06331158 286779594.34322536 0 0 0 0 177394405.19961548 -55201016.63239336 0 -55201016.63239336 162368437.87476206 0 0 0 0 -637927.99750307389 2140924.3435346633 0 2140924.3435346633 -227669.54506344255 0 0 0 0 189177671.12364197 37236603.052952766 0 37236603.052952766 116214324.08638144 0 0 0 0 122570743.57125854 120085877.21534765 0 120085877.21534765 -94923701.48465991 0 0 0 0 151531867.47545624 71865639.494141847 0 71865639.494141847 -129875987.77390593 0 0 0 0 109718046.39595032 63825648.943043232 0 63825648.943043232 -33275531.477059633 0 0 0 0 146745916.90950775 87325894.636581421 0 87325894.636581421 -43262224.114397645 0 0 0 0 -555897.34627931193 1771291.6257511526 0 1771291.6257511526 15875.821851672023 0 0 0 0 -6930.713005065918 2912406.4758412838 0 2912406.4758412838 808820.52184915543 0 0 0 0 -472.94319152832031 3808235.3479955196 0 3808235.3479955196 428530.82080602646 0 0 0 0 2480436.9872131348 3846624.7009530067 0 3846624.7009530067 -321255.85520076752 0 0 0 0 1870045.1508636475 3020126.9179739952 0 3020126.9179739952 649343.19523715973 0 0 0 0 1162977.8579864502 4748449.9231731892 0 4748449.9231731892 -524628.33257484436 0 0 0 0 -50069439.816452026 272741976.8587153 0 272741976.8587153 78816306.025674462 0 0 0 0 -420295262.55667114 -216039471.15564132 0 -216039471.15564132 402045262.19172668 0 0 0 0 -17185959.966369629 5556742.0435552597 0 5556742.0435552597 30137251.947990417 0 0 0 0 30768324.792236328 128724474.79740906 0 128724474.79740906 -94534665.08877182 0 0 0 0 -252116354.6529541 465785184.80648136 0 465785184.80648136 -409366434.1405201 0 0 0 0 -9052173.7921142578 -39813084.719322205 0 -39813084.719322205 41691450.01458931 0 0 0 0 61568444.764877319 80966881.449388504 0 80966881.449388504 -64818339.087787628 0 0 0 0 -582110.69001859985 2119109.1886993609 0 2119109.1886993609 -108357.9279279653 0 0 0 0 -12192738.198272705 -16087972.068109512 0 -16087972.068109512 39497517.098519802 0 0 0 0 42404088.271453857 -22197580.749307632 0 -22197580.749307632 23537657.756942749 0 0 0 0 -42373982.228347778 19211946.615965366 0 19211946.615965366 4346021.3341331482 0 0 0 0 -59335.887639317662 98480.126100990921 0 98480.126100990921 34959.892781475559 0 0 0 0 4006458.9785766602 -4804931.3390731812 0 -4804931.3390731812 -25113595.345805168 0 0 0 0 49318254.238464355 -7720503.1095161438 0 -7720503.1095161438 -101941887.30348206 0 0 0 0 29659.145858764648 24317310.60141325 0 24317310.60141325 -24492899.340893269 0 0 0 0 -1126852.0057619438 -1212446.029237194 0 -1212446.029237194 77439.002716344548 0 0 0 0 3121958.9017219543 358480.27186155319 0 358480.27186155319 -6713670.3422002792 0 0 0 0 -2721361.4034118652 20585601.931351185 0 20585601.931351185 -8136089.9588003159 0 0 0 0 163451586.10932922 -128066625.34448576 0 -128066625.34448576 -129441791.93399286 0 0 0 0 -33693162.393234253 -15422049.590573311 0 -15422049.590573311 -176921639.46151721 0 0 0 0 211737247.29361725 -104055293.64002943 0 -104055293.64002943 -189163193.52299404 0 0 0 0 236180019.14529419 -216414414.5371058 0 -216414414.5371058 -111917857.83069617 0 0 0 0 237086676.45478821 -124917539.82681417 0 -124917539.82681417 -153524702.06450558 0 0 0 0 304958659.70477295 -214608442.48149389 0 -214608442.48149389 -87870619.956662714 0 0 0 0 270620625.49864197 -18919453.298235536 0 -18919453.298235536 -93035402.669092655 0 0 0 0 232825610.11448669 51772081.303809762 0 51772081.303809762 -205057920.40618134 0 0 0 0 161474413.58839417 -76174949.232005358 0 -76174949.232005358 -120511329.54052973 0 0 0 0 102963808.77622986 166509290.88633299 0 166509290.88633299 -131272397.2272656 0 0 0 0 130182548.32309723 189708565.89801216 0 189708565.89801216 -148789032.07812262 0 0 0 0 213762227.16168213 88229727.570725918 0 88229727.570725918 -86519360.803884983 0 0 0 0 114844242.36021423 210796716.34635729 0 210796716.34635729 -34437702.734954357 0 0 0 0 146543005.13909912 174509545.92768884 0 174509545.92768884 -265080142.79156256 0 0 0 0 26804716.298919678 212754976.69012976 0 212754976.69012976 -149062139.45190239 0 0 0 0 20475630.88571167 230318991.45294189 0 230318991.45294189 -259137827.61238569 0 0 0 0 -52245260.130233765 314004243.10643721 0 314004243.10643721 -348223264.17329884 0 0 0 0 37955405.31300354 -24833768.723053932 0 -24833768.723053932 -132966477.4209553 0 0 0 0 83780242.042236328 120024865.59893608 0 120024865.59893608 -232783875.86145973 0 0 0 0 4304153.2333374023 101579511.1273222 0 101579511.1273222 -225756216.21206093 0 0 0 0 15680924.720413208 -11510005.053929806 0 -11510005.053929806 -322498152.93728447 0 0 0 0 -151578400.95832825 212299439.87829494 0 212299439.87829494 -293376239.87900639 0 0 0 0 -146847455.97227478 229175106.95048523 0 229175106.95048523 -680397648.0074482 0 0 0 0 -246644699.61030579 161322547.37149334 0 161322547.37149334 -317124127.30084419 0 0 0 0 1684598.5425739288 352918125.63360941 0 352918125.63360941 -324502748.12077332 0 0 0 0 -281166325.16316223 97259070.120921612 0 97259070.120921612 -389209284.68092012 0 0 0 0 -327970004.41293335 393434901.16055679 0 393434901.16055679 -292288827.63000822 0 0 0 0 -111684321.28056335 505128060.24520302 0 505128060.24520302 -358285055.1965332 0 0 0 0 74940642.583534241 -58966044.144202948 0 -58966044.144202948 -133720970.42648888 0 0 0 0 -38725351.787796021 176392402.29363489 0 176392402.29363489 -496578180.81561852 0 0 0 0 868898.14502257854 84978.100935216993 0 84978.100935216993 -1215969.4022333235 0 0 0 0 -725897251.11827087 587980371.9005909 0 587980371.9005909 -356906195.92559242 0 0 0 0 -488645018.40856934 533133827.15507698 0 533133827.15507698 -590501239.77267194 0 0 0 0 -241652230.45065308 262349545.79996777 0 262349545.79996777 -401502607.23978329 0 0 0 0 -684742895.94372177 355203412.08643323 0 355203412.08643323 -219479288.64950943 0 0 0 0 -107033023.70411682 143721165.02448797 0 143721165.02448797 -281283152.28284931 0 0 0 0 -121914911.93724823 131916113.81579566 0 131916113.81579566 -137623231.08416176 0 0 0 0 61872534.472106934 48630587.302867889 0 48630587.302867889 -257918552.0566678 0 0 0 0 -268009428.78658295 250937286.23404479 0 250937286.23404479 -311156607.96310043 0 0 0 0 -56879945.382369995 56527272.885784626 0 56527272.885784626 -363870215.52460027 0 0 0 0 133363070.41186523 -60041777.925403833 0 -60041777.925403833 -261103947.63214397 0 0 0 0 -82696327.34614563 51001196.021131396 0 51001196.021131396 -174175553.41750526 0 0 0 0 109000085.05436707 -127414363.50276756 0 -127414363.50276756 -85318678.034265518 0 0 0 0 206960837.24078369 -59123661.435432434 0 -59123661.435432434 -174010423.43816757 0 0 0 0 43437957.04737854 -1078980.1348724365 0 -1078980.1348724365 -43697575.607941628 0 0 0 0 157153984.02639008 47296542.997240901 0 47296542.997240901 -153318881.83142185 0 0 0 0 143129439.10952377 3775000.2497135997 0 3775000.2497135997 99435458.00457859 0 0 0 0 347445833.64703369 -107775473.07322598 0 -107775473.07322598 -62546783.671991825 0 0 0 0 377086144.66943359 -46297842.618422508 0 -46297842.618422508 1799104.4717540741 0 0 0 0 528749067.21591187 -181860071.70904827 0 -181860071.70904827 91588272.679129124 0 0 0 0 659735149.33728027 -117895870.88169289 0 -117895870.88169289 31580535.113140106 0 0 0 0 297257079.95521927 5822344.3449425697 0 5822344.3449425697 192990339.40311623 0 0 0 0 1029884432.5413666 -128494603.28638506 0 -128494603.28638506 -16035131.940544128 0 0 0 0 983514381.11682129 -131246280.57359314 0 -131246280.57359314 31054101.413543701 0 0 0 0 708561958.60296631 24997753.417461634 0 24997753.417461634 126168357.13887024 0 0 0 0 -83412.677566845436 -1726128.1737800092 0 -1726128.1737800092 266457.90233738162 0 0 0 0 -31509232.612596512 51029668.100648969 0 51029668.100648969 112811324.58037567 0 0 0 0 21062.875300273299 -95950.783523238613 0 -95950.783523238613 -136431.24943398728 0 0 0 0 519021102.41574097 -59395141.975222588 0 -59395141.975222588 150600373.00531125 0 0 0 0 933757974.83331299 125873891.58601952 0 125873891.58601952 -30155402.924032331 0 0 0 0 2440534.8840861721 223135.86691883951 0 223135.86691883951 -8497397.4233462196 0 0 0 0 576254542.46906281 -43278869.511426926 0 -43278869.511426926 -61740084.204047441 0 0 0 0 537776962.53955078 -7290512.2885525227 0 -7290512.2885525227 -61195868.448919773 0 0 0 0 26916271.420684814 -8096621.8962774277 0 -8096621.8962774277 -23051533.487995148 0 0 0 0 243452398.84590912 -170407544.80067626 0 -170407544.80067626 -39124097.556424141 0 0 0 0 206629026.52350259 -110181553.38061418 0 -110181553.38061418 -8181933.1720199585 0 0 0 0 352680921.49107361 -94078285.566537857 0 -94078285.566537857 -95923564.544351339 0 0 0 0 397625204.2591095 -163251333.82303286 0 -163251333.82303286 -24005969.107665062 0 0 0 0 -17848134.431900024 848322.03503370285 0 848322.03503370285 18972674.897171974 0 0 0 0 50157411.892272949 -18775362.038375854 0 -18775362.038375854 637442.43339705467 0 0 0 0 1792574.440023385 -5035548.6210747287 0 -5035548.6210747287 -2490909.5200044233 0 0 0 0 1737712.4256439209 -7774529.0089616776 0 -7774529.0089616776 3624348.5632698536 0 0 0 0 -17225184.286118269 -27436673.889515989 0 -27436673.889515989 64828739.692605972 0 0 0 0 -4725035.3903808594 -74543.549507141113 0 -74543.549507141113 8463166.0864046812 0 0 0 0 191926.20076751709 -18181250.299592018 0 -18181250.299592018 -14772737.668725014 0 0 0 0 -47378104.322998047 95763687.158076286 0 95763687.158076286 -138559428.21687174 0 0 0 0 -13396336.59563446 31960964.517795086 0 31960964.517795086 -52756198.563192368 0 0 0 0 -19016349.543640137 29411943.256780624 0 29411943.256780624 -49639631.27276659 0 0 0 0 6761753.2449264526 40722874.999527931 0 40722874.999527931 -63555080.361317635 0 0 0 0 -7897894.2101860046 -5902653.280497551 0 -5902653.280497551 3783291.5710372925 0 0 0 0 -63483853.402557373 40010865.248719931 0 40010865.248719931 -3808401.5348029137 0 0 0 0 -97924513.538131714 137799224.89951825 0 137799224.89951825 -116696195.44382238 0 0 0 0 -60404594.848972321 164374009.41074121 0 164374009.41074121 -117480090.01283741 0 0 0 0 305359499.21669006 -180504001.9721868 0 -180504001.9721868 -96398199.163743258 0 0 0 0 289176081.20700359 -115240930.42106125 0 -115240930.42106125 -54593406.528018951 0 0 0 0 1283793.2913609492 649652.16058425605 0 649652.16058425605 -6072664.8789694319 0 0 0 0 306003931.23431396 -80807345.961933613 0 -80807345.961933613 -3514683.1026567221 0 0 0 0 186084664.40314484 -99730113.813394278 0 -99730113.813394278 -37852171.573112696 0 0 0 0 176094518.27638245 -213393423.33193785 0 -213393423.33193785 -48868336.61773622 0 0 0 0 240728460.25911713 -197066101.76793993 0 -197066101.76793993 -46466358.195438385 0 0 0 0 530831.30866131838 614189.87909286097 0 614189.87909286097 -3520518.5569893606 0 0 0 0 -53293879.703956604 -159234360.4905141 0 -159234360.4905141 40639291.1273553 0 0 0 0 -72923605.602573395 -48215800.301570833 0 -48215800.301570833 -60314258.500847258 0 0 0 0 -418094192.20919037 -119579633.62862748 0 -119579633.62862748 97583692.70977819 0 0 0 0 90046.774645322934 309425.61781834438 0 309425.61781834438 -1113907.4572292659 0 0 0 0 63825958.601669312 -259737227.29357222 0 -259737227.29357222 84053130.260750771 0 0 0 0 148096276.92372894 -151232652.53118595 0 -151232652.53118595 59205952.598553419 0 0 0 0 -121027972.44683075 222509758.02119589 0 222509758.02119589 -102579264.64442682 0 0 0 0 -160726074.10040426 111018219.84284744 0 111018219.84284744 -53892804.70151329 0 0 0 0 -660896459.89715576 220308202.8450821 0 220308202.8450821 8749106.5710775852 0 0 0 0 -299746634.08679199 89022002.431134939 0 89022002.431134939 -20461857.62651825 0 0 0 0 -210049252.95293808 284797693.27608454 0 284797693.27608454 -66372440.776400089 0 0 0 0 -95165949.652778625 143277817.89993602 0 143277817.89993602 14751075.011558652 0 0 0 0 -92817838.885406494 136928964.45042294 0 136928964.45042294 -159486800.12330571 0 0 0 0 -289554973.07012939 309034234.35132003 0 309034234.35132003 -254447874.61028564 0 0 0 0 -176650561.31893158 -42463535.804175884 0 -42463535.804175884 -119925777.9031682 0 0 0 0 -519436369.79671478 168270260.26941743 0 168270260.26941743 328937607.60136908 0 0 0 0 -159761308.77851105 64834348.709983289 0 64834348.709983289 237630374.4934659 0 0 0 0 57441006.859947205 -90941182.559654713 0 -90941182.559654713 345555282.63393235 0 0 0 0 5583011.5136871338 40122119.543824911 0 40122119.543824911 23626095.626188517 0 0 0 0 143938863.14434052 169690887.01279682 0 169690887.01279682 101731158.6894452 0 0 0 0 -106635052.52894211 -143992793.8082701 0 -143992793.8082701 -196673390.23977935 0 0 0 0 -173478713.96030807 501051642.40064263 0 501051642.40064263 -90109640.130853295 0 0 0 0 -145780591.43732071 352471729.09701478 0 352471729.09701478 549647497.96097708 0 0 0 0 -48966126.02181673 391481112.88850164 0 391481112.88850164 783022717.40989065 0 0 0 0 265125552.01921082 296389864.00309634 0 296389864.00309634 488322865.1525532 0 0 0 0 366969112.84010315 35963114.543199778 0 35963114.543199778 1152368666.5482323 0 0 0 0 479994650.29659271 610449214.43191338 0 610449214.43191338 724530751.53292513 0 0 0 0 680071063.18881989 176965614.88820934 0 176965614.88820934 856607171.64064002 0 0 0 0 528806368.71020508 -21734907.621964455 0 -21734907.621964455 343786732.2318244 0 0 0 0 626250905.70108795 -281001678.54883039 0 -281001678.54883039 976989521.01916885 0 0 0 0 189384854.71427917 -17610953.480607867 0 -17610953.480607867 794263038.66625249 0 0 0 0 328738946.16351318 -258390174.38205409 0 -258390174.38205409 89545324.875126526 0 0 0 0 341372404.91895294 -123866903.46432987 0 -123866903.46432987 173767650.55473685 0 0 0 0 528232013.65180969 -306350926.59265661 0 -306350926.59265661 351824694.05728805 0 0 0 0 657155103.60136795 -7188305.9823347628 0 -7188305.9823347628 178622770.40569592 0 0 0 0 575644762.25216675 -131251281.4341132 0 -131251281.4341132 80575177.032045841 0 0 0 0 434320684.97930384 -33164888.879309595 0 -33164888.879309595 13352161.572023094 0 0 0 0 438296855.59913063 -272782783.25015068 0 -272782783.25015068 43004257.840290099 0 0 0 0 275609563.44012451 -172681588.51463553 0 -172681588.51463553 -16850412.228556022 0 0 0 0 270580592.31193542 -273656873.94145221 0 -273656873.94145221 -15923338.562181309 0 0 0 0 234901852.85179138 266526190.58935347 0 266526190.58935347 177343164.30934322 0 0 0 0 356246017.91009521 157959201.61844063 0 157959201.61844063 57169826.737042725 0 0 0 0 229612604.03129578 237194696.76154903 0 237194696.76154903 91170829.499530315 0 0 0 0 106181199.20907593 240689929.5358167 0 240689929.5358167 92306610.932651401 0 0 0 0 216697368.45707703 173185543.26066712 0 173185543.26066712 56508095.142793417 0 0 0 0 234553556.21543884 168984827.06039572 0 168984827.06039572 -27136595.584606171 0 0 0 0 336832429.19650269 135049265.87764359 0 135049265.87764359 -68852571.427322924 0 0 0 0 433676272.68891907 -90095231.204513311 0 -90095231.204513311 -64887335.305133551 0 0 0 0 268035072.81952667 63397680.681912482 0 63397680.681912482 20480244.146143317 0 0 0 0 342625001.26219177 179024468.74965593 0 179024468.74965593 174121737.95115089 0 0 0 0 515323062.05792236 41708992.596406817 0 41708992.596406817 21885968.909111142 0 0 0 0 534869537.72116089 155427932.46340206 0 155427932.46340206 174372338.47043741 0 0 0 0 530322146.46278381 87970426.400626659 0 87970426.400626659 111808999.2658112 0 0 0 0 740912178.3624115 -22050951.207922697 0 -22050951.207922697 156560763.76183176 0 0 0 0 626419956.49153137 -63671796.453745842 0 -63671796.453745842 369334741.528723 0 0 0 0 622938053.75900269 279469017.17002177 0 279469017.17002177 343950385.00121975 0 0 0 0 459362443.84931946 381306680.78845066 0 381306680.78845066 352450058.31312072 0 0 0 0 256500000.63937378 377985632.9499011 0 377985632.9499011 513450485.69449568 0 0 0 0 339035116.27464294 231554249.01779625 0 231554249.01779625 184500261.40329671 0 0 0 0 174311406.8344574 284969504.66187209 0 284969504.66187209 278746125.19053459 0 0 0 0 176913450.12104034 306762541.23132622 0 306762541.23132622 450333805.58757639 0 0 0 0 530535137.98923492 608646736.33223164 0 608646736.33223164 919988881.71187878 0 0 0 0 389792735.48847961 328000675.57017183 0 328000675.57017183 503125451.74829453 0 0 0 0 72640741.261154175 287982487.0836525 0 287982487.0836525 909021315.01589489 0 0 0 0 1133486031.2771149 -41516454.093162775 0 -41516454.093162775 367931240.02053308 0 0 0 0 1039659356.1763458 231724607.76929331 0 231724607.76929331 345202407.18080139 0 0 0 0 1961400399.9766846 -104686107.92239428 0 -104686107.92239428 606283599.96728766 0 0 0 0 894618547.17211151 116947326.85194314 0 116947326.85194314 577258974.25871801 0 0 0 0 -29310707.322418213 -86501235.76218915 0 -86501235.76218915 994746244.7610817 0 0 0 0 803410477.74302673 -244518844.43017364 0 -244518844.43017364 2145972409.2292776 0 0 0 0 776977269.5275116 884654442.55910826 0 884654442.55910826 1757704399.7600965 0 0 0 0 1584785799.8577728 854894800.44508779 0 854894800.44508779 1129634557.1051774 0 0 0 0 25068475.87612915 175702243.17746449 0 175702243.17746449 976261742.89509392 0 0 0 0 254945808.01817322 188448663.83423948 0 188448663.83423948 1039983741.7971051 0 0 0 0 259901277.89179993 192686962.53031206 0 192686962.53031206 743811484.81133318 0 0 0 0 -20423410.142227173 -194038381.33419514 0 -194038381.33419514 962340226.1089325 0 0 0 0 287709.60018920898 -84873991.397573471 0 -84873991.397573471 590668053.54055071 0 0 0 0 -105099425.0305481 28539505.61650753 0 28539505.61650753 707602184.00773525 0 0 0 0 -25713469.029243469 -139459535.56161404 0 -139459535.56161404 569790918.94494629 0 0 0 0 -6383215.0450744629 38558265.739482641 0 38558265.739482641 652484737.28306961 0 0 0 0 -148180502.78077698 146148675.67216778 0 146148675.67216778 553802863.80209184 0 0 0 0 -97051138.554336548 29285124.457785606 0 29285124.457785606 497090703.80203438 0 0 0 0 -153630176.97118378 70327923.287482977 0 70327923.287482977 409961848.46878624 0 0 0 0 -157200679.31266785 64862352.148617744 0 64862352.148617744 401599684.39240694 0 0 0 0 -203879598.73070526 156740081.04240561 0 156740081.04240561 414825862.64366531 0 0 0 0 -148724606.23408508 10109618.137035847 0 10109618.137035847 535886919.23147392 0 0 0 0 -176596818.9069519 107812550.54740262 0 107812550.54740262 502296506.73356724 0 0 0 0 -207284576.72413635 207039032.49053931 0 207039032.49053931 479097055.4185462 0 0 0 0 -172831927.58833313 224042211.42077827 0 224042211.42077827 483019262.10613346 0 0 0 0 -109283451.65606689 190108973.57928717 0 190108973.57928717 445988236.36328125 0 0 0 0 -77190515.753753662 260998159.20724559 0 260998159.20724559 602332394.87866628 0 0 0 0 -17106236.027832031 195010612.59680176 0 195010612.59680176 549383794.01002026 0 0 0 0 74069188.667076588 261800791.68932396 0 261800791.68932396 581691034.14446926 0 0 0 0 -79784407.93812561 188985312.92472982 0 188985312.92472982 792049504.85006046 0 0 0 0 -103176070.12088776 113939938.48097587 0 113939938.48097587 551863134.52577686 0 0 0 0 -25646543.715819836 199629771.14312923 0 199629771.14312923 297853809.29706955 0 0 0 0 -144319982.93249512 233239620.14193153 0 233239620.14193153 296499424.7061013 0 0 0 0 -230540320.35940552 152855099.827003 0 152855099.827003 431374818.84679699 0 0 0 0 -242614961.20369911 231936049.90794456 0 231936049.90794456 389935201.92925072 0 0 0 0 -202170247.77494812 220957388.23113585 0 220957388.23113585 358633319.37653685 0 0 0 0 -194551767.83169556 278388316.75695992 0 278388316.75695992 428814635.22192764 0 0 0 0 -81467303.011901855 285912840.12728739 0 285912840.12728739 338528975.55442238 0 0 0 0 -82803182.336148739 320931549.28215218 0 320931549.28215218 234103823.25976944 0 0 0 0 -256974440.85606003 430252422.58938831 0 430252422.58938831 492830493.17110157 0 0 0 0 -367880586.29343414 184257503.81782711 0 184257503.81782711 399736687.29175776 0 0 0 0 -239504933.41889954 288019364.97585154 0 288019364.97585154 195417038.76291278 0 0 0 0 -221337524.67943573 197997311.42152631 0 197997311.42152631 186668173.87310553 0 0 0 0 -248189180.39698792 204947087.94554174 0 204947087.94554174 354524619.93278837 0 0 0 0 -196513110.41039276 253931737.53581542 0 253931737.53581542 109051945.19122866 0 0 0 0 -203229139.21702576 340390946.23645079 0 340390946.23645079 70223660.880042598 0 0 0 0 -183332137.79437256 294018824.62041187 0 294018824.62041187 -8639598.6936926842 0 0 0 0 -201669853.556427 318575213.65221715 0 318575213.65221715 40765545.444738895 0 0 0 0 -258342199.56456089 217429617.61438939 0 217429617.61438939 -14007416.890417695 0 0 0 0 -258238760.81549072 214187945.43895453 0 214187945.43895453 53335186.919113517 0 0 0 0 -62740813.461959839 296970522.08440197 0 296970522.08440197 318182354.27327758 0 0 0 0 -50815200.641937256 303614363.84204924 0 303614363.84204924 209364894.3006539 0 0 0 0 25771699.419998169 346055873.57769728 0 346055873.57769728 511639404.23874998 0 0 0 0 -13619716.627548218 253883172.60235691 0 253883172.60235691 296249695.249524 0 0 0 0 -120758038.96772003 283332799.8847084 0 283332799.8847084 505128297.91375732 0 0 0 0 -132512833.54793549 225873233.03372371 0 225873233.03372371 323869291.82651949 0 0 0 0 -146516984.93658447 261737354.2877177 0 261737354.2877177 238758381.73336923 0 0 0 0 -183544909.92889404 268505028.35804653 0 268505028.35804653 357753688.06967807 0 0 0 0 -135171124.04218006 254624114.5246129 0 254624114.5246129 181436905.40170002 0 0 0 0 -130727836.89988708 324679341.07822084 0 324679341.07822084 116849081.65836644 0 0 0 0 -217182749.9066925 272425672.21264482 0 272425672.21264482 247784949.34926295 0 0 0 0 -207828127.28439331 343583551.90643406 0 343583551.90643406 31533730.821076155 0 0 0 0 -176112965.50186539 273591676.58951044 0 273591676.58951044 71791649.105275631 0 0 0 0 -63402074.121795654 314264533.77847183 0 314264533.77847183 65078110.738983721 0 0 0 0 -29365384.317745209 232793464.67487562 0 232793464.67487562 24210027.787910461 0 0 0 0 62252293.365493774 288778172.44584161 0 288778172.44584161 291319480.4747895 0 0 0 0 58053852.892227173 253647920.73274019 0 253647920.73274019 144715101.96962005 0 0 0 0 112363583.52064514 218272687.12596869 0 218272687.12596869 -10380154.380054951 0 0 0 0 -6312383.994934082 290228554.13670087 0 290228554.13670087 147540048.61146668 0 0 0 0 9533739.3441772461 236834424.58077002 0 236834424.58077002 -9255691.3639178127 0 0 0 0 22060863.794937134 228144860.38126934 0 228144860.38126934 -122424155.52131605 0 0 0 0 -84528762.431762695 269857196.68879128 0 269857196.68879128 16028394.850744724 0 0 0 0 -71644162.547370911 278898647.76621687 0 278898647.76621687 -72311170.833254814 0 0 0 0 -61468278.012680054 235850377.62093127 0 235850377.62093127 -233694714.58515358 0 0 0 0 45271230.608680725 219046270.44052637 0 219046270.44052637 -288384121.38149738 0 0 0 0 -80540801.380218506 228872899.77392864 0 228872899.77392864 -122334084.29418778 0 0 0 0 36981372.523582458 309696447.5888381 0 309696447.5888381 -443605379.34615707 0 0 0 0 -10522276.058319092 223320619.75377083 0 223320619.75377083 -283102776.71478319 0 0 0 0 -7091619.8590316772 213678133.42562544 0 213678133.42562544 -429275730.28389168 0 0 0 0 -210384199.29933167 208189361.22437382 0 208189361.22437382 -237766979.09820843 0 0 0 0 91893477.640167236 264147172.62751675 0 264147172.62751675 -608125497.44235897 0 0 0 0 -84357211.739074707 174327040.84563828 0 174327040.84563828 -447229881.04548931 0 0 0 0 -115003308.84532928 73672844.321929574 0 73672844.321929574 -610585189.63791847 0 0 0 0 21243707.722961426 146959509.46860504 0 146959509.46860504 -612959747.69761729 0 0 0 0 20002452.541992188 162891025.33694458 0 162891025.33694458 -707954987.04233646 0 0 0 0 95696723.262298584 321552587.4581213 0 321552587.4581213 -448652052.40492725 0 0 0 0 -359689416.50226974 259160655.4212606 0 259160655.4212606 -481016534.00740623 0 0 0 0 -403469793.7102623 383893003.81619263 0 383893003.81619263 -397784998.96881676 0 0 0 0 -174338673.21643066 363732887.83690834 0 363732887.83690834 -628612104.93688965 0 0 0 0 -238073160.4798584 348975924.48933983 0 348975924.48933983 -631083758.43791199 0 0 0 0 -879797606.50575256 457386960.97622299 0 457386960.97622299 -541567223.59338665 0 0 0 0 -318371611.15585327 336222976.80257702 0 336222976.80257702 -412932999.20049 0 0 0 0 -183813693.58743286 198495042.72075701 0 198495042.72075701 -327664334.93725288 0 0 0 0 -471602161.48614502 166355942.4088316 0 166355942.4088316 -329267581.58362198 0 0 0 0 -344095687.802948 281606041.06296539 0 281606041.06296539 -189952666.32604027 0 0 0 0 -244190375.70739746 350625491.18965054 0 350625491.18965054 -281418176.81181669 0 0 0 0 -368022154.68240356 297539557.50585318 0 297539557.50585318 -299377239.33513165 0 0 0 0 -234389647.77648926 355109825.21291065 0 355109825.21291065 -394512479.69528008 0 0 0 0 -248015226.06442261 293077318.97176456 0 293077318.97176456 -197801788.34808397 0 0 0 0 -198325280.3109436 333208937.29367918 0 333208937.29367918 -119381842.71876907 0 0 0 0 -250280161.16838455 354328154.27501059 0 354328154.27501059 -125512444.39148712 0 0 0 0 -189395179.80554199 224344924.28646374 0 224344924.28646374 -96085228.826813221 0 0 0 0 -180756784.64820862 310361302.17339659 0 310361302.17339659 -125719207.14478064 0 0 0 0 -230233538.85554314 253040094.26389641 0 253040094.26389641 -183454787.27758694 0 0 0 0 -157014045.6234436 259021047.29358292 0 259021047.29358292 34097521.08655262 0 0 0 0 -133289024.10323334 304567538.03980362 0 304567538.03980362 -21809082.621718407 0 0 0 0 -215296348.90652466 273630389.29863882 0 273630389.29863882 -31427814.388104916 0 0 0 0 -201472109.93145752 291880051.4426055 0 291880051.4426055 -20053158.419283628 0 0 0 0 -200966748.44676208 363083907.18375063 0 363083907.18375063 -64599424.925790071 0 0 0 0 -148145276.62147522 298198921.83546877 0 298198921.83546877 -134035960.33893061 0 0 0 0 -135077623.01877594 305124297.13877368 0 305124297.13877368 -194079929.13795948 0 0 0 0 -231112283.33280182 255084418.10623085 0 255084418.10623085 -72184145.631692886 0 0 0 0 -115751730.22561646 249152643.60389757 0 249152643.60389757 -75209909.549846292 0 0 0 0 -18626097.472780704 43064034.399309933 0 43064034.399309933 -41489721.767427444 0 0 0 0 -31766803.449707031 166088258.91122723 0 166088258.91122723 -286682485.06170511 0 0 0 0 -44804350.958637238 134558204.84232044 0 134558204.84232044 -255723709.21782875 0 0 0 0 -192380104.20098877 363608220.66501236 0 363608220.66501236 -281922822.4294548 0 0 0 0 -92761556.017486572 292149428.12884712 0 292149428.12884712 -325598279.51774979 0 0 0 0 -199429517.87236786 359067674.7566514 0 359067674.7566514 -189232184.32056808 0 0 0 0 -245303289.88909912 349491089.18532944 0 349491089.18532944 -268769299.23546982 0 0 0 0 -102375575.77429199 265662880.3140316 0 265662880.3140316 -181424377.53666234 0 0 0 0 -131444850.9682312 347978211.9920969 0 347978211.9920969 -403545177.4907856 0 0 0 0 -174680235.4375 333955895.88209152 0 333955895.88209152 -397059718.92734051 0 0 0 0 -2331640.6373291016 162793427.12963867 0 162793427.12963867 -513932035.50639534 0 0 0 0 76981553.582336426 123631428.79683113 0 123631428.79683113 -624458726.66171646 0 0 0 0 -114992640.9125061 374472669.86698723 0 374472669.86698723 -879047061.83883286 0 0 0 0 -21269721.863037109 195037646.37561417 0 195037646.37561417 -538586651.8179512 0 0 0 0 79593640.695709229 182130644.12522697 0 182130644.12522697 -881822022.99505615 0 0 0 0 89164821.086212158 167240027.41670418 0 167240027.41670418 -880428404.82223511 0 0 0 0 18251274.845713098 10188703.039949154 0 10188703.039949154 1165809.92983654 0 0 0 0 28932105.68037796 14510173.99139595 0 14510173.99139595 -27652719.900987625 0 0 0 0 -4047762.1364536285 39028476.045192719 0 39028476.045192719 -11021539.775543213 0 0 0 0 4555656.7309341431 23900236.897212982 0 23900236.897212982 -28133994.869083405 0 0 0 0 74026831.683919907 -1241537.9376637936 0 -1241537.9376637936 -128154213.47594452 0 0 0 0 65665616.315788269 24291251.153316498 0 24291251.153316498 -49110475.983005524 0 0 0 0 41811472.617685318 109817087.73320675 0 109817087.73320675 -23573329.201847076 0 0 0 0 38276339.391197205 44832324.943925858 0 44832324.943925858 -63547286.487894058 0 0 0 0 57232552.689172745 147745681.41122055 0 147745681.41122055 67729864.023555756 0 0 0 0 9152783.4011535645 50972839.488378525 0 50972839.488378525 -283188.51557922363 0 0 0 0 28418709.854507446 37733675.854736328 0 37733675.854736328 -21488861.60087204 0 0 0 0 -3882845.0955963135 39881193.827692032 0 39881193.827692032 7033240.6192655563 0 0 0 0 -5238982.0607223511 33363971.213838577 0 33363971.213838577 -11921782.949361801 0 0 0 0 -2887983.5033454895 42260718.586603165 0 42260718.586603165 -4861344.0941162109 0 0 0 0 114276257.37039185 -492719718.86145496 0 -492719718.86145496 -196754070.91896844 0 0 0 0 272668503.3459053 237648237.18445051 0 237648237.18445051 -112847017.49070263 0 0 0 0 -37578035.251815796 220302422.293612 0 220302422.293612 -43989743.274558067 0 0 0 0 1265126.5451684892 1026714.48992013 0 1026714.48992013 373585.44227017416 0 0 0 0 -56791944.262115479 441979483.0950408 0 441979483.0950408 -318370751.66310501 0 0 0 0 53284722.863800049 670439553.32145596 0 670439553.32145596 84889641.66127634 0 0 0 0 191896849.98672485 604858210.90117264 0 604858210.90117264 -374441583.23673773 0 0 0 0 4793526.7147579193 431259980.42443097 0 431259980.42443097 -521366198.44117165 0 0 0 0 545294274.74320984 883096215.40732479 0 883096215.40732479 -382898400.14752483 0 0 0 0 253638024.71137619 457473389.13525355 0 457473389.13525355 -892754773.30558777 0 0 0 0 804318084.49627686 242527060.83003235 0 242527060.83003235 -1456482556.1760998 0 0 0 0 -704532640.56620789 -327428001.76973534 0 -327428001.76973534 -843267313.26657867 0 0 0 0 12289013.513660647 14189435.689928547 0 14189435.689928547 11548514.93321101 0 0 0 0 -209376935.53991699 501837095.70869327 0 501837095.70869327 372130156.84305096 0 0 0 0 -782756571.62213135 -326437296.01907921 0 -326437296.01907921 -244397155.02395439 0 0 0 0 -398446293.60925293 570078126.18971634 0 570078126.18971634 -934236111.23315048 0 0 0 0 -136575392.90618896 443398053.22431564 0 443398053.22431564 -1110286176.0177746 0 0 0 0 -1943097.2657085806 4437684.6655576658 0 4437684.6655576658 2484309.8790018908 0 0 0 0 445143480.44047546 -204208882.75090981 0 -204208882.75090981 36857265.766077042 0 0 0 0 40526277.308547974 13636866.071346283 0 13636866.071346283 -76203498.466716766 0 0 0 0 52574058.602462769 -706915054.25872135 0 -706915054.25872135 -287085259.43944263 0 0 0 0 1286552139.5025482 -201864719.33592892 0 -201864719.33592892 -652474251.48804283 0 0 0 0 1436707128.9104004 129265004.71813297 0 129265004.71813297 -609151193.6729182 0 0 0 0 808746697.66126251 20963473.207389832 0 20963473.207389832 -366494664.80545807 0 0 0 0 913444251.96498108 -8014817.9693927765 0 -8014817.9693927765 -603859573.04202569 0 0 0 0 831040463.44493103 -321668497.14459419 0 -321668497.14459419 -629264356.01970434 0 0 0 0 554555600.65652466 -180602019.19731522 0 -180602019.19731522 -282661921.19458008 0 0 0 0 756616579.8030014 -40486263.125835419 0 -40486263.125835419 -227087684.52531815 0 0 0 0 721064318.00632477 -153424951.66437149 0 -153424951.66437149 -199185453.40589142 0 0 0 0 521528057.12184906 56839619.680099487 0 56839619.680099487 -369473443.40764236 0 0 0 0 816074379.53421021 -152466901.43949318 0 -152466901.43949318 -44363066.921707153 0 0 0 0 1472002692.5300446 363862908.56949615 0 363862908.56949615 -333153854.43582153 0 0 0 0 712670783.62187243 174533902.14071721 0 174533902.14071721 -341031129.13315582 0 0 0 0 711592055.9324646 -132826290.12629318 0 -132826290.12629318 -314874230.83849335 0 0 0 0 -350397200.58467484 606147237.11106586 0 606147237.11106586 5037430.4949569702 0 0 0 0 455576247.42076111 221350291.11217499 0 221350291.11217499 -301221179.24646759 0 0 0 0 688498098.31263733 874097387.29268646 0 874097387.29268646 -260640016.34602356 0 0 0 0 857121528.38757324 773771677.77962494 0 773771677.77962494 -225681199.63562393 0 0 0 0 807004480.47809601 729357942.84589386 0 729357942.84589386 -238120621.41317749 0 0 0 0 1978998941.3880157 919725671.50531769 0 919725671.50531769 -214424418.1932106 0 0 0 0 2257951.691145068 1156737.058838231 0 1156737.058838231 -1293895.503260158 0 0 0 0 152085174.40400696 524397630.68413162 0 524397630.68413162 -13185438.860572815 0 0 0 0 424309170.64421082 -726917919.98258972 0 -726917919.98258972 -1546166693.4606323 0 0 0 0 74097583.204963684 1244780974.34589 0 1244780974.34589 -587726942.5298233 0 0 0 0 -68566127.278400421 1224751871.0078564 0 1224751871.0078564 -116946642.18885803 0 0 0 0 540655128.04972076 1025950098.317131 0 1025950098.317131 -680721450.40979004 0 0 0 0 622110163.52388 1268718347.3177586 0 1268718347.3177586 -12465155.734283447 0 0 0 0 82498313.391662598 121998538.01119232 0 121998538.01119232 -1452653547.3843918 0 0 0 0 228636208.67907715 234012419.48553467 0 234012419.48553467 -283117161.66661072 0 0 0 0 192875230.52105713 98698208.78453064 0 98698208.78453064 -770011559.80528641 0 0 0 0 90667879.131363869 2419802816.6760368 0 2419802816.6760368 256232201.71104431 0 0 0 0 42699818.231155396 -102250478.07434845 0 -102250478.07434845 -497493573.06261063 0 0 0 0 52227825.802612305 -26646081.326877594 0 -26646081.326877594 -145244894.25074577 0 0 0 0 -50423185.547481537 -40092803.47675705 0 -40092803.47675705 21287055.635417938 0 0 0 0 3751349.2574367374 4251635.5415344406 0 4251635.5415344406 -2904527.2197479308 0 0 0 0 16736485.948695242 8741513.6639044229 0 8741513.6639044229 1016197.8601538852 0 0 0 0 -75324470.216522217 -113886564.53723717 0 -113886564.53723717 -182373638.37092972 0 0 0 0 370509331.14645386 840300452.35548115 0 840300452.35548115 -644236604.338871 0 0 0 0 -454926132.25252342 -87855569.46105957 0 -87855569.46105957 488325748.76591873 0 0 0 0 200332536.13658142 125286627.37288976 0 125286627.37288976 106875600.06749153 0 0 0 0 79715931.149261475 112986113.96506 0 112986113.96506 194518298.33977032 0 0 0 0 11495410.5330947 2333710.547098964 0 2333710.547098964 -243514.4252217446 0 0 0 0 -46678825.034934998 88833932.289781094 0 88833932.289781094 -82945908.218711853 0 0 0 0 4298437.5795681495 4362512.8042522147 0 4362512.8042522147 5495165.4309950992 0 0 0 0 -414652620.24578094 173826460.61356884 0 173826460.61356884 14505423.12570937 0 0 0 0 -200257062.66910553 147186794.60091853 0 147186794.60091853 -2437287.7311234474 0 0 0 0 500617337.35179138 279595789.22748566 0 279595789.22748566 43469034.735804319 0 0 0 0 646940782.66841888 349851537.78291869 0 349851537.78291869 62014180.340132713 0 0 0 0 369756699.08918762 401988428.85711288 0 401988428.85711288 101651884.80044365 0 0 0 0 579120120.51660156 489058908.53046799 0 489058908.53046799 -67398703.702301979 0 0 0 0 426397988.52200317 368461829.36440372 0 368461829.36440372 41285014.356696129 0 0 0 0 534878547.5719223 533344893.03995323 0 533344893.03995323 140422236.02531528 0 0 0 0 423082838.09609985 504467734.69439554 0 504467734.69439554 220182290.76036263 0 0 0 0 887379087.16930389 -506375767.99358225 0 -506375767.99358225 -874376967.18953991 0 0 0 0 22909756.579376221 200691033.23653746 0 200691033.23653746 870711999.82035685 0 0 0 0 4513963.8176320419 -53908.953077311628 0 -53908.953077311628 -178314.98759531428 0 0 0 0 550472686.01731873 716349396.57149649 0 716349396.57149649 321525775.21319294 0 0 0 0 88575077.070625305 884033624.15342236 0 884033624.15342236 2281471329.5114145 0 0 0 0 619851733.36604309 553750843.55088139 0 553750843.55088139 93422487.687498093 0 0 0 0 -233385152.77998352 988131267.17511916 0 988131267.17511916 3712396472.2552223 0 0 0 0 1060364332.6379852 1769863619.3064175 0 1769863619.3064175 1341770933.2570066 0 0 0 0 2735415130.493103 1739898768.0026913 0 1739898768.0026913 -1652819231.2914791 0 0 0 0 -284596953.64119768 -266392286.27968597 0 -266392286.27968597 -140288395.81632233 0 0 0 0 -14981989.47589431 9826003.0763829555 0 9826003.0763829555 8362676.4196940511 0 0 0 0 195913099.37347412 -208274890.08908939 0 -208274890.08908939 -225446681.24490547 0 0 0 0 -338788189.36178648 -181517785.02498424 0 -181517785.02498424 -95319810.577468872 0 0 0 0 1219751059.2723503 -159582903.86663103 0 -159582903.86663103 -933191636.20107651 0 0 0 0 -106350632.89001369 -161223006.9817276 0 -161223006.9817276 -179823216.88951874 0 0 0 0 -692534571.73004913 -347426511.45783424 0 -347426511.45783424 -214486495.82849789 0 0 0 0 31918631.105098248 112712011.87842846 0 112712011.87842846 -328495994.05264282 0 0 0 0 -84780690.091560125 -274347381.024333 0 -274347381.024333 -276983898.69145966 0 0 0 0 424887002.11880493 373507303.6271069 0 373507303.6271069 28402745.071413994 0 0 0 0 491214632.75122833 435465855.37350821 0 435465855.37350821 76905581.903647423 0 0 0 0 421142622.73658752 373853779.55839157 0 373853779.55839157 200705912.34638977 0 0 0 0 336100894.31640816 354733502.63611972 0 354733502.63611972 209068128.85336494 0 0 0 0 361984466.39930725 270139025.30041313 0 270139025.30041313 35962611.016393065 0 0 0 0 204735355.90971375 266964721.17975044 0 266964721.17975044 214068463.16187954 0 0 0 0 -422751302.24546623 -641636261.1835022 0 -641636261.1835022 -183262452.60266113 0 0 0 0 -322994146.08769226 -514930477.17033768 0 -514930477.17033768 65285081.176895142 0 0 0 0 644436.19900280982 -263347.85784467682 0 -263347.85784467682 -526422.79163435102 0 0 0 0 -15637919.354264274 8384396.8840780072 0 8384396.8840780072 8855517.2353756018 0 0 0 0 138851110.76966858 400677012.99904728 0 400677012.99904728 264921628.1852951 0 0 0 0 189829421.51745605 355675073.35408688 0 355675073.35408688 287864107.25924683 0 0 0 0 204293302.04846954 521520820.18527985 0 521520820.18527985 112411326.17211914 0 0 0 0 -342000828.93615723 -87845429.779273987 0 -87845429.779273987 -15936174.982368469 0 0 0 0 -336345348.66016388 71329942.742195129 0 71329942.742195129 -661379699.6954689 0 0 0 0 -284620978.48709488 -193829095.04813385 0 -193829095.04813385 -171146806.11837769 0 0 0 0 -270631705.41980743 -287004957.11984253 0 -287004957.11984253 50392757.682289124 0 0 0 0 -348126077.31443787 -554160333.25434875 0 -554160333.25434875 302387344.36155701 0 0 0 0 -261702962.33632851 -257807523.58049774 0 -257807523.58049774 94112440.015035629 0 0 0 0 -245611383.02465725 -410718515.6440239 0 -410718515.6440239 663380532.52729797 0 0 0 0 178236571.86419725 -572755337.02818394 0 -572755337.02818394 265744087.70368195 0 0 0 0 -450210282.58331299 -207630983.27761841 0 -207630983.27761841 62286342.210205078 0 0 0 0 2412069.0274851029 1328898.089787906 0 1328898.089787906 3210950.2510473188 0 0 0 0 -259406134.87037659 253781970.53210887 0 253781970.53210887 3993503.6381550431 0 0 0 0 538483605.42198181 360748546.70435596 0 360748546.70435596 151230810.71119547 0 0 0 0 897605705.75515747 268876661.91129827 0 268876661.91129827 157687394.17122203 0 0 0 0 548836231.96063232 363073574.36157084 0 363073574.36157084 108502365.82950449 0 0 0 0 364210347.80941391 411991654.8603375 0 411991654.8603375 362894229.70493507 0 0 0 0 483445832.49200058 548278825.45778644 0 548278825.45778644 279277010.98347282 0 0 0 0 370704916.38700867 410816232.10842991 0 410816232.10842991 178665078.50310898 0 0 0 0 450760714.60687256 53187993.40205574 0 53187993.40205574 -128693577.16255736 0 0 0 0 620087321.01582336 275620143.56258106 0 275620143.56258106 205702213.41527653 0 0 0 0 402163131.11523438 359265508.18938065 0 359265508.18938065 -174126811.4617939 0 0 0 0 397852920.17343903 350162362.38307071 0 350162362.38307071 215592043.72911835 0 0 0 0 422795044.95953369 -8035355.9094581604 0 -8035355.9094581604 105892199.2390635 0 0 0 0 621039642.52381134 838173162.41908288 0 838173162.41908288 769820223.15662098 0 0 0 0 884750224.86192322 501174751.20907688 0 501174751.20907688 246230961.21159744 0 0 0 0 1804607864.4698029 723752913.89358759 0 723752913.89358759 56914551.762624741 0 0 0 0 -843492701.65323639 75917271.183760643 0 75917271.183760643 278764868.76407671 0 0 0 0 824559.44166964618 153312.80141690373 0 153312.80141690373 1047496.0288014517 0 0 0 0 247228240.66247559 536281814.37070489 0 536281814.37070489 358426832.22894955 0 0 0 0 266334971.57835388 258510432.89146996 0 258510432.89146996 932096398.11148834 0 0 0 0 298995619.13230896 383642969.6444521 0 383642969.6444521 52208094.55886364 0 0 0 0 400231016.32775116 223328846.26062512 0 223328846.26062512 235303736.19922066 0 0 0 0 -601755512.71326065 -25823983.752361298 0 -25823983.752361298 70708505.287918091 0 0 0 0 133838816.20692444 -94976845.661879063 0 -94976845.661879063 209228476.32610226 0 0 0 0 28610928.83190918 134014730.47291088 0 134014730.47291088 236236967.1802597 0 0 0 0 -18793792.717005417 8184782.038333023 0 8184782.038333023 9076311.1683492921 0 0 0 0 39433168.303024292 174629955.21263313 0 174629955.21263313 318148789.80089664 0 0 0 0 144426377.93127441 267059453.23776436 0 267059453.23776436 367423139.14614964 0 0 0 0 418439314.75306702 217689708.56337547 0 217689708.56337547 303938668.38914871 0 0 0 0 116456266.49380684 17413171.025752485 0 17413171.025752485 377326272.77684021 0 0 0 0 389198873.56796265 195909370.67677689 0 195909370.67677689 535583169.8602314 0 0 0 0 327940745.88307953 25325433.759995222 0 25325433.759995222 338501461.5099678 0 0 0 0 -533486503.51442146 -37364044.594932556 0 -37364044.594932556 21421905.953495026 0 0 0 0 -474687465.48632622 40401709.455051422 0 40401709.455051422 -73514599.876506805 0 0 0 0 46320472.562805176 257705611.20585561 0 257705611.20585561 -420318991.79942322 0 0 0 0 164411285.02320862 80977817.582507133 0 80977817.582507133 23554884.235111237 0 0 0 0 -2500627.4490403645 29306.661764655262 0 29306.661764655262 1772818.071397136 0 0 0 0 -11335757.291868992 14264642.275083728 0 14264642.275083728 7458921.5660594152 0 0 0 0 78004480.241851807 93100684.043615341 0 93100684.043615341 43129722.511566162 0 0 0 0 110310069.6439209 146994620.54250431 0 146994620.54250431 -56937369.377095222 0 0 0 0 -31154790.123385429 150091503.67840564 0 150091503.67840564 107380924.79504776 0 0 0 0 184414686.28494263 298383715.02629662 0 298383715.02629662 197549259.9120369 0 0 0 0 -331561108.24025154 24999065.32699585 0 24999065.32699585 218817525.41176987 0 0 0 0 -22113882.570373058 109381631.41022682 0 109381631.41022682 317055784.6442337 0 0 0 0 -217305043.10906792 -73479301.57175827 0 -73479301.57175827 166132182.94094849 0 0 0 0 -401063425.71497345 9504818.846736908 0 9504818.846736908 153001378.7644558 0 0 0 0 -237922726.34096336 11481278.535029411 0 11481278.535029411 60439316.531578064 0 0 0 0 -407244783.8367033 52992566.544818878 0 52992566.544818878 -100503385.28450012 0 0 0 0 -629726702.25890541 118111799.90087128 0 118111799.90087128 -17289274.633209229 0 0 0 0 -541415960.60968304 -1682805.9189586639 0 -1682805.9189586639 129864158.32383728 0 0 0 0 -426956356.58236408 20355821.066738129 0 20355821.066738129 67630867.854640961 0 0 0 0 -526405596.96488953 59322495.038917542 0 59322495.038917542 105813019.52082825 0 0 0 0 -393204144.21086597 104589730.93522644 0 104589730.93522644 150301483.36538696 0 0 0 0 -410661977.29952979 174006684.72021151 0 174006684.72021151 14191787.463256836 0 0 0 0 -423092635.27529526 146287269.65561295 0 146287269.65561295 -27594918.564727783 0 0 0 0 -389874819.46883619 99208726.383374214 0 99208726.383374214 117642540.43692398 0 0 0 0 -468090519.86067009 93560660.931568146 0 93560660.931568146 136619042.0644455 0 0 0 0 -196926915.96747971 145990780.46332169 0 145990780.46332169 76039279.410161972 0 0 0 0 -140663165.64390993 -100399556.75046492 0 -100399556.75046492 301261643.80711365 0 0 0 0 -43566998.930858135 -94873764.957279205 0 -94873764.957279205 220153883.8923645 0 0 0 0 209271229.61630559 -269275891.16336393 0 -269275891.16336393 287907093.71488953 0 0 0 0 221920316.57118845 -64949667.262586594 0 -64949667.262586594 442252783.6096344 0 0 0 0 381923438.15260601 173720204.9609375 0 173720204.9609375 311028608.34178543 0 0 0 0 -100134199.03555131 -67149581.025748253 0 -67149581.025748253 594774988.91348648 0 0 0 0 1036100639.3854795 941205172.20532227 0 941205172.20532227 950028977.85649681 0 0 0 0 250264423.99689865 283626430.89566135 0 283626430.89566135 407525503.723423 0 0 0 0 2010406792.0918541 375655322.4100399 0 375655322.4100399 -18040865.058859348 0 0 0 0 527608797.37612247 93228884.606929779 0 93228884.606929779 21241861.713874817 0 0 0 0 150226.41133930511 989137.78758774046 0 989137.78758774046 2044000.6176864244 0 0 0 0 -12367417.971737862 -339140263.06651688 0 -339140263.06651688 1383677049.9515228 0 0 0 0 29501944.891900063 838187894.35974693 0 838187894.35974693 1759787109.8948965 0 0 0 0 1944289914.3932371 175633056.56661415 0 175633056.56661415 270924632.75198364 0 0 0 0 -167393101.65504074 30352218.352483749 0 30352218.352483749 1558044630.9936352 0 0 0 0 736465174.14825153 -422302959.54733086 0 -422302959.54733086 -747927190.95272064 0 0 0 0 3752435.8161738631 658065.86703695357 0 658065.86703695357 -985890.34890911682 0 0 0 0 -208965598.01667774 166939298.48881054 0 166939298.48881054 323474436.50044632 0 0 0 0 16177753.446674824 -21701568.418937683 0 -21701568.418937683 -133473855.92618179 0 0 0 0 17959911.028160542 7461100.4023542404 0 7461100.4023542404 -81128874.658116341 0 0 0 0 17555294.330013514 -70280950.99580574 0 -70280950.99580574 -155779390.29090881 0 0 0 0 48569808.274680488 -16737474.22236681 0 -16737474.22236681 -158658176.08964157 0 0 0 0 -10763006.571662426 -241620896.83852482 0 -241620896.83852482 -414999671.10800719 0 0 0 0 -78095350.08688879 -67919947.26867485 0 -67919947.26867485 -123695108.70502853 0 0 0 0 359030316.11132836 -75794433.410798073 0 -75794433.410798073 -223433782.39419556 0 0 0 0 79266798.970606565 149172847.93759441 0 149172847.93759441 77655557.017345428 0 0 0 0 -49471594.88599205 -419826711.4108429 0 -419826711.4108429 202200225.53464508 0 0 0 0 1550920.5047662058 169712.48907282762 0 169712.48907282762 -332674.98490720615 0 0 0 0 -458241989.62141037 -77161250.533590317 0 -77161250.533590317 511286094.41459465 0 0 0 0 -19449742.179819107 26197507.069533348 0 26197507.069533348 250450691.18619919 0 0 0 0 -146452106.9440155 50339407.354454041 0 50339407.354454041 60330671.112992287 0 0 0 0 31749031.527432919 92010735.437988281 0 92010735.437988281 80391101.343837738 0 0 0 0 1025704.0432076631 1590834.9943362474 0 1590834.9943362474 -196602.21836841013 0 0 0 0 -79214976.758911848 -88116080.02874279 0 -88116080.02874279 -36333859.096126556 0 0 0 0 4930982.3818721771 261884919.52916145 0 261884919.52916145 323045530.93764877 0 0 0 0 174837445.54565716 385269277.62377357 0 385269277.62377357 363089551.97033119 0 0 0 0 -36876655.517863274 162382628.42762947 0 162382628.42762947 425627237.14007282 0 0 0 0 -6615530.4859479666 136015796.6776123 0 136015796.6776123 224377828.85974884 0 0 0 0 -41125719.973086238 104844428.0906868 0 104844428.0906868 90435105.492492676 0 0 0 0 65406763.572034121 -143061356.60012054 0 -143061356.60012054 167796884.66129398 0 0 0 0 -14892768.149945498 574555069.06414986 0 574555069.06414986 681082592.56531048 0 0 0 0 -79165598.050373912 21264907.626338959 0 21264907.626338959 990196354.33340454 0 0 0 0 157753205.83465075 524753491.12611961 0 524753491.12611961 468084152.505867 0 0 0 0 3861900.5847649826 1256485.2324780766 0 1256485.2324780766 -1291435.8443804798 0 0 0 0 576409544.3556875 261326327.70188236 0 261326327.70188236 -387882859.56578064 0 0 0 0 1751377.3658606126 898614.23016767856 0 898614.23016767856 -727973.75781129114 0 0 0 0 240476889.85164881 621634066.50941944 0 621634066.50941944 581519443.49398994 0 0 0 0 52298246.139677048 490157752.07736492 0 490157752.07736492 494474817.83905411 0 0 0 0 45482849.862987995 236864475.56066418 0 236864475.56066418 324329400.91517639 0 0 0 0 513401769.41240311 365006959.27671528 0 365006959.27671528 316894661.04586619 0 0 0 0 49947453.998336792 213652940.06147194 0 213652940.06147194 336150462.85774612 0 0 0 0 147789414.59743738 63614206.585154057 0 63614206.585154057 460375504.96828079 0 0 0 0 386001616.15677595 212047267.80985308 0 212047267.80985308 4397241.3072376251 0 0 0 0 25476826.623094559 216436747.273386 0 216436747.273386 193210475.3079257 0 0 0 0 -195785848.70491028 126756586.84686708 0 126756586.84686708 166230371.01431274 0 0 0 0 45098488.514773369 289618723.18663931 0 289618723.18663931 439388874.51475334 0 0 0 0 310558981.3554554 -113477005.43495846 0 -113477005.43495846 -153590123.67436886 0 0 0 0 134463442.57329607 -13158497.620081425 0 -13158497.620081425 -139914221.93017387 0 0 0 0 82432703.479175568 -140536472.80954552 0 -140536472.80954552 -56438118.39149189 0 0 0 0 1781474.6114234924 -5117431.8852524757 0 -5117431.8852524757 -97433502.100019455 0 0 0 0 28164671.756561279 -48384677.487953186 0 -48384677.487953186 -70171245.093006134 0 0 0 0 124467265.55018425 -50009748.631550789 0 -50009748.631550789 -116025437.59222221 0 0 0 0 50524774.398037195 -23698681.389833927 0 -23698681.389833927 -123956355.09764862 0 0 0 0 64654502.968392372 -5495734.5279397964 0 -5495734.5279397964 -139699842.62968159 0 0 0 0 62477425.834169388 9591812.0429496765 0 9591812.0429496765 -166154220.23001957 0 0 0 0 135047497.18528509 61271354.666538715 0 61271354.666538715 -129757254.89754295 0 0 0 0 124800339.80194473 36788905.00727272 0 36788905.00727272 -164558608.80784035 0 0 0 0 120542541.18196869 -12680489.212991714 0 -12680489.212991714 -157794128.95610046 0 0 0 0 129486276.04978085 -26632846.927350044 0 -26632846.927350044 -141635215.87314034 0 0 0 0 191385053.94989681 -15757334.219328403 0 -15757334.219328403 -298377411.20097351 0 0 0 0 52319725.297922134 -35623561.157114029 0 -35623561.157114029 -171456959.97432518 0 0 0 0 76320183.883426666 107927116.30232716 0 107927116.30232716 -254703649.6367476 0 0 0 0 -216471299.98810244 317292636.91709018 0 317292636.91709018 -525168810.17380905 0 0 0 0 86293776.948009491 127477856.28008556 0 127477856.28008556 -69038918.306381226 0 0 0 0 -238000793.0855732 -144770580.1739502 0 -144770580.1739502 -297592836.46559525 0 0 0 0 -70239937.726088524 -96119478.481096268 0 -96119478.481096268 -59834689.129031181 0 0 0 0 -4181356.0369966626 -51030231.269273758 0 -51030231.269273758 -135331736.56766701 0 0 0 0 898222.38792116719 -153063.09925348219 0 -153063.09925348219 -877073.00469865277 0 0 0 0 -70619305.703386307 -124991763.61791992 0 -124991763.61791992 -91387371.859264374 0 0 0 0 -271418069.84016609 -60556639.785533905 0 -60556639.785533905 -98404067.707132339 0 0 0 0 -133674950.14008331 -82538493.149684906 0 -82538493.149684906 -117681514.57650375 0 0 0 0 -63190925.96665144 -122279814.96144676 0 -122279814.96144676 -141813546.68144226 0 0 0 0 -177516201.43696141 -92352343.823319435 0 -92352343.823319435 -122124523.18434143 0 0 0 0 1424668.9001261704 -393586.19575177599 0 -393586.19575177599 -1251289.1356426459 0 0 0 0 -270629151.70310593 -132087671.27065277 0 -132087671.27065277 -69038969.131973267 0 0 0 0 -149801416.02603817 -154182423.6740799 0 -154182423.6740799 -80215875.516876221 0 0 0 0 -335952904.26352519 -88890873.19645524 0 -88890873.19645524 -44972378.935943604 0 0 0 0 -21515903.70045279 -20135909.249862671 0 -20135909.249862671 -124277942.39186668 0 0 0 0 6676575.9972150326 -12649601.273861885 0 -12649601.273861885 -114406544.07838821 0 0 0 0 -4739149.3905944824 -27638814.049799919 0 -27638814.049799919 -110945636.73871326 0 0 0 0 5543950.7439146042 -13200903.37007618 0 -13200903.37007618 -90787497.244091034 0 0 0 0 -1803593.3446122408 -39367954.844330549 0 -39367954.844330549 -78270653.358291626 0 0 0 0 -54482511.672068477 -1261769.2053699493 0 -1261769.2053699493 -59424687.240735054 0 0 0 0 -8559311.8486988544 884995.09730529785 0 884995.09730529785 -135650125.19346428 0 0 0 0 -18675191.317350864 -33272528.239192963 0 -33272528.239192963 -132284358.65870404 0 0 0 0 1432008.7619395256 -21646335.455114365 0 -21646335.455114365 -88671583.523361683 0 0 0 0 48802422.682610035 -17408834.016436577 0 -17408834.016436577 -131428888.06925201 0 0 0 0 11244525.079942703 2299763.0704755783 0 2299763.0704755783 -125234364.18559074 0 0 0 0 15598214.842003822 -15021170.923225403 0 -15021170.923225403 -130723851.49976444 0 0 0 0 12322961.064720988 -10759269.141133785 0 -10759269.141133785 -124232015.81190109 0 0 0 0 -35153483.929786205 -21040982.010066986 0 -21040982.010066986 -119973511.36995459 0 0 0 0 -29121364.953066498 -31163318.632752419 0 -31163318.632752419 -122100870.20601082 0 0 0 0 -8215722.1071562413 -2741050.4516568938 0 -2741050.4516568938 6132364.0457936917 0 0 0 0 -30575335.657840729 -37456380.390882492 0 -37456380.390882492 -125712731.35583782 0 0 0 0 -124685381.07301044 55356326.134887934 0 55356326.134887934 -974488.73416137695 0 0 0 0 -18127127.296170965 19560427.480847985 0 19560427.480847985 -1677462.9055147571 0 0 0 0 -36139957.82054162 -65603067.011321068 0 -65603067.011321068 -291036715.85439682 0 0 0 0 -135654189.55753112 186710866.67061901 0 186710866.67061901 -225013125.37687492 0 0 0 0 5493605.5617511272 -38719353.939003944 0 -38719353.939003944 -33281721.154397964 0 0 0 0 -2087631.8130503418 -664643.36241882946 0 -664643.36241882946 1406744.1972330613 0 0 0 0 -176891795.78744602 -95130506.315185547 0 -95130506.315185547 -53464347.886537552 0 0 0 0 -238560219.95208597 104127963.79785728 0 104127963.79785728 -168204210.47216606 0 0 0 0 -368164635.68643951 -129859900.52775764 0 -129859900.52775764 275808998.9299469 0 0 0 0 -100094181.33632469 -153747099.20948792 0 -153747099.20948792 -32683225.434059143 0 0 0 0 -6241062.1902478933 -56022420.067678452 0 -56022420.067678452 -76590091.19575882 0 0 0 0 -16822706.387263957 13965859.390972704 0 13965859.390972704 5619044.7891230537 0 0 0 0 -273960558.53941488 -386459881.16329724 0 -386459881.16329724 559346993.2843399 0 0 0 0 -67313720.594470978 -140244463.73002625 0 -140244463.73002625 -65224107.152927399 0 0 0 0 -58687118.626863003 -192250621.23926163 0 -192250621.23926163 -3128737.2521324158 0 0 0 0 556240401.22721863 370132416.90984154 0 370132416.90984154 -303714280.70684052 0 0 0 0 -160027908.08087158 279314780.97001457 0 279314780.97001457 -109942613.66141891 0 0 0 0 217532002.03045654 96873032.613857269 0 96873032.613857269 -62088445.458490372 0 0 0 0 253569122.17417908 138672534.3707962 0 138672534.3707962 -98532445.82109642 0 0 0 0 308071999.02064514 40728812.877159119 0 40728812.877159119 -45098861.806472778 0 0 0 0 305075254.95710754 100102448.75986862 0 100102448.75986862 -105037253.39588165 0 0 0 0 16210398.500167847 53416311.109195709 0 53416311.109195709 -81531103.374031067 0 0 0 0 11429319.792909395 8516389.0757619143 0 8516389.0757619143 -4324795.798173191 0 0 0 0 -207801932.95725441 98031163.851630211 0 98031163.851630211 530373323.45252609 0 0 0 0 24750277.247573853 4248760.5992126465 0 4248760.5992126465 455078296.21729755 0 0 0 0 -115547555.099823 64145897.2983284 0 64145897.2983284 247308694.84731293 0 0 0 0 173095730.56834412 175858534.47555542 0 175858534.47555542 207406277.14595795 0 0 0 0 14522010.724609375 228419870.29087067 0 228419870.29087067 394354125.92730522 0 0 0 0 -634685658.59860229 159387013.16233063 0 159387013.16233063 395155967.73263359 0 0 0 0 617289.57125788368 783410.70549381711 0 783410.70549381711 -312271.63390648365 0 0 0 0 183132421.33110046 354510366.10976791 0 354510366.10976791 433211390.85630035 0 0 0 0 108557440.55447006 105421873.64464092 0 105421873.64464092 482617271.09609222 0 0 0 0 409212181.3330574 391189572.60655403 0 391189572.60655403 384031699.93101501 0 0 0 0 -27365634.586624146 69096606.708518982 0 69096606.708518982 -23309624.63024044 0 0 0 0 -28348211.363299817 -38961290.697052479 0 -38961290.697052479 71881362.501361847 0 0 0 0 -24806142.744414948 18534315.856630802 0 18534315.856630802 -2221590.7519625812 0 0 0 0 -943469.81334431609 5891053.9101613257 0 5891053.9101613257 -1149566.6813107005 0 0 0 0 59878529.955103874 56390030.091968536 0 56390030.091968536 -15278673.427759528 0 0 0 0 4371168.6439971924 -38187295.735898495 0 -38187295.735898495 37308379.823448181 0 0 0 0 -21699861.251593169 13996772.793270592 0 13996772.793270592 -5968552.5501592057 0 0 0 0 226683235.71335983 140027424.63253593 0 140027424.63253593 5838403.4749145508 0 0 0 0 -91733498.384101868 165590975.36109924 0 165590975.36109924 516625993.88923264 0 0 0 0 -5891280.7745045163 2612182.8140264489 0 2612182.8140264489 5977830.0527767353 0 0 0 0 194956063.43205261 616443849.92946625 0 616443849.92946625 519461894.46566772 0 0 0 0 322297022.74055099 504580849.20511627 0 504580849.20511627 591846536.0675354 0 0 0 0 -171466232.97576904 -21112185.851921082 0 -21112185.851921082 135230940.49312592 0 0 0 0 195849667.10322189 -105225128.22532654 0 -105225128.22532654 -84365861.478530884 0 0 0 0 418574425.75680161 256206273.95583534 0 256206273.95583534 90044458.677856445 0 0 0 0 -30499530.698760986 20341285.059005737 0 20341285.059005737 -8263221.8213882446 0 0 0 0 34264003.737014771 317401313.87123108 0 317401313.87123108 476156381.36803627 0 0 0 0 165136479.9223938 173959332.92744827 0 173959332.92744827 -7738867.308429718 0 0 0 0 -73725501.309112549 117366203.66312027 0 117366203.66312027 248963461.18250275 0 0 0 0 -57314738.285049915 323692633.31353641 0 323692633.31353641 945273395.01465607 0 0 0 0 1405655.2871621102 1487743.8713791966 0 1487743.8713791966 903190.68749218341 0 0 0 0 72972779.681494713 76180243.273346901 0 76180243.273346901 -87274384.139732361 0 0 0 0 113831882.18666077 59256519.342323303 0 59256519.342323303 -84261348.713412285 0 0 0 0 2901907.8577673808 -371455.99474727549 0 -371455.99474727549 -2263415.8489472158 0 0 0 0 114659967.10871315 -41570079.789011002 0 -41570079.789011002 -102580270.45458984 0 0 0 0 958150.60354042053 3822307.4581632614 0 3822307.4581632614 -4596727.9254302979 0 0 0 0 1739730.9954150096 849843.80583138764 0 849843.80583138764 104472.78094988223 0 0 0 0 55615872.255741119 -38224173.850442886 0 -38224173.850442886 -103647422.20435715 0 0 0 0 -47907.839569091797 1252227.9580078125 0 1252227.9580078125 -8316713.43800354 0 0 0 0 4023988.3447717465 1682459.8536123121 0 1682459.8536123121 -1166372.7644813005 0 0 0 0 156474.83712005615 2346612.893699646 0 2346612.893699646 -4440988.0667600632 0 0 0 0 -177974838.95301819 143835285.6473999 0 143835285.6473999 -242942968.85658646 0 0 0 0 3861409.4061753107 3846306.0332796713 0 3846306.0332796713 -1623595.5251229629 0 0 0 0 26307439.365646362 245922959.3466568 0 245922959.3466568 -347871497.55492401 0 0 0 0 -5220440.2401580811 786.53147125244141 0 786.53147125244141 4359737.1238174438 0 0 0 0 719156.32800111547 -72753.855909667909 0 -72753.855909667909 -98918.363067025319 0 0 0 0 -98133960.129737854 202228040.22097206 0 202228040.22097206 -183296796.18751526 0 0 0 0 4086967.0671310425 289491678.31450462 0 289491678.31450462 -127911143.0380249 0 0 0 0 -95861375.755233765 143574979.65898132 0 143574979.65898132 -20604140.986095428 0 0 0 0 169043883.83943176 81387600.778621674 0 81387600.778621674 -159787076.90196991 0 0 0 0 116917362.4848175 220160701.92885113 0 220160701.92885113 213600868.40259552 0 0 0 0 121178592.58935547 225224724.08412266 0 225224724.08412266 9406306.2489929199 0 0 0 0 1894150.1342777964 2096456.9450364318 0 2096456.9450364318 -1565320.9649857543 0 0 0 0 -110963231.20207214 -72653756.43031311 0 -72653756.43031311 1452498.2979660034 0 0 0 0 -116043123.89592624 115879746.29818195 0 115879746.29818195 -54363947.192512512 0 0 0 0 -155591493.24351501 316537150.87756348 0 316537150.87756348 -118198696.22208405 0 0 0 0 -373340542.25948334 276322613.95447731 0 276322613.95447731 -82769204.326004028 0 0 0 0 -192947103.81573212 182164929.1247642 0 182164929.1247642 47228757.340629578 0 0 0 0 52120255.402383804 110793498.61196423 0 110793498.61196423 -201583894.25973392 0 0 0 0 -26379115.681592941 47924520.241615772 0 47924520.241615772 -170473160.66072845 0 0 0 0 35330282.70097208 119184839.35875416 0 119184839.35875416 -20782479.30966568 0 0 0 0 147269875.6335125 110422932.34977484 0 110422932.34977484 -27573194.498003006 0 0 0 0 93968590.149861336 194721123.41455269 0 194721123.41455269 76675861.811751246 0 0 0 0 -82605040.286607742 33301254.869246483 0 33301254.869246483 87863330.192848206 0 0 0 0 -21258053.700679205 16144976.331829445 0 16144976.331829445 -8536331.9260617811 0 0 0 0 83316867.895761728 82853982.536392212 0 82853982.536392212 53570462.068101883 0 0 0 0 114754999.39405441 86333930.848246574 0 86333930.848246574 -163973009.52855301 0 0 0 0 61909432.961532593 1420522.1743221283 0 1420522.1743221283 -101579625.64638472 0 0 0 0 -51935285.485679626 1823855.5248947144 0 1823855.5248947144 37713070.951454163 0 0 0 0 1243762678.296936 455436627.95010376 0 455436627.95010376 100982287.63642216 0 0 0 0 720546162.11593628 -407146648.60029221 0 -407146648.60029221 -518980192.65776825 0 0 0 0 1031526571.6446571 1229167290.6811619 0 1229167290.6811619 451271320.82239532 0 0 0 0 1378636.6502692774 306655.90351382177 0 306655.90351382177 -401787.57493373565 0 0 0 0 127838833.45864868 -228152247.7461853 0 -228152247.7461853 10913426.432762146 0 0 0 0 -382470456.34730911 493882364.81594467 0 493882364.81594467 266386397.19733047 0 0 0 0 516932690.9101944 172386807.53385544 0 172386807.53385544 -165443934.13124084 0 0 0 0 69916786.915924072 196469001.96953583 0 196469001.96953583 -162410588.44235754 0 0 0 0 1368796.0828617672 2836191.1119081974 0 2836191.1119081974 -719795.91495730355 0 0 0 0 -699861636.16035461 6243912.893904686 0 6243912.893904686 137019595.4354248 0 0 0 0 -1796392506.046936 132249096.9596405 0 132249096.9596405 159294345.6162262 0 0 0 0 165575346.0271492 -173269927.40578651 0 -173269927.40578651 99998336.605112791 0 0 0 0 -21355738.027488239 17856174.708012257 0 17856174.708012257 -8707510.1199094113 0 0 0 0 6317969.739397049 202984674.05215859 0 202984674.05215859 245486922.27937317 0 0 0 0 222018087.59443665 197559112.15980721 0 197559112.15980721 89918532.344966888 0 0 0 0 -35822194.500099182 -8286733.0165195465 0 -8286733.0165195465 131387463.0801096 0 0 0 0 70514889.956528664 150707668.68943739 0 150707668.68943739 37344595.318976164 0 0 0 0 106321752.89694977 51107613.510070801 0 51107613.510070801 -4117021.7428684235 0 0 0 0 91992882.685066223 73328943.395956039 0 73328943.395956039 12038211.384384155 0 0 0 0 87345311.405990601 46601206.141143799 0 46601206.141143799 -919317.35473823547 0 0 0 0 73049694.221748352 56310094.651769638 0 56310094.651769638 13075288.794044495 0 0 0 0 96451813.164009094 68975187.421186447 0 68975187.421186447 10109987.401672363 0 0 0 0 94993404.743145943 61218190.638017178 0 61218190.638017178 -5818967.4024543762 0 0 0 0 89856780.641902924 53208218.508474827 0 53208218.508474827 1769215.0726089478 0 0 0 0 4947009.260255117 9703135.9292562231 0 9703135.9292562231 -1750030.9649585038 0 0 0 0 97200002.524188995 50072632.438648224 0 50072632.438648224 85700.881500244141 0 0 0 0 -107038322.25510406 -11590208.87979126 0 -11590208.87979126 25225419.46484375 0 0 0 0 74238177.987686157 47155133.249855042 0 47155133.249855042 1068470.3872795105 0 0 0 0 -42950567.628356934 -3289437.0250244141 0 -3289437.0250244141 -21422982.651451111 0 0 0 0 -40027029.874084473 10457745.411010742 0 10457745.411010742 -16845079.714057922 0 0 0 0 -31894860.588470459 21856989.537612915 0 21856989.537612915 -4007683.7362823486 0 0 0 0 -56048504.693054199 -578461.4342956543 0 -578461.4342956543 6460923.7757415771 0 0 0 0 -54767914.149353027 -13342686.211990356 0 -13342686.211990356 -11967325.70980835 0 0 0 0 -62985908.931030273 -9760764.4079055786 0 -9760764.4079055786 -2156115.0037384033 0 0 0 0 -15316425.321321487 34142176.470110893 0 34142176.470110893 33641977.268173218 0 0 0 0 -69124063.894714355 21036553.034454346 0 21036553.034454346 21860934.809387207 0 0 0 0 -15628360.727111816 23633460.03163147 0 23633460.03163147 4000189.0674133301 0 0 0 0 -38500662.040359497 27932526.931594849 0 27932526.931594849 21174101.642440796 0 0 0 0 49549799.895271301 44485742.199054718 0 44485742.199054718 15936762.178405762 0 0 0 0 27885722.638366699 17316290.554145813 0 17316290.554145813 10453983.799179077 0 0 0 0 11255750.922477722 25505073.217761993 0 25505073.217761993 15629636.167144775 0 0 0 0 -25183876.735992432 38292739.670768738 0 38292739.670768738 6969454.4975280762 0 0 0 0 14877277.606681824 19286931.808414459 0 19286931.808414459 6803117.6235231757 0 0 0 0 11987237.986610413 144121276.82395172 0 144121276.82395172 -41860500.168128967 0 0 0 0 -131343278.98214722 103764316.65342855 0 103764316.65342855 -15454966.936599731 0 0 0 0 167685080.5005188 138758374.83076477 0 138758374.83076477 -149695469.97554779 0 0 0 0 42579242.793548584 176013003.59116364 0 176013003.59116364 -99049735.562007904 0 0 0 0 -2083839.3389205933 170074722.94955063 0 170074722.94955063 -88884596.369522095 0 0 0 0 42476230.969579697 175105103.0851264 0 175105103.0851264 -69889951.575942993 0 0 0 0 1380620.404662244 1194376.0806500418 0 1194376.0806500418 -1361436.4704381488 0 0 0 0 347792747.25790119 -42293429.414793015 0 -42293429.414793015 104334905.85038757 0 0 0 0 352591856.15763855 -11501406.608768463 0 -11501406.608768463 -79142890.479721069 0 0 0 0 158371661.75237274 -42756421.520450592 0 -42756421.520450592 62127890.090164185 0 0 0 0 380959873.63111496 -154156513.0843029 0 -154156513.0843029 -167406049.68536377 0 0 0 0 121866885.33349228 18844925.344684601 0 18844925.344684601 -2365881.9233703613 0 0 0 0 1058875.3080921564 1560644.1510340506 0 1560644.1510340506 -569122.53275765851 0 0 0 0 64816348.562866211 42372602.410964966 0 42372602.410964966 50193201.461162567 0 0 0 0 66735602.737510681 -3799689.7547912598 0 -3799689.7547912598 -233895.59494018555 0 0 0 0 46178224.027961731 5366052.9664916992 0 5366052.9664916992 -16258694.77003479 0 0 0 0 21103069.700408936 17099630.339103699 0 17099630.339103699 -830845.88809967041 0 0 0 0 35461134.4333992 21966106.258651733 0 21966106.258651733 -27134581.753013611 0 0 0 0 -18638870.125640869 32007865.437995911 0 32007865.437995911 5872016.3436279297 0 0 0 0 -9240759.9660644531 48526661.443809509 0 48526661.443809509 19481276.368209839 0 0 0 0 33972066.320167542 50299903.93629837 0 50299903.93629837 17447182.511398315 0 0 0 0 17316914.997436523 33597019.177322388 0 33597019.177322388 3782526.1505355835 0 0 0 0 11057257.039093018 56996514.768989563 0 56996514.768989563 26186620.398267746 0 0 0 0 55932524.815383911 24437850.985286713 0 24437850.985286713 14300888.989562988 0 0 0 0 -6212989.6512527466 33001357.944599152 0 33001357.944599152 14310148.3387146 0 0 0 0 -28869808.15802002 28610155.032623291 0 28610155.032623291 18241505.128972054 0 0 0 0 4803466.779510498 7214694.7386627197 0 7214694.7386627197 3860905.9422302246 0 0 0 0 319902.11769975722 13177503.358269289 0 13177503.358269289 8998549.7313492969 0 0 0 0 -31823294.696151733 24774267.87402916 0 24774267.87402916 9180773.0501556396 0 0 0 0 -28583215.548187256 29723873.376876831 0 29723873.376876831 8807395.3642578125 0 0 0 0 7301342.1301284395 5859723.8453059644 0 5859723.8453059644 -6516104.6643151455 0 0 0 0 40717013.356033325 34088035.395133972 0 34088035.395133972 19503786.408302307 0 0 0 0 10674196.24997369 19726262.614224344 0 19726262.614224344 -2949986.6148201376 0 0 0 0 -22204949.375640869 31310238.130275726 0 31310238.130275726 -3359553.8248596191 0 0 0 0 -4565299.7886915207 -49475514.190921783 0 -49475514.190921783 -270409892.50061035 0 0 0 0 11916888.592975616 -1074774.5805664062 0 -1074774.5805664062 -220208983.60568237 0 0 0 0 -12088572.741847992 48728346.324082375 0 48728346.324082375 1369837.8657150269 0 0 0 0 13143631.716272816 19727560.153081693 0 19727560.153081693 10971161.814587437 0 0 0 0 -57921488.722127914 38776168.232696533 0 38776168.232696533 91519559.099304199 0 0 0 0 -331732.00531702698 8591839.5237816833 0 8591839.5237816833 5229553.3175113946 0 0 0 0 19961443.9073039 10093723.930179987 0 10093723.930179987 -26433389.832808264 0 0 0 0 129454651.43083954 216580535.73571777 0 216580535.73571777 -51138220.543844223 0 0 0 0 22264259.527654216 9299341.5524598192 0 9299341.5524598192 -26728023.634739958 0 0 0 0 55703245.672416687 45815391.909622192 0 45815391.909622192 -20724987.479415894 0 0 0 0 86495453.552719116 54580816.230857849 0 54580816.230857849 -18532065.332353592 0 0 0 0 63107294.918598175 30248369.181758881 0 30248369.181758881 15241652.095657349 0 0 0 0 118611552.50967407 5504889.0266418457 0 5504889.0266418457 -35679905.447738647 0 0 0 0 54603186.933609009 50229232.31262207 0 50229232.31262207 -1340053.4233398438 0 0 0 0 57795978.141129971 9493980.015717268 0 9493980.015717268 -28761151.285385132 0 0 0 0 37551341.388192177 65989930.121887207 0 65989930.121887207 38673709.965316772 0 0 0 0 3948132.0352769271 38323.911376232747 0 38323.911376232747 -4706043.5307225101 0 0 0 0 -33377.281341552734 7726819.9386558533 0 7726819.9386558533 -22397658.855056763 0 0 0 0 5356224.520545545 6935691.5650461335 0 6935691.5650461335 187650.76413431764 0 0 0 0 -7974426.3528862 -17622355.556774139 0 -17622355.556774139 31962948.128879547 0 0 0 0 -42883687.925186157 21533250.773967743 0 21533250.773967743 19687782.169670105 0 0 0 0 -3357126.8676223755 -34498929.255706787 0 -34498929.255706787 -6857655.7127037048 0 0 0 0 57879834.62286377 -31899817.079238892 0 -31899817.079238892 -14630473.216510773 0 0 0 0 -45247868.915948868 9874662.2569413185 0 9874662.2569413185 1925531.6938552856 0 0 0 0 -39429302.976406097 -9666875.4059963226 0 -9666875.4059963226 -895073.29641723633 0 0 0 0 -897256.2136544846 -117811.73098530434 0 -117811.73098530434 -166778.95352113061 0 0 0 0 -28287348.233669281 4032510.3351306915 0 4032510.3351306915 812369.95040130615 0 0 0 0 -21958657.866188049 68150043.710361481 0 68150043.710361481 -45037557.168632507 0 0 0 0 19329865.307098389 -47420477.332885742 0 -47420477.332885742 60107513.305471897 0 0 0 0 -46822777.727583885 30811984.677364349 0 30811984.677364349 67937335.92035675 0 0 0 0 -85130645.71472168 262448688.82175446 0 262448688.82175446 -124486987.18276596 0 0 0 0 155477599.69916534 125712768.06921387 0 125712768.06921387 -106947363.80627441 0 0 0 0 1212145.9493903555 216357.46654515248 0 216357.46654515248 -1339277.0703933351 0 0 0 0 -86434246.627586365 201690941.28154373 0 201690941.28154373 -204593720.78336334 0 0 0 0 -82203613.761859894 260139244.32613564 0 260139244.32613564 -279199076.46057892 0 0 0 0 -16611055.897590637 17901894.467292786 0 17901894.467292786 16806914.963356018 0 0 0 0 -95616804.939071655 133472653.80315399 0 133472653.80315399 -277518329.38443244 0 0 0 0 1704846.4619395956 558359.12054631952 0 558359.12054631952 -2238440.6502402872 0 0 0 0 -10784561.719558716 188114045.04908371 0 188114045.04908371 -281061318.69560242 0 0 0 0 -290011573.40833664 318344072.48119926 0 318344072.48119926 -208601349.25527954 0 0 0 0 -179688815.38011169 31183816.347709656 0 31183816.347709656 23457432.40473938 0 0 0 0 -92633532.435958862 200085147.26999664 0 200085147.26999664 -97492332.335845947 0 0 0 0 299291619.8779068 -15436303.809646606 0 -15436303.809646606 -107453562.70409775 0 0 0 0 2215923.8338653557 1886200.81354099 0 1886200.81354099 -2184948.5256677791 0 0 0 0 169093222.62932587 -42276748.493911743 0 -42276748.493911743 -122988914.77693176 0 0 0 0 81177479.565475464 30158925.501895905 0 30158925.501895905 144861683.89681244 0 0 0 0 2639646.9828015566 3562744.1966958772 0 3562744.1966958772 -974232.65977986157 0 0 0 0 45227161.243282318 150676819.49274445 0 150676819.49274445 -18980242.718109131 0 0 0 0 -168859655.68489838 88671456.971271515 0 88671456.971271515 -173515907.3381424 0 0 0 0 63924931.694208145 163113041.58164024 0 163113041.58164024 -175321026.95921326 0 0 0 0 16577325.97309494 23390884.749225616 0 23390884.749225616 -74001027.124511719 0 0 0 0 -176141.96838495508 743948.50235437136 0 743948.50235437136 -1215535.532255657 0 0 0 0 -303449032.75497723 351021878.16374111 0 351021878.16374111 -200447667.05957031 0 0 0 0 -124655343.69353104 166006751.01875305 0 166006751.01875305 -216071890.16266632 0 0 0 0 -25164297.560100555 3909565.6262187958 0 3909565.6262187958 12932183.620067596 0 0 0 0 -79259445.405542374 49270149.183012962 0 49270149.183012962 65916057.362205505 0 0 0 0 5430306.9333367404 7345084.6481049862 0 7345084.6481049862 164246.02330127731 0 0 0 0 357905091.99649811 -7651146.4677238464 0 -7651146.4677238464 -35062934.291183472 0 0 0 0 487569718.96687031 211182167.83694267 0 211182167.83694267 -19786605.271720886 0 0 0 0 590990485.60107803 234168653.18337631 0 234168653.18337631 -148601584.60692215 0 0 0 0 362315472.40152168 161705056.89616013 0 161705056.89616013 -25667027.93283844 0 0 0 0 27055836.927986145 -35305868.808589935 0 -35305868.808589935 33286527.868164062 0 0 0 0 355774439.21492767 137587808.2310009 0 137587808.2310009 66965381.831581116 0 0 0 0 183361.640231736 -345822.14398311917 0 -345822.14398311917 -500946.31544003077 0 0 0 0 133647219.06341553 -38600834.419559479 0 -38600834.419559479 103754241.96078873 0 0 0 0 29781221.602396011 32014726.808081627 0 32014726.808081627 -17807998.781539917 0 0 0 0 94444488.865362167 37301440.858816147 0 37301440.858816147 -23369188.640708923 0 0 0 0 353853860.11154175 62744399.832408905 0 62744399.832408905 -97893017.752983093 0 0 0 0 519266012.54541016 -225173524.25289917 0 -225173524.25289917 -1041817.3072404861 0 0 0 0 607194126.64381599 -164984268.95472336 0 -164984268.95472336 -108036303.7642746 0 0 0 0 98702115.771438599 58549449.547409058 0 58549449.547409058 86244102.215709686 0 0 0 0 180060929.43515015 47169485.174324036 0 47169485.174324036 -33654674.17276001 0 0 0 0 252925997.00557709 128595771.60466576 0 128595771.60466576 4020265.9196624756 0 0 0 0 640559.73817872256 -481271.16092343442 0 -481271.16092343442 -308588.8514472628 0 0 0 0 -30946836.588814735 -40921248.85984993 0 -40921248.85984993 29184208.855789185 0 0 0 0 260808100.16457748 16330761.524375916 0 16330761.524375916 -77458136.123651505 0 0 0 0 791050092.94445419 58691079.755680084 0 58691079.755680084 -86720599.685549736 0 0 0 0 706242841.48106194 -280089595.92733955 0 -280089595.92733955 20250670.979995728 0 0 0 0 448268364.4519558 -167625668.97508049 0 -167625668.97508049 463692115.01765442 0 0 0 0 374125418.35055351 316273660.20030594 0 316273660.20030594 273381143.72996521 0 0 0 0 1402965.8739424422 882576.80508254841 0 882576.80508254841 -33655.14954142645 0 0 0 0 301491643.83167839 -327548573.30350304 0 -327548573.30350304 778054162.73006821 0 0 0 0 649843402.3336525 362606787.74240875 0 362606787.74240875 -171449555.38954926 0 0 0 0 458019892.98165131 371419856.07138824 0 371419856.07138824 366021480.67548752 0 0 0 0 557259934.46205616 162262862.9824152 0 162262862.9824152 -217531093.00339508 0 0 0 0 2596015.5501781907 2394769.5691799279 0 2394769.5691799279 1005522.1667041183 0 0 0 0 227156002.22957993 -349877595.34992409 0 -349877595.34992409 278631027.70824051 0 0 0 0 -207343034.826437 -249291683.68213081 0 -249291683.68213081 -30172532.221343994 0 0 0 0 246949869.5135231 -80747682.506872177 0 -80747682.506872177 54483504.440422058 0 0 0 0 -78756491.285106659 -51738514.935180664 0 -51738514.935180664 273073235.04984713 0 0 0 0 -133337359.20214462 206771558.19816208 0 206771558.19816208 -46238358.996604919 0 0 0 0 -68300627.182914734 -8161750.1101150513 0 -8161750.1101150513 157197129.14242554 0 0 0 0 -265918289.973526 106733011.36853027 0 106733011.36853027 187094868.40552139 0 0 0 0 -182421972.15234375 21296622.980266571 0 21296622.980266571 195478782.37488174 0 0 0 0 -653482520.51959991 217728092.73657227 0 217728092.73657227 117950680.36944008 0 0 0 0 -160092778.11600399 411650452.13151455 0 411650452.13151455 -276438311.83513641 0 0 0 0 -14736527.34614563 181071012.53384781 0 181071012.53384781 -52539285.349525452 0 0 0 0 162590354.87682343 254616815.06404114 0 254616815.06404114 -345390596.87683105 0 0 0 0 -92782788.958488464 251847334.86131096 0 251847334.86131096 -116239124.29367065 0 0 0 0 164756510.04476929 80913418.742195129 0 80913418.742195129 -151037234.62575531 0 0 0 0 -19252115.10798645 136124259.88519287 0 136124259.88519287 -164376507.49312019 0 0 0 0 38201928.095428467 193745461.34156799 0 193745461.34156799 81429392.3804636 0 0 0 0 1417928.4952905662 242645.12914614193 0 242645.12914614193 -1801456.0752418004 0 0 0 0 122384118.10218811 1382694816.1307907 0 1382694816.1307907 -287501443.61627197 0 0 0 0 -22008361.820472717 -249750275.81984711 0 -249750275.81984711 622105689.07122803 0 0 0 0 -639969643.70679283 189771418.39807892 0 189771418.39807892 41821544.717773438 0 0 0 0 120484.02590225078 1879109.6247017831 0 1879109.6247017831 1218973.7256029714 0 0 0 0 21436038.742977142 -37431009.22086525 0 -37431009.22086525 -422550605.07093811 0 0 0 0 -537434461.56424713 -32208607.261173248 0 -32208607.261173248 19401595.610389709 0 0 0 0 1843208.7127374653 8571094.5645685811 0 8571094.5645685811 8121313.2252648529 0 0 0 0 -347833832.32078171 -25755113.431404114 0 -25755113.431404114 1478643.4135971069 0 0 0 0 -300638291.56465912 221651529.50361252 0 221651529.50361252 27590715.052335739 0 0 0 0 -2044931.1585388184 15581189.696438789 0 15581189.696438789 2415941.0684051514 0 0 0 0 -2708779.2537689209 12816579.066559553 0 12816579.066559553 1742780.5732116699 0 0 0 0 -1536044.1940634251 13493952.635221481 0 13493952.635221481 -261855.45845031738 0 0 0 0 -50869439.89245224 307456789.7069931 0 307456789.7069931 107955526.51451492 0 0 0 0 -83930753.297134399 -39528627.736572266 0 -39528627.736572266 308868531.71292877 0 0 0 0 -116597981.15325546 154697815.42699051 0 154697815.42699051 -269022556.00132942 0 0 0 0 -475897718.52769089 352740465.7698555 0 352740465.7698555 10696110.46849823 0 0 0 0 -438000569.86848068 257189917.7877655 0 257189917.7877655 39544511.261587143 0 0 0 0 -126028437.62158966 197624502.57820511 0 197624502.57820511 -9719987.4825744629 0 0 0 0 -344302016.09204483 328918500.92127419 0 328918500.92127419 -147839968.71045685 0 0 0 0 54112225.581710815 228595391.3546257 0 228595391.3546257 -41259398.62467289 0 0 0 0 226039634.39750099 77217676.583154678 0 77217676.583154678 -9241845.0348434448 0 0 0 0 -71689517.18737793 110573870.06282997 0 110573870.06282997 -126339396.19348145 0 0 0 0 -38616603.028118134 241399199.52767944 0 241399199.52767944 -139579439.88516521 0 0 0 0 1101932.6071340293 -125015.99935221253 0 -125015.99935221253 -1330727.8845156711 0 0 0 0 -449639571.71263373 389509573.3677578 0 389509573.3677578 -114230959.39571381 0 0 0 0 2399373.295881452 6779172.0947859893 0 6779172.0947859893 6943373.5532432906 0 0 0 0 -8723752.1248397827 18589403.79810524 0 18589403.79810524 -6674097.1515769958 0 0 0 0 -12066236.907318115 10637297.013383865 0 10637297.013383865 -697557.25098419189 0 0 0 0 -7224913.5612030029 13035274.566942215 0 13035274.566942215 -9006175.2822113037 0 0 0 0 -463640537.37967455 137415123.5871138 0 137415123.5871138 -246795060.83190918 0 0 0 0 -462667401.73581314 648520340.6691761 0 648520340.6691761 -171604213.2317071 0 0 0 0 -3468896.0377807617 14839699.026941299 0 14839699.026941299 -845146.49043273926 0 0 0 0 -4628008.2089538574 15112359.929943085 0 15112359.929943085 -3635749.583814621 0 0 0 0 -3478953.7348480225 15623017.635149002 0 15623017.635149002 -3523147.0909194946 0 0 0 0 -9268362.3675460815 17028919.582930565 0 17028919.582930565 -2215219.8470115662 0 0 0 0 -7037569.2360305786 14049247.01706028 0 14049247.01706028 1669442.2667732239 0 0 0 0 -8195004.3931732178 14333099.135063171 0 14333099.135063171 -1705634.3479690552 0 0 0 0 -7553100.9348335266 13782189.932149887 0 13782189.932149887 -2434201.252456665 0 0 0 0 -5411626.4744949341 15565751.455542564 0 15565751.455542564 -3778680.8491706848 0 0 0 0 -6026301.950050354 14384965.643936157 0 14384965.643936157 -5461674.2993736267 0 0 0 0 -6790547.2334594727 16251955.421592712 0 16251955.421592712 -3261763.3588867188 0 0 0 0 -5640648.0377578735 18462793.789710999 0 18462793.789710999 -5580964.4265613556 0 0 0 0 -2734999.6115112305 16814532.400560379 0 16814532.400560379 -5683787.1728477478 0 0 0 0 -3504453.1014561653 17417814.981588125 0 17417814.981588125 -5102510.3307723999 0 0 0 0 -5603099.4678301811 20726623.272925854 0 20726623.272925854 -3090398.1186218262 0 0 0 0 -9632759.2943496704 21713314.170032501 0 21713314.170032501 -1955773.8575878143 0 0 0 0 -13928094.760795593 18550082.175455093 0 18550082.175455093 1451857.645986557 0 0 0 0 -8009262.2512054443 15098722.150876999 0 15098722.150876999 131434.5966835022 0 0 0 0 -8660600.3529663086 11775639.493587494 0 11775639.493587494 1522129.0076408386 0 0 0 0 -12397262.296051025 14748688.815611839 0 14748688.815611839 10873576.587917328 0 0 0 0 -18143075.170326233 23992782.12446022 0 23992782.12446022 10087853.501125336 0 0 0 0 -16136039.330505371 23687652.866128922 0 23687652.866128922 6959345.321685791 0 0 0 0 12453771.993087411 13055488.792620853 0 13055488.792620853 8699371.2788359374 0 0 0 0 -19042478.616893768 30131694.16144371 0 30131694.16144371 1063308.2007446289 0 0 0 0 -195670515.23460007 197518348.17102891 0 197518348.17102891 -12700893.197351456 0 0 0 0 2691226.8641819786 5232989.5177618992 0 5232989.5177618992 4882842.546690926 0 0 0 0 -12396494.700870514 26469220.127954483 0 26469220.127954483 -850647.8338470459 0 0 0 0 6599557.2381973267 20920149.819511414 0 20920149.819511414 -3983349.7606372833 0 0 0 0 -9342725.9853439331 15278077.625242233 0 15278077.625242233 4567502.8346328735 0 0 0 0 -1921881.0784225464 4186526.8903503418 0 4186526.8903503418 14261072.872484207 0 0 0 0 -7099560.8510398865 45437634.211128235 0 45437634.211128235 18610731.312870026 0 0 0 0 -15816597.356280327 19850954.007302761 0 19850954.007302761 35566751.565307617 0 0 0 0 23016743.285949707 -38665935.600543976 0 -38665935.600543976 73874769.601585388 0 0 0 0 -12015218.654563904 50107994.238739014 0 50107994.238739014 46178494.312929153 0 0 0 0 -2754236.9386367798 85085775.628129959 0 85085775.628129959 127699285.69761276 0 0 0 0 -4705538.6133880615 119784485.81155777 0 119784485.81155777 65584543.783048391 0 0 0 0 2890775.5537785031 3240797.3821112947 0 3240797.3821112947 1285819.4596404564 0 0 0 0 -241769740.46399689 214074869.31159592 0 214074869.31159592 757422917.83707047 0 0 0 0 7719568.0702667236 -138545269.45606804 0 -138545269.45606804 430668194.59552002 0 0 0 0 -1166397821.0858536 701274169.66778564 0 701274169.66778564 -73542468.981887817 0 0 0 0 -10879590.880500793 808284042.80377579 0 808284042.80377579 -252066547.84791565 0 0 0 0 2583396.773294244 -179499.81429204205 0 -179499.81429204205 -2656671.8506136332 0 0 0 0 -377515688.25741911 -206336728.96853375 0 -206336728.96853375 -126095348.32952499 0 0 0 0 1850892387.651886 -437780456.1489563 0 -437780456.1489563 -570022003.09739685 0 0 0 0 535587725.18654633 -814132743.60103226 0 -814132743.60103226 -364463927.71926498 0 0 0 0 2922154418.132019 1995009821.9236603 0 1995009821.9236603 2592512476.9687805 0 0 0 0 2111627.1160273924 -102891.14784831041 0 -102891.14784831041 -1926807.1414213646 0 0 0 0 52530496.63406086 -508452537.63056755 0 -508452537.63056755 -360179450.02846527 0 0 0 0 -71234488.274856567 -472927554.29652023 0 -472927554.29652023 525891080.47358704 0 0 0 0 -615924436.14712524 -457884576.11104584 0 -457884576.11104584 201940564.87910461 0 0 0 0 -638800376.92080688 -606851406.2807579 0 -606851406.2807579 -459228778.39295959 0 0 0 0 172135335.86620331 450270969.35086441 0 450270969.35086441 -638894473.03800964 0 0 0 0 159281415.90611267 568147464.80815125 0 568147464.80815125 164071182.68213844 0 0 0 0 -1029390628.5588989 -2470597958.4578533 0 -2470597958.4578533 -877049377.53948975 0 0 0 0 605874325.14051819 1071183838.558876 0 1071183838.558876 702413077.313797 0 0 0 0 1596644595.3081017 -328322356.35284328 0 -328322356.35284328 -10661400.618843079 0 0 0 0 4267728.15643318 202780.50549743418 0 202780.50549743418 -1442438.7802350016 0 0 0 0 370314200.23748016 650997140.12904358 0 650997140.12904358 1647524347.1821518 0 0 0 0 36917123.91708374 -635668860.42661285 0 -635668860.42661285 803087199.12918854 0 0 0 0 274532150.14766884 -70569932.003287315 0 -70569932.003287315 57228869.413291931 0 0 0 0 903171608.02017975 326037142.9452858 0 326037142.9452858 19939957.907669067 0 0 0 0 16807352.176889896 57353545.663784981 0 57353545.663784981 808331929.47342682 0 0 0 0 366337948.25569153 464504901.45771408 0 464504901.45771408 638500765.44062614 0 0 0 0 1957860738.1959 940113547.43100739 0 940113547.43100739 331006095.27419281 0 0 0 0 810935665.66181183 102780110.11630249 0 102780110.11630249 -105559023.61603165 0 0 0 0 736353212.00421906 -66383945.777816772 0 -66383945.777816772 -355398494.44107819 0 0 0 0 1198410009.9608345 2497234.7371520996 0 2497234.7371520996 -363864202.52047729 0 0 0 0 639824921.2278595 -172135793.03217506 0 -172135793.03217506 -359454655.67690277 0 0 0 0 507017419.51754761 209133673.13225555 0 209133673.13225555 -126056164.83099365 0 0 0 0 471207724.22593689 58900593.90826416 0 58900593.90826416 -143326923.46331787 0 0 0 0 352656927.91519165 39161929.835601807 0 39161929.835601807 -133643108.97220612 0 0 0 0 371925402.9553833 184160561.79742432 0 184160561.79742432 -121479763.30524158 0 0 0 0 388437636.06898499 -149580028.12683487 0 -149580028.12683487 -365927511.82707024 0 0 0 0 541270854.59554672 -40627098.386459351 0 -40627098.386459351 -338179910.17129517 0 0 0 0 545917366.00354767 -73653196.85552597 0 -73653196.85552597 -104719795.78871036 0 0 0 0 506026080.02032709 -59773403.437620401 0 -59773403.437620401 -184986503.40491486 0 0 0 0 489161960.44693756 -177527026.93547058 0 -177527026.93547058 -255497365.70258331 0 0 0 0 93135768.716934204 -97012471.911373138 0 -97012471.911373138 -161241169.16488266 0 0 0 0 -73221252.752434731 93712421.263375282 0 93712421.263375282 -86643638.002662659 0 0 0 0 305918695.05121613 78141911.796873093 0 78141911.796873093 -130879663.57305145 0 0 0 0 -154004005.5136795 74269471.06539917 0 74269471.06539917 -162988887.31443787 0 0 0 0 149442633.54375076 -25818633.242630005 0 -25818633.242630005 -148625736.45246887 0 0 0 0 -245417931.75519562 -340990240.5563488 0 -340990240.5563488 -89318372.546859741 0 0 0 0 461482088.64509964 -316755972.65074539 0 -316755972.65074539 -155489793.34758759 0 0 0 0 590489347.16893768 -167002253.43076706 0 -167002253.43076706 -258054563.72341394 0 0 0 0 
</DataArray>
<DataArray type="Float64" Name="cross_section_updated" format="ascii">
1 1 1 1 1 0.057285965996322331 1 1 1 1 1 1 1 0.05886260740227954 1 1 1 1 0.057246678252924857 1 1 0.063171162664673347 1 1 1 1 0.048712223430895693 1 1 1 1 0.052701798987238702 1 1 1 1 1 1 1 1 1 1 1 1 1 0.059772963645168271 1 1 0.060040659404015886 1 1 1 1 1 0.061694862786123329 1 1 1 1 1 1 1 0.047415742904067568 1 1 1 1 0.058843980912098255 1 1 1 1 1 1 1 1 1 0.059025566334967812 1 1 0.060560614175146403 1 1 0.066775544498845318 1 1 1 1 0.060852050802316662 1 1 1 1 1 1 1 0.059236311082831269 0.060002384821597955 0.059705959594679461 1 1 0.059843289607246816 1 1 1 1 1 0.059792554785756957 1 1 1 1 1 1 1 1 1 1 1 1 1 0.060205862887845255 1 1 1 0.059682659563166277 1 1 1 1 1 1 0.060000049551639387 1 1 1 1 1 1 1 1 1 1 1 1 1 1 1 1 1 1 1 1 1 1 1 1 1 0.059929702354591781 1 1 1 0.058680500695292875 1 1 0.059602845860362588 1 1 1 1 1 1 1 1 1 1 1 0.06011856287937288 1 1 1 1 1 1 1 1 0.060562916971139483 1 1 1 1 1 1 1 1 0.061569446635513995 1 1 1 1 1 1 1 1 1 0.059559426059957725 1 1 1 1 1 1 1 1 1 1 1 1 1 1 1 1 1 1 1 1 1 1 1 0.059996793768543846 1 1 1 0.046377836403500905 1 0.060101658365192753 1 0.05281790793379839 1 1 0.069201813165245846 1 1 1 0.063325439118411514 1 0.056341580856021416 1 0.060228285281908892 1 0.053136118194617131 0.055675979209425075 1 0.058184196058240628 1 1 0.057511907368418408 1 0.062593206443216129 1 1 1 0.058463029453222431 1 0.057083591560958422 0.059580492469874749 1 1 0.061586021698815802 1 1 1 0.058265259412842982 1 0.066594824788970761 0.064839010670885378 0.058606221389095089 1 0.060026804011389705 1 1 1 0.060041724548923911 1 0.063932896661862262 0.056159012043330063 0.059794421836463579 1 1 0.064110481835779498 0.063864762298319541 1 1 1 1 0.066058937092061176 1 0.059975873049709492 1 1 0.062137497978312251 1 1 1 0.058142229999958522 1 0.059416475292419169 0.057448076032067447 0.059387087227858237 1 1 1 0.060777287347129214 1 0.057940947068020714 0.064843626563703738 0.060289794992405776 0.063660187772622778 1 1 1 0.059309082746698799 0.05999875883540981 1 1 0.055669595009740724 0.063010584531059122 0.062268698712356511 1 0.061165803557457633 1 1 1 1 0.05999373712767575 1 1 1 1 1 1 1 0.061153034562081932 1 1 1 1 1 1 0.05976334177197707 0.059995911818069493 1 1 1 0.061375435885440421 1 1 1 0.059992609187375812 1 0.062993683583619578 1 0.054064324368494371 0.068007433785450933 1 1 1 1 0.06027138726175689 1 1 0.067249912915291143 1 1 1 1 0.059963546814840049 1 0.059988169254075518 1 1 1 1 1 0.054935521516586337 0.06578689641479854 1 1 1 1 1 1 1 1 0.059818652226973912 1 1 1 0.059492147979923915 1 1 0.05914333941034939 1 0.059999128793045788 1 1 1 1 1 1 1 1 1 1 1 0.068613427168474156 1 0.059263243225564491 1 0.066414821275705915 1 1 1 0.059096981031837754 1 0.060010562949990326 1 0.057217691608623333 1 1 1 1 1 1 0.063012933016195455 1 0.057221898406462517 1 1 1 0.062244736764077574 1 1 1 0.065103898367971424 1 0.05735268327076562 0.069943550142976249 1 1 1 1 0.0595145193526481 1 1 1 1 0.053382354217574923 0.068382247743391342 1 1 0.062537602127152564 1 0.061272471598991185 1 0.060473702374561386 0.061844390447470254 1 1 1 0.05998569904883784 1 1 1 1 0.054399989416222982 1 1 1 1 1 1 1 1 1 1 1 0.059991189977514854 1 1 1 1 0.064257771840000283 1 1 1 0.056307518442926759 1 0.06181310907990592 0.060069491221948594 0.059999716879445192 1 1 1 0.067331797951182326 0.053890455788913362 1 0.051768913839843646 1 1 0.058837296741854964 1 1 1 1 0.053174729413207819 1 1 1 1 1 1 1 1 1 1 1 0.05185224601276061 0.072673293112611004 1 1 0.05500603783754171 1 1 1 0.060011831127767451 1 1 1 1 1 1 0.067417080139007143 1 1 1 0.060761978537674205 1 1 1 0.059491773259679553 1 1 1 1 1 1 1 1 1 1 1 0.066719058468056924 1 1 1 0.065979943380205269 1 1 1 1 1 1 1 0.059352876247093969 1 1 1 1 1 0.058095504830955179 1 1 1 1 1 1 1 1 1 1 1 1 1 1 1 1 1 1 1 0.060443583312872001 1 1 1 1 0.060437875686286682 1 1 0.060213612846920062 1 1 1 1 1 1 1 0.060262505184320997 1 1 1 1 1 1 1 1 0.059988090299900952 1 0.060799128748368278 1 1 0.058329769372867574 1 1 1 0.059263195501458928 1 1 0.060428193990871355 1 1 1 0.057391027454112037 1 0.059098287239973062 1 1 0.060003437130855278 1 0.057255437889746921 1 1 1 1 1 1 1 1 1 1 1 1 1 1 1 1 1 1 1 1 1 1 0.05984647375787501 1 0.059317172083981719 1 0.059776648843045198 1 1 1 1 1 1 1 1 1 1 1 1 1 1 1 0.059915374759676218 1 1 1 1 1 1 1 1 1 0.059931098998198783 1 1 1 1 1 1 1 1 1 1 1 1 1 1 1 1 1 1 1 1 1 1 1 1 1 1 1 1 1 0.059950574315724925 1 1 0.060010658035576973 1 1 1 0.058582299108149015 0.063572172997103438 1 0.063220851130523337 1 1 1 1 1 0.058826898093101404 1 1 1 1 1 0.0590901968351559 1 1 1 1 1 1 1 1 1 1 1 1 1 1 1 1 1 1 1 1 1 1 1 1 1 1 1 1 1 1 1 1 1 1 1 1 1 1 1 1 1 1 1 1 1 1 1 1 1 0.06049460250739943 1 1 1 1 1 1 1 1 1 1 1 1 1 1 1 0.062584752468846844 1 1 1 1 0.061075385711331191 1 1 1 1 1 1 1 1 1 1 1 1 1 1 1 1 1 1 1 1 1 1 1 1 1 1 1 0.062449969295077887 1 1 0.059087338223182656 1 0.054629655255249904 0.061150117077320813 0.061619089556206083 0.070600057492282986 1 1 0.059965640080862234 1 1 1 1 1 1 1 1 1 1 1 1 1 1 1 1 1 0.053686174508486471 1 1 0.057219654776493302 1 0.063373755219118866 1 1 1 1 0.049146833064656954 1 0.060662190210689387 1 1 1 1 0.059930503555413066 1 1 1 0.060660721229328515 1 1 1 1 1 0.055804345150880792 1 0.061142154778917025 1 1 0.060618409748929486 0.063422809230654437 1 0.058820713364877861 1 1 1 1 1 1 1 1 1 1 1 0.050439433302563869 1 1 1 0.050750250319471384 1 1 1 0.063313492142229838 1 1 0.049722150544165039 0.059883290419336356 0.059950526618131272 1 1 1 1 1 1 1 1 1 1 1 0.059965818095350204 1 1 1 1 1 1 1 1 0.049941267933527142 0.043495045900443542 0.050171739661606651 1 1 1 1 1 1 1 1 0.046011300549414554 0.059919800361707611 1 1 1 0.062540470807107076 1 1 0.059167992648762366 1 1 1 1 1 1 1 1 1 1 1 0.059743432173798169 1 1 1 1 1 1 1 1 0.059705310543550494 1 1 1 1 1 1 1 1 1 1 0.06001837218475161 1 0.05954551746494087 0.056283290434239366 0.057954907827715868 1 1 1 1 1 1 1 0.049018285975039551 0.046205658447099472 1 0.06122869636912829 1 1 1 1 1 0.060992703947034946 1 0.059899624057669611 0.056439116421356218 1 1 1 0.056188721546466106 1 0.055783629324749159 1 1 1 1 0.059983334615515742 1 1 1 1 1 1 1 1 1 1 1 1 1 1 1 1 1 0.060959402265204354 1 1 1 0.059570114854489105 1 1 1 1 1 0.060457586907017101 1 1 1 1 1 1 0.059827002178829601 1 0.059953210647327719 1 1 1 1 1 1 1 1 0.059155446903422039 1 1 1 0.061384675206886188 1 1 1 1 1 1 1 1 1 1 1 1 1 1 1 1 1 1 1 1 1 1 1 1 1 0.058676067193086046 0.06179182092419061 0.071385887002852533 1 1 1 1 0.056412704420217868 1 1 1 1 0.054380334927547673 1 1 1 1 1 1 1 0.061024814172546293 1 1 1 1 1 1 1 1 0.061723600513462394 1 1 1 1 1 1 1 1 1 1 1 1 0.062669635907789678 1 1 1 1 1 1 0.06016827575148069 1 1 1 1 1 1 1 1 0.059934993262331225 1 1 1 0.067544064045881438 1 1 1 1 1 1 1 1 1 1 1 1 0.060698786340916105 1 1 1 1 1 1 1 1 1 1 1 1 1 1 1 1 1 1 1 1 1 1 1 1 1 1 1 1 1 1 1 1 1 1 1 1 1 1 1 1 1 1 1 1 1 1 1 0.059760587229051039 1 1 1 1 1 1 1 1 1 1 1 1 1 1 1 1 1 1 1 1 1 1 1 1 0.060669875347316542 1 1 1 1 1 1 1 1 1 1 0.059943975600214812 1 1 0.061876617900686104 1 1 1 1 1 1 1 1 1 0.059714448064592328 1 0.059384673489374547 1 1 1 1 0.062890697934814971 1 1 0.059654048196560804 1 0.058561731035523062 1 1 1 1 1 0.059252911887020171 1 1 1 1 1 1 1 1 0.060836815500856095 1 1 1 1 1 1 1 1 1 1 1 1 1 1 0.059234184790815346 1 0.060756124273606819 0.060089219504521355 1 1 1 1 1 0.060034055709026306 1 1 1 1 1 1 1 1 1 1 1 1 1 1 1 0.059995348080144568 1 1 1 1 1 1 1 1 1 1 1 1 1 1 1 1 0.059617259653721874 1 1 1 1 1 0.058453216182160879 0.0596588933720038 1 1 0.059436139835733572 1 1 1 1 1 1 1 1 1 1 0.059827912865640161 1 1 1 1 1 1 1 1 1 0.058552678059521017 1 0.083092837989773988 1 1 1 1 1 0.059108950979466154 1 1 1 1 0.08188632910846233 1 1 1 0.056715869026095649 1 1 1 0.076997337090627685 1 1 0.05946633517085903 1 1 1 1 1 1 1 1 1 1 1 1 1 1 1 1 0.059146912507437449 1 1 1 1 1 1 1 0.059829728267067929 1 1 1 1 1 1 1 1 1 1 1 1 1 1 1 1 1 1 1 1 1 1 1 1 1 1 1 0.077014957365406977 1 1 1 1 0.059819332998168842 1 1 1 0.042088766441412802 1 1 1 1 1 1 1 1 1 0.043730228560458093 1 0.060003457791615686 1 1 1 1 1 1 1 1 1 1 1 1 1 1 1 1 1 1 0.060016109685328306 0.071631904366720303 1 1 1 0.05855119818137796 1 1 0.066297829975835665 1 1 0.062606328169394362 1 1 1 0.059749162816495893 1 1 0.060938587427518953 1 1 1 1 1 1 1 1 1 1 1 1 1 1 1 1 1 1 1 1 0.059366422470217776 1 0.060626324644143324 1 1 1 1 1 1 1 1 1 1 1 0.060860607417936079 1 0.059746257233232306 1 1 1 0.047919648447886501 1 1 1 1 1 0.060043973543546812 1 1 1 1 1 1 0.051649647516004656 1 1 1 1 1 1 1 1 1 1 1 0.054594765411115478 1 1 1 1 1 1 1 1 0.04473265178824129 1 1 1 0.05147895689031462 1 1 0.057418162461583766 1 1 1 1 1 0.062456911910846978 1 1 1 1 1 1 1 1 1 0.0600005573032543 1 1 0.069400937148283409 1 0.065325930787775155 1 0.055908173607975092 0.063208538575424827 0.060715060393342013 1 0.059921042853640902 1 1 1 1 1 1 0.050728567555413093 1 1 1 1 1 1 0.060204927501747552 1 1 1 1 1 1 1 0.050036198675170687 1 1 1 1 0.049477392399652577 1 1 1 1 1 0.061276607612618203 1 0.059970904640850926 1 1 1 1 1 1 1 1 1 1 0.060525148620365045 1 1 1 1 1 1 1 0.057703682691914206 1 1 1 1 1 1 1 0.060005738576777934 1 0.06075745912543179 1 1 1 1 1 1 1 1 0.070569633084416467 1 1 1 0.072915787947689825 0.060048571609260019 1 1 1 1 1 0.06920003963841416 0.059990565378529655 1 0.067926173623377953 1 1 0.055383294138958018 1 1 0.056862509257175099 1 1 1 1 1 1 1 1 0.045180172305702829 1 1 1 1 1 0.086487576513878339 1 1 1 1 0.076976619353203823 1 1 0.075187769741548269 1 1 1 1 1 1 1 1 1 1 1 1 1 1 1 1 1 1 1 1 1 1 1 1 1 1 1 1 1 1 1 1 1 1 1 1 1 1 1 1 1 0.058955423800351403 1 1 0.060071470244710053 1 1 1 1 1 0.061398342523620593 1 1 1 1 0.059049915730390805 1 1 1 1 1 1 1 1 1 1 1 1 1 1 1 1 1 1 1 1 1 1 1 1 0.061231512425497077 1 1 1 0.060545204079829398 1 1 1 1 1 1 0.060113833133053102 1 1 1 1 1 1 1 1 1 1 1 0.066241355723741402 1 0.060122840062331075 0.06195498384698013 1 1 0.061938201085414361 1 1 1 1 1 1 1 1 1 1 1 0.068291655720514488 1 1 0.062867491801217076 1 1 1 1 1 1 1 1 1 1 1 1 1 1 1 0.065950523721124144 1 1 1 1 1 1 1 0.059930648780782504 1 0.061261966088173553 1 1 1 1 0.060673541990325271 1 0.059405765552083566 1 1 1 1 1 1 1 1 1 0.058207702455040138 1 1 1 1 1 1 1 1 1 1 1 1 1 1 1 1 1 0.059986983893979294 1 1 1 1 1 1 1 1 1 1 1 1 1 1 1 1 1 1 1 1 1 1 1 1 1 0.058718162676894142 0.059922354404790289 1 1 1 1 1 1 1 1 1 1 1 0.058255389398173152 1 1 1 1 0.055850820400185144 1 1 1 1 0.056807349165538805 1 1 1 1 1 1 1 1 0.062479067905255967 1 1 1 1 1 1 1 1 1 0.060451891642670154 1 1 1 1 1 1 1 1 1 1 1 1 1 1 1 1 1 1 1 1 0.031349185648399162 1 1 1 1 1 1 1 1 1 1 1 1 1 1 0.068487145513363296 1 0.060109061605038844 1 1 1 1 1 1 1 1 0.067358620103599304 1 1 0.060222894738091941 1 1 1 1 1 1 1 1 1 1 1 1 1 1 1 1 1 1 1 1 1 1 1 1 1 1 1 1 1 1 1 1 1 1 1 1 0.060120413996872131 1 1 0.060126864372463215 1 1 1 1 0.05518303915117246 1 0.062785556170286194 1 1 0.062065514619366768 1 0.061371933072857231 1 1 1 1 1 0.060589921707505129 1 1 1 1 1 1 1 1 1 1 1 1 0.051809275036110762 1 1 1 0.05444396705409639 1 1 1 1 1 1 1 1 1 0.064126190371530417 1 1 1 1 0.063435576227098056 0.056987734512119595 1 1 1 1 1 1 1 1 0.059941620306150842 1 1 1 1 1 0.074598652992406839 1 1 1 0.071427695442316891 1 1 1 0.032354068239592679 1 1 1 1 0.069406763970451979 1 1 1 1 1 1 1 1 1 1 1 1 1 1 0.050712701358984133 1 1 1 1 1 1 0.05692475295372873 1 0.050470384945090582 0.06000108105638987 1 0.057155799830824021 1 0.061979962582772025 1 1 1 1 0.059742915035397956 1 1 1 1 0.059295160088126395 1 1 1 1 1 1 1 1 1 0.060694834145180912 1 1 1 1 1 1 1 1 1 1 1 1 1 1 0.061476845510533021 1 1 1 0.060093918038914763 1 1 1 0.060238479698719601 1 0.060009804382656365 1 1 1 1 1 1 1 1 1 1 1 1 1 1 1 1 0.061420477214873648 1 1 1 1 1 1 0.06458426550333754 1 1 1 1 1 1 1 1 1 1 1 1 1 1 1 1 1 1 0.072538234403186422 1 1 1 1 1 1 1 1 1 1 1 1 1 1 1 1 1 1 1 1 1 1 1 1 1 1 1 1 1 1 1 1 1 1 0.058157709154525561 1 1 1 1 0.060178074828092926 1 1 1 1 1 1 1 0.069581607432382397 1 1 1 1 1 1 1 1 1 0.049120722814301812 1 1 0.07636305322148601 1 1 1 1 1 0.059975377753468805 1 1 1 0.057345760311573193 1 1 0.060566301024260069 1 1 1 1 1 1 1 1 1 1 1 1 1 1 1 1 1 1 1 1 0.048409049945501666 1 1 1 1 1 1 1 1 1 1 0.063982796114426366 0.047762528455245576 1 0.077136740779996368 1 1 1 1 1 0.078317292752500794 1 1 1 1 0.061881841109694968 1 1 1 1 1 0.059851145429861342 1 0.05984461818561055 1 1 0.057245670640531612 1 1 1 1 1 1 1 1 0.059079322627297343 1 1 1 1 1 1 0.060074462705788478 1 1 1 1 1 1 0.060307125711993648 1 1 1 1 0.0609206699264341 1 1 0.060010055753146427 1 0.061513807239007366 1 1 0.060003143551020016 1 1 1 1 1 1 0.060446839735692065 1 1 1 1 0.059986980371236218 1 1 1 1 1 1 1 1 0.060660970257504464 0.062176248310508345 1 1 1 1 1 1 1 1 0.059906733515481661 1 1 1 1 1 1 0.060011845994274268 1 1 1 1 1 1 1 0.060994949657515417 1 1 1 0.064280370305879547 1 1 1 1 1 1 1 1 1 1 1 1 0.055608203817159516 1 1 1 1 0.052964943517633201 1 1 0.063724565654863119 1 1 1 1 0.060541012731928995 1 1 1 0.06003836991054206 0.061398303679751333 1 1 1 0.059855389743710408 1 1 1 0.053541347113038311 1 1 1 1 1 1 1 1 1 0.061943324697023447 1 1 1 0.060017588971296616 1 1 1 1 1 1 1 1 1 1 1 1 0.059449032052354779 1 0.059962844681804926 1 1 0.049842816072053098 1 1 0.055050493289574537 1 1 1 1 1 1 1 0.06001367903217833 1 1 1 1 1 0.059978306038579933 1 0.048926137056217976 1 1 1 0.060771456084089105 0.060843076105780283 1 0.063769327370546525 0.05622917734266876 1 0.05537882308912502 1 1 1 1 1 1 0.060286522910357493 1 0.071550483384631838 1 1 1 1 1 1 1 1 1 1 1 1 1 0.059994005472220217 1 1 0.064166414153562279 1 0.060907209230728503 1 1 0.068249300998123208 1 1 1 0.061191282500022579 0.057045289037201616 1 1 0.069955579863769102 1 1 1 1 1 1 1 1 1 1 1 1 1 1 1 1 1 1 1 1 1 1 1 0.059068034746734811 0.059972138465027296 1 0.059798949247312112 1 0.060044549926461736 1 1 0.060000812273417685 0.060541184557523539 1 1 0.059998790708827715 1 1 0.060947806827816607 1 1 0.059582473904512691 1 0.059995277978908572 1 1 1 1 0.060020265734374009 1 1 1 1 0.059819935195800714 1 0.058685727178701227 0.060954505964034351 1 0.061398979481303656 1 1 0.059737883503455408 0.058757242194545894 1 1 1 0.060516311871956406 1 1 1 1 0.063939245963226365 0.059346214247626927 1 1 1 1 1 0.060157961378393174 1 1 1 1 1 1 1 1 1 1 1 0.06440822954219759 1 0.056870789603504342 1 0.052856325649650052 1 1 0.059999174052058964 1 0.053348598679827136 1 1 1 1 1 1 1 1 0.059131632308915681 1 1 0.061103525459458616 1 1 1 1 0.060000535486143682 1 1 1 1 1 1 1 1 1 1 1 1 0.058504623437003724 1 1 1 1 1 1 1 1 1 1 1 0.060092675835554339 1 1 1 1 1 1 0.060079711940941367 1 0.061530293466812741 1 1 0.060266508081398058 1 1 1 1 1 1 1 1 1 1 1 1 1 1 1 1 1 0.059649098201927549 0.058288760876539461 1 1 1 0.059903219583532785 1 1 0.057705716928092732 1 1 1 1 1 1 1 1 1 1 1 1 1 1 1 1 1 1 1 1 1 1 1 1 1 0.060004145753302561 0.051727722608143775 1 1 1 1 1 1 1 1 1 1 1 0.050993470345138805 1 1 1 1 1 1 1 1 1 1 1 1 1 1 1 1 1 1 1 1 1 1 1 1 1 1 1 1 1 1 1 1 1 0.059892693647655669 1 1 1 1 1 0.059926683652558106 1 1 0.060482134541257546 1 1 0.055489510114752755 0.073916831694178148 1 1 1 1 1 1 1 1 1 1 1 1 1 0.07196626275373888 1 1 0.060168762706020486 1 1 1 1 1 1 0.05999551142236513 1 1 0.069877943518042801 1 1 1 1 1 1 1 1 1 1 1 1 1 0.07046916800083293 1 1 1 1 1 1 1 0.059993924036810323 1 1 1 1 1 1 1 1 1 1 1 1 0.06012449596555889 1 1 0.060044784024617513 1 1 1 1 1 1 1 1 1 1 1 1 1 1 1 1 1 1 1 1 0.068334201882927589 1 1 0.060057230703307464 1 0.062278431818529705 1 1 1 0.059979251854378537 1 1 0.058027055037023371 1 0.066151584757620466 1 1 1 0.057495634060199377 1 1 1 1 0.059942581066350475 1 1 1 1 1 1 1 0.059849749148263021 1 1 1 0.0590256823127948 1 1 1 1 1 1 1 1 1 1 1 1 0.060777180108688364 1 1 1 1 1 1 1 1 0.060664323834721867 1 1 1 1 1 1 1 1 1 1 1 0.059003216981284627 1 1 1 1 1 1 1 1 1 1 1 1 1 1 1 1 1 1 1 0.061883602313977187 0.058607435919522631 1 1 1 0.059533315870060888 1 1 1 1 1 1 1 1 1 1 1 1 0.060095496831870349 1 1 1 1 1 1 1 1 1 0.060246710188025368 1 1 1 1 1 1 1 1 1 1 1 1 1 1 1 1 0.057167379656629005 1 0.059570964368947932 1 1 1 1 1 0.057790837073740574 1 1 1 1 0.060102048860449099 1 1 1 0.060016009563478849 1 1 1 0.05897291590503094 1 1 1 1 1 1 1 1 1 0.059445648475418694 1 1 1 0.058498386509105695 1 1 0.059824281465079496 1 1 1 1 1 1 0.059880481157065596 1 1 1 1 1 1 1 1 0.059836853400319412 1 1 1 0.059876533829034739 1 1 1 1 1 1 1 1 1 1 1 1 1 1 1 1 1 1 1 1 1 1 1 1 1 1 1 0.059395889790039041 1 1 1 1 1 1 1 0.059747583817272049 1 1 1 1 1 1 1 1 1 1 1 1 1 1 1 1 1 1 1 1 1 1 1 1 1 0.059926827481592906 1 0.059992899972486448 1 1 1 1 1 1 0.059653688818673382 1 1 1 0.060221464185187597 1 1 0.060608131001950075 1 1 1 1 1 1 1 1 1 1 1 1 0.03061061727113509 1 1 1 1 1 0.030574457089378622 1 1 1 1 1 1 1 1 1 1 1 1 1 0.059719761309566917 1 1 1 0.059353391373334285 1 1 1 1 1 1 1 1 1 1 1 1 0.058162567444228486 0.068365521616264011 1 1 1 1 0.067784593810454263 1 1 1 1 1 1 1 1 1 0.059934897321695005 0.057234470670320448 1 1 1 1 1 0.056403882712404846 1 1 1 1 1 0.059948321371175027 1 1 1 1 1 0.060022485915593782 1 0.051356310472181879 1 1 1 1 0.059616014930110192 1 0.058522759572650337 1 0.06592167374189499 0.060012644133553776 1 1 1 1 1 1 1 0.060069209657679187 0.059722553808495289 1 1 1 1 1 1 0.060003394886226587 0.064678305331397928 0.061320337309305681 1 0.05782141762260079 0.058010145922439936 1 1 1 0.061544166859339583 1 1 1 1 1 0.067908501651637282 0.059547738829661787 0.060000261345436963 1 0.063862257094500302 1 1 1 0.059968080872747367 1 0.061590645996366447 0.060211140069755434 1 1 1 1 1 1 1 0.059354336473632141 0.060358712980644838 1 1 0.061449042351772273 0.056789839664160888 0.063580763520353648 1 1 1 1 1 1 1 1 1 1 1 1 1 1 1 1 1 1 1 1 1 1 1 1 1 1 1 1 1 1 1 1 1 1 1 1 1 1 1 1 0.059965473014710759 1 1 1 1 1 1 1 1 1 1 0.059521676687701475 1 1 1 1 1 1 0.058494472706018305 1 1 0.056951594879582894 1 1 1 1 1 1 1 1 1 1 1 1 1 0.061184499707077566 1 0.063611974101839011 1 1 1 1 0.061185194528261086 1 1 1 0.067409960249845705 1 1 0.068566803281134556 1 1 1 0.059989129446902593 1 1 0.059947360621466605 1 1 1 1 1 0.059948503683559501 1 1 1 1 1 1 1 0.059977839639106238 1 1 1 1 1 1 1 0.069208359986331042 1 1 0.069605287789076625 1 1 1 1 0.059518609377812441 1 0.060231013100577172 1 1 1 1 1 0.05841736284863925 1 1 1 1 0.060801952509765007 1 1 1 1 1 1 0.062523314639282943 0.048415306019159839 1 1 1 1 1 0.069850654971245055 1 1 0.060965039245629397 1 1 1 1 1 1 1 1 1 1 0.061030097830128499 1 1 1 1 1 1 1 1 1 1 1 1 1 1 1 1 1 1 0.06033186035279757 1 1 1 1 1 1 0.05999490715034661 1 1 1 1 1 1 1 0.057456303412960208 0.060002152937332 1 1 1 1 0.059982023137810363 1 1 1 1 1 1 1 0.059718724419545011 1 1 0.051792978727130387 1 0.061408866166059124 0.066762304778659187 0.052920194474311455 1 1 1 1 1 1 0.053625811766968873 1 1 1 1 1 0.060003523743787271 1 1 1 1 0.054147614065877911 1 1 1 0.063643941046751876 1 1 1 0.063084166744396139 1 1 1 1 1 1 1 1 1 1 1 1 1 1 1 1 1 1 1 1 1 1 1 1 1 0.062219479302874907 1 1 1 1 1 1 1 0.060879703752176134 1 0.063080863448237295 1 1 1 1 1 1 0.070643652950567418 1 1 0.060991535472254804 1 1 1 0.059961725734775151 1 1 0.059044690931684074 1 1 1 1 1 0.059909946464158502 1 1 1 0.059972169101203301 0.059775553585448435 1 1 1 1 1 1 1 1 1 1 1 1 0.060726114568834408 1 1 1 1 1 1 1 1 1 0.062207130545550472 1 1 1 1 1 0.060075653492722751 0.054260816220430177 1 1 1 1 1 1 1 1 1 0.059246102211253975 1 1 1 1 1 1 1 1 0.056475463573820779 1 1 1 1 1 1 1 1 1 1 1 1 1 1 1 1 1 1 0.059096490186879791 1 1 1 1 0.058122172499674593 1 0.058832333189528872 1 0.059774747281355178 1 1 1 1 1 1 1 1 1 1 1 1 1 1 1 1 1 0.060022480408568418 1 1 1 1 1 0.057140937421081055 1 1 1 0.061535962879903469 0.055529613818345945 1 1 1 1 1 0.057517167016251855 1 1 1 1 0.059125643847599302 1 1 1 1 1 1 1 1 0.056744315176019203 1 1 1 1 1 1 1 0.057948983344154555 1 1 1 1 1 1 1 1 1 0.060230854784735423 1 1 1 1 1 1 1 1 1 1 1 1 1 1 1 1 1 1 0.059846221213824102 1 1 1 1 1 1 1 1 1 1 1 1 1 0.060316864469040755 1 1 1 1 1 1 0.060005793074508373 1 1 0.059960319571284684 1 1 0.060023978315316195 1 1 1 1 1 1 1 1 1 1 1 1 1 1 1 1 1 1 1 1 1 1 1 1 1 1 0.06003967231142876 1 0.058069371726136236 1 0.060001998285064154 0.060883067974669344 1 1 1 0.062228999397749368 1 1 1 1 1 1 1 1 1 0.059568704552553864 0.060935529148889389 1 0.073719951708977396 1 1 1 1 1 1 1 1 1 1 1 1 1 1 0.059998624929075657 1 0.0583003087774722 0.056690884727351218 1 0.065400697677010164 1 1 1 1 1 1 1 1 1 0.058099687763183819 0.059665822453371146 1 1 1 1 1 1 1 1 1 1 1 1 1 1 1 1 1 1 1 1 1 1 0.060996325634548244 1 1 1 1 1 0.059495890679162444 1 1 1 1 1 0.058324672075987391 1 1 1 0.063914984466691041 1 1 1 1 1 1 1 1 1 0.061412990278569626 1 1 1 1 0.073451357519287719 1 1 1 1 1 1 0.059104226831177262 1 1 1 1 1 1 1 0.059280002137031475 1 1 1 1 0.057961689548532785 1 1 1 1 1 1 1 1 1 1 0.060496946552474715 1 1 1 1 0.059019443814235559 1 1 1 0.068336237750699261 1 1 1 1 1 0.051173574277222848 1 1 1 1 1 1 1 1 1 1 1 1 1 1 0.057247480983948537 0.074036446178924992 1 1 0.068615767603961153 1 1 1 1 1 1 1 0.059079357558254768 1 1 1 1 1 1 0.058266344749309022 1 1 1 1 1 1 1 1 1 1 1 1 1 1 1 1 1 1 1 1 1 1 1 0.055482927375218219 1 1 1 1 1 1 1 1 0.060128514706368291 1 1 1 1 0.060772629555183304 1 1 1 1 1 0.053641378084999858 1 0.060030294752974937 1 0.062872384614090143 1 1 1 1 1 1 1 0.060008455636346589 1 1 1 0.058985444006040402 1 1 1 1 1 0.062409375023693849 1 1 1 1 1 0.060017127268007481 1 0.059998605981764278 1 1 0.060209503901982465 1 0.062601950802251671 1 1 1 1 1 0.058211580982627346 1 1 1 0.054542689930158816 1 1 1 1 1 1 1 1 1 1 0.060294534593142934 1 1 1 1 1 1 1 1 1 1 1 1 1 1 1 1 1 1 1 1 1 1 0.057629960479765083 1 1 1 1 1 1 1 1 1 1 1 1 1 1 1 1 1 1 0.053585216383796444 1 1 1 0.050410752321154252 1 1 1 1 1 1 0.068007222369076026 1 1 1 0.062503566951350273 0.062589376029754645 1 0.054767960977459278 1 0.061159441374105047 0.064771982524435098 1 0.064764974285609039 1 1 0.059995801927125531 1 1 0.060910377168543681 0.060042561755864331 1 1 1 1 1 1 1 1 0.059992056591320411 1 0.059997146825865245 1 1 1 1 1 1 1 1 1 1 1 1 1 1 1 1 1 1 1 1 1 1 0.064788561819586324 1 1 1 1 1 1 1 1 0.066675676589299321 1 1 0.060091270404152977 1 1 0.068453902315538023 0.060121480159759259 1 1 0.060039129443997662 1 1 1 1 1 1 1 1 1 1 1 1 1 1 1 1 1 1 1 1 1 1 1 1 1 1 1 1 1 1 1 1 1 1 1 1 1 1 1 0.067770831203598975 1 0.067688626353519271 1 1 1 1 1 1 1 1 1 1 1 1 1 1 1 1 1 1 1 1 1 1 1 1 1 1 1 1 1 1 1 1 1 1 1 1 1 1 1 1 0.057434922575494075 1 1 0.056399841686148297 1 1 1 1 1 0.060498217906578368 1 0.060129540857086765 1 1 0.058644887874345263 1 1 1 1 1 1 0.058488683621374667 1 1 1 1 1 1 1 1 1 1 1 0.05987271175590686 1 1 0.075230869800260503 0.067905356084886376 1 0.069022413830711601 1 1 0.052476420577382783 1 1 1 1 0.068300413653896649 1 1 1 1 1 1 1 1 1 0.059985908550265019 1 0.072864208947885992 1 1 1 1 1 1 1 0.059998266572041471 1 0.057355856325262314 1 1 1 1 1 1 1 1 1 0.060262380639900859 1 0.057977181683579182 1 1 1 1 1 1 1 1 1 1 0.060853991154667379 1 1 1 0.072047906870853787 1 1 0.05999710533478482 1 1 0.061904277508232047 1 1 1 1 0.061102219179869091 1 1 1 0.060018185240807834 1 1 1 1 1 1 1 1 1 1 1 1 1 1 0.060357272408796007 1 1 1 1 1 1 0.060261886871098375 1 0.059986559928041298 1 0.073588219883416933 1 1 1 0.060126472617026805 1 1 1 1 1 1 1 1 0.075456889296461341 1 1 1 1 1 0.059992540005899722 1 1 0.076680748663138135 1 1 1 1 1 1 1 1 1 0.065418867162649844 1 1 1 0.061828938226638125 1 1 1 1 1 1 0.06893561814846863 1 1 1 1 1 1 1 1 1 1 1 1 1 1 1 1 1 1 1 1 1 1 1 1 1 1 1 1 1 1 1 0.057553243895196997 1 1 1 1 1 0.059318209698379309 1 1 0.059933281716751004 0.057115947159151394 1 1 1 1 0.054416007770090286 1 1 1 1 1 0.060179724853231822 1 1 1 1 1 1 1 1 1 1 1 1 1 1 1 1 0.058918921967570072 1 1 1 1 1 1 1 1 0.058190278732677764 0.056487574857842789 1 1 1 1 1 1 0.058021513254281586 1 1 1 1 0.060918795834287824 1 1 1 1 1 1 1 1 1 1 1 1 1 1 1 1 1 1 1 1 1 1 1 1 0.0579669353730069 1 1 0.059332613445379989 1 1 1 1 1 1 1 1 1 1 1 1 1 1 1 1 1 1 1 1 1 1 1 1 1 1 1 0.059039403319130948 1 0.057989770522619152 1 1 1 1 1 0.056013870825546735 1 1 1 1 1 1 1 1 1 1 1 1 1 1 1 1 1 1 1 1 0.063404608887791272 0.057048200699195105 1 0.062007254644893796 1 1 1 1 1 1 1 1 1 1 1 1 1 1 1 1 0.060999388678146284 1 1 1 0.060290519563388177 1 1 1 1 1 1 1 1 1 1 1 1 1 0.058024100302927595 1 1 1 1 1 1 1 1 1 1 1 1 1 1 1 1 1 1 1 1 1 1 0.079925357576697151 1 1 1 1 1 1 1 1 1 1 1 1 1 0.077078599319646848 1 0.040910974300160267 1 1 0.064310579089577991 0.051543966327961953 1 1 1 1 1 1 1 1 1 1 1 1 1 1 1 1 1 1 1 1 0.060308730795856927 1 1 0.084188554265281615 1 1 1 0.060429716599480987 1 1 1 1 1 1 0.084964337047344241 1 1 1 0.06059734252577921 1 1 1 1 1 1 1 1 0.060023616046127652 1 1 0.053093978417066007 1 1 0.074183374797078372 1 0.071452125856984836 1 1 1 1 0.065110274790000019 0.074913140467506495 1 1 0.061202472356244091 0.074391027494217485 1 1 0.052626154031896341 1 1 1 1 0.05995026155953119 1 1 0.054239428093382336 0.050681911092675093 1 0.059982914090927382 1 1 1 1 1 1 1 1 1 1 1 1 1 1 1 1 1 1 1 1 0.054308936896983941 1 1 1 1 0.054724139061724623 1 1 1 1 0.059701702215646954 0.059536482724662908 1 1 1 1 1 1 1 1 1 1 1 1 0.059904362646106817 1 1 1 0.031930789395622217 1 1 1 1 1 1 1 0.034451835356165174 1 1 1 0.060832392394794717 1 1 0.06003096813304494 0.059926391823062031 1 1 1 0.038065524450315649 1 1 1 0.059974494305682816 1 1 1 1 1 1 1 1 1 1 1 1 1 1 1 1 1 1 0.05996313561927305 1 1 1 1 1 1 1 1 1 1 1 1 1 1 1 1 1 1 0.060082034336224381 0.059941994282291709 1 1 1 1 1 0.059997867429368294 0.06019830558030511 1 0.060110475770753756 1 1 1 1 1 1 1 1 1 0.071759882130082789 1 1 1 0.06990630135659448 1 1 1 1 1 1 1 1 1 1 1 1 1 1 0.072394497092947929 1 1 1 1 1 1 1 0.066174597508497926 1 1 0.068040430479447661 1 1 1 1 1 1 0.04958079664800967 1 1 1 1 0.050467103198894726 1 1 1 1 1 1 0.058872390345576987 1 1 1 1 1 1 1 1 0.060048468830023904 0.04880040223714429 1 1 1 0.060046224231111577 0.052234223854416395 1 1 1 1 1 0.060054246740584766 1 1 1 1 1 1 0.060907529711227863 1 1 1 1 0.059802203072156057 1 1 1 1 1 0.060304686015236225 1 1 1 1 0.058152037518865024 1 1 1 1 1 1 1 1 1 1 1 1 1 1 1 1 1 1 1 1 1 1 1 1 1 0.060108549229473521 1 1 1 1 0.065081319398403656 1 0.066228769226007345 1 0.066094903753723261 1 1 0.068133216224298826 1 1 0.053485568506393535 1 1 0.059063704843403897 1 1 1 1 1 1 0.059735454296149307 1 1 0.060780081486263418 1 0.061332687455366144 0.053013558519850082 0.061740887959222564 1 1 0.048129038767171187 1 0.060142797999093112 0.051812378778972011 1 1 1 0.057435895866089937 1 0.060028277502499672 1 1 1 1 1 1 0.060377180643826293 1 1 1 0.059972220642008356 1 1 1 1 1 1 1 0.062496235180281717 1 1 1 0.060981440627152786 1 0.058940778263807558 0.05942343714943478 1 1 1 1 1 1 1 0.058856043428967567 1 1 1 1 1 1 1 1 0.05974824903889582 0.061622164103825733 1 1 1 1 0.062075773915890559 1 1 0.06191093947346954 1 1 1 0.059999835941718684 1 1 1 0.061722882071076013 0.060003310272758965 1 1 1 1 0.059944765356557364 1 1 1 1 1 0.060403239459411187 0.061187527384160778 1 1 1 1 1 1 1 1 1 1 1 1 1 1 1 1 1 1 1 1 1 1 1 1 1 1 1 1 1 1 1 0.059481986527338174 1 1 1 0.060052666601831256 1 1 1 1 1 1 1 1 1 1 1 1 1 1 1 0.060743887575351249 1 0.06000560875096439 0.0581638223247768 1 1 0.061268318318916007 1 1 1 1 1 1 1 1 1 1 1 1 1 1 1 1 1 1 1 1 1 1 1 0.059913183799776934 1 1 0.061108812786530478 0.059981190355479108 1 1 1 1 1 1 1 0.060858957820726853 1 1 1 0.059385305790438034 1 1 1 1 0.059956503522209492 0.059983195818214513 1 1 1 1 1 1 1 0.061443162830237145 1 1 1 1 0.060940539057581386 1 1 1 1 0.060251009649998244 1 1 1 1 1 1 1 1 1 1 1 1 1 1 1 1 1 1 1 0.059607051652991815 1 1 1 1 1 1 1 1 1 1 1 1 1 1 1 1 0.060113033419388492 1 1 1 0.060002807026022641 1 1 1 1 1 1 1 1 1 0.06034690840197493 1 1 1 1 1 1 1 1 1 1 1 1 1 1 1 1 1 1 1 1 1 0.059792309709630127 1 1 1 1 1 1 1 1 1 1 1 1 1 1 1 1 1 0.059278055496977303 1 1 1 1 1 0.059947145549302541 1 1 1 1 1 1 1 1 1 1 1 1 1 1 1 1 1 1 1 1 1 1 1 1 1 1 1 0.0600728289350543 1 1 0.047362727639320985 1 1 1 0.04552338307503994 1 1 1 1 1 1 1 1 1 1 1 1 1 1 1 0.051098842143622855 1 0.058526282369067872 1 1 1 1 1 1 1 1 1 0.052817600862989707 1 1 1 1 1 1 1 1 1 0.058556813931720575 0.055422586000685128 1 1 1 1 1 1 1 1 1 1 1 1 1 1 1 1 1 1 1 1 1 1 1 1 1 1 1 1 1 1 1 1 1 1 1 1 1 1 1 1 1 1 1 1 1 1 1 1 1 1 1 1 1 1 1 1 1 1 1 1 1 1 1 1 1 1 1 1 1 1 1 0.058627557168139242 1 1 1 1 1 1 0.0562373916781281 1 1 1 1 1 1 1 1 1 0.05850317421970018 1 0.056166648441709432 1 1 1 1 1 1 1 1 1 1 1 1 1 1 1 1 1 1 1 1 1 1 1 1 1 1 1 1 1 1 1 1 1 1 0.061866537893334322 1 1 1 0.05919697396247954 0.05965611760661229 1 1 1 1 1 1 1 1 1 1 1 1 1 1 1 1 1 1 1 1 1 1 0.06061886072212079 0.059533410752451235 1 1 1 1 1 1 1 1 0.057488355716041065 1 1 1 1 1 1 0.056929315190972114 1 1 1 1 1 0.059398040504540846 1 1 1 1 0.059743007246584955 1 1 1 0.059884878219428776 1 1 1 0.059440098125619845 1 1 0.058404672682699846 1 1 1 1 1 1 1 1 1 1 1 1 1 0.059665391466112203 1 1 1 1 1 1 1 1 0.057964852109310405 1 1 1 1 1 1 1 1 1 1 1 0.061036138344014154 1 1 1 0.060317172240718406 1 1 1 1 0.058949906055329453 1 1 1 1 1 1 1 1 0.058417066422099401 1 0.063649284134117967 1 1 0.055399451766953003 1 1 1 1 1 0.062285504133235144 1 1 1 1 1 1 1 1 1 1 1 1 0.05949511019784931 1 1 1 1 1 1 1 1 1 0.058226490438935935 1 1 1 1 1 1 0.058939587465830168 1 1 1 1 1 1 1 0.059107137121429731 1 1 1 1 1 0.058602247319279023 1 1 1 1 1 1 1 1 1 1 1 1 1 1 1 1 1 1 1 1 1 1 1 1 1 1 1 1 1 1 1 1 1 1 1 1 1 1 1 1 1 1 1 1 1 1 1 0.060602493427605438 1 0.061496548730074575 1 1 1 1 1 1 1 1 1 1 1 1 1 1 0.059820256311203295 1 1 1 1 1 1 1 1 1 1 1 1 1 1 1 0.055427326671596111 1 1 0.060830373503281521 1 0.06353630450172075 1 1 1 1 1 0.062842908320602214 1 1 1 1 1 1 1 1 1 1 1 1 1 1 1 1 1 1 1 1 0.051413414002360339 1 1 1 1 1 1 1 1 1 1 1 0.050513903461454034 1 0.060092157869167204 1 1 0.049989487024601924 1 0.069871779005331716 1 1 1 1 1 1 1 0.059892989436928501 1 0.037593276617545933 1 1 1 1 0.031899111240892154 1 1 1 1 0.060299396983134683 0.053453891989082646 1 1 0.050756089697230874 1 1 1 1 1 1 1 1 1 1 1 1 1 1 1 1 0.05788794041554067 1 1 1 1 1 1 1 1 1 1 1 1 1 1 0.053825171226229845 1 0.059903243820657773 1 1 1 1 1 1 1 0.093199382762230581 1 0.089606401273949268 1 1 1 1 1 1 1 1 1 0.059830757971164668 0.026972748443617311 1 1 1 0.043684790847100252 1 1 1 1 0.070956984985677277 1 0.050243110698914108 1 1 0.06477064937873947 1 0.072858168582740551 0.07217162704634536 0.061253472363242564 1 1 0.060015388166504285 1 1 1 0.072856467104160078 0.048992122092507667 0.049033480471211907 1 1 1 1 1 1 1 1 1 1 1 0.053049854367793199 1 1 1 1 1 1 0.027103574812162388 1 1 1 0.060368846528966902 1 1 1 1 1 1 1 1 0.056337369337545275 1 1 1 0.058853843656414134 1 1 1 1 1 1 1 1 1 1 1 1 1 1 1 1 1 1 1 1 1 1 1 1 1 1 1 1 1 1 1 1 1 1 1 1 1 1 1 1 1 1 1 1 1 1 1 1 1 1 1 1 1 1 1 1 1 1 1 1 0.061339652842799096 1 1 1 1 1 0.063577288390667577 1 1 1 1 0.060781963713930715 1 1 1 0.066191865585895335 1 1 1 1 1 1 1 1 1 1 1 1 1 1 1 1 1 1 1 1 1 1 1 1 1 1 1 1 1 1 1 1 1 1 1 1 1 1 1 1 0.058722965565872261 1 1 0.056282575525888334 1 1 1 1 1 1 1 0.060494795057634346 1 1 1 1 1 1 1 1 1 1 1 0.061499953279200818 1 1 0.060028063515231357 1 0.062076515598312745 1 1 1 0.053963312541694772 1 1 1 1 1 1 1 1 0.059881318981255219 1 1 1 1 0.060663764261360803 1 1 1 1 0.052245213322607023 1 0.061407634579897313 1 1 1 1 1 1 1 1 1 1 1 1 0.052941005109090805 1 0.052451829189930438 1 1 1 1 1 1 1 1 1 1 1 1 1 0.060516994953763961 1 1 1 1 1 1 1 1 1 0.060895920186550198 1 1 1 0.060378925232786242 1 1 1 1 1 1 1 1 1 1 1 1 1 1 1 1 1 1 1 1 1 1 1 1 1 1 1 1 1 1 1 1 1 1 1 0.062769226755781726 1 1 0.05991163327333994 1 1 1 1 0.058446654473413129 1 1 1 1 1 1 1 1 1 1 1 1 1 1 1 0.061537830297435502 1 1 1 1 1 1 1 1 1 0.059108808680342836 1 0.060555175676952913 1 1 1 1 1 1 1 0.059605402042410188 1 1 1 1 1 1 1 1 1 1 1 1 1 1 0.059593751162771297 1 1 1 1 1 1 1 1 1 1 1 0.059323943471931401 1 1 1 1 1 1 1 1 1 1 1 1 1 1 1 1 1 1 1 1 1 1 1 0.059836539256493119 1 0.060594950543274573 1 1 1 1 1 1 0.053005510500550634 1 0.06151729645153596 1 1 1 0.052739883108396099 1 1 1 0.06863338429100499 1 1 1 0.052314087835987781 1 1 0.06621249425603562 1 1 1 1 1 1 1 0.062426615244300182 1 1 1 1 1 1 1 0.055891268793749435 1 1 1 1 1 1 1 1 1 1 1 1 1 0.057718097796537693 1 1 1 1 1 1 1 1 0.052878342866660835 1 1 1 1 1 1 1 1 1 1 1 1 1 1 1 1 1 1 1 1 0.058968252680258057 1 1 1 1 1 1 1 1 1 1 1 1 1 1 1 1 1 1 1 1 1 1 1 1 1 1 1 1 1 1 1 1 1 1 1 1 1 1 1 1 1 1 1 1 1 1 1 1 1 1 0.061074143684426555 1 0.054475692376090915 1 1 1 0.062522259236271027 1 1 0.059750852681604801 0.0525445593109099 1 0.062700598668662344 1 1 1 1 1 1 1 1 1 1 1 1 1 1 1 1 1 1 1 1 1 1 1 1 1 1 1 1 1 1 1 1 1 1 1 0.060159668964572997 1 1 1 1 0.060478702474231975 1 1 0.049490774887658302 1 1 1 0.059965390266017951 1 1 1 1 0.061978387158234192 1 0.059995108552700668 0.061405327741004392 1 1 1 1 0.062313961099167182 1 1 1 0.060549245120694935 1 1 1 0.06001866553160936 1 1 1 1 1 1 0.059772765845555298 1 1 1 1 1 1 1 1 1 1 1 1 1 1 1 1 1 1 1 1 0.060717001562977921 1 1 1 1 1 1 1 1 1 1 1 1 1 1 1 1 1 1 0.059283338243351573 1 1 0.05798820956594259 1 1 0.06514113892474363 1 1 1 1 1 1 1 1 1 1 1 0.056872149004374019 1 1 1 1 0.061090572402712581 1 1 1 1 0.059866455861440841 1 1 1 0.060876402666879229 1 1 1 1 1 1 1 1 1 1 1 1 1 1 1 1 1 1 1 1 1 1 1 1 1 0.058431845634101282 1 1 1 1 1 1 1 1 0.060875464407012018 1 1 1 0.063477628757658416 1 1 1 1 1 1 1 1 1 1 1 1 1 1 1 1 1 1 1 1 1 1 1 1 0.069610698844676785 1 1 1 0.055298245523057114 1 1 1 1 1 1 1 1 0.067535727694132838 1 1 0.05704047793885629 1 1 1 1 0.058989166969691621 1 1 1 1 1 1 1 0.071856323418493726 1 0.058551858335861996 1 1 0.05855974830421444 1 1 0.068870351418514705 0.060008393904941261 1 1 1 1 1 1 1 1 1 1 1 1 1 1 1 1 1 1 1 1 1 0.077672588917488253 1 1 1 1 0.074799706197411581 1 1 1 1 1 1 1 1 1 1 1 1 1 0.079145940085773581 1 1 0.06046725329726791 1 1 1 1 1 1 1 1 1 1 1 1 1 1 1 1 1 1 1 1 1 1 1 1 1 1 1 1 1 1 1 1 1 1 1 1 1 1 1 1 1 1 1 1 1 1 1 1 1 1 1 1 1 1 1 1 1 1 1 1 1 1 1 1 1 1 1 1 1 1 1 1 1 1 1 1 1 1 1 1 1 1 1 1 1 1 1 1 1 1 1 1 1 1 1 1 1 1 1 1 1 1 1 1 1 1 1 1 1 1 1 1 1 1 1 1 1 1 1 1 1 1 1 1 1 1 1 1 0.059474858054424359 1 1 1 1 1 1 1 0.061933692609969525 1 1 1 1 1 1 1 1 1 0.065516476298747101 1 0.052333810186380898 1 1 1 0.056781805657890982 1 1 0.056225134444009346 1 1 1 1 1 1 1 1 1 1 1 1 1 1 1 1 1 1 1 1 1 1 1 1 1 1 1 1 1 1 1 1 1 1 1 1 1 0.057768648979950453 1 1 0.055600833261174119 0.067577904043892509 1 1 0.060466796710576531 1 1 0.048787221074797688 1 1 1 0.051173450393204617 1 1 1 1 1 1 1 1 1 0.055467108217456637 1 1 1 1 1 1 0.058848215688492314 1 1 1 1 1 1 1 1 1 1 1 1 1 1 1 1 1 1 1 1 1 1 1 1 1 1 1 1 1 1 1 0.083488414053629584 1 1 1 1 1 1 1 1 1 1 1 1 1 1 1 1 1 1 1 1 1 1 1 1 1 1 1 1 1 1 1 1 1 1 1 1 1 1 1 1 1 1 1 1 1 1 0.046928836788786829 1 0.06313030971607933 1 1 1 1 0.060592754287673349 1 1 1 1 0.047731456636563717 1 1 1 1 0.060308526445515931 1 1 1 1 1 1 1 1 0.063348382645049467 1 1 0.061255311697289885 1 0.060101487934188236 1 1 1 1 0.063696509996125278 1 1 0.051949862925940941 0.068157348186508759 1 1 1 1 1 1 0.059914396806858713 1 1 1 1 1 1 1 1 1 1 0.052406129773430773 0.055537811986004035 1 1 1 1 1 0.053177056710449089 1 1 0.061380827360347563 1 1 1 1 0.06883958778778429 1 1 0.060026421421483234 1 1 1 1 1 1 1 1 1 1 1 1 1 1 1 1 1 1 1 1 1 1 1 1 1 1 1 1 1 0.059866616608256679 1 0.05995668377097034 1 1 1 1 1 1 1 1 1 1 1 1 1 0.060213364590785724 1 1 1 1 0.042565816197526918 0.03999354523944159 1 1 1 1 1 1 1 1 1 1 1 1 1 1 1 1 1 1 1 1 1 1 1 1 1 1 1 1 1 1 1 1 1 1 1 1 1 1 1 1 1 1 0.060427593509005804 1 1 1 0.060214228918220092 1 1 1 1 1 1 1 1 1 1 1 1 1 1 1 1 1 1 1 1 0.045138582343761349 1 1 0.047766002155340825 1 1 1 1 1 1 1 1 1 0.06001371780498517 1 1 1 1 1 0.048472295750819044 1 1 1 1 1 0.060078795917411831 1 0.059965182994756824 1 1 1 1 1 1 1 1 1 1 1 1 1 0.05755391543578265 1 1 1 0.062003773555566112 0.050518224424057567 1 1 1 1 1 1 1 1 0.060032323506599088 1 1 0.052432028403243923 1 1 0.060000286981187791 0.056525348084412418 1 1 1 1 1 0.060016110462939129 1 1 1 1 1 1 1 0.058691043876231849 1 1 0.056225201616221077 0.060401540639682498 1 1 1 1 1 1 0.059799716035387723 0.059971304441019176 1 1 1 0.059927907479533346 1 1 1 1 1 1 1 0.060703704136304562 1 1 1 1 1 1 1 1 1 1 1 1 1 1 1 1 1 1 1 1 1 1 1 1 1 1 0.022936122962982839 1 1 1 1 1 1 1 0.060303975629616868 1 1 1 1 1 1 1 1 1 1 1 0.031508073483657674 1 1 1 1 1 1 1 1 0.060578842293185602 1 1 1 1 1 1 1 1 1 1 1 1 1 1 1 1 0.060823531914230955 1 1 1 0.06032323540634435 1 1 1 1 1 0.062509289134454804 1 1 1 1 1 1 1 1 1 1 1 1 1 1 0.057540361952194252 1 1 1 1 0.052188057827353002 1 1 0.046095389611767727 1 1 1 1 1 0.059995664430858839 1 1 1 1 1 1 1 1 1 1 1 1 1 1 0.060666072612933039 1 0.072515635321061714 1 1 1 0.055152102231144598 1 0.040471139370863267 1 0.078150090426535562 1 1 1 1 1 1 0.060146894663525866 0.021712113786512388 1 1 1 1 1 1 0.024256214046913291 1 0.061226095558114216 1 1 1 1 1 1 1 1 1 1 1 1 1 1 1 1 1 0.072397983431332746 1 1 1 0.06015853257703721 0.069425091033571723 1 1 1 1 1 0.060667592205605081 1 1 0.06036442228696394 0.060126218893533395 1 1 1 1 1 1 1 1 1 1 1 1 1 1 1 1 1 1 1 1 1 1 1 1 1 1 1 1 1 1 1 1 1 1 1 1 1 1 1 1 1 1 1 1 0.073657126249707106 1 1 0.049897519943316399 0.054463127549196147 0.060050696601038567 1 1 1 1 1 1 0.060242605507467767 1 1 1 1 1 1 1 1 1 0.05990275012749495 1 1 1 0.068049187763650335 1 1 1 1 1 1 1 1 1 1 1 1 1 1 1 1 1 1 1 1 0.064115314921127098 1 1 1 1 0.061357564243571423 1 1 1 1 1 1 1 1 1 1 1 1 1 1 1 1 1 1 1 1 1 1 1 1 1 1 1 1 1 1 1 1 1 1 0.059417450577964888 1 0.059811417630075241 1 1 1 1 1 1 1 1 0.059859579174233193 1 1 1 0.057694587182669475 1 0.060048161544157944 1 1 1 1 1 1 1 1 0.041750153628865319 1 1 1 1 0.053672104946896219 1 1 1 1 0.054207465586215156 1 1 1 1 1 1 1 0.05238908156516299 1 1 1 1 0.056458752583652391 1 1 1 1 1 1 1 1 1 1 1 1 1 1 1 1 1 1 1 1 1 1 1 1 1 1 1 1 1 1 1 1 1 1 1 1 1 1 1 1 1 1 1 1 1 1 0.061002378827516281 1 1 1 1 0.060043573037897383 0.062681266067432989 1 1 0.065750689829166931 0.060399117746305332 1 1 1 1 1 1 1 1 1 1 1 1 1 1 1 1 1 1 1 0.060059296328405586 1 1 1 0.060702436169243264 0.060017166497301641 1 1 1 1 1 1 1 1 1 1 1 1 1 1 1 1 1 1 1 1 1 1 1 1 1 1 1 0.0601416949092939 1 1 1 1 1 1 1 0.059229108539312784 1 1 1 1 1 1 1 1 1 1 1 1 1 1 1 0.058194485851305072 1 1 1 1 1 1 1 1 0.060423501263728877 1 0.059451164505120217 0.061126337605773712 1 1 1 1 1 1 1 1 1 1 1 1 0.060255606886841249 1 1 1 1 1 1 1 1 1 1 1 1 1 1 1 1 1 1 0.064110166888853209 1 1 1 0.059539508237481178 1 1 1 1 1 1 1 1 0.059768485800342643 1 1 1 1 1 1 1 1 1 1 1 1 1 1 1 0.060999011073005857 1 1 1 0.06034549003480949 1 1 1 1 1 1 1 1 1 1 1 1 1 1 1 1 1 1 1 1 1 1 1 1 1 1 1 1 1 1 1 1 1 0.060269917984227449 1 0.060128460334200926 1 1 1 1 1 1 1 1 0.059968017291368164 1 1 1 1 1 1 1 1 1 0.05981646005732949 1 1 0.06058702697366191 1 1 1 1 1 0.060297196951929539 1 1 1 1 0.059962969523669682 1 1 1 1 0.059093425694360623 1 1 1 0.059231250137708254 1 0.058962879933954708 1 1 0.059271332985388933 1 1 1 1 1 1 1 1 1 1 1 1 1 1 0.059994421440552066 1 1 0.059986757164115667 1 0.060081815444349033 1 1 1 0.059909530045902985 1 1 0.057874217842970047 1 1 1 1 0.060692384753981005 1 0.06056604246847988 1 1 1 1 1 1 0.060207984804580811 1 0.060157336475463702 1 1 1 1 1 0.06604760626315874 1 1 1 1 0.060678043668873284 1 1 1 1 1 1 0.065494567998858985 1 1 1 1 1 1 1 1 1 1 1 1 1 1 1 1 1 1 1 1 1 1 1 1 1 1 1 1 1 1 1 1 1 0.060017878739990288 0.060013366964720379 1 1 1 1 1 1 1 1 1 1 0.066034122300818773 1 1 0.060656948349076589 0.064434702648399539 1 0.06000024620924211 1 1 1 1 1 1 1 0.065077327641169691 1 1 1 1 1 1 1 1 1 1 1 1 0.059409345086193471 1 1 1 1 0.059798296787581612 1 1 1 1 1 1 1 1 1 1 1 1 0.065427615694867963 1 1 1 1 1 1 1 1 1 1 1 1 1 1 1 1 1 0.06471111466667398 1 1 1 1 1 0.061424825734810569 1 1 1 0.062114127255124697 1 1 1 1 1 1 0.062236367245152552 1 0.066851663514592138 1 1 1 0.063953777833687761 1 1 1 1 1 1 1 1 1 0.071434672496155635 1 1 0.060060200747652406 1 1 1 1 1 1 1 0.061081645734867455 1 1 1 1 1 1 1 1 1 1 1 1 1 0.058545873380116256 1 1 0.061574774689139862 1 1 1 1 1 1 0.059971040226140193 1 1 1 1 1 1 0.075462125277539094 1 1 1 1 1 1 1 0.083153798167136098 1 1 1 1 1 1 1 1 1 1 1 1 1 1 1 1 1 1 1 1 1 1 0.061862241112139248 1 1 1 1 1 1 1 1 1 1 0.05881692073324591 1 1 1 1 0.057000220822552697 0.07073748303578517 1 1 1 1 0.068397617729428373 1 1 1 1 1 1 1 1 1 0.066093046063242442 1 1 1 1 1 1 1 1 1 1 1 0.066728540865884881 1 1 1 0.061004817418185038 1 1 1 0.06237831788397194 1 1 1 1 1 1 1 1 1 1 1 1 0.060886659509090862 1 1 1 1 1 0.060035545690676227 1 1 0.060093082938531731 1 1 1 1 1 1 1 1 1 1 1 1 1 1 0.059971234553418025 1 1 1 1 1 1 1 0.059549814061818612 1 1 1 0.058515525959441539 1 1 1 1 1 0.06011039484191303 1 1 1 1 1 1 1 1 1 0.060052857594057554 1 1 1 1 1 1 1 1 0.056950937998146996 1 1 1 1 1 0.060680678988797178 1 1 1 1 1 1 1 0.06024966284688308 1 1 1 1 1 1 1 1 1 1 1 1 1 1 1 1 1 1 1 1 1 1 1 1 1 1 1 1 1 1 1 1 1 1 1 1 1 1 1 1 1 1 1 1 1 1 1 1 0.060959405744839601 1 1 1 1 1 1 1 0.059994287030849927 1 1 1 1 1 1 1 1 1 1 1 1 1 1 1 1 1 1 1 1 1 1 0.060854717987127084 0.060224636015292703 1 1 0.060101416300433197 0.064063450425978705 1 1 1 1 1 1 1 0.065499751256829358 1 1 1 1 1 1 1 1 1 1 1 1 1 1 0.060354223475027405 1 1 1 1 1 1 1 1 0.060067732898015744 1 1 0.060074784485436884 1 1 1 0.06023206264865584 1 1 1 1 1 1 1 1 1 1 1 1 1 1 1 1 1 1 1 1 1 1 1 1 1 1 1 1 0.059726319154913152 1 1 1 1 1 1 1 1 0.060028155894751793 1 1 1 1 1 1 0.059029945124317737 0.060081447621461975 1 1 1 1 0.060295798957579208 1 1 0.059979669313726634 1 1 0.058602474835459467 1 1 1 1 1 1 0.059783032718016195 1 1 1 1 1 1 1 1 0.059970252319911974 1 1 1 1 1 1 1 1 1 1 1 0.059942948129918704 1 1 0.059972613278475036 1 1 1 1 1 1 1 0.058929164373534508 1 1 1 0.060272617837447952 1 0.061411374972814695 1 0.059356718056370418 1 1 1 1 1 1 1 1 1 1 1 1 1 1 1 1 1 0.065101075953398743 1 0.059996907574793097 1 1 1 1 1 1 1 1 1 1 0.063473251613558448 1 1 1 1 1 1 1 0.060321351404340348 1 1 1 0.059993143983390146 1 0.067777676434693984 0.059451779611493838 1 1 0.063333932297323148 1 1 1 1 0.068130693511239904 1 1 1 0.058599694444306863 1 1 1 0.06777932818779718 1 0.063801213856410285 0.071279104538904459 1 1 1 1 1 1 0.063769022376914397 1 1 1 1 1 1 1 1 0.061440284477559365 0.060002763789294269 0.059907224595366966 1 0.063887077211037008 1 1 0.064732481233332195 0.060001048752325821 1 1 0.0549900478740942 1 1 1 1 1 1 1 1 1 1 1 0.060014207933794028 1 1 1 1 1 1 1 1 1 1 1 1 1 0.055474974947422574 0.06012603840802426 1 1 1 1 0.057697447367670102 1 1 1 0.060955281528578167 1 1 1 1 1 0.059432039122144016 0.059999291648556975 1 1 1 0.060832810534650394 1 1 1 1 1 1 1 1 1 1 1 1 1 1 1 0.058840498197239063 1 1 1 0.06261447662632616 1 1 1 0.059342304706834069 1 1 1 1 1 1 0.071411332663475005 1 1 1 1 1 0.067430958210871236 1 1 1 1 1 1 1 1 0.059990818453692446 1 1 1 1 1 1 1 1 1 0.060464034446020581 1 1 1 1 0.059636227670807229 1 0.060059554435920662 1 1 0.058124988026868045 1 0.060941342755288584 1 1 1 1 1 1 0.060853980564747327 1 0.060002987181776421 0.067359165975223623 1 1 1 1 1 1 1 1 0.064099883627146859 1 0.05975669582194864 1 0.059962313925729128 1 0.068960072061484384 1 1 1 1 1 1 1 1 1 1 1 0.06005319225436264 1 1 1 0.059966797555082059 1 1 1 1 1 1 1 1 0.059913605300719416 1 1 1 1 1 1 1 1 1 0.05949612394720024 1 1 1 1 0.060746574700865252 1 1 0.062199956539519326 1 1 1 1 1 1 1 1 1 0.065596888096857042 1 1 1 0.063680902322612046 1 1 1 1 1 1 1 1 1 1 1 1 1 1 1 1 1 1 1 0.067862390068480119 1 1 1 1 1 1 1 1 1 1 0.060789969232721494 1 1 1 1 1 1 1 1 1 1 1 1 1 1 1 1 1 1 1 1 1 1 1 1 1 1 1 1 1 1 1 1 1 1 1 1 1 1 1 1 1 1 1 1 1 0.0607711185132674 0.060038489016071818 1 1 1 1 1 1 1 1 1 1 1 1 1 0.053832628836435331 0.056323935276114359 1 1 1 0.057895953217560428 1 1 0.067932579688534195 1 1 1 0.070755579690171391 1 1 1 0.062406484724374815 1 1 1 1 1 1 1 1 0.059987190345597213 1 1 0.060530851134900858 1 0.055727033707323674 0.058507094210915933 1 1 1 1 1 1 0.071441830783031804 1 0.05724938213971386 0.059985516285063961 0.060012660682349887 1 1 0.058522532852923942 1 1 0.070163112968451138 0.069617241286673973 1 1 1 1 1 1 1 1 1 1 1 1 1 1 1 1 1 1 1 1 1 0.06964497133249109 1 1 1 1 1 1 1 1 1 0.059518070496747053 1 1 1 1 1 1 1 0.060122000406400811 0.070626357542322604 1 1 1 1 1 1 1 1 1 1 1 1 1 1 1 1 1 1 1 1 1 1 1 0.060254132418481453 1 0.060002184533293715 1 1 1 1 1 1 1 0.062294478386234628 1 1 1 0.051988290804595653 0.069690958722900875 1 1 0.060958778638655148 1 1 1 1 0.051237002349409068 1 1 1 0.073954350612902467 1 1 1 0.05745843525408869 1 1 1 1 1 1 1 1 1 0.058137240008585396 0.060588293274584808 1 1 1 1 1 0.072474684324512484 1 1 0.046712586979498587 0.059146649159429535 0.052639578400216429 1 1 1 1 1 0.071336589176075146 1 1 1 1 1 1 1 1 1 0.059683059620023654 1 0.059865025225693841 1 1 1 1 1 1 1 1 1 1 1 1 1 1 1 1 1 1 1 1 1 1 1 1 0.061441868752915345 1 1 1 1 0.055859664297903094 0.064359283874157944 1 1 1 0.053146453147200123 1 1 1 1 1 1 1 1 1 1 1 1 1 1 1 1 0.081476709583202259 1 1 1 0.060056653400281781 1 1 0.061161522939218699 1 1 1 1 1 1 1 1 1 1 1 1 1 0.067229701901440592 1 1 0.075981434002628523 1 1 1 0.054571506193736442 1 0.05685523463609081 1 0.060278644250300648 1 0.059974496487819023 0.080346865573388243 0.060067756002822617 1 1 1 1 1 1 1 1 0.060320168351817881 1 1 1 1 1 1 1 1 0.077938830059091579 1 1 0.047357830934539026 1 1 1 1 1 1 1 1 1 1 1 1 1 1 1 1 1 1 1 1 1 0.054769926962252601 1 1 1 1 1 1 1 1 1 1 0.056742258467505732 1 0.050142730197056729 1 1 0.058385294115815833 1 0.063610602922850049 1 0.059969150115341131 1 1 0.060037407417883284 1 0.074200392105916391 1 1 0.056537739724607322 1 1 1 0.059496935915549574 1 1 1 1 1 1 1 1 1 1 1 1 1 1 1 1 1 1 1 1 1 1 1 1 1 1 1 1 1 1 1 1 1 1 1 1 1 1 1 1 1 1 1 1 1 1 1 1 1 1 1 1 1 1 1 1 1 1 1 1 1 0.065637581901095476 1 1 0.077536369786786963 1 1 1 1 1 1 0.057885379240580098 0.069955969094606524 1 1 1 1 1 1 1 1 1 1 1 1 1 1 1 1 1 1 0.072930972121924661 1 1 1 0.060221438694542766 1 1 1 1 1 1 1 1 1 1 1 1 1 1 1 1 0.059881670760658853 1 1 1 1 1 1 1 0.075401472527991287 1 1 1 1 1 1 1 1 0.071299947666901814 1 0.060356070310306986 1 1 1 1 1 1 1 1 1 1 1 1 1 1 1 1 0.060013316405128816 1 1 1 1 1 1 1 0.060020368063457091 1 1 1 1 0.060086281656570262 1 1 1 1 1 1 1 0.060270402149636498 1 1 0.049089561862035773 0.059962071809222944 1 1 0.062035300056160966 1 1 1 1 1 1 0.060012234278841996 1 1 1 1 1 1 1 1 1 0.060191451402673166 1 1 0.059950555140486722 1 1 0.059991089470842973 1 1 0.049400093065281703 1 1 1 1 1 0.050110045290324215 1 1 1 1 1 1 1 1 0.059491262862187741 1 1 1 1 1 1 1 0.058158490330064427 1 1 1 1 1 1 1 1 1 1 1 1 0.058883875356784111 1 1 1 1 1 1 1 0.060366252293542422 0.059954260739223456 1 0.057697864879720728 1 0.047285591981876096 1 1 1 1 1 1 1 1 1 1 1 1 1 1 1 0.060008884955959844 1 0.047309350416864258 1 1 1 1 1 1 1 1 0.058851096050062231 1 0.057789745335768007 1 0.051377415290928388 1 0.057896952079825495 1 0.060184110954481687 1 1 0.059703275299011052 1 1 1 1 1 0.058978087054473299 1 1 1 1 1 1 1 1 0.060106696165702522 1 1 1 1 1 0.060318885282591141 1 1 0.058199604236224986 1 0.061370405065369282 0.056453305926292122 1 1 1 1 1 1 1 1 0.059999909541916821 1 1 1 1 1 1 1 1 1 1 1 1 1 0.058544657517327521 1 1 1 1 1 1 1 0.059987113410009306 1 1 1 0.059987137056192887 1 1 1 1 1 1 1 1 1 1 1 1 1 1 1 1 1 0.060635602279201062 1 1 1 1 1 1 1 0.060222491129367117 1 1 0.059467710969072891 1 1 1 1 1 1 1 1 1 1 1 1 1 1 1 0.059638704457632148 1 1 1 1 0.06118875027202527 1 1 1 1 1 1 1 1 1 1 1 1 1 1 1 1 1 1 1 1 1 1 1 1 1 0.057503901415408482 1 1 1 1 1 1 0.059820200230621227 1 1 1 1 1 1 1 1 1 0.056985382870818349 0.059439769972902345 1 1 1 0.06193776909671278 1 0.060013692337787333 1 1 1 1 1 1 1 1 1 1 1 1 1 1 1 0.059809744362985681 1 1 1 1 1 1 1 1 1 1 1 1 0.06026013532599897 0.060494790503881138 1 1 1 1 1 1 1 1 0.059571219278467577 1 1 0.060058799729384202 1 1 0.057433622856889681 0.06209443258928344 1 1 1 1 1 1 1 0.059114159734797847 1 1 1 1 1 1 1 1 1 0.060234655177882165 1 1 1 0.059024396921606465 1 1 1 1 1 0.059379692772407081 1 1 1 1 1 1 1 1 1 1 1 1 0.059143528891858428 1 1 1 0.059995907248498237 1 1 1 0.060013415944165968 1 1 1 1 1 1 1 1 1 1 1 1 1 1 1 1 1 1 1 1 1 1 1 1 1 1 1 1 1 1 1 1 0.059296931963019037 1 1 1 1 1 1 1 1 1 1 1 1 1 1 1 1 1 1 1 1 1 1 1 1 0.06043169866921163 1 0.060034483977490082 1 1 0.051915051954415724 1 1 1 1 1 1 1 1 1 0.062491718414321634 1 1 1 1 1 1 1 1 1 1 1 1 1 1 0.05416998028146211 1 1 1 1 0.056594922434536427 1 1 1 0.058910468392737558 1 1 1 1 1 1 1 1 1 1 1 1 1 1 1 1 1 1 1 1 1 1 1 1 1 1 1 1 1 1 1 1 1 1 1 1 1 1 1 1 1 1 1 1 1 1 1 1 1 1 1 1 1 1 1 1 1 1 1 1 1 1 1 1 1 1 1 1 1 1 1 1 1 1 1 1 1 1 1 1 1 1 1 1 1 1 1 1 1 1 1 1 1 1 1 1 1 1 1 1 1 1 1 1 1 1 1 1 1 1 1 1 1 1 1 1 1 1 1 1 1 1 1 1 1 1 1 1 1 1 1 1 1 1 1 1 1 1 1 1 1 1 1 1 1 1 1 1 1 1 1 1 1 1 1 1 1 1 1 1 1 1 1 1 1 1 1 1 1 1 1 1 1 1 1 1 1 1 1 1 1 1 1 1 1 1 1 1 1 0.079006054815220522 1 1 1 1 1 1 1 1 1 1 1 1 1 1 1 1 0.061763025838598995 1 1 1 1 1 1 1 1 0.084252842256082816 1 1 1 1 0.058950311577387164 1 1 1 1 1 1 1 1 1 1 1 1 1 1 1 1 1 1 1 1 1 1 0.061282915656982399 1 1 1 1 1 1 1 1 1 1 1 1 1 0.056673163154635157 0.077324372118806856 1 1 1 1 1 0.071258249078343674 1 0.064616758036620647 1 1 1 1 1 1 1 1 1 1 1 0.064252705715123273 1 1 1 1 1 1 1 0.054465002594017667 1 1 1 1 1 1 1 1 1 1 1 1 1 1 1 0.060283273948824392 0.05584735615684866 1 1 1 1 1 1 1 1 1 1 1 1 0.062867934843021681 1 1 1 1 1 1 1 1 1 1 1 1 1 1 1 1 0.060975006204193272 1 1 1 1 1 1 1 0.055433026087108164 1 1 1 1 1 1 1 1 1 1 0.059952549275276476 0.051029696925113166 1 1 1 1 1 1 1 1 1 1 1 1 1 1 1 1 1 1 1 1 1 1 1 1 1 1 1 1 1 1 0.0623352900295625 1 1 1 1 1 0.062808415229761744 1 1 1 1 1 1 1 1 1 1 0.061222934903510426 1 1 1 1 0.059581502243042872 1 1 1 1 1 1 1 1 1 1 0.062550739493284574 1 0.060965259167033242 1 1 1 1 1 1 1 1 1 1 1 1 1 1 1 1 1 1 1 1 1 1 1 1 1 1 1 1 1 1 1 0.060120073224659565 1 1 1 1 1 0.060403347173483966 1 1 1 1 1 1 1 1 1 1 1 1 1 1 1 1 1 1 0.058986630711823279 1 1 0.038536857652177278 1 1 1 0.059667986635171172 1 1 1 1 1 0.048670956553591882 1 1 1 1 1 1 1 1 1 1 0.072011170161877469 1 1 1 1 1 1 0.060085393154654637 1 1 1 1 1 0.039128934530249147 0.059937397021207157 1 1 0.031692136965018117 1 1 0.060782593374055324 1 1 1 1 1 1 1 1 1 1 0.061988392052615207 1 1 0.061422416518670073 1 1 0.061949496179520322 1 1 0.0640921050167787 1 1 0.06037997586024571 1 1 0.06060407608826808 1 1 1 1 1 1 0.059583035873958787 1 1 1 1 1 1 1 1 1 1 1 0.029286146599721882 1 1 1 1 1 1 1 0.061192947834160308 1 1 1 1 0.057833967738441752 1 1 1 0.027650027488111309 1 1 1 1 1 1 1 1 1 1 1 0.053220401517717675 1 1 1 1 1 1 1 1 1 1 1 1 1 1 1 1 1 1 1 1 1 1 1 1 0.059988055175546548 1 1 1 1 1 0.060164130529782367 1 1 1 1 1 1 1 1 1 1 1 1 1 1 0.05973197686699034 1 1 0.05283433199784604 1 0.08296002289674248 1 1 1 1 0.090289935217569658 1 0.059228399872422746 0.040143637170757362 1 0.041372668030012286 1 1 1 1 1 1 1 0.06003543826946553 1 0.06341197850133852 1 1 1 1 1 1 0.059201666020787219 1 1 1 1 1 1 0.060135352624966061 1 1 1 1 0.060261962764941217 1 1 1 1 1 0.059959095401686729 1 1 0.060679565927697299 1 1 1 1 0.060041656612394245 1 1 1 1 0.063569978912870279 1 1 1 1 1 1 0.059766347067997154 1 1 1 1 1 1 1 1 1 0.060335164023001708 1 1 1 1 1 1 0.061387186565855879 1 1 1 1 0.063865421973890946 1 1 1 1 1 1 1 1 1 1 1 1 1 1 1 1 0.059806076045681278 1 1 1 0.058935082520095196 1 1 0.073274824443593109 1 1 1 1 1 1 1 1 1 1 1 1 1 1 1 1 0.05983556120157877 1 0.07116408149401679 1 1 1 1 1 1 1 1 1 1 1 1 1 1 1 1 1 1 1 1 1 1 1 1 1 1 0.081543153564866203 1 1 0.068692353633222389 1 1 1 1 1 1 1 1 1 1 0.064917997435526648 1 1 1 1 0.059930968634984212 1 1 1 1 0.060095407433405426 1 1 1 1 1 1 1 1 1 0.064062884103997297 1 1 1 1 1 1 1 1 1 1 1 1 1 1 1 1 1 1 1 1 1 1 1 1 1 1 1 1 
</DataArray>
</CellData>
</Piece>
</UnstructuredGrid>
</VTKFile>
